p cnf 9162 56830
429 0
425 430 0
-425 -430 0
430 431 0
-430 -431 0
431 432 0
-431 -432 0
432 433 0
-432 -433 0
215 434 0
-215 -434 0
434 435 0
-434 -435 0
435 436 0
-435 -436 0
436 437 0
-436 -437 0
220 438 0
-220 -438 0
438 439 0
-438 -439 0
439 440 0
-439 -440 0
440 441 0
-440 -441 0
433 437 441 442 0
433 437 -441 -442 0
433 -437 441 -442 0
433 -437 -441 -442 0
-433 437 441 -442 0
-433 437 -441 -442 0
-433 -437 441 -442 0
-433 -437 -441 -442 0
215 443 0
-215 -443 0
443 444 0
-443 -444 0
444 445 0
-444 -445 0
220 446 0
-220 -446 0
446 447 0
-446 -447 0
447 448 0
-447 -448 0
433 445 448 449 0
433 445 -448 -449 0
433 -445 448 -449 0
433 -445 -448 -449 0
-433 445 448 -449 0
-433 445 -448 -449 0
-433 -445 448 -449 0
-433 -445 -448 -449 0
425 450 0
-425 -450 0
450 451 0
-450 -451 0
451 452 0
-451 -452 0
452 437 448 453 0
452 437 -448 -453 0
452 -437 448 -453 0
452 -437 -448 -453 0
-452 437 448 -453 0
-452 437 -448 -453 0
-452 -437 448 -453 0
-452 -437 -448 -453 0
452 445 441 454 0
452 445 -441 -454 0
452 -445 441 -454 0
452 -445 -441 -454 0
-452 445 441 -454 0
-452 445 -441 -454 0
-452 -445 441 -454 0
-452 -445 -441 -454 0
442 449 453 454 -455 0
442 449 453 -454 455 0
442 449 -453 454 455 0
442 449 -453 -454 455 0
442 -449 453 454 455 0
442 -449 453 -454 455 0
442 -449 -453 454 455 0
442 -449 -453 -454 455 0
-442 449 453 454 455 0
-442 449 453 -454 455 0
-442 449 -453 454 455 0
-442 449 -453 -454 455 0
-442 -449 453 454 455 0
-442 -449 453 -454 455 0
-442 -449 -453 454 455 0
-442 -449 -453 -454 455 0
455 456 0
-455 -456 0
456 457 0
-456 -457 0
457 458 0
-457 -458 0
415 459 0
-415 -459 0
459 460 0
-459 -460 0
460 461 0
-460 -461 0
461 462 0
-461 -462 0
417 463 0
-417 -463 0
463 464 0
-463 -464 0
464 465 0
-464 -465 0
465 466 0
-465 -466 0
414 467 0
-414 -467 0
467 468 0
-467 -468 0
468 469 0
-468 -469 0
469 470 0
-469 -470 0
462 466 470 471 0
462 466 -470 -471 0
462 -466 470 -471 0
462 -466 -470 -471 0
-462 466 470 -471 0
-462 466 -470 -471 0
-462 -466 470 -471 0
-462 -466 -470 -471 0
417 472 0
-417 -472 0
472 473 0
-472 -473 0
473 474 0
-473 -474 0
414 475 0
-414 -475 0
475 476 0
-475 -476 0
476 477 0
-476 -477 0
462 474 477 478 0
462 474 -477 -478 0
462 -474 477 -478 0
462 -474 -477 -478 0
-462 474 477 -478 0
-462 474 -477 -478 0
-462 -474 477 -478 0
-462 -474 -477 -478 0
415 479 0
-415 -479 0
479 480 0
-479 -480 0
480 481 0
-480 -481 0
481 466 477 482 0
481 466 -477 -482 0
481 -466 477 -482 0
481 -466 -477 -482 0
-481 466 477 -482 0
-481 466 -477 -482 0
-481 -466 477 -482 0
-481 -466 -477 -482 0
481 474 470 483 0
481 474 -470 -483 0
481 -474 470 -483 0
481 -474 -470 -483 0
-481 474 470 -483 0
-481 474 -470 -483 0
-481 -474 470 -483 0
-481 -474 -470 -483 0
471 478 482 483 -484 0
471 478 482 -483 484 0
471 478 -482 483 484 0
471 478 -482 -483 484 0
471 -478 482 483 484 0
471 -478 482 -483 484 0
471 -478 -482 483 484 0
471 -478 -482 -483 484 0
-471 478 482 483 484 0
-471 478 482 -483 484 0
-471 478 -482 483 484 0
-471 478 -482 -483 484 0
-471 -478 482 483 484 0
-471 -478 482 -483 484 0
-471 -478 -482 483 484 0
-471 -478 -482 -483 484 0
484 485 0
-484 -485 0
485 486 0
-485 -486 0
219 487 0
-219 -487 0
487 488 0
-487 -488 0
488 489 0
-488 -489 0
489 490 0
-489 -490 0
423 491 0
-423 -491 0
491 492 0
-491 -492 0
492 493 0
-492 -493 0
493 494 0
-493 -494 0
420 495 0
-420 -495 0
495 496 0
-495 -496 0
496 497 0
-496 -497 0
497 498 0
-497 -498 0
490 494 498 499 0
490 494 -498 -499 0
490 -494 498 -499 0
490 -494 -498 -499 0
-490 494 498 -499 0
-490 494 -498 -499 0
-490 -494 498 -499 0
-490 -494 -498 -499 0
423 500 0
-423 -500 0
500 501 0
-500 -501 0
501 502 0
-501 -502 0
420 503 0
-420 -503 0
503 504 0
-503 -504 0
504 505 0
-504 -505 0
490 502 505 506 0
490 502 -505 -506 0
490 -502 505 -506 0
490 -502 -505 -506 0
-490 502 505 -506 0
-490 502 -505 -506 0
-490 -502 505 -506 0
-490 -502 -505 -506 0
219 507 0
-219 -507 0
507 508 0
-507 -508 0
508 509 0
-508 -509 0
509 494 505 510 0
509 494 -505 -510 0
509 -494 505 -510 0
509 -494 -505 -510 0
-509 494 505 -510 0
-509 494 -505 -510 0
-509 -494 505 -510 0
-509 -494 -505 -510 0
509 502 498 511 0
509 502 -498 -511 0
509 -502 498 -511 0
509 -502 -498 -511 0
-509 502 498 -511 0
-509 502 -498 -511 0
-509 -502 498 -511 0
-509 -502 -498 -511 0
499 506 510 511 -512 0
499 506 510 -511 512 0
499 506 -510 511 512 0
499 506 -510 -511 512 0
499 -506 510 511 512 0
499 -506 510 -511 512 0
499 -506 -510 511 512 0
499 -506 -510 -511 512 0
-499 506 510 511 512 0
-499 506 510 -511 512 0
-499 506 -510 511 512 0
-499 506 -510 -511 512 0
-499 -506 510 511 512 0
-499 -506 510 -511 512 0
-499 -506 -510 511 512 0
-499 -506 -510 -511 512 0
512 513 0
-512 -513 0
513 514 0
-513 -514 0
514 515 0
-514 -515 0
458 486 515 516 0
458 486 -515 -516 0
458 -486 515 -516 0
458 -486 -515 -516 0
-458 486 515 -516 0
-458 486 -515 -516 0
-458 -486 515 -516 0
-458 -486 -515 -516 0
484 517 0
-484 -517 0
517 518 0
-517 -518 0
518 519 0
-518 -519 0
512 520 0
-512 -520 0
520 521 0
-520 -521 0
458 519 521 522 0
458 519 -521 -522 0
458 -519 521 -522 0
458 -519 -521 -522 0
-458 519 521 -522 0
-458 519 -521 -522 0
-458 -519 521 -522 0
-458 -519 -521 -522 0
455 523 0
-455 -523 0
523 524 0
-523 -524 0
524 486 521 525 0
524 486 -521 -525 0
524 -486 521 -525 0
524 -486 -521 -525 0
-524 486 521 -525 0
-524 486 -521 -525 0
-524 -486 521 -525 0
-524 -486 -521 -525 0
524 519 515 526 0
524 519 -515 -526 0
524 -519 515 -526 0
524 -519 -515 -526 0
-524 519 515 -526 0
-524 519 -515 -526 0
-524 -519 515 -526 0
-524 -519 -515 -526 0
516 522 525 526 -527 0
516 522 525 -526 527 0
516 522 -525 526 527 0
516 522 -525 -526 527 0
516 -522 525 526 527 0
516 -522 525 -526 527 0
516 -522 -525 526 527 0
516 -522 -525 -526 527 0
-516 522 525 526 527 0
-516 522 525 -526 527 0
-516 522 -525 526 527 0
-516 522 -525 -526 527 0
-516 -522 525 526 527 0
-516 -522 525 -526 527 0
-516 -522 -525 526 527 0
-516 -522 -525 -526 527 0
425 528 0
-425 -528 0
528 529 0
-528 -529 0
529 530 0
-529 -530 0
530 531 0
-530 -531 0
215 532 0
-215 -532 0
532 533 0
-532 -533 0
533 534 0
-533 -534 0
534 535 0
-534 -535 0
220 536 0
-220 -536 0
536 537 0
-536 -537 0
537 538 0
-537 -538 0
538 539 0
-538 -539 0
531 535 539 540 0
531 535 -539 -540 0
531 -535 539 -540 0
531 -535 -539 -540 0
-531 535 539 -540 0
-531 535 -539 -540 0
-531 -535 539 -540 0
-531 -535 -539 -540 0
215 541 0
-215 -541 0
541 542 0
-541 -542 0
542 543 0
-542 -543 0
220 544 0
-220 -544 0
544 545 0
-544 -545 0
545 546 0
-545 -546 0
531 543 546 547 0
531 543 -546 -547 0
531 -543 546 -547 0
531 -543 -546 -547 0
-531 543 546 -547 0
-531 543 -546 -547 0
-531 -543 546 -547 0
-531 -543 -546 -547 0
425 548 0
-425 -548 0
548 549 0
-548 -549 0
549 550 0
-549 -550 0
550 535 546 551 0
550 535 -546 -551 0
550 -535 546 -551 0
550 -535 -546 -551 0
-550 535 546 -551 0
-550 535 -546 -551 0
-550 -535 546 -551 0
-550 -535 -546 -551 0
550 543 539 552 0
550 543 -539 -552 0
550 -543 539 -552 0
550 -543 -539 -552 0
-550 543 539 -552 0
-550 543 -539 -552 0
-550 -543 539 -552 0
-550 -543 -539 -552 0
540 547 551 552 -553 0
540 547 551 -552 553 0
540 547 -551 552 553 0
540 547 -551 -552 553 0
540 -547 551 552 553 0
540 -547 551 -552 553 0
540 -547 -551 552 553 0
540 -547 -551 -552 553 0
-540 547 551 552 553 0
-540 547 551 -552 553 0
-540 547 -551 552 553 0
-540 547 -551 -552 553 0
-540 -547 551 552 553 0
-540 -547 551 -552 553 0
-540 -547 -551 552 553 0
-540 -547 -551 -552 553 0
553 554 0
-553 -554 0
554 555 0
-554 -555 0
555 556 0
-555 -556 0
415 557 0
-415 -557 0
557 558 0
-557 -558 0
558 559 0
-558 -559 0
559 560 0
-559 -560 0
417 561 0
-417 -561 0
561 562 0
-561 -562 0
562 563 0
-562 -563 0
563 564 0
-563 -564 0
414 565 0
-414 -565 0
565 566 0
-565 -566 0
566 567 0
-566 -567 0
567 568 0
-567 -568 0
560 564 568 569 0
560 564 -568 -569 0
560 -564 568 -569 0
560 -564 -568 -569 0
-560 564 568 -569 0
-560 564 -568 -569 0
-560 -564 568 -569 0
-560 -564 -568 -569 0
417 570 0
-417 -570 0
570 571 0
-570 -571 0
571 572 0
-571 -572 0
414 573 0
-414 -573 0
573 574 0
-573 -574 0
574 575 0
-574 -575 0
560 572 575 576 0
560 572 -575 -576 0
560 -572 575 -576 0
560 -572 -575 -576 0
-560 572 575 -576 0
-560 572 -575 -576 0
-560 -572 575 -576 0
-560 -572 -575 -576 0
415 577 0
-415 -577 0
577 578 0
-577 -578 0
578 579 0
-578 -579 0
579 564 575 580 0
579 564 -575 -580 0
579 -564 575 -580 0
579 -564 -575 -580 0
-579 564 575 -580 0
-579 564 -575 -580 0
-579 -564 575 -580 0
-579 -564 -575 -580 0
579 572 568 581 0
579 572 -568 -581 0
579 -572 568 -581 0
579 -572 -568 -581 0
-579 572 568 -581 0
-579 572 -568 -581 0
-579 -572 568 -581 0
-579 -572 -568 -581 0
569 576 580 581 -582 0
569 576 580 -581 582 0
569 576 -580 581 582 0
569 576 -580 -581 582 0
569 -576 580 581 582 0
569 -576 580 -581 582 0
569 -576 -580 581 582 0
569 -576 -580 -581 582 0
-569 576 580 581 582 0
-569 576 580 -581 582 0
-569 576 -580 581 582 0
-569 576 -580 -581 582 0
-569 -576 580 581 582 0
-569 -576 580 -581 582 0
-569 -576 -580 581 582 0
-569 -576 -580 -581 582 0
582 583 0
-582 -583 0
583 584 0
-583 -584 0
219 585 0
-219 -585 0
585 586 0
-585 -586 0
586 587 0
-586 -587 0
587 588 0
-587 -588 0
423 589 0
-423 -589 0
589 590 0
-589 -590 0
590 591 0
-590 -591 0
591 592 0
-591 -592 0
420 593 0
-420 -593 0
593 594 0
-593 -594 0
594 595 0
-594 -595 0
595 596 0
-595 -596 0
588 592 596 597 0
588 592 -596 -597 0
588 -592 596 -597 0
588 -592 -596 -597 0
-588 592 596 -597 0
-588 592 -596 -597 0
-588 -592 596 -597 0
-588 -592 -596 -597 0
423 598 0
-423 -598 0
598 599 0
-598 -599 0
599 600 0
-599 -600 0
420 601 0
-420 -601 0
601 602 0
-601 -602 0
602 603 0
-602 -603 0
588 600 603 604 0
588 600 -603 -604 0
588 -600 603 -604 0
588 -600 -603 -604 0
-588 600 603 -604 0
-588 600 -603 -604 0
-588 -600 603 -604 0
-588 -600 -603 -604 0
219 605 0
-219 -605 0
605 606 0
-605 -606 0
606 607 0
-606 -607 0
607 592 603 608 0
607 592 -603 -608 0
607 -592 603 -608 0
607 -592 -603 -608 0
-607 592 603 -608 0
-607 592 -603 -608 0
-607 -592 603 -608 0
-607 -592 -603 -608 0
607 600 596 609 0
607 600 -596 -609 0
607 -600 596 -609 0
607 -600 -596 -609 0
-607 600 596 -609 0
-607 600 -596 -609 0
-607 -600 596 -609 0
-607 -600 -596 -609 0
597 604 608 609 -610 0
597 604 608 -609 610 0
597 604 -608 609 610 0
597 604 -608 -609 610 0
597 -604 608 609 610 0
597 -604 608 -609 610 0
597 -604 -608 609 610 0
597 -604 -608 -609 610 0
-597 604 608 609 610 0
-597 604 608 -609 610 0
-597 604 -608 609 610 0
-597 604 -608 -609 610 0
-597 -604 608 609 610 0
-597 -604 608 -609 610 0
-597 -604 -608 609 610 0
-597 -604 -608 -609 610 0
610 611 0
-610 -611 0
611 612 0
-611 -612 0
612 613 0
-612 -613 0
556 584 613 614 0
556 584 -613 -614 0
556 -584 613 -614 0
556 -584 -613 -614 0
-556 584 613 -614 0
-556 584 -613 -614 0
-556 -584 613 -614 0
-556 -584 -613 -614 0
582 615 0
-582 -615 0
615 616 0
-615 -616 0
616 617 0
-616 -617 0
610 618 0
-610 -618 0
618 619 0
-618 -619 0
556 617 619 620 0
556 617 -619 -620 0
556 -617 619 -620 0
556 -617 -619 -620 0
-556 617 619 -620 0
-556 617 -619 -620 0
-556 -617 619 -620 0
-556 -617 -619 -620 0
553 621 0
-553 -621 0
621 622 0
-621 -622 0
622 584 619 623 0
622 584 -619 -623 0
622 -584 619 -623 0
622 -584 -619 -623 0
-622 584 619 -623 0
-622 584 -619 -623 0
-622 -584 619 -623 0
-622 -584 -619 -623 0
622 617 613 624 0
622 617 -613 -624 0
622 -617 613 -624 0
622 -617 -613 -624 0
-622 617 613 -624 0
-622 617 -613 -624 0
-622 -617 613 -624 0
-622 -617 -613 -624 0
614 620 623 624 -625 0
614 620 623 -624 625 0
614 620 -623 624 625 0
614 620 -623 -624 625 0
614 -620 623 624 625 0
614 -620 623 -624 625 0
614 -620 -623 624 625 0
614 -620 -623 -624 625 0
-614 620 623 624 625 0
-614 620 623 -624 625 0
-614 620 -623 624 625 0
-614 620 -623 -624 625 0
-614 -620 623 624 625 0
-614 -620 623 -624 625 0
-614 -620 -623 624 625 0
-614 -620 -623 -624 625 0
527 625 -626 0
527 -625 626 0
-527 625 626 0
-527 -625 -626 0
218 627 0
-218 -627 0
218 628 0
-218 -628 0
627 628 -629 0
627 -628 629 0
-627 628 629 0
-627 -628 -629 0
223 630 0
-223 -630 0
223 631 0
-223 -631 0
630 631 -632 0
630 -631 632 0
-630 631 632 0
-630 -631 -632 0
224 633 0
-224 -633 0
224 634 0
-224 -634 0
633 634 -635 0
633 -634 635 0
-633 634 635 0
-633 -634 -635 0
225 636 0
-225 -636 0
225 637 0
-225 -637 0
636 637 -638 0
636 -637 638 0
-636 637 638 0
-636 -637 -638 0
275 639 0
-275 -639 0
639 640 0
-639 -640 0
640 641 0
-640 -641 0
641 642 0
-641 -642 0
276 643 0
-276 -643 0
643 644 0
-643 -644 0
644 645 0
-644 -645 0
642 645 646 0
642 -645 -646 0
-642 645 -646 0
-642 -645 -646 0
646 647 0
-646 -647 0
378 648 0
-378 -648 0
648 649 0
-648 -649 0
649 650 0
-649 -650 0
279 651 0
-279 -651 0
651 652 0
-651 -652 0
652 653 0
-652 -653 0
653 654 0
-653 -654 0
280 655 0
-280 -655 0
655 656 0
-655 -656 0
656 657 0
-656 -657 0
657 658 0
-657 -658 0
270 659 0
-270 -659 0
659 660 0
-659 -660 0
660 661 0
-660 -661 0
661 662 0
-661 -662 0
662 663 0
-662 -663 0
650 654 658 663 664 0
650 654 658 -663 -664 0
650 654 -658 663 -664 0
650 654 -658 -663 -664 0
650 -654 658 663 -664 0
650 -654 658 -663 -664 0
650 -654 -658 663 -664 0
650 -654 -658 -663 -664 0
-650 654 658 663 -664 0
-650 654 658 -663 -664 0
-650 654 -658 663 -664 0
-650 654 -658 -663 -664 0
-650 -654 658 663 -664 0
-650 -654 658 -663 -664 0
-650 -654 -658 663 -664 0
-650 -654 -658 -663 -664 0
664 665 0
-664 -665 0
278 666 0
-278 -666 0
666 667 0
-666 -667 0
667 668 0
-667 -668 0
277 669 0
-277 -669 0
669 670 0
-669 -670 0
670 671 0
-670 -671 0
668 671 672 0
668 -671 -672 0
-668 671 -672 0
-668 -671 -672 0
672 673 0
-672 -673 0
647 665 673 674 0
647 665 -673 -674 0
647 -665 673 -674 0
647 -665 -673 -674 0
-647 665 673 -674 0
-647 665 -673 -674 0
-647 -665 673 -674 0
-647 -665 -673 -674 0
674 675 0
-674 -675 0
272 271 -676 0
272 -271 676 0
-272 271 676 0
-272 -271 676 0
676 677 0
-676 -677 0
677 678 0
-677 -678 0
678 679 0
-678 -679 0
675 679 680 0
675 -679 -680 0
-675 679 -680 0
-675 -679 -680 0
269 681 0
-269 -681 0
681 682 0
-681 -682 0
682 683 0
-682 -683 0
683 684 0
-683 -684 0
684 685 0
-684 -685 0
268 686 0
-268 -686 0
686 687 0
-686 -687 0
687 688 0
-687 -688 0
688 689 0
-688 -689 0
689 690 0
-689 -690 0
648 691 0
-648 -691 0
691 692 0
-691 -692 0
667 693 0
-667 -693 0
693 694 0
-693 -694 0
694 658 654 -695 0
694 658 -654 695 0
694 -658 654 695 0
694 -658 -654 695 0
-694 658 654 695 0
-694 658 -654 695 0
-694 -658 654 695 0
-694 -658 -654 695 0
690 692 695 -696 0
690 692 -695 696 0
690 -692 695 696 0
690 -692 -695 696 0
-690 692 695 696 0
-690 692 -695 696 0
-690 -692 695 696 0
-690 -692 -695 696 0
696 697 0
-696 -697 0
697 698 0
-697 -698 0
698 645 699 0
698 -645 -699 0
-698 645 -699 0
-698 -645 -699 0
699 700 0
-699 -700 0
698 671 701 0
698 -671 -701 0
-698 671 -701 0
-698 -671 -701 0
701 702 0
-701 -702 0
640 703 0
-640 -703 0
698 703 704 0
698 -703 -704 0
-698 703 -704 0
-698 -703 -704 0
704 705 0
-704 -705 0
700 702 705 706 0
700 702 -705 -706 0
700 -702 705 -706 0
700 -702 -705 -706 0
-700 702 705 -706 0
-700 702 -705 -706 0
-700 -702 705 -706 0
-700 -702 -705 -706 0
706 707 0
-706 -707 0
685 707 708 0
685 -707 -708 0
-685 707 -708 0
-685 -707 -708 0
680 708 709 0
680 -708 -709 0
-680 708 -709 0
-680 -708 -709 0
709 710 0
-709 -710 0
275 711 0
-275 -711 0
711 712 0
-711 -712 0
712 713 0
-712 -713 0
713 714 0
-713 -714 0
276 715 0
-276 -715 0
715 716 0
-715 -716 0
716 717 0
-716 -717 0
714 717 718 0
714 -717 -718 0
-714 717 -718 0
-714 -717 -718 0
718 719 0
-718 -719 0
378 720 0
-378 -720 0
720 721 0
-720 -721 0
721 722 0
-721 -722 0
279 723 0
-279 -723 0
723 724 0
-723 -724 0
724 725 0
-724 -725 0
725 726 0
-725 -726 0
280 727 0
-280 -727 0
727 728 0
-727 -728 0
728 729 0
-728 -729 0
729 730 0
-729 -730 0
270 731 0
-270 -731 0
731 732 0
-731 -732 0
732 733 0
-732 -733 0
733 734 0
-733 -734 0
734 735 0
-734 -735 0
722 726 730 735 736 0
722 726 730 -735 -736 0
722 726 -730 735 -736 0
722 726 -730 -735 -736 0
722 -726 730 735 -736 0
722 -726 730 -735 -736 0
722 -726 -730 735 -736 0
722 -726 -730 -735 -736 0
-722 726 730 735 -736 0
-722 726 730 -735 -736 0
-722 726 -730 735 -736 0
-722 726 -730 -735 -736 0
-722 -726 730 735 -736 0
-722 -726 730 -735 -736 0
-722 -726 -730 735 -736 0
-722 -726 -730 -735 -736 0
736 737 0
-736 -737 0
278 738 0
-278 -738 0
738 739 0
-738 -739 0
739 740 0
-739 -740 0
277 741 0
-277 -741 0
741 742 0
-741 -742 0
742 743 0
-742 -743 0
740 743 744 0
740 -743 -744 0
-740 743 -744 0
-740 -743 -744 0
744 745 0
-744 -745 0
719 737 745 746 0
719 737 -745 -746 0
719 -737 745 -746 0
719 -737 -745 -746 0
-719 737 745 -746 0
-719 737 -745 -746 0
-719 -737 745 -746 0
-719 -737 -745 -746 0
746 747 0
-746 -747 0
272 271 -748 0
272 -271 748 0
-272 271 748 0
-272 -271 748 0
748 749 0
-748 -749 0
749 750 0
-749 -750 0
750 751 0
-750 -751 0
747 751 752 0
747 -751 -752 0
-747 751 -752 0
-747 -751 -752 0
269 753 0
-269 -753 0
753 754 0
-753 -754 0
754 755 0
-754 -755 0
755 756 0
-755 -756 0
756 757 0
-756 -757 0
268 758 0
-268 -758 0
758 759 0
-758 -759 0
759 760 0
-759 -760 0
760 761 0
-760 -761 0
761 762 0
-761 -762 0
720 763 0
-720 -763 0
763 764 0
-763 -764 0
739 765 0
-739 -765 0
765 766 0
-765 -766 0
766 730 726 -767 0
766 730 -726 767 0
766 -730 726 767 0
766 -730 -726 767 0
-766 730 726 767 0
-766 730 -726 767 0
-766 -730 726 767 0
-766 -730 -726 767 0
762 764 767 -768 0
762 764 -767 768 0
762 -764 767 768 0
762 -764 -767 768 0
-762 764 767 768 0
-762 764 -767 768 0
-762 -764 767 768 0
-762 -764 -767 768 0
768 769 0
-768 -769 0
769 770 0
-769 -770 0
770 717 771 0
770 -717 -771 0
-770 717 -771 0
-770 -717 -771 0
771 772 0
-771 -772 0
770 743 773 0
770 -743 -773 0
-770 743 -773 0
-770 -743 -773 0
773 774 0
-773 -774 0
712 775 0
-712 -775 0
770 775 776 0
770 -775 -776 0
-770 775 -776 0
-770 -775 -776 0
776 777 0
-776 -777 0
772 774 777 778 0
772 774 -777 -778 0
772 -774 777 -778 0
772 -774 -777 -778 0
-772 774 777 -778 0
-772 774 -777 -778 0
-772 -774 777 -778 0
-772 -774 -777 -778 0
778 779 0
-778 -779 0
757 779 780 0
757 -779 -780 0
-757 779 -780 0
-757 -779 -780 0
752 780 781 0
752 -780 -781 0
-752 780 -781 0
-752 -780 -781 0
781 782 0
-781 -782 0
710 782 -783 0
710 -782 783 0
-710 782 783 0
-710 -782 -783 0
226 784 0
-226 -784 0
226 785 0
-226 -785 0
784 785 -786 0
784 -785 786 0
-784 785 786 0
-784 -785 -786 0
227 787 0
-227 -787 0
227 788 0
-227 -788 0
787 788 -789 0
787 -788 789 0
-787 788 789 0
-787 -788 -789 0
656 790 0
-656 -790 0
790 791 0
-790 -791 0
791 792 0
-791 -792 0
668 793 0
-668 -793 0
793 794 0
-793 -794 0
652 795 0
-652 -795 0
795 796 0
-795 -796 0
796 797 0
-796 -797 0
792 794 797 798 0
792 794 -797 -798 0
792 -794 797 -798 0
792 -794 -797 -798 0
-792 794 797 -798 0
-792 794 -797 -798 0
-792 -794 797 -798 0
-792 -794 -797 -798 0
694 799 0
-694 -799 0
799 800 0
-799 -800 0
654 801 0
-654 -801 0
801 802 0
-801 -802 0
792 800 802 803 0
792 800 -802 -803 0
792 -800 802 -803 0
792 -800 -802 -803 0
-792 800 802 -803 0
-792 800 -802 -803 0
-792 -800 802 -803 0
-792 -800 -802 -803 0
658 804 0
-658 -804 0
804 805 0
-804 -805 0
805 794 802 806 0
805 794 -802 -806 0
805 -794 802 -806 0
805 -794 -802 -806 0
-805 794 802 -806 0
-805 794 -802 -806 0
-805 -794 802 -806 0
-805 -794 -802 -806 0
805 800 797 807 0
805 800 -797 -807 0
805 -800 797 -807 0
805 -800 -797 -807 0
-805 800 797 -807 0
-805 800 -797 -807 0
-805 -800 797 -807 0
-805 -800 -797 -807 0
798 803 806 807 -808 0
798 803 806 -807 808 0
798 803 -806 807 808 0
798 803 -806 -807 808 0
798 -803 806 807 808 0
798 -803 806 -807 808 0
798 -803 -806 807 808 0
798 -803 -806 -807 808 0
-798 803 806 807 808 0
-798 803 806 -807 808 0
-798 803 -806 807 808 0
-798 803 -806 -807 808 0
-798 -803 806 807 808 0
-798 -803 806 -807 808 0
-798 -803 -806 807 808 0
-798 -803 -806 -807 808 0
808 809 0
-808 -809 0
809 810 0
-809 -810 0
810 811 0
-810 -811 0
274 812 0
-274 -812 0
812 813 0
-812 -813 0
813 814 0
-813 -814 0
642 814 815 0
642 -814 -815 0
-642 814 -815 0
-642 -814 -815 0
813 816 0
-813 -816 0
816 817 0
-816 -817 0
703 817 818 0
703 -817 -818 0
-703 817 -818 0
-703 -817 -818 0
815 818 -819 0
815 -818 819 0
-815 818 819 0
-815 -818 819 0
819 820 0
-819 -820 0
820 821 0
-820 -821 0
644 822 0
-644 -822 0
822 823 0
-822 -823 0
823 671 824 0
823 -671 -824 0
-823 671 -824 0
-823 -671 -824 0
670 825 0
-670 -825 0
825 826 0
-825 -826 0
645 826 827 0
645 -826 -827 0
-645 826 -827 0
-645 -826 -827 0
824 827 -828 0
824 -827 828 0
-824 827 828 0
-824 -827 828 0
828 829 0
-828 -829 0
829 830 0
-829 -830 0
830 831 0
-830 -831 0
811 821 831 832 0
811 821 -831 -832 0
811 -821 831 -832 0
811 -821 -831 -832 0
-811 821 831 -832 0
-811 821 -831 -832 0
-811 -821 831 -832 0
-811 -821 -831 -832 0
819 833 0
-819 -833 0
833 834 0
-833 -834 0
834 835 0
-834 -835 0
828 836 0
-828 -836 0
836 837 0
-836 -837 0
811 835 837 838 0
811 835 -837 -838 0
811 -835 837 -838 0
811 -835 -837 -838 0
-811 835 837 -838 0
-811 835 -837 -838 0
-811 -835 837 -838 0
-811 -835 -837 -838 0
808 839 0
-808 -839 0
839 840 0
-839 -840 0
840 821 837 841 0
840 821 -837 -841 0
840 -821 837 -841 0
840 -821 -837 -841 0
-840 821 837 -841 0
-840 821 -837 -841 0
-840 -821 837 -841 0
-840 -821 -837 -841 0
840 835 831 842 0
840 835 -831 -842 0
840 -835 831 -842 0
840 -835 -831 -842 0
-840 835 831 -842 0
-840 835 -831 -842 0
-840 -835 831 -842 0
-840 -835 -831 -842 0
832 838 841 842 -843 0
832 838 841 -842 843 0
832 838 -841 842 843 0
832 838 -841 -842 843 0
832 -838 841 842 843 0
832 -838 841 -842 843 0
832 -838 -841 842 843 0
832 -838 -841 -842 843 0
-832 838 841 842 843 0
-832 838 841 -842 843 0
-832 838 -841 842 843 0
-832 838 -841 -842 843 0
-832 -838 841 842 843 0
-832 -838 841 -842 843 0
-832 -838 -841 842 843 0
-832 -838 -841 -842 843 0
728 844 0
-728 -844 0
844 845 0
-844 -845 0
845 846 0
-845 -846 0
740 847 0
-740 -847 0
847 848 0
-847 -848 0
724 849 0
-724 -849 0
849 850 0
-849 -850 0
850 851 0
-850 -851 0
846 848 851 852 0
846 848 -851 -852 0
846 -848 851 -852 0
846 -848 -851 -852 0
-846 848 851 -852 0
-846 848 -851 -852 0
-846 -848 851 -852 0
-846 -848 -851 -852 0
766 853 0
-766 -853 0
853 854 0
-853 -854 0
726 855 0
-726 -855 0
855 856 0
-855 -856 0
846 854 856 857 0
846 854 -856 -857 0
846 -854 856 -857 0
846 -854 -856 -857 0
-846 854 856 -857 0
-846 854 -856 -857 0
-846 -854 856 -857 0
-846 -854 -856 -857 0
730 858 0
-730 -858 0
858 859 0
-858 -859 0
859 848 856 860 0
859 848 -856 -860 0
859 -848 856 -860 0
859 -848 -856 -860 0
-859 848 856 -860 0
-859 848 -856 -860 0
-859 -848 856 -860 0
-859 -848 -856 -860 0
859 854 851 861 0
859 854 -851 -861 0
859 -854 851 -861 0
859 -854 -851 -861 0
-859 854 851 -861 0
-859 854 -851 -861 0
-859 -854 851 -861 0
-859 -854 -851 -861 0
852 857 860 861 -862 0
852 857 860 -861 862 0
852 857 -860 861 862 0
852 857 -860 -861 862 0
852 -857 860 861 862 0
852 -857 860 -861 862 0
852 -857 -860 861 862 0
852 -857 -860 -861 862 0
-852 857 860 861 862 0
-852 857 860 -861 862 0
-852 857 -860 861 862 0
-852 857 -860 -861 862 0
-852 -857 860 861 862 0
-852 -857 860 -861 862 0
-852 -857 -860 861 862 0
-852 -857 -860 -861 862 0
862 863 0
-862 -863 0
863 864 0
-863 -864 0
864 865 0
-864 -865 0
274 866 0
-274 -866 0
866 867 0
-866 -867 0
867 868 0
-867 -868 0
714 868 869 0
714 -868 -869 0
-714 868 -869 0
-714 -868 -869 0
867 870 0
-867 -870 0
870 871 0
-870 -871 0
775 871 872 0
775 -871 -872 0
-775 871 -872 0
-775 -871 -872 0
869 872 -873 0
869 -872 873 0
-869 872 873 0
-869 -872 873 0
873 874 0
-873 -874 0
874 875 0
-874 -875 0
716 876 0
-716 -876 0
876 877 0
-876 -877 0
877 743 878 0
877 -743 -878 0
-877 743 -878 0
-877 -743 -878 0
742 879 0
-742 -879 0
879 880 0
-879 -880 0
717 880 881 0
717 -880 -881 0
-717 880 -881 0
-717 -880 -881 0
878 881 -882 0
878 -881 882 0
-878 881 882 0
-878 -881 882 0
882 883 0
-882 -883 0
883 884 0
-883 -884 0
884 885 0
-884 -885 0
865 875 885 886 0
865 875 -885 -886 0
865 -875 885 -886 0
865 -875 -885 -886 0
-865 875 885 -886 0
-865 875 -885 -886 0
-865 -875 885 -886 0
-865 -875 -885 -886 0
873 887 0
-873 -887 0
887 888 0
-887 -888 0
888 889 0
-888 -889 0
882 890 0
-882 -890 0
890 891 0
-890 -891 0
865 889 891 892 0
865 889 -891 -892 0
865 -889 891 -892 0
865 -889 -891 -892 0
-865 889 891 -892 0
-865 889 -891 -892 0
-865 -889 891 -892 0
-865 -889 -891 -892 0
862 893 0
-862 -893 0
893 894 0
-893 -894 0
894 875 891 895 0
894 875 -891 -895 0
894 -875 891 -895 0
894 -875 -891 -895 0
-894 875 891 -895 0
-894 875 -891 -895 0
-894 -875 891 -895 0
-894 -875 -891 -895 0
894 889 885 896 0
894 889 -885 -896 0
894 -889 885 -896 0
894 -889 -885 -896 0
-894 889 885 -896 0
-894 889 -885 -896 0
-894 -889 885 -896 0
-894 -889 -885 -896 0
886 892 895 896 -897 0
886 892 895 -896 897 0
886 892 -895 896 897 0
886 892 -895 -896 897 0
886 -892 895 896 897 0
886 -892 895 -896 897 0
886 -892 -895 896 897 0
886 -892 -895 -896 897 0
-886 892 895 896 897 0
-886 892 895 -896 897 0
-886 892 -895 896 897 0
-886 892 -895 -896 897 0
-886 -892 895 896 897 0
-886 -892 895 -896 897 0
-886 -892 -895 896 897 0
-886 -892 -895 -896 897 0
843 897 -898 0
843 -897 898 0
-843 897 898 0
-843 -897 -898 0
232 899 0
-232 -899 0
232 900 0
-232 -900 0
899 900 -901 0
899 -900 901 0
-899 900 901 0
-899 -900 -901 0
234 902 0
-234 -902 0
234 903 0
-234 -903 0
902 903 -904 0
902 -903 904 0
-902 903 904 0
-902 -903 -904 0
235 905 0
-235 -905 0
235 906 0
-235 -906 0
905 906 -907 0
905 -906 907 0
-905 906 907 0
-905 -906 -907 0
243 908 0
-243 -908 0
243 909 0
-243 -909 0
908 909 -910 0
908 -909 910 0
-908 909 910 0
-908 -909 -910 0
236 911 0
-236 -911 0
911 912 0
-911 -912 0
912 913 0
-912 -913 0
913 914 0
-913 -914 0
228 915 0
-228 -915 0
915 916 0
-915 -916 0
916 917 0
-916 -917 0
917 918 0
-917 -918 0
245 919 0
-245 -919 0
919 920 0
-919 -920 0
920 921 0
-920 -921 0
921 922 0
-921 -922 0
914 918 922 923 0
914 918 -922 -923 0
914 -918 922 -923 0
914 -918 -922 -923 0
-914 918 922 -923 0
-914 918 -922 -923 0
-914 -918 922 -923 0
-914 -918 -922 -923 0
228 924 0
-228 -924 0
924 925 0
-924 -925 0
925 926 0
-925 -926 0
245 927 0
-245 -927 0
927 928 0
-927 -928 0
928 929 0
-928 -929 0
914 926 929 930 0
914 926 -929 -930 0
914 -926 929 -930 0
914 -926 -929 -930 0
-914 926 929 -930 0
-914 926 -929 -930 0
-914 -926 929 -930 0
-914 -926 -929 -930 0
236 931 0
-236 -931 0
931 932 0
-931 -932 0
932 933 0
-932 -933 0
933 918 929 934 0
933 918 -929 -934 0
933 -918 929 -934 0
933 -918 -929 -934 0
-933 918 929 -934 0
-933 918 -929 -934 0
-933 -918 929 -934 0
-933 -918 -929 -934 0
933 926 922 935 0
933 926 -922 -935 0
933 -926 922 -935 0
933 -926 -922 -935 0
-933 926 922 -935 0
-933 926 -922 -935 0
-933 -926 922 -935 0
-933 -926 -922 -935 0
923 930 934 935 -936 0
923 930 934 -935 936 0
923 930 -934 935 936 0
923 930 -934 -935 936 0
923 -930 934 935 936 0
923 -930 934 -935 936 0
923 -930 -934 935 936 0
923 -930 -934 -935 936 0
-923 930 934 935 936 0
-923 930 934 -935 936 0
-923 930 -934 935 936 0
-923 930 -934 -935 936 0
-923 -930 934 935 936 0
-923 -930 934 -935 936 0
-923 -930 -934 935 936 0
-923 -930 -934 -935 936 0
936 937 0
-936 -937 0
937 938 0
-937 -938 0
938 939 0
-938 -939 0
226 940 0
-226 -940 0
940 941 0
-940 -941 0
941 942 0
-941 -942 0
942 943 0
-942 -943 0
227 944 0
-227 -944 0
944 945 0
-944 -945 0
945 946 0
-945 -946 0
946 947 0
-946 -947 0
218 948 0
-218 -948 0
948 949 0
-948 -949 0
949 950 0
-949 -950 0
950 951 0
-950 -951 0
943 947 951 952 0
943 947 -951 -952 0
943 -947 951 -952 0
943 -947 -951 -952 0
-943 947 951 -952 0
-943 947 -951 -952 0
-943 -947 951 -952 0
-943 -947 -951 -952 0
787 953 0
-787 -953 0
953 954 0
-953 -954 0
627 955 0
-627 -955 0
955 956 0
-955 -956 0
943 954 956 957 0
943 954 -956 -957 0
943 -954 956 -957 0
943 -954 -956 -957 0
-943 954 956 -957 0
-943 954 -956 -957 0
-943 -954 956 -957 0
-943 -954 -956 -957 0
784 958 0
-784 -958 0
958 959 0
-958 -959 0
959 947 956 960 0
959 947 -956 -960 0
959 -947 956 -960 0
959 -947 -956 -960 0
-959 947 956 -960 0
-959 947 -956 -960 0
-959 -947 956 -960 0
-959 -947 -956 -960 0
959 954 951 961 0
959 954 -951 -961 0
959 -954 951 -961 0
959 -954 -951 -961 0
-959 954 951 -961 0
-959 954 -951 -961 0
-959 -954 951 -961 0
-959 -954 -951 -961 0
952 957 960 961 -962 0
952 957 960 -961 962 0
952 957 -960 961 962 0
952 957 -960 -961 962 0
952 -957 960 961 962 0
952 -957 960 -961 962 0
952 -957 -960 961 962 0
952 -957 -960 -961 962 0
-952 957 960 961 962 0
-952 957 960 -961 962 0
-952 957 -960 961 962 0
-952 957 -960 -961 962 0
-952 -957 960 961 962 0
-952 -957 960 -961 962 0
-952 -957 -960 961 962 0
-952 -957 -960 -961 962 0
962 963 0
-962 -963 0
963 964 0
-963 -964 0
244 965 0
-244 -965 0
965 966 0
-965 -966 0
966 967 0
-966 -967 0
967 968 0
-967 -968 0
235 969 0
-235 -969 0
969 970 0
-969 -970 0
970 971 0
-970 -971 0
971 972 0
-971 -972 0
234 973 0
-234 -973 0
973 974 0
-973 -974 0
974 975 0
-974 -975 0
975 976 0
-975 -976 0
968 972 976 977 0
968 972 -976 -977 0
968 -972 976 -977 0
968 -972 -976 -977 0
-968 972 976 -977 0
-968 972 -976 -977 0
-968 -972 976 -977 0
-968 -972 -976 -977 0
905 978 0
-905 -978 0
978 979 0
-978 -979 0
902 980 0
-902 -980 0
980 981 0
-980 -981 0
968 979 981 982 0
968 979 -981 -982 0
968 -979 981 -982 0
968 -979 -981 -982 0
-968 979 981 -982 0
-968 979 -981 -982 0
-968 -979 981 -982 0
-968 -979 -981 -982 0
244 983 0
-244 -983 0
983 984 0
-983 -984 0
984 985 0
-984 -985 0
985 972 981 986 0
985 972 -981 -986 0
985 -972 981 -986 0
985 -972 -981 -986 0
-985 972 981 -986 0
-985 972 -981 -986 0
-985 -972 981 -986 0
-985 -972 -981 -986 0
985 979 976 987 0
985 979 -976 -987 0
985 -979 976 -987 0
985 -979 -976 -987 0
-985 979 976 -987 0
-985 979 -976 -987 0
-985 -979 976 -987 0
-985 -979 -976 -987 0
977 982 986 987 -988 0
977 982 986 -987 988 0
977 982 -986 987 988 0
977 982 -986 -987 988 0
977 -982 986 987 988 0
977 -982 986 -987 988 0
977 -982 -986 987 988 0
977 -982 -986 -987 988 0
-977 982 986 987 988 0
-977 982 986 -987 988 0
-977 982 -986 987 988 0
-977 982 -986 -987 988 0
-977 -982 986 987 988 0
-977 -982 986 -987 988 0
-977 -982 -986 987 988 0
-977 -982 -986 -987 988 0
988 989 0
-988 -989 0
989 990 0
-989 -990 0
990 991 0
-990 -991 0
939 964 991 992 0
939 964 -991 -992 0
939 -964 991 -992 0
939 -964 -991 -992 0
-939 964 991 -992 0
-939 964 -991 -992 0
-939 -964 991 -992 0
-939 -964 -991 -992 0
962 993 0
-962 -993 0
993 994 0
-993 -994 0
994 995 0
-994 -995 0
988 996 0
-988 -996 0
996 997 0
-996 -997 0
939 995 997 998 0
939 995 -997 -998 0
939 -995 997 -998 0
939 -995 -997 -998 0
-939 995 997 -998 0
-939 995 -997 -998 0
-939 -995 997 -998 0
-939 -995 -997 -998 0
936 999 0
-936 -999 0
999 1000 0
-999 -1000 0
1000 964 997 1001 0
1000 964 -997 -1001 0
1000 -964 997 -1001 0
1000 -964 -997 -1001 0
-1000 964 997 -1001 0
-1000 964 -997 -1001 0
-1000 -964 997 -1001 0
-1000 -964 -997 -1001 0
1000 995 991 1002 0
1000 995 -991 -1002 0
1000 -995 991 -1002 0
1000 -995 -991 -1002 0
-1000 995 991 -1002 0
-1000 995 -991 -1002 0
-1000 -995 991 -1002 0
-1000 -995 -991 -1002 0
992 998 1001 1002 -1003 0
992 998 1001 -1002 1003 0
992 998 -1001 1002 1003 0
992 998 -1001 -1002 1003 0
992 -998 1001 1002 1003 0
992 -998 1001 -1002 1003 0
992 -998 -1001 1002 1003 0
992 -998 -1001 -1002 1003 0
-992 998 1001 1002 1003 0
-992 998 1001 -1002 1003 0
-992 998 -1001 1002 1003 0
-992 998 -1001 -1002 1003 0
-992 -998 1001 1002 1003 0
-992 -998 1001 -1002 1003 0
-992 -998 -1001 1002 1003 0
-992 -998 -1001 -1002 1003 0
236 1004 0
-236 -1004 0
1004 1005 0
-1004 -1005 0
1005 1006 0
-1005 -1006 0
1006 1007 0
-1006 -1007 0
228 1008 0
-228 -1008 0
1008 1009 0
-1008 -1009 0
1009 1010 0
-1009 -1010 0
1010 1011 0
-1010 -1011 0
245 1012 0
-245 -1012 0
1012 1013 0
-1012 -1013 0
1013 1014 0
-1013 -1014 0
1014 1015 0
-1014 -1015 0
1007 1011 1015 1016 0
1007 1011 -1015 -1016 0
1007 -1011 1015 -1016 0
1007 -1011 -1015 -1016 0
-1007 1011 1015 -1016 0
-1007 1011 -1015 -1016 0
-1007 -1011 1015 -1016 0
-1007 -1011 -1015 -1016 0
228 1017 0
-228 -1017 0
1017 1018 0
-1017 -1018 0
1018 1019 0
-1018 -1019 0
245 1020 0
-245 -1020 0
1020 1021 0
-1020 -1021 0
1021 1022 0
-1021 -1022 0
1007 1019 1022 1023 0
1007 1019 -1022 -1023 0
1007 -1019 1022 -1023 0
1007 -1019 -1022 -1023 0
-1007 1019 1022 -1023 0
-1007 1019 -1022 -1023 0
-1007 -1019 1022 -1023 0
-1007 -1019 -1022 -1023 0
236 1024 0
-236 -1024 0
1024 1025 0
-1024 -1025 0
1025 1026 0
-1025 -1026 0
1026 1011 1022 1027 0
1026 1011 -1022 -1027 0
1026 -1011 1022 -1027 0
1026 -1011 -1022 -1027 0
-1026 1011 1022 -1027 0
-1026 1011 -1022 -1027 0
-1026 -1011 1022 -1027 0
-1026 -1011 -1022 -1027 0
1026 1019 1015 1028 0
1026 1019 -1015 -1028 0
1026 -1019 1015 -1028 0
1026 -1019 -1015 -1028 0
-1026 1019 1015 -1028 0
-1026 1019 -1015 -1028 0
-1026 -1019 1015 -1028 0
-1026 -1019 -1015 -1028 0
1016 1023 1027 1028 -1029 0
1016 1023 1027 -1028 1029 0
1016 1023 -1027 1028 1029 0
1016 1023 -1027 -1028 1029 0
1016 -1023 1027 1028 1029 0
1016 -1023 1027 -1028 1029 0
1016 -1023 -1027 1028 1029 0
1016 -1023 -1027 -1028 1029 0
-1016 1023 1027 1028 1029 0
-1016 1023 1027 -1028 1029 0
-1016 1023 -1027 1028 1029 0
-1016 1023 -1027 -1028 1029 0
-1016 -1023 1027 1028 1029 0
-1016 -1023 1027 -1028 1029 0
-1016 -1023 -1027 1028 1029 0
-1016 -1023 -1027 -1028 1029 0
1029 1030 0
-1029 -1030 0
1030 1031 0
-1030 -1031 0
1031 1032 0
-1031 -1032 0
226 1033 0
-226 -1033 0
1033 1034 0
-1033 -1034 0
1034 1035 0
-1034 -1035 0
1035 1036 0
-1035 -1036 0
227 1037 0
-227 -1037 0
1037 1038 0
-1037 -1038 0
1038 1039 0
-1038 -1039 0
1039 1040 0
-1039 -1040 0
218 1041 0
-218 -1041 0
1041 1042 0
-1041 -1042 0
1042 1043 0
-1042 -1043 0
1043 1044 0
-1043 -1044 0
1036 1040 1044 1045 0
1036 1040 -1044 -1045 0
1036 -1040 1044 -1045 0
1036 -1040 -1044 -1045 0
-1036 1040 1044 -1045 0
-1036 1040 -1044 -1045 0
-1036 -1040 1044 -1045 0
-1036 -1040 -1044 -1045 0
788 1046 0
-788 -1046 0
1046 1047 0
-1046 -1047 0
628 1048 0
-628 -1048 0
1048 1049 0
-1048 -1049 0
1036 1047 1049 1050 0
1036 1047 -1049 -1050 0
1036 -1047 1049 -1050 0
1036 -1047 -1049 -1050 0
-1036 1047 1049 -1050 0
-1036 1047 -1049 -1050 0
-1036 -1047 1049 -1050 0
-1036 -1047 -1049 -1050 0
785 1051 0
-785 -1051 0
1051 1052 0
-1051 -1052 0
1052 1040 1049 1053 0
1052 1040 -1049 -1053 0
1052 -1040 1049 -1053 0
1052 -1040 -1049 -1053 0
-1052 1040 1049 -1053 0
-1052 1040 -1049 -1053 0
-1052 -1040 1049 -1053 0
-1052 -1040 -1049 -1053 0
1052 1047 1044 1054 0
1052 1047 -1044 -1054 0
1052 -1047 1044 -1054 0
1052 -1047 -1044 -1054 0
-1052 1047 1044 -1054 0
-1052 1047 -1044 -1054 0
-1052 -1047 1044 -1054 0
-1052 -1047 -1044 -1054 0
1045 1050 1053 1054 -1055 0
1045 1050 1053 -1054 1055 0
1045 1050 -1053 1054 1055 0
1045 1050 -1053 -1054 1055 0
1045 -1050 1053 1054 1055 0
1045 -1050 1053 -1054 1055 0
1045 -1050 -1053 1054 1055 0
1045 -1050 -1053 -1054 1055 0
-1045 1050 1053 1054 1055 0
-1045 1050 1053 -1054 1055 0
-1045 1050 -1053 1054 1055 0
-1045 1050 -1053 -1054 1055 0
-1045 -1050 1053 1054 1055 0
-1045 -1050 1053 -1054 1055 0
-1045 -1050 -1053 1054 1055 0
-1045 -1050 -1053 -1054 1055 0
1055 1056 0
-1055 -1056 0
1056 1057 0
-1056 -1057 0
244 1058 0
-244 -1058 0
1058 1059 0
-1058 -1059 0
1059 1060 0
-1059 -1060 0
1060 1061 0
-1060 -1061 0
235 1062 0
-235 -1062 0
1062 1063 0
-1062 -1063 0
1063 1064 0
-1063 -1064 0
1064 1065 0
-1064 -1065 0
234 1066 0
-234 -1066 0
1066 1067 0
-1066 -1067 0
1067 1068 0
-1067 -1068 0
1068 1069 0
-1068 -1069 0
1061 1065 1069 1070 0
1061 1065 -1069 -1070 0
1061 -1065 1069 -1070 0
1061 -1065 -1069 -1070 0
-1061 1065 1069 -1070 0
-1061 1065 -1069 -1070 0
-1061 -1065 1069 -1070 0
-1061 -1065 -1069 -1070 0
906 1071 0
-906 -1071 0
1071 1072 0
-1071 -1072 0
903 1073 0
-903 -1073 0
1073 1074 0
-1073 -1074 0
1061 1072 1074 1075 0
1061 1072 -1074 -1075 0
1061 -1072 1074 -1075 0
1061 -1072 -1074 -1075 0
-1061 1072 1074 -1075 0
-1061 1072 -1074 -1075 0
-1061 -1072 1074 -1075 0
-1061 -1072 -1074 -1075 0
244 1076 0
-244 -1076 0
1076 1077 0
-1076 -1077 0
1077 1078 0
-1077 -1078 0
1078 1065 1074 1079 0
1078 1065 -1074 -1079 0
1078 -1065 1074 -1079 0
1078 -1065 -1074 -1079 0
-1078 1065 1074 -1079 0
-1078 1065 -1074 -1079 0
-1078 -1065 1074 -1079 0
-1078 -1065 -1074 -1079 0
1078 1072 1069 1080 0
1078 1072 -1069 -1080 0
1078 -1072 1069 -1080 0
1078 -1072 -1069 -1080 0
-1078 1072 1069 -1080 0
-1078 1072 -1069 -1080 0
-1078 -1072 1069 -1080 0
-1078 -1072 -1069 -1080 0
1070 1075 1079 1080 -1081 0
1070 1075 1079 -1080 1081 0
1070 1075 -1079 1080 1081 0
1070 1075 -1079 -1080 1081 0
1070 -1075 1079 1080 1081 0
1070 -1075 1079 -1080 1081 0
1070 -1075 -1079 1080 1081 0
1070 -1075 -1079 -1080 1081 0
-1070 1075 1079 1080 1081 0
-1070 1075 1079 -1080 1081 0
-1070 1075 -1079 1080 1081 0
-1070 1075 -1079 -1080 1081 0
-1070 -1075 1079 1080 1081 0
-1070 -1075 1079 -1080 1081 0
-1070 -1075 -1079 1080 1081 0
-1070 -1075 -1079 -1080 1081 0
1081 1082 0
-1081 -1082 0
1082 1083 0
-1082 -1083 0
1083 1084 0
-1083 -1084 0
1032 1057 1084 1085 0
1032 1057 -1084 -1085 0
1032 -1057 1084 -1085 0
1032 -1057 -1084 -1085 0
-1032 1057 1084 -1085 0
-1032 1057 -1084 -1085 0
-1032 -1057 1084 -1085 0
-1032 -1057 -1084 -1085 0
1055 1086 0
-1055 -1086 0
1086 1087 0
-1086 -1087 0
1087 1088 0
-1087 -1088 0
1081 1089 0
-1081 -1089 0
1089 1090 0
-1089 -1090 0
1032 1088 1090 1091 0
1032 1088 -1090 -1091 0
1032 -1088 1090 -1091 0
1032 -1088 -1090 -1091 0
-1032 1088 1090 -1091 0
-1032 1088 -1090 -1091 0
-1032 -1088 1090 -1091 0
-1032 -1088 -1090 -1091 0
1029 1092 0
-1029 -1092 0
1092 1093 0
-1092 -1093 0
1093 1057 1090 1094 0
1093 1057 -1090 -1094 0
1093 -1057 1090 -1094 0
1093 -1057 -1090 -1094 0
-1093 1057 1090 -1094 0
-1093 1057 -1090 -1094 0
-1093 -1057 1090 -1094 0
-1093 -1057 -1090 -1094 0
1093 1088 1084 1095 0
1093 1088 -1084 -1095 0
1093 -1088 1084 -1095 0
1093 -1088 -1084 -1095 0
-1093 1088 1084 -1095 0
-1093 1088 -1084 -1095 0
-1093 -1088 1084 -1095 0
-1093 -1088 -1084 -1095 0
1085 1091 1094 1095 -1096 0
1085 1091 1094 -1095 1096 0
1085 1091 -1094 1095 1096 0
1085 1091 -1094 -1095 1096 0
1085 -1091 1094 1095 1096 0
1085 -1091 1094 -1095 1096 0
1085 -1091 -1094 1095 1096 0
1085 -1091 -1094 -1095 1096 0
-1085 1091 1094 1095 1096 0
-1085 1091 1094 -1095 1096 0
-1085 1091 -1094 1095 1096 0
-1085 1091 -1094 -1095 1096 0
-1085 -1091 1094 1095 1096 0
-1085 -1091 1094 -1095 1096 0
-1085 -1091 -1094 1095 1096 0
-1085 -1091 -1094 -1095 1096 0
1003 1096 -1097 0
1003 -1096 1097 0
-1003 1096 1097 0
-1003 -1096 -1097 0
299 1098 0
-299 -1098 0
1098 1099 0
-1098 -1099 0
1099 1100 0
-1099 -1100 0
1100 1101 0
-1100 -1101 0
393 1102 0
-393 -1102 0
1102 1103 0
-1102 -1103 0
1103 1104 0
-1103 -1104 0
1104 1105 0
-1104 -1105 0
300 1106 0
-300 -1106 0
1106 1107 0
-1106 -1107 0
1107 1108 0
-1107 -1108 0
1108 1109 0
-1108 -1109 0
1101 1105 1109 1110 0
1101 1105 -1109 -1110 0
1101 -1105 1109 -1110 0
1101 -1105 -1109 -1110 0
-1101 1105 1109 -1110 0
-1101 1105 -1109 -1110 0
-1101 -1105 1109 -1110 0
-1101 -1105 -1109 -1110 0
393 1111 0
-393 -1111 0
1111 1112 0
-1111 -1112 0
1112 1113 0
-1112 -1113 0
300 1114 0
-300 -1114 0
1114 1115 0
-1114 -1115 0
1115 1116 0
-1115 -1116 0
1101 1113 1116 1117 0
1101 1113 -1116 -1117 0
1101 -1113 1116 -1117 0
1101 -1113 -1116 -1117 0
-1101 1113 1116 -1117 0
-1101 1113 -1116 -1117 0
-1101 -1113 1116 -1117 0
-1101 -1113 -1116 -1117 0
299 1118 0
-299 -1118 0
1118 1119 0
-1118 -1119 0
1119 1120 0
-1119 -1120 0
1120 1105 1116 1121 0
1120 1105 -1116 -1121 0
1120 -1105 1116 -1121 0
1120 -1105 -1116 -1121 0
-1120 1105 1116 -1121 0
-1120 1105 -1116 -1121 0
-1120 -1105 1116 -1121 0
-1120 -1105 -1116 -1121 0
1120 1113 1109 1122 0
1120 1113 -1109 -1122 0
1120 -1113 1109 -1122 0
1120 -1113 -1109 -1122 0
-1120 1113 1109 -1122 0
-1120 1113 -1109 -1122 0
-1120 -1113 1109 -1122 0
-1120 -1113 -1109 -1122 0
1110 1117 1121 1122 -1123 0
1110 1117 1121 -1122 1123 0
1110 1117 -1121 1122 1123 0
1110 1117 -1121 -1122 1123 0
1110 -1117 1121 1122 1123 0
1110 -1117 1121 -1122 1123 0
1110 -1117 -1121 1122 1123 0
1110 -1117 -1121 -1122 1123 0
-1110 1117 1121 1122 1123 0
-1110 1117 1121 -1122 1123 0
-1110 1117 -1121 1122 1123 0
-1110 1117 -1121 -1122 1123 0
-1110 -1117 1121 1122 1123 0
-1110 -1117 1121 -1122 1123 0
-1110 -1117 -1121 1122 1123 0
-1110 -1117 -1121 -1122 1123 0
1123 1124 0
-1123 -1124 0
1124 1125 0
-1124 -1125 0
1125 1126 0
-1125 -1126 0
221 1127 0
-221 -1127 0
1127 1128 0
-1127 -1128 0
1128 1129 0
-1128 -1129 0
1129 1130 0
-1129 -1130 0
428 1131 0
-428 -1131 0
1131 1132 0
-1131 -1132 0
1132 1133 0
-1132 -1133 0
1133 1134 0
-1133 -1134 0
217 1135 0
-217 -1135 0
1135 1136 0
-1135 -1136 0
1136 1137 0
-1136 -1137 0
1137 1138 0
-1137 -1138 0
1130 1134 1138 1139 0
1130 1134 -1138 -1139 0
1130 -1134 1138 -1139 0
1130 -1134 -1138 -1139 0
-1130 1134 1138 -1139 0
-1130 1134 -1138 -1139 0
-1130 -1134 1138 -1139 0
-1130 -1134 -1138 -1139 0
428 1140 0
-428 -1140 0
1140 1141 0
-1140 -1141 0
1141 1142 0
-1141 -1142 0
217 1143 0
-217 -1143 0
1143 1144 0
-1143 -1144 0
1144 1145 0
-1144 -1145 0
1130 1142 1145 1146 0
1130 1142 -1145 -1146 0
1130 -1142 1145 -1146 0
1130 -1142 -1145 -1146 0
-1130 1142 1145 -1146 0
-1130 1142 -1145 -1146 0
-1130 -1142 1145 -1146 0
-1130 -1142 -1145 -1146 0
221 1147 0
-221 -1147 0
1147 1148 0
-1147 -1148 0
1148 1149 0
-1148 -1149 0
1149 1134 1145 1150 0
1149 1134 -1145 -1150 0
1149 -1134 1145 -1150 0
1149 -1134 -1145 -1150 0
-1149 1134 1145 -1150 0
-1149 1134 -1145 -1150 0
-1149 -1134 1145 -1150 0
-1149 -1134 -1145 -1150 0
1149 1142 1138 1151 0
1149 1142 -1138 -1151 0
1149 -1142 1138 -1151 0
1149 -1142 -1138 -1151 0
-1149 1142 1138 -1151 0
-1149 1142 -1138 -1151 0
-1149 -1142 1138 -1151 0
-1149 -1142 -1138 -1151 0
1139 1146 1150 1151 -1152 0
1139 1146 1150 -1151 1152 0
1139 1146 -1150 1151 1152 0
1139 1146 -1150 -1151 1152 0
1139 -1146 1150 1151 1152 0
1139 -1146 1150 -1151 1152 0
1139 -1146 -1150 1151 1152 0
1139 -1146 -1150 -1151 1152 0
-1139 1146 1150 1151 1152 0
-1139 1146 1150 -1151 1152 0
-1139 1146 -1150 1151 1152 0
-1139 1146 -1150 -1151 1152 0
-1139 -1146 1150 1151 1152 0
-1139 -1146 1150 -1151 1152 0
-1139 -1146 -1150 1151 1152 0
-1139 -1146 -1150 -1151 1152 0
1152 1153 0
-1152 -1153 0
1153 1154 0
-1153 -1154 0
301 1155 0
-301 -1155 0
1155 1156 0
-1155 -1156 0
1156 1157 0
-1156 -1157 0
1157 1158 0
-1157 -1158 0
251 1159 0
-251 -1159 0
1159 1160 0
-1159 -1160 0
1160 1161 0
-1160 -1161 0
1161 1162 0
-1161 -1162 0
252 1163 0
-252 -1163 0
1163 1164 0
-1163 -1164 0
1164 1165 0
-1164 -1165 0
1165 1166 0
-1165 -1166 0
1158 1162 1166 1167 0
1158 1162 -1166 -1167 0
1158 -1162 1166 -1167 0
1158 -1162 -1166 -1167 0
-1158 1162 1166 -1167 0
-1158 1162 -1166 -1167 0
-1158 -1162 1166 -1167 0
-1158 -1162 -1166 -1167 0
251 1168 0
-251 -1168 0
1168 1169 0
-1168 -1169 0
1169 1170 0
-1169 -1170 0
252 1171 0
-252 -1171 0
1171 1172 0
-1171 -1172 0
1172 1173 0
-1172 -1173 0
1158 1170 1173 1174 0
1158 1170 -1173 -1174 0
1158 -1170 1173 -1174 0
1158 -1170 -1173 -1174 0
-1158 1170 1173 -1174 0
-1158 1170 -1173 -1174 0
-1158 -1170 1173 -1174 0
-1158 -1170 -1173 -1174 0
301 1175 0
-301 -1175 0
1175 1176 0
-1175 -1176 0
1176 1177 0
-1176 -1177 0
1177 1162 1173 1178 0
1177 1162 -1173 -1178 0
1177 -1162 1173 -1178 0
1177 -1162 -1173 -1178 0
-1177 1162 1173 -1178 0
-1177 1162 -1173 -1178 0
-1177 -1162 1173 -1178 0
-1177 -1162 -1173 -1178 0
1177 1170 1166 1179 0
1177 1170 -1166 -1179 0
1177 -1170 1166 -1179 0
1177 -1170 -1166 -1179 0
-1177 1170 1166 -1179 0
-1177 1170 -1166 -1179 0
-1177 -1170 1166 -1179 0
-1177 -1170 -1166 -1179 0
1167 1174 1178 1179 -1180 0
1167 1174 1178 -1179 1180 0
1167 1174 -1178 1179 1180 0
1167 1174 -1178 -1179 1180 0
1167 -1174 1178 1179 1180 0
1167 -1174 1178 -1179 1180 0
1167 -1174 -1178 1179 1180 0
1167 -1174 -1178 -1179 1180 0
-1167 1174 1178 1179 1180 0
-1167 1174 1178 -1179 1180 0
-1167 1174 -1178 1179 1180 0
-1167 1174 -1178 -1179 1180 0
-1167 -1174 1178 1179 1180 0
-1167 -1174 1178 -1179 1180 0
-1167 -1174 -1178 1179 1180 0
-1167 -1174 -1178 -1179 1180 0
1180 1181 0
-1180 -1181 0
1181 1182 0
-1181 -1182 0
1182 1183 0
-1182 -1183 0
1126 1154 1183 1184 0
1126 1154 -1183 -1184 0
1126 -1154 1183 -1184 0
1126 -1154 -1183 -1184 0
-1126 1154 1183 -1184 0
-1126 1154 -1183 -1184 0
-1126 -1154 1183 -1184 0
-1126 -1154 -1183 -1184 0
1152 1185 0
-1152 -1185 0
1185 1186 0
-1185 -1186 0
1186 1187 0
-1186 -1187 0
1180 1188 0
-1180 -1188 0
1188 1189 0
-1188 -1189 0
1126 1187 1189 1190 0
1126 1187 -1189 -1190 0
1126 -1187 1189 -1190 0
1126 -1187 -1189 -1190 0
-1126 1187 1189 -1190 0
-1126 1187 -1189 -1190 0
-1126 -1187 1189 -1190 0
-1126 -1187 -1189 -1190 0
1123 1191 0
-1123 -1191 0
1191 1192 0
-1191 -1192 0
1192 1154 1189 1193 0
1192 1154 -1189 -1193 0
1192 -1154 1189 -1193 0
1192 -1154 -1189 -1193 0
-1192 1154 1189 -1193 0
-1192 1154 -1189 -1193 0
-1192 -1154 1189 -1193 0
-1192 -1154 -1189 -1193 0
1192 1187 1183 1194 0
1192 1187 -1183 -1194 0
1192 -1187 1183 -1194 0
1192 -1187 -1183 -1194 0
-1192 1187 1183 -1194 0
-1192 1187 -1183 -1194 0
-1192 -1187 1183 -1194 0
-1192 -1187 -1183 -1194 0
1184 1190 1193 1194 -1195 0
1184 1190 1193 -1194 1195 0
1184 1190 -1193 1194 1195 0
1184 1190 -1193 -1194 1195 0
1184 -1190 1193 1194 1195 0
1184 -1190 1193 -1194 1195 0
1184 -1190 -1193 1194 1195 0
1184 -1190 -1193 -1194 1195 0
-1184 1190 1193 1194 1195 0
-1184 1190 1193 -1194 1195 0
-1184 1190 -1193 1194 1195 0
-1184 1190 -1193 -1194 1195 0
-1184 -1190 1193 1194 1195 0
-1184 -1190 1193 -1194 1195 0
-1184 -1190 -1193 1194 1195 0
-1184 -1190 -1193 -1194 1195 0
299 1196 0
-299 -1196 0
1196 1197 0
-1196 -1197 0
1197 1198 0
-1197 -1198 0
1198 1199 0
-1198 -1199 0
393 1200 0
-393 -1200 0
1200 1201 0
-1200 -1201 0
1201 1202 0
-1201 -1202 0
1202 1203 0
-1202 -1203 0
300 1204 0
-300 -1204 0
1204 1205 0
-1204 -1205 0
1205 1206 0
-1205 -1206 0
1206 1207 0
-1206 -1207 0
1199 1203 1207 1208 0
1199 1203 -1207 -1208 0
1199 -1203 1207 -1208 0
1199 -1203 -1207 -1208 0
-1199 1203 1207 -1208 0
-1199 1203 -1207 -1208 0
-1199 -1203 1207 -1208 0
-1199 -1203 -1207 -1208 0
393 1209 0
-393 -1209 0
1209 1210 0
-1209 -1210 0
1210 1211 0
-1210 -1211 0
300 1212 0
-300 -1212 0
1212 1213 0
-1212 -1213 0
1213 1214 0
-1213 -1214 0
1199 1211 1214 1215 0
1199 1211 -1214 -1215 0
1199 -1211 1214 -1215 0
1199 -1211 -1214 -1215 0
-1199 1211 1214 -1215 0
-1199 1211 -1214 -1215 0
-1199 -1211 1214 -1215 0
-1199 -1211 -1214 -1215 0
299 1216 0
-299 -1216 0
1216 1217 0
-1216 -1217 0
1217 1218 0
-1217 -1218 0
1218 1203 1214 1219 0
1218 1203 -1214 -1219 0
1218 -1203 1214 -1219 0
1218 -1203 -1214 -1219 0
-1218 1203 1214 -1219 0
-1218 1203 -1214 -1219 0
-1218 -1203 1214 -1219 0
-1218 -1203 -1214 -1219 0
1218 1211 1207 1220 0
1218 1211 -1207 -1220 0
1218 -1211 1207 -1220 0
1218 -1211 -1207 -1220 0
-1218 1211 1207 -1220 0
-1218 1211 -1207 -1220 0
-1218 -1211 1207 -1220 0
-1218 -1211 -1207 -1220 0
1208 1215 1219 1220 -1221 0
1208 1215 1219 -1220 1221 0
1208 1215 -1219 1220 1221 0
1208 1215 -1219 -1220 1221 0
1208 -1215 1219 1220 1221 0
1208 -1215 1219 -1220 1221 0
1208 -1215 -1219 1220 1221 0
1208 -1215 -1219 -1220 1221 0
-1208 1215 1219 1220 1221 0
-1208 1215 1219 -1220 1221 0
-1208 1215 -1219 1220 1221 0
-1208 1215 -1219 -1220 1221 0
-1208 -1215 1219 1220 1221 0
-1208 -1215 1219 -1220 1221 0
-1208 -1215 -1219 1220 1221 0
-1208 -1215 -1219 -1220 1221 0
1221 1222 0
-1221 -1222 0
1222 1223 0
-1222 -1223 0
1223 1224 0
-1223 -1224 0
221 1225 0
-221 -1225 0
1225 1226 0
-1225 -1226 0
1226 1227 0
-1226 -1227 0
1227 1228 0
-1227 -1228 0
428 1229 0
-428 -1229 0
1229 1230 0
-1229 -1230 0
1230 1231 0
-1230 -1231 0
1231 1232 0
-1231 -1232 0
217 1233 0
-217 -1233 0
1233 1234 0
-1233 -1234 0
1234 1235 0
-1234 -1235 0
1235 1236 0
-1235 -1236 0
1228 1232 1236 1237 0
1228 1232 -1236 -1237 0
1228 -1232 1236 -1237 0
1228 -1232 -1236 -1237 0
-1228 1232 1236 -1237 0
-1228 1232 -1236 -1237 0
-1228 -1232 1236 -1237 0
-1228 -1232 -1236 -1237 0
428 1238 0
-428 -1238 0
1238 1239 0
-1238 -1239 0
1239 1240 0
-1239 -1240 0
217 1241 0
-217 -1241 0
1241 1242 0
-1241 -1242 0
1242 1243 0
-1242 -1243 0
1228 1240 1243 1244 0
1228 1240 -1243 -1244 0
1228 -1240 1243 -1244 0
1228 -1240 -1243 -1244 0
-1228 1240 1243 -1244 0
-1228 1240 -1243 -1244 0
-1228 -1240 1243 -1244 0
-1228 -1240 -1243 -1244 0
221 1245 0
-221 -1245 0
1245 1246 0
-1245 -1246 0
1246 1247 0
-1246 -1247 0
1247 1232 1243 1248 0
1247 1232 -1243 -1248 0
1247 -1232 1243 -1248 0
1247 -1232 -1243 -1248 0
-1247 1232 1243 -1248 0
-1247 1232 -1243 -1248 0
-1247 -1232 1243 -1248 0
-1247 -1232 -1243 -1248 0
1247 1240 1236 1249 0
1247 1240 -1236 -1249 0
1247 -1240 1236 -1249 0
1247 -1240 -1236 -1249 0
-1247 1240 1236 -1249 0
-1247 1240 -1236 -1249 0
-1247 -1240 1236 -1249 0
-1247 -1240 -1236 -1249 0
1237 1244 1248 1249 -1250 0
1237 1244 1248 -1249 1250 0
1237 1244 -1248 1249 1250 0
1237 1244 -1248 -1249 1250 0
1237 -1244 1248 1249 1250 0
1237 -1244 1248 -1249 1250 0
1237 -1244 -1248 1249 1250 0
1237 -1244 -1248 -1249 1250 0
-1237 1244 1248 1249 1250 0
-1237 1244 1248 -1249 1250 0
-1237 1244 -1248 1249 1250 0
-1237 1244 -1248 -1249 1250 0
-1237 -1244 1248 1249 1250 0
-1237 -1244 1248 -1249 1250 0
-1237 -1244 -1248 1249 1250 0
-1237 -1244 -1248 -1249 1250 0
1250 1251 0
-1250 -1251 0
1251 1252 0
-1251 -1252 0
301 1253 0
-301 -1253 0
1253 1254 0
-1253 -1254 0
1254 1255 0
-1254 -1255 0
1255 1256 0
-1255 -1256 0
251 1257 0
-251 -1257 0
1257 1258 0
-1257 -1258 0
1258 1259 0
-1258 -1259 0
1259 1260 0
-1259 -1260 0
252 1261 0
-252 -1261 0
1261 1262 0
-1261 -1262 0
1262 1263 0
-1262 -1263 0
1263 1264 0
-1263 -1264 0
1256 1260 1264 1265 0
1256 1260 -1264 -1265 0
1256 -1260 1264 -1265 0
1256 -1260 -1264 -1265 0
-1256 1260 1264 -1265 0
-1256 1260 -1264 -1265 0
-1256 -1260 1264 -1265 0
-1256 -1260 -1264 -1265 0
251 1266 0
-251 -1266 0
1266 1267 0
-1266 -1267 0
1267 1268 0
-1267 -1268 0
252 1269 0
-252 -1269 0
1269 1270 0
-1269 -1270 0
1270 1271 0
-1270 -1271 0
1256 1268 1271 1272 0
1256 1268 -1271 -1272 0
1256 -1268 1271 -1272 0
1256 -1268 -1271 -1272 0
-1256 1268 1271 -1272 0
-1256 1268 -1271 -1272 0
-1256 -1268 1271 -1272 0
-1256 -1268 -1271 -1272 0
301 1273 0
-301 -1273 0
1273 1274 0
-1273 -1274 0
1274 1275 0
-1274 -1275 0
1275 1260 1271 1276 0
1275 1260 -1271 -1276 0
1275 -1260 1271 -1276 0
1275 -1260 -1271 -1276 0
-1275 1260 1271 -1276 0
-1275 1260 -1271 -1276 0
-1275 -1260 1271 -1276 0
-1275 -1260 -1271 -1276 0
1275 1268 1264 1277 0
1275 1268 -1264 -1277 0
1275 -1268 1264 -1277 0
1275 -1268 -1264 -1277 0
-1275 1268 1264 -1277 0
-1275 1268 -1264 -1277 0
-1275 -1268 1264 -1277 0
-1275 -1268 -1264 -1277 0
1265 1272 1276 1277 -1278 0
1265 1272 1276 -1277 1278 0
1265 1272 -1276 1277 1278 0
1265 1272 -1276 -1277 1278 0
1265 -1272 1276 1277 1278 0
1265 -1272 1276 -1277 1278 0
1265 -1272 -1276 1277 1278 0
1265 -1272 -1276 -1277 1278 0
-1265 1272 1276 1277 1278 0
-1265 1272 1276 -1277 1278 0
-1265 1272 -1276 1277 1278 0
-1265 1272 -1276 -1277 1278 0
-1265 -1272 1276 1277 1278 0
-1265 -1272 1276 -1277 1278 0
-1265 -1272 -1276 1277 1278 0
-1265 -1272 -1276 -1277 1278 0
1278 1279 0
-1278 -1279 0
1279 1280 0
-1279 -1280 0
1280 1281 0
-1280 -1281 0
1224 1252 1281 1282 0
1224 1252 -1281 -1282 0
1224 -1252 1281 -1282 0
1224 -1252 -1281 -1282 0
-1224 1252 1281 -1282 0
-1224 1252 -1281 -1282 0
-1224 -1252 1281 -1282 0
-1224 -1252 -1281 -1282 0
1250 1283 0
-1250 -1283 0
1283 1284 0
-1283 -1284 0
1284 1285 0
-1284 -1285 0
1278 1286 0
-1278 -1286 0
1286 1287 0
-1286 -1287 0
1224 1285 1287 1288 0
1224 1285 -1287 -1288 0
1224 -1285 1287 -1288 0
1224 -1285 -1287 -1288 0
-1224 1285 1287 -1288 0
-1224 1285 -1287 -1288 0
-1224 -1285 1287 -1288 0
-1224 -1285 -1287 -1288 0
1221 1289 0
-1221 -1289 0
1289 1290 0
-1289 -1290 0
1290 1252 1287 1291 0
1290 1252 -1287 -1291 0
1290 -1252 1287 -1291 0
1290 -1252 -1287 -1291 0
-1290 1252 1287 -1291 0
-1290 1252 -1287 -1291 0
-1290 -1252 1287 -1291 0
-1290 -1252 -1287 -1291 0
1290 1285 1281 1292 0
1290 1285 -1281 -1292 0
1290 -1285 1281 -1292 0
1290 -1285 -1281 -1292 0
-1290 1285 1281 -1292 0
-1290 1285 -1281 -1292 0
-1290 -1285 1281 -1292 0
-1290 -1285 -1281 -1292 0
1282 1288 1291 1292 -1293 0
1282 1288 1291 -1292 1293 0
1282 1288 -1291 1292 1293 0
1282 1288 -1291 -1292 1293 0
1282 -1288 1291 1292 1293 0
1282 -1288 1291 -1292 1293 0
1282 -1288 -1291 1292 1293 0
1282 -1288 -1291 -1292 1293 0
-1282 1288 1291 1292 1293 0
-1282 1288 1291 -1292 1293 0
-1282 1288 -1291 1292 1293 0
-1282 1288 -1291 -1292 1293 0
-1282 -1288 1291 1292 1293 0
-1282 -1288 1291 -1292 1293 0
-1282 -1288 -1291 1292 1293 0
-1282 -1288 -1291 -1292 1293 0
1195 1293 -1294 0
1195 -1293 1294 0
-1195 1293 1294 0
-1195 -1293 -1294 0
224 1295 0
-224 -1295 0
1295 1296 0
-1295 -1296 0
1296 1297 0
-1296 -1297 0
1297 1298 0
-1297 -1298 0
232 1299 0
-232 -1299 0
1299 1300 0
-1299 -1300 0
1300 1301 0
-1300 -1301 0
1301 1302 0
-1301 -1302 0
223 1303 0
-223 -1303 0
1303 1304 0
-1303 -1304 0
1304 1305 0
-1304 -1305 0
1305 1306 0
-1305 -1306 0
1298 1302 1306 1307 0
1298 1302 -1306 -1307 0
1298 -1302 1306 -1307 0
1298 -1302 -1306 -1307 0
-1298 1302 1306 -1307 0
-1298 1302 -1306 -1307 0
-1298 -1302 1306 -1307 0
-1298 -1302 -1306 -1307 0
899 1308 0
-899 -1308 0
1308 1309 0
-1308 -1309 0
630 1310 0
-630 -1310 0
1310 1311 0
-1310 -1311 0
1298 1309 1311 1312 0
1298 1309 -1311 -1312 0
1298 -1309 1311 -1312 0
1298 -1309 -1311 -1312 0
-1298 1309 1311 -1312 0
-1298 1309 -1311 -1312 0
-1298 -1309 1311 -1312 0
-1298 -1309 -1311 -1312 0
633 1313 0
-633 -1313 0
1313 1314 0
-1313 -1314 0
1314 1302 1311 1315 0
1314 1302 -1311 -1315 0
1314 -1302 1311 -1315 0
1314 -1302 -1311 -1315 0
-1314 1302 1311 -1315 0
-1314 1302 -1311 -1315 0
-1314 -1302 1311 -1315 0
-1314 -1302 -1311 -1315 0
1314 1309 1306 1316 0
1314 1309 -1306 -1316 0
1314 -1309 1306 -1316 0
1314 -1309 -1306 -1316 0
-1314 1309 1306 -1316 0
-1314 1309 -1306 -1316 0
-1314 -1309 1306 -1316 0
-1314 -1309 -1306 -1316 0
1307 1312 1315 1316 -1317 0
1307 1312 1315 -1316 1317 0
1307 1312 -1315 1316 1317 0
1307 1312 -1315 -1316 1317 0
1307 -1312 1315 1316 1317 0
1307 -1312 1315 -1316 1317 0
1307 -1312 -1315 1316 1317 0
1307 -1312 -1315 -1316 1317 0
-1307 1312 1315 1316 1317 0
-1307 1312 1315 -1316 1317 0
-1307 1312 -1315 1316 1317 0
-1307 1312 -1315 -1316 1317 0
-1307 -1312 1315 1316 1317 0
-1307 -1312 1315 -1316 1317 0
-1307 -1312 -1315 1316 1317 0
-1307 -1312 -1315 -1316 1317 0
1317 1318 0
-1317 -1318 0
1318 1319 0
-1318 -1319 0
1319 1320 0
-1319 -1320 0
241 1321 0
-241 -1321 0
1321 1322 0
-1321 -1322 0
1322 1323 0
-1322 -1323 0
1323 1324 0
-1323 -1324 0
225 1325 0
-225 -1325 0
1325 1326 0
-1325 -1326 0
1326 1327 0
-1326 -1327 0
1327 1328 0
-1327 -1328 0
240 1329 0
-240 -1329 0
1329 1330 0
-1329 -1330 0
1330 1331 0
-1330 -1331 0
1331 1332 0
-1331 -1332 0
1324 1328 1332 1333 0
1324 1328 -1332 -1333 0
1324 -1328 1332 -1333 0
1324 -1328 -1332 -1333 0
-1324 1328 1332 -1333 0
-1324 1328 -1332 -1333 0
-1324 -1328 1332 -1333 0
-1324 -1328 -1332 -1333 0
636 1334 0
-636 -1334 0
1334 1335 0
-1334 -1335 0
240 1336 0
-240 -1336 0
1336 1337 0
-1336 -1337 0
1337 1338 0
-1337 -1338 0
1324 1335 1338 1339 0
1324 1335 -1338 -1339 0
1324 -1335 1338 -1339 0
1324 -1335 -1338 -1339 0
-1324 1335 1338 -1339 0
-1324 1335 -1338 -1339 0
-1324 -1335 1338 -1339 0
-1324 -1335 -1338 -1339 0
241 1340 0
-241 -1340 0
1340 1341 0
-1340 -1341 0
1341 1342 0
-1341 -1342 0
1342 1328 1338 1343 0
1342 1328 -1338 -1343 0
1342 -1328 1338 -1343 0
1342 -1328 -1338 -1343 0
-1342 1328 1338 -1343 0
-1342 1328 -1338 -1343 0
-1342 -1328 1338 -1343 0
-1342 -1328 -1338 -1343 0
1342 1335 1332 1344 0
1342 1335 -1332 -1344 0
1342 -1335 1332 -1344 0
1342 -1335 -1332 -1344 0
-1342 1335 1332 -1344 0
-1342 1335 -1332 -1344 0
-1342 -1335 1332 -1344 0
-1342 -1335 -1332 -1344 0
1333 1339 1343 1344 -1345 0
1333 1339 1343 -1344 1345 0
1333 1339 -1343 1344 1345 0
1333 1339 -1343 -1344 1345 0
1333 -1339 1343 1344 1345 0
1333 -1339 1343 -1344 1345 0
1333 -1339 -1343 1344 1345 0
1333 -1339 -1343 -1344 1345 0
-1333 1339 1343 1344 1345 0
-1333 1339 1343 -1344 1345 0
-1333 1339 -1343 1344 1345 0
-1333 1339 -1343 -1344 1345 0
-1333 -1339 1343 1344 1345 0
-1333 -1339 1343 -1344 1345 0
-1333 -1339 -1343 1344 1345 0
-1333 -1339 -1343 -1344 1345 0
1345 1346 0
-1345 -1346 0
1346 1347 0
-1346 -1347 0
243 1348 0
-243 -1348 0
1348 1349 0
-1348 -1349 0
1349 1350 0
-1349 -1350 0
1350 1351 0
-1350 -1351 0
242 1352 0
-242 -1352 0
1352 1353 0
-1352 -1353 0
1353 1354 0
-1353 -1354 0
1354 1355 0
-1354 -1355 0
248 1356 0
-248 -1356 0
1356 1357 0
-1356 -1357 0
1357 1358 0
-1357 -1358 0
1358 1359 0
-1358 -1359 0
1351 1355 1359 1360 0
1351 1355 -1359 -1360 0
1351 -1355 1359 -1360 0
1351 -1355 -1359 -1360 0
-1351 1355 1359 -1360 0
-1351 1355 -1359 -1360 0
-1351 -1355 1359 -1360 0
-1351 -1355 -1359 -1360 0
242 1361 0
-242 -1361 0
1361 1362 0
-1361 -1362 0
1362 1363 0
-1362 -1363 0
248 1364 0
-248 -1364 0
1364 1365 0
-1364 -1365 0
1365 1366 0
-1365 -1366 0
1351 1363 1366 1367 0
1351 1363 -1366 -1367 0
1351 -1363 1366 -1367 0
1351 -1363 -1366 -1367 0
-1351 1363 1366 -1367 0
-1351 1363 -1366 -1367 0
-1351 -1363 1366 -1367 0
-1351 -1363 -1366 -1367 0
908 1368 0
-908 -1368 0
1368 1369 0
-1368 -1369 0
1369 1355 1366 1370 0
1369 1355 -1366 -1370 0
1369 -1355 1366 -1370 0
1369 -1355 -1366 -1370 0
-1369 1355 1366 -1370 0
-1369 1355 -1366 -1370 0
-1369 -1355 1366 -1370 0
-1369 -1355 -1366 -1370 0
1369 1363 1359 1371 0
1369 1363 -1359 -1371 0
1369 -1363 1359 -1371 0
1369 -1363 -1359 -1371 0
-1369 1363 1359 -1371 0
-1369 1363 -1359 -1371 0
-1369 -1363 1359 -1371 0
-1369 -1363 -1359 -1371 0
1360 1367 1370 1371 -1372 0
1360 1367 1370 -1371 1372 0
1360 1367 -1370 1371 1372 0
1360 1367 -1370 -1371 1372 0
1360 -1367 1370 1371 1372 0
1360 -1367 1370 -1371 1372 0
1360 -1367 -1370 1371 1372 0
1360 -1367 -1370 -1371 1372 0
-1360 1367 1370 1371 1372 0
-1360 1367 1370 -1371 1372 0
-1360 1367 -1370 1371 1372 0
-1360 1367 -1370 -1371 1372 0
-1360 -1367 1370 1371 1372 0
-1360 -1367 1370 -1371 1372 0
-1360 -1367 -1370 1371 1372 0
-1360 -1367 -1370 -1371 1372 0
1372 1373 0
-1372 -1373 0
1373 1374 0
-1373 -1374 0
1374 1375 0
-1374 -1375 0
1320 1347 1375 1376 0
1320 1347 -1375 -1376 0
1320 -1347 1375 -1376 0
1320 -1347 -1375 -1376 0
-1320 1347 1375 -1376 0
-1320 1347 -1375 -1376 0
-1320 -1347 1375 -1376 0
-1320 -1347 -1375 -1376 0
1345 1377 0
-1345 -1377 0
1377 1378 0
-1377 -1378 0
1378 1379 0
-1378 -1379 0
1372 1380 0
-1372 -1380 0
1380 1381 0
-1380 -1381 0
1320 1379 1381 1382 0
1320 1379 -1381 -1382 0
1320 -1379 1381 -1382 0
1320 -1379 -1381 -1382 0
-1320 1379 1381 -1382 0
-1320 1379 -1381 -1382 0
-1320 -1379 1381 -1382 0
-1320 -1379 -1381 -1382 0
1317 1383 0
-1317 -1383 0
1383 1384 0
-1383 -1384 0
1384 1347 1381 1385 0
1384 1347 -1381 -1385 0
1384 -1347 1381 -1385 0
1384 -1347 -1381 -1385 0
-1384 1347 1381 -1385 0
-1384 1347 -1381 -1385 0
-1384 -1347 1381 -1385 0
-1384 -1347 -1381 -1385 0
1384 1379 1375 1386 0
1384 1379 -1375 -1386 0
1384 -1379 1375 -1386 0
1384 -1379 -1375 -1386 0
-1384 1379 1375 -1386 0
-1384 1379 -1375 -1386 0
-1384 -1379 1375 -1386 0
-1384 -1379 -1375 -1386 0
1376 1382 1385 1386 -1387 0
1376 1382 1385 -1386 1387 0
1376 1382 -1385 1386 1387 0
1376 1382 -1385 -1386 1387 0
1376 -1382 1385 1386 1387 0
1376 -1382 1385 -1386 1387 0
1376 -1382 -1385 1386 1387 0
1376 -1382 -1385 -1386 1387 0
-1376 1382 1385 1386 1387 0
-1376 1382 1385 -1386 1387 0
-1376 1382 -1385 1386 1387 0
-1376 1382 -1385 -1386 1387 0
-1376 -1382 1385 1386 1387 0
-1376 -1382 1385 -1386 1387 0
-1376 -1382 -1385 1386 1387 0
-1376 -1382 -1385 -1386 1387 0
224 1388 0
-224 -1388 0
1388 1389 0
-1388 -1389 0
1389 1390 0
-1389 -1390 0
1390 1391 0
-1390 -1391 0
232 1392 0
-232 -1392 0
1392 1393 0
-1392 -1393 0
1393 1394 0
-1393 -1394 0
1394 1395 0
-1394 -1395 0
223 1396 0
-223 -1396 0
1396 1397 0
-1396 -1397 0
1397 1398 0
-1397 -1398 0
1398 1399 0
-1398 -1399 0
1391 1395 1399 1400 0
1391 1395 -1399 -1400 0
1391 -1395 1399 -1400 0
1391 -1395 -1399 -1400 0
-1391 1395 1399 -1400 0
-1391 1395 -1399 -1400 0
-1391 -1395 1399 -1400 0
-1391 -1395 -1399 -1400 0
900 1401 0
-900 -1401 0
1401 1402 0
-1401 -1402 0
631 1403 0
-631 -1403 0
1403 1404 0
-1403 -1404 0
1391 1402 1404 1405 0
1391 1402 -1404 -1405 0
1391 -1402 1404 -1405 0
1391 -1402 -1404 -1405 0
-1391 1402 1404 -1405 0
-1391 1402 -1404 -1405 0
-1391 -1402 1404 -1405 0
-1391 -1402 -1404 -1405 0
634 1406 0
-634 -1406 0
1406 1407 0
-1406 -1407 0
1407 1395 1404 1408 0
1407 1395 -1404 -1408 0
1407 -1395 1404 -1408 0
1407 -1395 -1404 -1408 0
-1407 1395 1404 -1408 0
-1407 1395 -1404 -1408 0
-1407 -1395 1404 -1408 0
-1407 -1395 -1404 -1408 0
1407 1402 1399 1409 0
1407 1402 -1399 -1409 0
1407 -1402 1399 -1409 0
1407 -1402 -1399 -1409 0
-1407 1402 1399 -1409 0
-1407 1402 -1399 -1409 0
-1407 -1402 1399 -1409 0
-1407 -1402 -1399 -1409 0
1400 1405 1408 1409 -1410 0
1400 1405 1408 -1409 1410 0
1400 1405 -1408 1409 1410 0
1400 1405 -1408 -1409 1410 0
1400 -1405 1408 1409 1410 0
1400 -1405 1408 -1409 1410 0
1400 -1405 -1408 1409 1410 0
1400 -1405 -1408 -1409 1410 0
-1400 1405 1408 1409 1410 0
-1400 1405 1408 -1409 1410 0
-1400 1405 -1408 1409 1410 0
-1400 1405 -1408 -1409 1410 0
-1400 -1405 1408 1409 1410 0
-1400 -1405 1408 -1409 1410 0
-1400 -1405 -1408 1409 1410 0
-1400 -1405 -1408 -1409 1410 0
1410 1411 0
-1410 -1411 0
1411 1412 0
-1411 -1412 0
1412 1413 0
-1412 -1413 0
241 1414 0
-241 -1414 0
1414 1415 0
-1414 -1415 0
1415 1416 0
-1415 -1416 0
1416 1417 0
-1416 -1417 0
225 1418 0
-225 -1418 0
1418 1419 0
-1418 -1419 0
1419 1420 0
-1419 -1420 0
1420 1421 0
-1420 -1421 0
240 1422 0
-240 -1422 0
1422 1423 0
-1422 -1423 0
1423 1424 0
-1423 -1424 0
1424 1425 0
-1424 -1425 0
1417 1421 1425 1426 0
1417 1421 -1425 -1426 0
1417 -1421 1425 -1426 0
1417 -1421 -1425 -1426 0
-1417 1421 1425 -1426 0
-1417 1421 -1425 -1426 0
-1417 -1421 1425 -1426 0
-1417 -1421 -1425 -1426 0
637 1427 0
-637 -1427 0
1427 1428 0
-1427 -1428 0
240 1429 0
-240 -1429 0
1429 1430 0
-1429 -1430 0
1430 1431 0
-1430 -1431 0
1417 1428 1431 1432 0
1417 1428 -1431 -1432 0
1417 -1428 1431 -1432 0
1417 -1428 -1431 -1432 0
-1417 1428 1431 -1432 0
-1417 1428 -1431 -1432 0
-1417 -1428 1431 -1432 0
-1417 -1428 -1431 -1432 0
241 1433 0
-241 -1433 0
1433 1434 0
-1433 -1434 0
1434 1435 0
-1434 -1435 0
1435 1421 1431 1436 0
1435 1421 -1431 -1436 0
1435 -1421 1431 -1436 0
1435 -1421 -1431 -1436 0
-1435 1421 1431 -1436 0
-1435 1421 -1431 -1436 0
-1435 -1421 1431 -1436 0
-1435 -1421 -1431 -1436 0
1435 1428 1425 1437 0
1435 1428 -1425 -1437 0
1435 -1428 1425 -1437 0
1435 -1428 -1425 -1437 0
-1435 1428 1425 -1437 0
-1435 1428 -1425 -1437 0
-1435 -1428 1425 -1437 0
-1435 -1428 -1425 -1437 0
1426 1432 1436 1437 -1438 0
1426 1432 1436 -1437 1438 0
1426 1432 -1436 1437 1438 0
1426 1432 -1436 -1437 1438 0
1426 -1432 1436 1437 1438 0
1426 -1432 1436 -1437 1438 0
1426 -1432 -1436 1437 1438 0
1426 -1432 -1436 -1437 1438 0
-1426 1432 1436 1437 1438 0
-1426 1432 1436 -1437 1438 0
-1426 1432 -1436 1437 1438 0
-1426 1432 -1436 -1437 1438 0
-1426 -1432 1436 1437 1438 0
-1426 -1432 1436 -1437 1438 0
-1426 -1432 -1436 1437 1438 0
-1426 -1432 -1436 -1437 1438 0
1438 1439 0
-1438 -1439 0
1439 1440 0
-1439 -1440 0
243 1441 0
-243 -1441 0
1441 1442 0
-1441 -1442 0
1442 1443 0
-1442 -1443 0
1443 1444 0
-1443 -1444 0
242 1445 0
-242 -1445 0
1445 1446 0
-1445 -1446 0
1446 1447 0
-1446 -1447 0
1447 1448 0
-1447 -1448 0
248 1449 0
-248 -1449 0
1449 1450 0
-1449 -1450 0
1450 1451 0
-1450 -1451 0
1451 1452 0
-1451 -1452 0
1444 1448 1452 1453 0
1444 1448 -1452 -1453 0
1444 -1448 1452 -1453 0
1444 -1448 -1452 -1453 0
-1444 1448 1452 -1453 0
-1444 1448 -1452 -1453 0
-1444 -1448 1452 -1453 0
-1444 -1448 -1452 -1453 0
242 1454 0
-242 -1454 0
1454 1455 0
-1454 -1455 0
1455 1456 0
-1455 -1456 0
248 1457 0
-248 -1457 0
1457 1458 0
-1457 -1458 0
1458 1459 0
-1458 -1459 0
1444 1456 1459 1460 0
1444 1456 -1459 -1460 0
1444 -1456 1459 -1460 0
1444 -1456 -1459 -1460 0
-1444 1456 1459 -1460 0
-1444 1456 -1459 -1460 0
-1444 -1456 1459 -1460 0
-1444 -1456 -1459 -1460 0
909 1461 0
-909 -1461 0
1461 1462 0
-1461 -1462 0
1462 1448 1459 1463 0
1462 1448 -1459 -1463 0
1462 -1448 1459 -1463 0
1462 -1448 -1459 -1463 0
-1462 1448 1459 -1463 0
-1462 1448 -1459 -1463 0
-1462 -1448 1459 -1463 0
-1462 -1448 -1459 -1463 0
1462 1456 1452 1464 0
1462 1456 -1452 -1464 0
1462 -1456 1452 -1464 0
1462 -1456 -1452 -1464 0
-1462 1456 1452 -1464 0
-1462 1456 -1452 -1464 0
-1462 -1456 1452 -1464 0
-1462 -1456 -1452 -1464 0
1453 1460 1463 1464 -1465 0
1453 1460 1463 -1464 1465 0
1453 1460 -1463 1464 1465 0
1453 1460 -1463 -1464 1465 0
1453 -1460 1463 1464 1465 0
1453 -1460 1463 -1464 1465 0
1453 -1460 -1463 1464 1465 0
1453 -1460 -1463 -1464 1465 0
-1453 1460 1463 1464 1465 0
-1453 1460 1463 -1464 1465 0
-1453 1460 -1463 1464 1465 0
-1453 1460 -1463 -1464 1465 0
-1453 -1460 1463 1464 1465 0
-1453 -1460 1463 -1464 1465 0
-1453 -1460 -1463 1464 1465 0
-1453 -1460 -1463 -1464 1465 0
1465 1466 0
-1465 -1466 0
1466 1467 0
-1466 -1467 0
1467 1468 0
-1467 -1468 0
1413 1440 1468 1469 0
1413 1440 -1468 -1469 0
1413 -1440 1468 -1469 0
1413 -1440 -1468 -1469 0
-1413 1440 1468 -1469 0
-1413 1440 -1468 -1469 0
-1413 -1440 1468 -1469 0
-1413 -1440 -1468 -1469 0
1438 1470 0
-1438 -1470 0
1470 1471 0
-1470 -1471 0
1471 1472 0
-1471 -1472 0
1465 1473 0
-1465 -1473 0
1473 1474 0
-1473 -1474 0
1413 1472 1474 1475 0
1413 1472 -1474 -1475 0
1413 -1472 1474 -1475 0
1413 -1472 -1474 -1475 0
-1413 1472 1474 -1475 0
-1413 1472 -1474 -1475 0
-1413 -1472 1474 -1475 0
-1413 -1472 -1474 -1475 0
1410 1476 0
-1410 -1476 0
1476 1477 0
-1476 -1477 0
1477 1440 1474 1478 0
1477 1440 -1474 -1478 0
1477 -1440 1474 -1478 0
1477 -1440 -1474 -1478 0
-1477 1440 1474 -1478 0
-1477 1440 -1474 -1478 0
-1477 -1440 1474 -1478 0
-1477 -1440 -1474 -1478 0
1477 1472 1468 1479 0
1477 1472 -1468 -1479 0
1477 -1472 1468 -1479 0
1477 -1472 -1468 -1479 0
-1477 1472 1468 -1479 0
-1477 1472 -1468 -1479 0
-1477 -1472 1468 -1479 0
-1477 -1472 -1468 -1479 0
1469 1475 1478 1479 -1480 0
1469 1475 1478 -1479 1480 0
1469 1475 -1478 1479 1480 0
1469 1475 -1478 -1479 1480 0
1469 -1475 1478 1479 1480 0
1469 -1475 1478 -1479 1480 0
1469 -1475 -1478 1479 1480 0
1469 -1475 -1478 -1479 1480 0
-1469 1475 1478 1479 1480 0
-1469 1475 1478 -1479 1480 0
-1469 1475 -1478 1479 1480 0
-1469 1475 -1478 -1479 1480 0
-1469 -1475 1478 1479 1480 0
-1469 -1475 1478 -1479 1480 0
-1469 -1475 -1478 1479 1480 0
-1469 -1475 -1478 -1479 1480 0
1387 1480 -1481 0
1387 -1480 1481 0
-1387 1480 1481 0
-1387 -1480 -1481 0
302 1482 0
-302 -1482 0
1482 1483 0
-1482 -1483 0
1483 1484 0
-1483 -1484 0
1484 1485 0
-1484 -1485 0
394 1486 0
-394 -1486 0
1486 1487 0
-1486 -1487 0
1487 1488 0
-1487 -1488 0
1488 1489 0
-1488 -1489 0
258 1490 0
-258 -1490 0
1490 1491 0
-1490 -1491 0
1491 1492 0
-1491 -1492 0
1492 1493 0
-1492 -1493 0
1485 1489 1493 1494 0
1485 1489 -1493 -1494 0
1485 -1489 1493 -1494 0
1485 -1489 -1493 -1494 0
-1485 1489 1493 -1494 0
-1485 1489 -1493 -1494 0
-1485 -1489 1493 -1494 0
-1485 -1489 -1493 -1494 0
394 1495 0
-394 -1495 0
1495 1496 0
-1495 -1496 0
1496 1497 0
-1496 -1497 0
258 1498 0
-258 -1498 0
1498 1499 0
-1498 -1499 0
1499 1500 0
-1499 -1500 0
1485 1497 1500 1501 0
1485 1497 -1500 -1501 0
1485 -1497 1500 -1501 0
1485 -1497 -1500 -1501 0
-1485 1497 1500 -1501 0
-1485 1497 -1500 -1501 0
-1485 -1497 1500 -1501 0
-1485 -1497 -1500 -1501 0
302 1502 0
-302 -1502 0
1502 1503 0
-1502 -1503 0
1503 1504 0
-1503 -1504 0
1504 1489 1500 1505 0
1504 1489 -1500 -1505 0
1504 -1489 1500 -1505 0
1504 -1489 -1500 -1505 0
-1504 1489 1500 -1505 0
-1504 1489 -1500 -1505 0
-1504 -1489 1500 -1505 0
-1504 -1489 -1500 -1505 0
1504 1497 1493 1506 0
1504 1497 -1493 -1506 0
1504 -1497 1493 -1506 0
1504 -1497 -1493 -1506 0
-1504 1497 1493 -1506 0
-1504 1497 -1493 -1506 0
-1504 -1497 1493 -1506 0
-1504 -1497 -1493 -1506 0
1494 1501 1505 1506 -1507 0
1494 1501 1505 -1506 1507 0
1494 1501 -1505 1506 1507 0
1494 1501 -1505 -1506 1507 0
1494 -1501 1505 1506 1507 0
1494 -1501 1505 -1506 1507 0
1494 -1501 -1505 1506 1507 0
1494 -1501 -1505 -1506 1507 0
-1494 1501 1505 1506 1507 0
-1494 1501 1505 -1506 1507 0
-1494 1501 -1505 1506 1507 0
-1494 1501 -1505 -1506 1507 0
-1494 -1501 1505 1506 1507 0
-1494 -1501 1505 -1506 1507 0
-1494 -1501 -1505 1506 1507 0
-1494 -1501 -1505 -1506 1507 0
1507 1508 0
-1507 -1508 0
1508 1509 0
-1508 -1509 0
1509 1510 0
-1509 -1510 0
230 1511 0
-230 -1511 0
1511 1512 0
-1511 -1512 0
1512 1513 0
-1512 -1513 0
1513 1514 0
-1513 -1514 0
222 1515 0
-222 -1515 0
1515 1516 0
-1515 -1516 0
1516 1517 0
-1516 -1517 0
1517 1518 0
-1517 -1518 0
231 1519 0
-231 -1519 0
1519 1520 0
-1519 -1520 0
1520 1521 0
-1520 -1521 0
1521 1522 0
-1521 -1522 0
1514 1518 1522 1523 0
1514 1518 -1522 -1523 0
1514 -1518 1522 -1523 0
1514 -1518 -1522 -1523 0
-1514 1518 1522 -1523 0
-1514 1518 -1522 -1523 0
-1514 -1518 1522 -1523 0
-1514 -1518 -1522 -1523 0
222 1524 0
-222 -1524 0
1524 1525 0
-1524 -1525 0
1525 1526 0
-1525 -1526 0
231 1527 0
-231 -1527 0
1527 1528 0
-1527 -1528 0
1528 1529 0
-1528 -1529 0
1514 1526 1529 1530 0
1514 1526 -1529 -1530 0
1514 -1526 1529 -1530 0
1514 -1526 -1529 -1530 0
-1514 1526 1529 -1530 0
-1514 1526 -1529 -1530 0
-1514 -1526 1529 -1530 0
-1514 -1526 -1529 -1530 0
230 1531 0
-230 -1531 0
1531 1532 0
-1531 -1532 0
1532 1533 0
-1532 -1533 0
1533 1518 1529 1534 0
1533 1518 -1529 -1534 0
1533 -1518 1529 -1534 0
1533 -1518 -1529 -1534 0
-1533 1518 1529 -1534 0
-1533 1518 -1529 -1534 0
-1533 -1518 1529 -1534 0
-1533 -1518 -1529 -1534 0
1533 1526 1522 1535 0
1533 1526 -1522 -1535 0
1533 -1526 1522 -1535 0
1533 -1526 -1522 -1535 0
-1533 1526 1522 -1535 0
-1533 1526 -1522 -1535 0
-1533 -1526 1522 -1535 0
-1533 -1526 -1522 -1535 0
1523 1530 1534 1535 -1536 0
1523 1530 1534 -1535 1536 0
1523 1530 -1534 1535 1536 0
1523 1530 -1534 -1535 1536 0
1523 -1530 1534 1535 1536 0
1523 -1530 1534 -1535 1536 0
1523 -1530 -1534 1535 1536 0
1523 -1530 -1534 -1535 1536 0
-1523 1530 1534 1535 1536 0
-1523 1530 1534 -1535 1536 0
-1523 1530 -1534 1535 1536 0
-1523 1530 -1534 -1535 1536 0
-1523 -1530 1534 1535 1536 0
-1523 -1530 1534 -1535 1536 0
-1523 -1530 -1534 1535 1536 0
-1523 -1530 -1534 -1535 1536 0
1536 1537 0
-1536 -1537 0
1537 1538 0
-1537 -1538 0
257 1539 0
-257 -1539 0
1539 1540 0
-1539 -1540 0
1540 1541 0
-1540 -1541 0
1541 1542 0
-1541 -1542 0
233 1543 0
-233 -1543 0
1543 1544 0
-1543 -1544 0
1544 1545 0
-1544 -1545 0
1545 1546 0
-1545 -1546 0
253 1547 0
-253 -1547 0
1547 1548 0
-1547 -1548 0
1548 1549 0
-1548 -1549 0
1549 1550 0
-1549 -1550 0
1542 1546 1550 1551 0
1542 1546 -1550 -1551 0
1542 -1546 1550 -1551 0
1542 -1546 -1550 -1551 0
-1542 1546 1550 -1551 0
-1542 1546 -1550 -1551 0
-1542 -1546 1550 -1551 0
-1542 -1546 -1550 -1551 0
233 1552 0
-233 -1552 0
1552 1553 0
-1552 -1553 0
1553 1554 0
-1553 -1554 0
253 1555 0
-253 -1555 0
1555 1556 0
-1555 -1556 0
1556 1557 0
-1556 -1557 0
1542 1554 1557 1558 0
1542 1554 -1557 -1558 0
1542 -1554 1557 -1558 0
1542 -1554 -1557 -1558 0
-1542 1554 1557 -1558 0
-1542 1554 -1557 -1558 0
-1542 -1554 1557 -1558 0
-1542 -1554 -1557 -1558 0
257 1559 0
-257 -1559 0
1559 1560 0
-1559 -1560 0
1560 1561 0
-1560 -1561 0
1561 1546 1557 1562 0
1561 1546 -1557 -1562 0
1561 -1546 1557 -1562 0
1561 -1546 -1557 -1562 0
-1561 1546 1557 -1562 0
-1561 1546 -1557 -1562 0
-1561 -1546 1557 -1562 0
-1561 -1546 -1557 -1562 0
1561 1554 1550 1563 0
1561 1554 -1550 -1563 0
1561 -1554 1550 -1563 0
1561 -1554 -1550 -1563 0
-1561 1554 1550 -1563 0
-1561 1554 -1550 -1563 0
-1561 -1554 1550 -1563 0
-1561 -1554 -1550 -1563 0
1551 1558 1562 1563 -1564 0
1551 1558 1562 -1563 1564 0
1551 1558 -1562 1563 1564 0
1551 1558 -1562 -1563 1564 0
1551 -1558 1562 1563 1564 0
1551 -1558 1562 -1563 1564 0
1551 -1558 -1562 1563 1564 0
1551 -1558 -1562 -1563 1564 0
-1551 1558 1562 1563 1564 0
-1551 1558 1562 -1563 1564 0
-1551 1558 -1562 1563 1564 0
-1551 1558 -1562 -1563 1564 0
-1551 -1558 1562 1563 1564 0
-1551 -1558 1562 -1563 1564 0
-1551 -1558 -1562 1563 1564 0
-1551 -1558 -1562 -1563 1564 0
1564 1565 0
-1564 -1565 0
1565 1566 0
-1565 -1566 0
1566 1567 0
-1566 -1567 0
1510 1538 1567 1568 0
1510 1538 -1567 -1568 0
1510 -1538 1567 -1568 0
1510 -1538 -1567 -1568 0
-1510 1538 1567 -1568 0
-1510 1538 -1567 -1568 0
-1510 -1538 1567 -1568 0
-1510 -1538 -1567 -1568 0
1536 1569 0
-1536 -1569 0
1569 1570 0
-1569 -1570 0
1570 1571 0
-1570 -1571 0
1564 1572 0
-1564 -1572 0
1572 1573 0
-1572 -1573 0
1510 1571 1573 1574 0
1510 1571 -1573 -1574 0
1510 -1571 1573 -1574 0
1510 -1571 -1573 -1574 0
-1510 1571 1573 -1574 0
-1510 1571 -1573 -1574 0
-1510 -1571 1573 -1574 0
-1510 -1571 -1573 -1574 0
1507 1575 0
-1507 -1575 0
1575 1576 0
-1575 -1576 0
1576 1538 1573 1577 0
1576 1538 -1573 -1577 0
1576 -1538 1573 -1577 0
1576 -1538 -1573 -1577 0
-1576 1538 1573 -1577 0
-1576 1538 -1573 -1577 0
-1576 -1538 1573 -1577 0
-1576 -1538 -1573 -1577 0
1576 1571 1567 1578 0
1576 1571 -1567 -1578 0
1576 -1571 1567 -1578 0
1576 -1571 -1567 -1578 0
-1576 1571 1567 -1578 0
-1576 1571 -1567 -1578 0
-1576 -1571 1567 -1578 0
-1576 -1571 -1567 -1578 0
1568 1574 1577 1578 -1579 0
1568 1574 1577 -1578 1579 0
1568 1574 -1577 1578 1579 0
1568 1574 -1577 -1578 1579 0
1568 -1574 1577 1578 1579 0
1568 -1574 1577 -1578 1579 0
1568 -1574 -1577 1578 1579 0
1568 -1574 -1577 -1578 1579 0
-1568 1574 1577 1578 1579 0
-1568 1574 1577 -1578 1579 0
-1568 1574 -1577 1578 1579 0
-1568 1574 -1577 -1578 1579 0
-1568 -1574 1577 1578 1579 0
-1568 -1574 1577 -1578 1579 0
-1568 -1574 -1577 1578 1579 0
-1568 -1574 -1577 -1578 1579 0
302 1580 0
-302 -1580 0
1580 1581 0
-1580 -1581 0
1581 1582 0
-1581 -1582 0
1582 1583 0
-1582 -1583 0
394 1584 0
-394 -1584 0
1584 1585 0
-1584 -1585 0
1585 1586 0
-1585 -1586 0
1586 1587 0
-1586 -1587 0
258 1588 0
-258 -1588 0
1588 1589 0
-1588 -1589 0
1589 1590 0
-1589 -1590 0
1590 1591 0
-1590 -1591 0
1583 1587 1591 1592 0
1583 1587 -1591 -1592 0
1583 -1587 1591 -1592 0
1583 -1587 -1591 -1592 0
-1583 1587 1591 -1592 0
-1583 1587 -1591 -1592 0
-1583 -1587 1591 -1592 0
-1583 -1587 -1591 -1592 0
394 1593 0
-394 -1593 0
1593 1594 0
-1593 -1594 0
1594 1595 0
-1594 -1595 0
258 1596 0
-258 -1596 0
1596 1597 0
-1596 -1597 0
1597 1598 0
-1597 -1598 0
1583 1595 1598 1599 0
1583 1595 -1598 -1599 0
1583 -1595 1598 -1599 0
1583 -1595 -1598 -1599 0
-1583 1595 1598 -1599 0
-1583 1595 -1598 -1599 0
-1583 -1595 1598 -1599 0
-1583 -1595 -1598 -1599 0
302 1600 0
-302 -1600 0
1600 1601 0
-1600 -1601 0
1601 1602 0
-1601 -1602 0
1602 1587 1598 1603 0
1602 1587 -1598 -1603 0
1602 -1587 1598 -1603 0
1602 -1587 -1598 -1603 0
-1602 1587 1598 -1603 0
-1602 1587 -1598 -1603 0
-1602 -1587 1598 -1603 0
-1602 -1587 -1598 -1603 0
1602 1595 1591 1604 0
1602 1595 -1591 -1604 0
1602 -1595 1591 -1604 0
1602 -1595 -1591 -1604 0
-1602 1595 1591 -1604 0
-1602 1595 -1591 -1604 0
-1602 -1595 1591 -1604 0
-1602 -1595 -1591 -1604 0
1592 1599 1603 1604 -1605 0
1592 1599 1603 -1604 1605 0
1592 1599 -1603 1604 1605 0
1592 1599 -1603 -1604 1605 0
1592 -1599 1603 1604 1605 0
1592 -1599 1603 -1604 1605 0
1592 -1599 -1603 1604 1605 0
1592 -1599 -1603 -1604 1605 0
-1592 1599 1603 1604 1605 0
-1592 1599 1603 -1604 1605 0
-1592 1599 -1603 1604 1605 0
-1592 1599 -1603 -1604 1605 0
-1592 -1599 1603 1604 1605 0
-1592 -1599 1603 -1604 1605 0
-1592 -1599 -1603 1604 1605 0
-1592 -1599 -1603 -1604 1605 0
1605 1606 0
-1605 -1606 0
1606 1607 0
-1606 -1607 0
1607 1608 0
-1607 -1608 0
230 1609 0
-230 -1609 0
1609 1610 0
-1609 -1610 0
1610 1611 0
-1610 -1611 0
1611 1612 0
-1611 -1612 0
222 1613 0
-222 -1613 0
1613 1614 0
-1613 -1614 0
1614 1615 0
-1614 -1615 0
1615 1616 0
-1615 -1616 0
231 1617 0
-231 -1617 0
1617 1618 0
-1617 -1618 0
1618 1619 0
-1618 -1619 0
1619 1620 0
-1619 -1620 0
1612 1616 1620 1621 0
1612 1616 -1620 -1621 0
1612 -1616 1620 -1621 0
1612 -1616 -1620 -1621 0
-1612 1616 1620 -1621 0
-1612 1616 -1620 -1621 0
-1612 -1616 1620 -1621 0
-1612 -1616 -1620 -1621 0
222 1622 0
-222 -1622 0
1622 1623 0
-1622 -1623 0
1623 1624 0
-1623 -1624 0
231 1625 0
-231 -1625 0
1625 1626 0
-1625 -1626 0
1626 1627 0
-1626 -1627 0
1612 1624 1627 1628 0
1612 1624 -1627 -1628 0
1612 -1624 1627 -1628 0
1612 -1624 -1627 -1628 0
-1612 1624 1627 -1628 0
-1612 1624 -1627 -1628 0
-1612 -1624 1627 -1628 0
-1612 -1624 -1627 -1628 0
230 1629 0
-230 -1629 0
1629 1630 0
-1629 -1630 0
1630 1631 0
-1630 -1631 0
1631 1616 1627 1632 0
1631 1616 -1627 -1632 0
1631 -1616 1627 -1632 0
1631 -1616 -1627 -1632 0
-1631 1616 1627 -1632 0
-1631 1616 -1627 -1632 0
-1631 -1616 1627 -1632 0
-1631 -1616 -1627 -1632 0
1631 1624 1620 1633 0
1631 1624 -1620 -1633 0
1631 -1624 1620 -1633 0
1631 -1624 -1620 -1633 0
-1631 1624 1620 -1633 0
-1631 1624 -1620 -1633 0
-1631 -1624 1620 -1633 0
-1631 -1624 -1620 -1633 0
1621 1628 1632 1633 -1634 0
1621 1628 1632 -1633 1634 0
1621 1628 -1632 1633 1634 0
1621 1628 -1632 -1633 1634 0
1621 -1628 1632 1633 1634 0
1621 -1628 1632 -1633 1634 0
1621 -1628 -1632 1633 1634 0
1621 -1628 -1632 -1633 1634 0
-1621 1628 1632 1633 1634 0
-1621 1628 1632 -1633 1634 0
-1621 1628 -1632 1633 1634 0
-1621 1628 -1632 -1633 1634 0
-1621 -1628 1632 1633 1634 0
-1621 -1628 1632 -1633 1634 0
-1621 -1628 -1632 1633 1634 0
-1621 -1628 -1632 -1633 1634 0
1634 1635 0
-1634 -1635 0
1635 1636 0
-1635 -1636 0
257 1637 0
-257 -1637 0
1637 1638 0
-1637 -1638 0
1638 1639 0
-1638 -1639 0
1639 1640 0
-1639 -1640 0
233 1641 0
-233 -1641 0
1641 1642 0
-1641 -1642 0
1642 1643 0
-1642 -1643 0
1643 1644 0
-1643 -1644 0
253 1645 0
-253 -1645 0
1645 1646 0
-1645 -1646 0
1646 1647 0
-1646 -1647 0
1647 1648 0
-1647 -1648 0
1640 1644 1648 1649 0
1640 1644 -1648 -1649 0
1640 -1644 1648 -1649 0
1640 -1644 -1648 -1649 0
-1640 1644 1648 -1649 0
-1640 1644 -1648 -1649 0
-1640 -1644 1648 -1649 0
-1640 -1644 -1648 -1649 0
233 1650 0
-233 -1650 0
1650 1651 0
-1650 -1651 0
1651 1652 0
-1651 -1652 0
253 1653 0
-253 -1653 0
1653 1654 0
-1653 -1654 0
1654 1655 0
-1654 -1655 0
1640 1652 1655 1656 0
1640 1652 -1655 -1656 0
1640 -1652 1655 -1656 0
1640 -1652 -1655 -1656 0
-1640 1652 1655 -1656 0
-1640 1652 -1655 -1656 0
-1640 -1652 1655 -1656 0
-1640 -1652 -1655 -1656 0
257 1657 0
-257 -1657 0
1657 1658 0
-1657 -1658 0
1658 1659 0
-1658 -1659 0
1659 1644 1655 1660 0
1659 1644 -1655 -1660 0
1659 -1644 1655 -1660 0
1659 -1644 -1655 -1660 0
-1659 1644 1655 -1660 0
-1659 1644 -1655 -1660 0
-1659 -1644 1655 -1660 0
-1659 -1644 -1655 -1660 0
1659 1652 1648 1661 0
1659 1652 -1648 -1661 0
1659 -1652 1648 -1661 0
1659 -1652 -1648 -1661 0
-1659 1652 1648 -1661 0
-1659 1652 -1648 -1661 0
-1659 -1652 1648 -1661 0
-1659 -1652 -1648 -1661 0
1649 1656 1660 1661 -1662 0
1649 1656 1660 -1661 1662 0
1649 1656 -1660 1661 1662 0
1649 1656 -1660 -1661 1662 0
1649 -1656 1660 1661 1662 0
1649 -1656 1660 -1661 1662 0
1649 -1656 -1660 1661 1662 0
1649 -1656 -1660 -1661 1662 0
-1649 1656 1660 1661 1662 0
-1649 1656 1660 -1661 1662 0
-1649 1656 -1660 1661 1662 0
-1649 1656 -1660 -1661 1662 0
-1649 -1656 1660 1661 1662 0
-1649 -1656 1660 -1661 1662 0
-1649 -1656 -1660 1661 1662 0
-1649 -1656 -1660 -1661 1662 0
1662 1663 0
-1662 -1663 0
1663 1664 0
-1663 -1664 0
1664 1665 0
-1664 -1665 0
1608 1636 1665 1666 0
1608 1636 -1665 -1666 0
1608 -1636 1665 -1666 0
1608 -1636 -1665 -1666 0
-1608 1636 1665 -1666 0
-1608 1636 -1665 -1666 0
-1608 -1636 1665 -1666 0
-1608 -1636 -1665 -1666 0
1634 1667 0
-1634 -1667 0
1667 1668 0
-1667 -1668 0
1668 1669 0
-1668 -1669 0
1662 1670 0
-1662 -1670 0
1670 1671 0
-1670 -1671 0
1608 1669 1671 1672 0
1608 1669 -1671 -1672 0
1608 -1669 1671 -1672 0
1608 -1669 -1671 -1672 0
-1608 1669 1671 -1672 0
-1608 1669 -1671 -1672 0
-1608 -1669 1671 -1672 0
-1608 -1669 -1671 -1672 0
1605 1673 0
-1605 -1673 0
1673 1674 0
-1673 -1674 0
1674 1636 1671 1675 0
1674 1636 -1671 -1675 0
1674 -1636 1671 -1675 0
1674 -1636 -1671 -1675 0
-1674 1636 1671 -1675 0
-1674 1636 -1671 -1675 0
-1674 -1636 1671 -1675 0
-1674 -1636 -1671 -1675 0
1674 1669 1665 1676 0
1674 1669 -1665 -1676 0
1674 -1669 1665 -1676 0
1674 -1669 -1665 -1676 0
-1674 1669 1665 -1676 0
-1674 1669 -1665 -1676 0
-1674 -1669 1665 -1676 0
-1674 -1669 -1665 -1676 0
1666 1672 1675 1676 -1677 0
1666 1672 1675 -1676 1677 0
1666 1672 -1675 1676 1677 0
1666 1672 -1675 -1676 1677 0
1666 -1672 1675 1676 1677 0
1666 -1672 1675 -1676 1677 0
1666 -1672 -1675 1676 1677 0
1666 -1672 -1675 -1676 1677 0
-1666 1672 1675 1676 1677 0
-1666 1672 1675 -1676 1677 0
-1666 1672 -1675 1676 1677 0
-1666 1672 -1675 -1676 1677 0
-1666 -1672 1675 1676 1677 0
-1666 -1672 1675 -1676 1677 0
-1666 -1672 -1675 1676 1677 0
-1666 -1672 -1675 -1676 1677 0
1579 1677 -1678 0
1579 -1677 1678 0
-1579 1677 1678 0
-1579 -1677 -1678 0
668 826 1679 0
668 -826 -1679 0
-668 826 -1679 0
-668 -826 -1679 0
1679 1680 0
-1679 -1680 0
823 703 1681 0
823 -703 -1681 0
-823 703 -1681 0
-823 -703 -1681 0
1681 1682 0
-1681 -1682 0
665 1680 1682 1683 0
665 1680 -1682 -1683 0
665 -1680 1682 -1683 0
665 -1680 -1682 -1683 0
-665 1680 1682 -1683 0
-665 1680 -1682 -1683 0
-665 -1680 1682 -1683 0
-665 -1680 -1682 -1683 0
699 702 704 1684 0
699 702 -704 -1684 0
699 -702 704 -1684 0
699 -702 -704 -1684 0
-699 702 704 -1684 0
-699 702 -704 -1684 0
-699 -702 704 -1684 0
-699 -702 -704 -1684 0
1683 1684 1685 0
1683 -1684 -1685 0
-1683 1684 -1685 0
-1683 -1684 -1685 0
1685 1686 0
-1685 -1686 0
376 1687 0
-376 -1687 0
1687 1688 0
-1687 -1688 0
1688 1689 0
-1688 -1689 0
1689 1690 0
-1689 -1690 0
1690 1691 0
-1690 -1691 0
1691 1692 0
-1691 -1692 0
376 1693 0
-376 -1693 0
1693 1694 0
-1693 -1694 0
1694 1695 0
-1694 -1695 0
1695 1696 0
-1695 -1696 0
1696 1697 0
-1696 -1697 0
1692 1697 -1698 0
1692 -1697 1698 0
-1692 1697 1698 0
-1692 -1697 1698 0
1698 1699 0
-1698 -1699 0
1699 1700 0
-1699 -1700 0
1686 1700 -1701 0
1686 -1700 1701 0
-1686 1700 1701 0
-1686 -1700 1701 0
1701 1702 0
-1701 -1702 0
1702 1703 0
-1702 -1703 0
1703 1704 0
-1703 -1704 0
1704 1705 0
-1704 -1705 0
740 880 1706 0
740 -880 -1706 0
-740 880 -1706 0
-740 -880 -1706 0
1706 1707 0
-1706 -1707 0
877 775 1708 0
877 -775 -1708 0
-877 775 -1708 0
-877 -775 -1708 0
1708 1709 0
-1708 -1709 0
737 1707 1709 1710 0
737 1707 -1709 -1710 0
737 -1707 1709 -1710 0
737 -1707 -1709 -1710 0
-737 1707 1709 -1710 0
-737 1707 -1709 -1710 0
-737 -1707 1709 -1710 0
-737 -1707 -1709 -1710 0
771 774 776 1711 0
771 774 -776 -1711 0
771 -774 776 -1711 0
771 -774 -776 -1711 0
-771 774 776 -1711 0
-771 774 -776 -1711 0
-771 -774 776 -1711 0
-771 -774 -776 -1711 0
1710 1711 1712 0
1710 -1711 -1712 0
-1710 1711 -1712 0
-1710 -1711 -1712 0
1712 1713 0
-1712 -1713 0
376 1714 0
-376 -1714 0
1714 1715 0
-1714 -1715 0
1715 1716 0
-1715 -1716 0
1716 1717 0
-1716 -1717 0
1717 1718 0
-1717 -1718 0
1718 1719 0
-1718 -1719 0
376 1720 0
-376 -1720 0
1720 1721 0
-1720 -1721 0
1721 1722 0
-1721 -1722 0
1722 1723 0
-1722 -1723 0
1723 1724 0
-1723 -1724 0
1719 1724 -1725 0
1719 -1724 1725 0
-1719 1724 1725 0
-1719 -1724 1725 0
1725 1726 0
-1725 -1726 0
1726 1727 0
-1726 -1727 0
1713 1727 -1728 0
1713 -1727 1728 0
-1713 1727 1728 0
-1713 -1727 1728 0
1728 1729 0
-1728 -1729 0
1729 1730 0
-1729 -1730 0
1730 1731 0
-1730 -1731 0
1731 1732 0
-1731 -1732 0
1705 1732 -1733 0
1705 -1732 1733 0
-1705 1732 1733 0
-1705 -1732 -1733 0
700 704 701 1734 0
700 704 -701 -1734 0
700 -704 701 -1734 0
700 -704 -701 -1734 0
-700 704 701 -1734 0
-700 704 -701 -1734 0
-700 -704 701 -1734 0
-700 -704 -701 -1734 0
664 1735 0
-664 -1735 0
671 694 1736 0
671 -694 -1736 0
-671 694 -1736 0
-671 -694 -1736 0
1736 1737 0
-1736 -1737 0
1735 1737 1682 1738 0
1735 1737 -1682 -1738 0
1735 -1737 1682 -1738 0
1735 -1737 -1682 -1738 0
-1735 1737 1682 -1738 0
-1735 1737 -1682 -1738 0
-1735 -1737 1682 -1738 0
-1735 -1737 -1682 -1738 0
1734 1738 1739 0
1734 -1738 -1739 0
-1734 1738 -1739 0
-1734 -1738 -1739 0
1739 1740 0
-1739 -1740 0
356 1741 0
-356 -1741 0
1741 1742 0
-1741 -1742 0
1742 1743 0
-1742 -1743 0
1743 1744 0
-1743 -1744 0
1744 1745 0
-1744 -1745 0
1689 1742 1746 0
1689 -1742 -1746 0
-1689 1742 -1746 0
-1689 -1742 -1746 0
356 1747 0
-356 -1747 0
1747 1748 0
-1747 -1748 0
1748 1749 0
-1748 -1749 0
1694 1749 1750 0
1694 -1749 -1750 0
-1694 1749 -1750 0
-1694 -1749 -1750 0
1745 1746 1750 -1751 0
1745 1746 -1750 1751 0
1745 -1746 1750 1751 0
1745 -1746 -1750 1751 0
-1745 1746 1750 1751 0
-1745 1746 -1750 1751 0
-1745 -1746 1750 1751 0
-1745 -1746 -1750 1751 0
1751 1752 0
-1751 -1752 0
1752 1753 0
-1752 -1753 0
1740 1753 -1754 0
1740 -1753 1754 0
-1740 1753 1754 0
-1740 -1753 1754 0
1754 1755 0
-1754 -1755 0
1755 1756 0
-1755 -1756 0
1756 1757 0
-1756 -1757 0
1757 1758 0
-1757 -1758 0
772 776 773 1759 0
772 776 -773 -1759 0
772 -776 773 -1759 0
772 -776 -773 -1759 0
-772 776 773 -1759 0
-772 776 -773 -1759 0
-772 -776 773 -1759 0
-772 -776 -773 -1759 0
736 1760 0
-736 -1760 0
743 766 1761 0
743 -766 -1761 0
-743 766 -1761 0
-743 -766 -1761 0
1761 1762 0
-1761 -1762 0
1760 1762 1709 1763 0
1760 1762 -1709 -1763 0
1760 -1762 1709 -1763 0
1760 -1762 -1709 -1763 0
-1760 1762 1709 -1763 0
-1760 1762 -1709 -1763 0
-1760 -1762 1709 -1763 0
-1760 -1762 -1709 -1763 0
1759 1763 1764 0
1759 -1763 -1764 0
-1759 1763 -1764 0
-1759 -1763 -1764 0
1764 1765 0
-1764 -1765 0
356 1766 0
-356 -1766 0
1766 1767 0
-1766 -1767 0
1767 1768 0
-1767 -1768 0
1768 1769 0
-1768 -1769 0
1769 1770 0
-1769 -1770 0
1716 1767 1771 0
1716 -1767 -1771 0
-1716 1767 -1771 0
-1716 -1767 -1771 0
356 1772 0
-356 -1772 0
1772 1773 0
-1772 -1773 0
1773 1774 0
-1773 -1774 0
1721 1774 1775 0
1721 -1774 -1775 0
-1721 1774 -1775 0
-1721 -1774 -1775 0
1770 1771 1775 -1776 0
1770 1771 -1775 1776 0
1770 -1771 1775 1776 0
1770 -1771 -1775 1776 0
-1770 1771 1775 1776 0
-1770 1771 -1775 1776 0
-1770 -1771 1775 1776 0
-1770 -1771 -1775 1776 0
1776 1777 0
-1776 -1777 0
1777 1778 0
-1777 -1778 0
1765 1778 -1779 0
1765 -1778 1779 0
-1765 1778 1779 0
-1765 -1778 1779 0
1779 1780 0
-1779 -1780 0
1780 1781 0
-1780 -1781 0
1781 1782 0
-1781 -1782 0
1782 1783 0
-1782 -1783 0
1758 1783 -1784 0
1758 -1783 1784 0
-1758 1783 1784 0
-1758 -1783 -1784 0
330 1785 0
-330 -1785 0
1785 1786 0
-1785 -1786 0
1786 1491 1787 0
1786 -1491 -1787 0
-1786 1491 -1787 0
-1786 -1491 -1787 0
367 1788 0
-367 -1788 0
1788 1789 0
-1788 -1789 0
1742 1694 1790 0
1742 -1694 -1790 0
-1742 1694 -1790 0
-1742 -1694 -1790 0
1789 1790 1791 0
1789 -1790 -1791 0
-1789 1790 -1791 0
-1789 -1790 -1791 0
367 1792 0
-367 -1792 0
1792 1793 0
-1792 -1793 0
1793 1794 0
-1793 -1794 0
1790 1795 0
-1790 -1795 0
1794 1795 1796 0
1794 -1795 -1796 0
-1794 1795 -1796 0
-1794 -1795 -1796 0
1791 1796 -1797 0
1791 -1796 1797 0
-1791 1796 1797 0
-1791 -1796 1797 0
1797 1798 0
-1797 -1798 0
1798 1799 0
-1798 -1799 0
1787 1799 -1800 0
1787 -1799 1800 0
-1787 1799 1800 0
-1787 -1799 1800 0
1800 1801 0
-1800 -1801 0
1801 1802 0
-1801 -1802 0
1802 1803 0
-1802 -1803 0
1803 1804 0
-1803 -1804 0
330 1805 0
-330 -1805 0
1805 1806 0
-1805 -1806 0
1806 1589 1807 0
1806 -1589 -1807 0
-1806 1589 -1807 0
-1806 -1589 -1807 0
367 1808 0
-367 -1808 0
1808 1809 0
-1808 -1809 0
1767 1721 1810 0
1767 -1721 -1810 0
-1767 1721 -1810 0
-1767 -1721 -1810 0
1809 1810 1811 0
1809 -1810 -1811 0
-1809 1810 -1811 0
-1809 -1810 -1811 0
367 1812 0
-367 -1812 0
1812 1813 0
-1812 -1813 0
1813 1814 0
-1813 -1814 0
1810 1815 0
-1810 -1815 0
1814 1815 1816 0
1814 -1815 -1816 0
-1814 1815 -1816 0
-1814 -1815 -1816 0
1811 1816 -1817 0
1811 -1816 1817 0
-1811 1816 1817 0
-1811 -1816 1817 0
1817 1818 0
-1817 -1818 0
1818 1819 0
-1818 -1819 0
1807 1819 -1820 0
1807 -1819 1820 0
-1807 1819 1820 0
-1807 -1819 1820 0
1820 1821 0
-1820 -1821 0
1821 1822 0
-1821 -1822 0
1822 1823 0
-1822 -1823 0
1823 1824 0
-1823 -1824 0
1804 1824 -1825 0
1804 -1824 1825 0
-1804 1824 1825 0
-1804 -1824 -1825 0
380 1826 0
-380 -1826 0
387 1827 0
-387 -1827 0
377 1828 0
-377 -1828 0
1826 1827 1828 1829 0
1826 1827 -1828 -1829 0
1826 -1827 1828 -1829 0
1826 -1827 -1828 -1829 0
-1826 1827 1828 -1829 0
-1826 1827 -1828 -1829 0
-1826 -1827 1828 -1829 0
-1826 -1827 -1828 -1829 0
1829 1830 0
-1829 -1830 0
1830 1831 0
-1830 -1831 0
1831 1832 0
-1831 -1832 0
1832 1833 0
-1832 -1833 0
1833 1834 0
-1833 -1834 0
1834 1835 0
-1834 -1835 0
1835 1836 0
-1835 -1836 0
380 1837 0
-380 -1837 0
387 1838 0
-387 -1838 0
377 1839 0
-377 -1839 0
1837 1838 1839 1840 0
1837 1838 -1839 -1840 0
1837 -1838 1839 -1840 0
1837 -1838 -1839 -1840 0
-1837 1838 1839 -1840 0
-1837 1838 -1839 -1840 0
-1837 -1838 1839 -1840 0
-1837 -1838 -1839 -1840 0
1840 1841 0
-1840 -1841 0
1841 1842 0
-1841 -1842 0
1842 1843 0
-1842 -1843 0
1843 1844 0
-1843 -1844 0
1844 1845 0
-1844 -1845 0
1845 1846 0
-1845 -1846 0
1846 1847 0
-1846 -1847 0
1836 1847 -1848 0
1836 -1847 1848 0
-1836 1847 1848 0
-1836 -1847 -1848 0
331 1849 0
-331 -1849 0
1849 1850 0
-1849 -1850 0
1850 1851 0
-1850 -1851 0
1851 1852 0
-1851 -1852 0
1852 1853 0
-1852 -1853 0
1853 1854 0
-1853 -1854 0
1854 1855 0
-1854 -1855 0
331 1856 0
-331 -1856 0
1856 1857 0
-1856 -1857 0
1857 1858 0
-1857 -1858 0
1858 1859 0
-1858 -1859 0
1859 1860 0
-1859 -1860 0
1860 1861 0
-1860 -1861 0
1861 1862 0
-1861 -1862 0
1855 1862 -1863 0
1855 -1862 1863 0
-1855 1862 1863 0
-1855 -1862 -1863 0
332 1864 0
-332 -1864 0
331 1865 0
-331 -1865 0
1865 1866 0
-1865 -1866 0
1866 1867 0
-1866 -1867 0
1864 1867 -1868 0
1864 -1867 1868 0
-1864 1867 1868 0
-1864 -1867 1868 0
1868 1869 0
-1868 -1869 0
1869 1870 0
-1869 -1870 0
1870 1871 0
-1870 -1871 0
1871 1872 0
-1871 -1872 0
332 1873 0
-332 -1873 0
331 1874 0
-331 -1874 0
1874 1875 0
-1874 -1875 0
1875 1876 0
-1875 -1876 0
1873 1876 -1877 0
1873 -1876 1877 0
-1873 1876 1877 0
-1873 -1876 1877 0
1877 1878 0
-1877 -1878 0
1878 1879 0
-1878 -1879 0
1879 1880 0
-1879 -1880 0
1880 1881 0
-1880 -1881 0
1872 1881 -1882 0
1872 -1881 1882 0
-1872 1881 1882 0
-1872 -1881 -1882 0
319 1883 0
-319 -1883 0
386 1884 0
-386 -1884 0
385 1885 0
-385 -1885 0
1883 1884 1885 1886 0
1883 1884 -1885 -1886 0
1883 -1884 1885 -1886 0
1883 -1884 -1885 -1886 0
-1883 1884 1885 -1886 0
-1883 1884 -1885 -1886 0
-1883 -1884 1885 -1886 0
-1883 -1884 -1885 -1886 0
1886 1887 0
-1886 -1887 0
648 1887 1888 0
648 -1887 -1888 0
-648 1887 -1888 0
-648 -1887 -1888 0
361 1889 0
-361 -1889 0
364 1890 0
-364 -1890 0
370 1891 0
-370 -1891 0
353 1892 0
-353 -1892 0
371 1893 0
-371 -1893 0
352 1894 0
-352 -1894 0
1892 1893 1894 -1895 0
1892 1893 -1894 1895 0
1892 -1893 1894 1895 0
1892 -1893 -1894 1895 0
-1892 1893 1894 1895 0
-1892 1893 -1894 1895 0
-1892 -1893 1894 1895 0
-1892 -1893 -1894 1895 0
1889 1890 1891 1895 -1896 0
1889 1890 1891 -1895 1896 0
1889 1890 -1891 1895 1896 0
1889 1890 -1891 -1895 1896 0
1889 -1890 1891 1895 1896 0
1889 -1890 1891 -1895 1896 0
1889 -1890 -1891 1895 1896 0
1889 -1890 -1891 -1895 1896 0
-1889 1890 1891 1895 1896 0
-1889 1890 1891 -1895 1896 0
-1889 1890 -1891 1895 1896 0
-1889 1890 -1891 -1895 1896 0
-1889 -1890 1891 1895 1896 0
-1889 -1890 1891 -1895 1896 0
-1889 -1890 -1891 1895 1896 0
-1889 -1890 -1891 -1895 1896 0
1896 1897 0
-1896 -1897 0
1897 1898 0
-1897 -1898 0
1888 1898 -1899 0
1888 -1898 1899 0
-1888 1898 1899 0
-1888 -1898 1899 0
1899 1900 0
-1899 -1900 0
1900 1901 0
-1900 -1901 0
1901 1902 0
-1901 -1902 0
319 1903 0
-319 -1903 0
386 1904 0
-386 -1904 0
385 1905 0
-385 -1905 0
1903 1904 1905 1906 0
1903 1904 -1905 -1906 0
1903 -1904 1905 -1906 0
1903 -1904 -1905 -1906 0
-1903 1904 1905 -1906 0
-1903 1904 -1905 -1906 0
-1903 -1904 1905 -1906 0
-1903 -1904 -1905 -1906 0
1906 1907 0
-1906 -1907 0
720 1907 1908 0
720 -1907 -1908 0
-720 1907 -1908 0
-720 -1907 -1908 0
361 1909 0
-361 -1909 0
364 1910 0
-364 -1910 0
370 1911 0
-370 -1911 0
353 1912 0
-353 -1912 0
371 1913 0
-371 -1913 0
352 1914 0
-352 -1914 0
1912 1913 1914 -1915 0
1912 1913 -1914 1915 0
1912 -1913 1914 1915 0
1912 -1913 -1914 1915 0
-1912 1913 1914 1915 0
-1912 1913 -1914 1915 0
-1912 -1913 1914 1915 0
-1912 -1913 -1914 1915 0
1909 1910 1911 1915 -1916 0
1909 1910 1911 -1915 1916 0
1909 1910 -1911 1915 1916 0
1909 1910 -1911 -1915 1916 0
1909 -1910 1911 1915 1916 0
1909 -1910 1911 -1915 1916 0
1909 -1910 -1911 1915 1916 0
1909 -1910 -1911 -1915 1916 0
-1909 1910 1911 1915 1916 0
-1909 1910 1911 -1915 1916 0
-1909 1910 -1911 1915 1916 0
-1909 1910 -1911 -1915 1916 0
-1909 -1910 1911 1915 1916 0
-1909 -1910 1911 -1915 1916 0
-1909 -1910 -1911 1915 1916 0
-1909 -1910 -1911 -1915 1916 0
1916 1917 0
-1916 -1917 0
1917 1918 0
-1917 -1918 0
1908 1918 -1919 0
1908 -1918 1919 0
-1908 1918 1919 0
-1908 -1918 1919 0
1919 1920 0
-1919 -1920 0
1920 1921 0
-1920 -1921 0
1921 1922 0
-1921 -1922 0
1902 1922 -1923 0
1902 -1922 1923 0
-1902 1922 1923 0
-1902 -1922 -1923 0
1884 1885 1883 1924 0
1884 1885 -1883 -1924 0
1884 -1885 1883 -1924 0
1884 -1885 -1883 -1924 0
-1884 1885 1883 -1924 0
-1884 1885 -1883 -1924 0
-1884 -1885 1883 -1924 0
-1884 -1885 -1883 -1924 0
1531 1527 1925 0
1531 -1527 -1925 0
-1531 1527 -1925 0
-1531 -1527 -1925 0
1925 1926 0
-1925 -1926 0
1548 1552 1927 0
1548 -1552 -1927 0
-1548 1552 -1927 0
-1548 -1552 -1927 0
1927 1928 0
-1927 -1928 0
1926 1928 1929 0
1926 -1928 -1929 0
-1926 1928 -1929 0
-1926 -1928 -1929 0
1929 1930 0
-1929 -1930 0
1786 1931 0
-1786 -1931 0
1931 1932 0
-1931 -1932 0
1930 1932 1933 0
1930 -1932 -1933 0
-1930 1932 -1933 0
-1930 -1932 -1933 0
1785 1934 0
-1785 -1934 0
1934 1935 0
-1934 -1935 0
1935 1936 0
-1935 -1936 0
1555 1544 1937 0
1555 -1544 -1937 0
-1555 1544 -1937 0
-1555 -1544 -1937 0
1937 1938 0
-1937 -1938 0
1531 1520 1939 0
1531 -1520 -1939 0
-1531 1520 -1939 0
-1531 -1520 -1939 0
1939 1940 0
-1939 -1940 0
1938 1940 1941 0
1938 -1940 -1941 0
-1938 1940 -1941 0
-1938 -1940 -1941 0
1941 1942 0
-1941 -1942 0
1936 1942 1943 0
1936 -1942 -1943 0
-1936 1942 -1943 0
-1936 -1942 -1943 0
1938 1926 1944 0
1938 -1926 -1944 0
-1938 1926 -1944 0
-1938 -1926 -1944 0
1944 1945 0
-1944 -1945 0
1934 1946 0
-1934 -1946 0
1946 1947 0
-1946 -1947 0
1945 1947 1948 0
1945 -1947 -1948 0
-1945 1947 -1948 0
-1945 -1947 -1948 0
1527 1512 1949 0
1527 -1512 -1949 0
-1527 1512 -1949 0
-1527 -1512 -1949 0
1949 1950 0
-1949 -1950 0
1555 1552 1951 0
1555 -1552 -1951 0
-1555 1552 -1951 0
-1555 -1552 -1951 0
1951 1952 0
-1951 -1952 0
1950 1952 1953 0
1950 -1952 -1953 0
-1950 1952 -1953 0
-1950 -1952 -1953 0
1953 1954 0
-1953 -1954 0
1934 1955 0
-1934 -1955 0
1955 1956 0
-1955 -1956 0
1954 1956 1957 0
1954 -1956 -1957 0
-1954 1956 -1957 0
-1954 -1956 -1957 0
1934 1958 0
-1934 -1958 0
1958 1959 0
-1958 -1959 0
1512 1520 1960 0
1512 -1520 -1960 0
-1512 1520 -1960 0
-1512 -1520 -1960 0
1960 1961 0
-1960 -1961 0
1961 1952 1962 0
1961 -1952 -1962 0
-1961 1952 -1962 0
-1961 -1952 -1962 0
1962 1963 0
-1962 -1963 0
1959 1963 1964 0
1959 -1963 -1964 0
-1959 1963 -1964 0
-1959 -1963 -1964 0
1934 1965 0
-1934 -1965 0
1965 1966 0
-1965 -1966 0
1940 1952 1967 0
1940 -1952 -1967 0
-1940 1952 -1967 0
-1940 -1952 -1967 0
1967 1968 0
-1967 -1968 0
1966 1968 1969 0
1966 -1968 -1969 0
-1966 1968 -1969 0
-1966 -1968 -1969 0
1957 1964 1969 -1970 0
1957 1964 -1969 1970 0
1957 -1964 1969 1970 0
1957 -1964 -1969 1970 0
-1957 1964 1969 1970 0
-1957 1964 -1969 1970 0
-1957 -1964 1969 1970 0
-1957 -1964 -1969 1970 0
1933 1943 1948 1970 -1971 0
1933 1943 1948 -1970 1971 0
1933 1943 -1948 1970 1971 0
1933 1943 -1948 -1970 1971 0
1933 -1943 1948 1970 1971 0
1933 -1943 1948 -1970 1971 0
1933 -1943 -1948 1970 1971 0
1933 -1943 -1948 -1970 1971 0
-1933 1943 1948 1970 1971 0
-1933 1943 1948 -1970 1971 0
-1933 1943 -1948 1970 1971 0
-1933 1943 -1948 -1970 1971 0
-1933 -1943 1948 1970 1971 0
-1933 -1943 1948 -1970 1971 0
-1933 -1943 -1948 1970 1971 0
-1933 -1943 -1948 -1970 1971 0
1971 1972 0
-1971 -1972 0
1972 1973 0
-1972 -1973 0
1924 1973 -1974 0
1924 -1973 1974 0
-1924 1973 1974 0
-1924 -1973 1974 0
1974 1975 0
-1974 -1975 0
1975 1976 0
-1975 -1976 0
1976 1977 0
-1976 -1977 0
1904 1905 1903 1978 0
1904 1905 -1903 -1978 0
1904 -1905 1903 -1978 0
1904 -1905 -1903 -1978 0
-1904 1905 1903 -1978 0
-1904 1905 -1903 -1978 0
-1904 -1905 1903 -1978 0
-1904 -1905 -1903 -1978 0
1629 1625 1979 0
1629 -1625 -1979 0
-1629 1625 -1979 0
-1629 -1625 -1979 0
1979 1980 0
-1979 -1980 0
1646 1650 1981 0
1646 -1650 -1981 0
-1646 1650 -1981 0
-1646 -1650 -1981 0
1981 1982 0
-1981 -1982 0
1980 1982 1983 0
1980 -1982 -1983 0
-1980 1982 -1983 0
-1980 -1982 -1983 0
1983 1984 0
-1983 -1984 0
1806 1985 0
-1806 -1985 0
1985 1986 0
-1985 -1986 0
1984 1986 1987 0
1984 -1986 -1987 0
-1984 1986 -1987 0
-1984 -1986 -1987 0
1805 1988 0
-1805 -1988 0
1988 1989 0
-1988 -1989 0
1989 1990 0
-1989 -1990 0
1653 1642 1991 0
1653 -1642 -1991 0
-1653 1642 -1991 0
-1653 -1642 -1991 0
1991 1992 0
-1991 -1992 0
1629 1618 1993 0
1629 -1618 -1993 0
-1629 1618 -1993 0
-1629 -1618 -1993 0
1993 1994 0
-1993 -1994 0
1992 1994 1995 0
1992 -1994 -1995 0
-1992 1994 -1995 0
-1992 -1994 -1995 0
1995 1996 0
-1995 -1996 0
1990 1996 1997 0
1990 -1996 -1997 0
-1990 1996 -1997 0
-1990 -1996 -1997 0
1992 1980 1998 0
1992 -1980 -1998 0
-1992 1980 -1998 0
-1992 -1980 -1998 0
1998 1999 0
-1998 -1999 0
1988 2000 0
-1988 -2000 0
2000 2001 0
-2000 -2001 0
1999 2001 2002 0
1999 -2001 -2002 0
-1999 2001 -2002 0
-1999 -2001 -2002 0
1625 1610 2003 0
1625 -1610 -2003 0
-1625 1610 -2003 0
-1625 -1610 -2003 0
2003 2004 0
-2003 -2004 0
1653 1650 2005 0
1653 -1650 -2005 0
-1653 1650 -2005 0
-1653 -1650 -2005 0
2005 2006 0
-2005 -2006 0
2004 2006 2007 0
2004 -2006 -2007 0
-2004 2006 -2007 0
-2004 -2006 -2007 0
2007 2008 0
-2007 -2008 0
1988 2009 0
-1988 -2009 0
2009 2010 0
-2009 -2010 0
2008 2010 2011 0
2008 -2010 -2011 0
-2008 2010 -2011 0
-2008 -2010 -2011 0
1988 2012 0
-1988 -2012 0
2012 2013 0
-2012 -2013 0
1610 1618 2014 0
1610 -1618 -2014 0
-1610 1618 -2014 0
-1610 -1618 -2014 0
2014 2015 0
-2014 -2015 0
2015 2006 2016 0
2015 -2006 -2016 0
-2015 2006 -2016 0
-2015 -2006 -2016 0
2016 2017 0
-2016 -2017 0
2013 2017 2018 0
2013 -2017 -2018 0
-2013 2017 -2018 0
-2013 -2017 -2018 0
1988 2019 0
-1988 -2019 0
2019 2020 0
-2019 -2020 0
1994 2006 2021 0
1994 -2006 -2021 0
-1994 2006 -2021 0
-1994 -2006 -2021 0
2021 2022 0
-2021 -2022 0
2020 2022 2023 0
2020 -2022 -2023 0
-2020 2022 -2023 0
-2020 -2022 -2023 0
2011 2018 2023 -2024 0
2011 2018 -2023 2024 0
2011 -2018 2023 2024 0
2011 -2018 -2023 2024 0
-2011 2018 2023 2024 0
-2011 2018 -2023 2024 0
-2011 -2018 2023 2024 0
-2011 -2018 -2023 2024 0
1987 1997 2002 2024 -2025 0
1987 1997 2002 -2024 2025 0
1987 1997 -2002 2024 2025 0
1987 1997 -2002 -2024 2025 0
1987 -1997 2002 2024 2025 0
1987 -1997 2002 -2024 2025 0
1987 -1997 -2002 2024 2025 0
1987 -1997 -2002 -2024 2025 0
-1987 1997 2002 2024 2025 0
-1987 1997 2002 -2024 2025 0
-1987 1997 -2002 2024 2025 0
-1987 1997 -2002 -2024 2025 0
-1987 -1997 2002 2024 2025 0
-1987 -1997 2002 -2024 2025 0
-1987 -1997 -2002 2024 2025 0
-1987 -1997 -2002 -2024 2025 0
2025 2026 0
-2025 -2026 0
2026 2027 0
-2026 -2027 0
1978 2027 -2028 0
1978 -2027 2028 0
-1978 2027 2028 0
-1978 -2027 2028 0
2028 2029 0
-2028 -2029 0
2029 2030 0
-2029 -2030 0
2030 2031 0
-2030 -2031 0
1977 2031 -2032 0
1977 -2031 2032 0
-1977 2031 2032 0
-1977 -2031 -2032 0
336 2033 0
-336 -2033 0
2033 2034 0
-2033 -2034 0
2034 2035 0
-2034 -2035 0
340 2036 0
-340 -2036 0
2036 2037 0
-2036 -2037 0
2037 2038 0
-2037 -2038 0
314 2039 0
-314 -2039 0
2039 2040 0
-2039 -2040 0
2040 2041 0
-2040 -2041 0
2035 2038 2041 2042 0
2035 2038 -2041 -2042 0
2035 -2038 2041 -2042 0
2035 -2038 -2041 -2042 0
-2035 2038 2041 -2042 0
-2035 2038 -2041 -2042 0
-2035 -2038 2041 -2042 0
-2035 -2038 -2041 -2042 0
2042 2043 0
-2042 -2043 0
348 2044 0
-348 -2044 0
2044 2045 0
-2044 -2045 0
347 2046 0
-347 -2046 0
2046 2047 0
-2046 -2047 0
2045 2047 2048 0
2045 -2047 -2048 0
-2045 2047 -2048 0
-2045 -2047 -2048 0
2048 2049 0
-2048 -2049 0
2043 2049 2050 0
2043 -2049 -2050 0
-2043 2049 -2050 0
-2043 -2049 -2050 0
2050 2051 0
-2050 -2051 0
239 2052 0
-239 -2052 0
2052 2053 0
-2052 -2053 0
2053 2054 0
-2053 -2054 0
2054 2055 0
-2054 -2055 0
247 2056 0
-247 -2056 0
2056 2057 0
-2056 -2057 0
2057 2058 0
-2057 -2058 0
2058 2059 0
-2058 -2059 0
229 2060 0
-229 -2060 0
2060 2061 0
-2060 -2061 0
2061 2062 0
-2061 -2062 0
2062 2063 0
-2062 -2063 0
2055 2059 2063 2064 0
2055 2059 -2063 -2064 0
2055 -2059 2063 -2064 0
2055 -2059 -2063 -2064 0
-2055 2059 2063 -2064 0
-2055 2059 -2063 -2064 0
-2055 -2059 2063 -2064 0
-2055 -2059 -2063 -2064 0
247 2065 0
-247 -2065 0
2065 2066 0
-2065 -2066 0
2066 2067 0
-2066 -2067 0
229 2068 0
-229 -2068 0
2068 2069 0
-2068 -2069 0
2069 2070 0
-2069 -2070 0
2055 2067 2070 2071 0
2055 2067 -2070 -2071 0
2055 -2067 2070 -2071 0
2055 -2067 -2070 -2071 0
-2055 2067 2070 -2071 0
-2055 2067 -2070 -2071 0
-2055 -2067 2070 -2071 0
-2055 -2067 -2070 -2071 0
239 2072 0
-239 -2072 0
2072 2073 0
-2072 -2073 0
2073 2074 0
-2073 -2074 0
2074 2059 2070 2075 0
2074 2059 -2070 -2075 0
2074 -2059 2070 -2075 0
2074 -2059 -2070 -2075 0
-2074 2059 2070 -2075 0
-2074 2059 -2070 -2075 0
-2074 -2059 2070 -2075 0
-2074 -2059 -2070 -2075 0
2074 2067 2063 2076 0
2074 2067 -2063 -2076 0
2074 -2067 2063 -2076 0
2074 -2067 -2063 -2076 0
-2074 2067 2063 -2076 0
-2074 2067 -2063 -2076 0
-2074 -2067 2063 -2076 0
-2074 -2067 -2063 -2076 0
2064 2071 2075 2076 -2077 0
2064 2071 2075 -2076 2077 0
2064 2071 -2075 2076 2077 0
2064 2071 -2075 -2076 2077 0
2064 -2071 2075 2076 2077 0
2064 -2071 2075 -2076 2077 0
2064 -2071 -2075 2076 2077 0
2064 -2071 -2075 -2076 2077 0
-2064 2071 2075 2076 2077 0
-2064 2071 2075 -2076 2077 0
-2064 2071 -2075 2076 2077 0
-2064 2071 -2075 -2076 2077 0
-2064 -2071 2075 2076 2077 0
-2064 -2071 2075 -2076 2077 0
-2064 -2071 -2075 2076 2077 0
-2064 -2071 -2075 -2076 2077 0
2077 2078 0
-2077 -2078 0
2078 2079 0
-2078 -2079 0
2079 2080 0
-2079 -2080 0
246 2081 0
-246 -2081 0
256 2082 0
-256 -2082 0
2082 2083 0
-2082 -2083 0
2081 2083 2084 0
2081 -2083 -2084 0
-2081 2083 -2084 0
-2081 -2083 -2084 0
246 2085 0
-246 -2085 0
2085 2086 0
-2085 -2086 0
256 2087 0
-256 -2087 0
2086 2087 2088 0
2086 -2087 -2088 0
-2086 2087 -2088 0
-2086 -2087 -2088 0
2084 2088 -2089 0
2084 -2088 2089 0
-2084 2088 2089 0
-2084 -2088 2089 0
2089 2090 0
-2089 -2090 0
2090 2091 0
-2090 -2091 0
261 2092 0
-261 -2092 0
2092 2093 0
-2092 -2093 0
2093 2094 0
-2093 -2094 0
2094 2095 0
-2094 -2095 0
262 2096 0
-262 -2096 0
2096 2097 0
-2096 -2097 0
2097 2098 0
-2097 -2098 0
2098 2099 0
-2098 -2099 0
263 2100 0
-263 -2100 0
2100 2101 0
-2100 -2101 0
2101 2102 0
-2101 -2102 0
2102 2103 0
-2102 -2103 0
2095 2099 2103 2104 0
2095 2099 -2103 -2104 0
2095 -2099 2103 -2104 0
2095 -2099 -2103 -2104 0
-2095 2099 2103 -2104 0
-2095 2099 -2103 -2104 0
-2095 -2099 2103 -2104 0
-2095 -2099 -2103 -2104 0
262 2105 0
-262 -2105 0
2105 2106 0
-2105 -2106 0
2106 2107 0
-2106 -2107 0
263 2108 0
-263 -2108 0
2108 2109 0
-2108 -2109 0
2109 2110 0
-2109 -2110 0
2095 2107 2110 2111 0
2095 2107 -2110 -2111 0
2095 -2107 2110 -2111 0
2095 -2107 -2110 -2111 0
-2095 2107 2110 -2111 0
-2095 2107 -2110 -2111 0
-2095 -2107 2110 -2111 0
-2095 -2107 -2110 -2111 0
261 2112 0
-261 -2112 0
2112 2113 0
-2112 -2113 0
2113 2114 0
-2113 -2114 0
2114 2099 2110 2115 0
2114 2099 -2110 -2115 0
2114 -2099 2110 -2115 0
2114 -2099 -2110 -2115 0
-2114 2099 2110 -2115 0
-2114 2099 -2110 -2115 0
-2114 -2099 2110 -2115 0
-2114 -2099 -2110 -2115 0
2114 2107 2103 2116 0
2114 2107 -2103 -2116 0
2114 -2107 2103 -2116 0
2114 -2107 -2103 -2116 0
-2114 2107 2103 -2116 0
-2114 2107 -2103 -2116 0
-2114 -2107 2103 -2116 0
-2114 -2107 -2103 -2116 0
2104 2111 2115 2116 -2117 0
2104 2111 2115 -2116 2117 0
2104 2111 -2115 2116 2117 0
2104 2111 -2115 -2116 2117 0
2104 -2111 2115 2116 2117 0
2104 -2111 2115 -2116 2117 0
2104 -2111 -2115 2116 2117 0
2104 -2111 -2115 -2116 2117 0
-2104 2111 2115 2116 2117 0
-2104 2111 2115 -2116 2117 0
-2104 2111 -2115 2116 2117 0
-2104 2111 -2115 -2116 2117 0
-2104 -2111 2115 2116 2117 0
-2104 -2111 2115 -2116 2117 0
-2104 -2111 -2115 2116 2117 0
-2104 -2111 -2115 -2116 2117 0
2117 2118 0
-2117 -2118 0
2118 2119 0
-2118 -2119 0
2119 2120 0
-2119 -2120 0
2080 2091 2120 2121 0
2080 2091 -2120 -2121 0
2080 -2091 2120 -2121 0
2080 -2091 -2120 -2121 0
-2080 2091 2120 -2121 0
-2080 2091 -2120 -2121 0
-2080 -2091 2120 -2121 0
-2080 -2091 -2120 -2121 0
2089 2122 0
-2089 -2122 0
2122 2123 0
-2122 -2123 0
2123 2124 0
-2123 -2124 0
2117 2125 0
-2117 -2125 0
2125 2126 0
-2125 -2126 0
2080 2124 2126 2127 0
2080 2124 -2126 -2127 0
2080 -2124 2126 -2127 0
2080 -2124 -2126 -2127 0
-2080 2124 2126 -2127 0
-2080 2124 -2126 -2127 0
-2080 -2124 2126 -2127 0
-2080 -2124 -2126 -2127 0
2077 2128 0
-2077 -2128 0
2128 2129 0
-2128 -2129 0
2129 2091 2126 2130 0
2129 2091 -2126 -2130 0
2129 -2091 2126 -2130 0
2129 -2091 -2126 -2130 0
-2129 2091 2126 -2130 0
-2129 2091 -2126 -2130 0
-2129 -2091 2126 -2130 0
-2129 -2091 -2126 -2130 0
2129 2124 2120 2131 0
2129 2124 -2120 -2131 0
2129 -2124 2120 -2131 0
2129 -2124 -2120 -2131 0
-2129 2124 2120 -2131 0
-2129 2124 -2120 -2131 0
-2129 -2124 2120 -2131 0
-2129 -2124 -2120 -2131 0
2121 2127 2130 2131 -2132 0
2121 2127 2130 -2131 2132 0
2121 2127 -2130 2131 2132 0
2121 2127 -2130 -2131 2132 0
2121 -2127 2130 2131 2132 0
2121 -2127 2130 -2131 2132 0
2121 -2127 -2130 2131 2132 0
2121 -2127 -2130 -2131 2132 0
-2121 2127 2130 2131 2132 0
-2121 2127 2130 -2131 2132 0
-2121 2127 -2130 2131 2132 0
-2121 2127 -2130 -2131 2132 0
-2121 -2127 2130 2131 2132 0
-2121 -2127 2130 -2131 2132 0
-2121 -2127 -2130 2131 2132 0
-2121 -2127 -2130 -2131 2132 0
1964 2133 0
-1964 -2133 0
2132 2133 2134 0
2132 -2133 -2134 0
-2132 2133 -2134 0
-2132 -2133 -2134 0
2132 2135 0
-2132 -2135 0
2135 1964 2136 0
2135 -1964 -2136 0
-2135 1964 -2136 0
-2135 -1964 -2136 0
2134 2136 -2137 0
2134 -2136 2137 0
-2134 2136 2137 0
-2134 -2136 2137 0
2137 2138 0
-2137 -2138 0
2051 2138 2139 0
2051 -2138 -2139 0
-2051 2138 -2139 0
-2051 -2138 -2139 0
348 2140 0
-348 -2140 0
2140 2141 0
-2140 -2141 0
2141 2142 0
-2141 -2142 0
2047 2142 2143 0
2047 -2142 -2143 0
-2047 2142 -2143 0
-2047 -2142 -2143 0
2143 2144 0
-2143 -2144 0
336 2145 0
-336 -2145 0
2145 2146 0
-2145 -2146 0
314 2147 0
-314 -2147 0
2147 2148 0
-2147 -2148 0
340 2149 0
-340 -2149 0
2149 2150 0
-2149 -2150 0
2146 2148 2150 2151 0
2146 2148 -2150 -2151 0
2146 -2148 2150 -2151 0
2146 -2148 -2150 -2151 0
-2146 2148 2150 -2151 0
-2146 2148 -2150 -2151 0
-2146 -2148 2150 -2151 0
-2146 -2148 -2150 -2151 0
2151 2152 0
-2151 -2152 0
2144 2152 2153 0
2144 -2152 -2153 0
-2144 2152 -2153 0
-2144 -2152 -2153 0
2153 2154 0
-2153 -2154 0
2087 2155 0
-2087 -2155 0
2154 2155 2156 0
2154 -2155 -2156 0
-2154 2155 -2156 0
-2154 -2155 -2156 0
2041 2038 2146 2157 0
2041 2038 -2146 -2157 0
2041 -2038 2146 -2157 0
2041 -2038 -2146 -2157 0
-2041 2038 2146 -2157 0
-2041 2038 -2146 -2157 0
-2041 -2038 2146 -2157 0
-2041 -2038 -2146 -2157 0
2157 2158 0
-2157 -2158 0
2144 2158 2159 0
2144 -2158 -2159 0
-2144 2158 -2159 0
-2144 -2158 -2159 0
2159 2160 0
-2159 -2160 0
2108 2161 0
-2108 -2161 0
2160 2161 2162 0
2160 -2161 -2162 0
-2160 2161 -2162 0
-2160 -2161 -2162 0
2105 2163 0
-2105 -2163 0
2148 2038 2146 2164 0
2148 2038 -2146 -2164 0
2148 -2038 2146 -2164 0
2148 -2038 -2146 -2164 0
-2148 2038 2146 -2164 0
-2148 2038 -2146 -2164 0
-2148 -2038 2146 -2164 0
-2148 -2038 -2146 -2164 0
2164 2165 0
-2164 -2165 0
2144 2165 2166 0
2144 -2165 -2166 0
-2144 2165 -2166 0
-2144 -2165 -2166 0
2166 2167 0
-2166 -2167 0
2163 2167 2168 0
2163 -2167 -2168 0
-2163 2167 -2168 0
-2163 -2167 -2168 0
2081 2169 0
-2081 -2169 0
2146 2150 2041 2170 0
2146 2150 -2041 -2170 0
2146 -2150 2041 -2170 0
2146 -2150 -2041 -2170 0
-2146 2150 2041 -2170 0
-2146 2150 -2041 -2170 0
-2146 -2150 2041 -2170 0
-2146 -2150 -2041 -2170 0
2170 2171 0
-2170 -2171 0
2144 2171 2172 0
2144 -2171 -2172 0
-2144 2171 -2172 0
-2144 -2171 -2172 0
2172 2173 0
-2172 -2173 0
2169 2173 2174 0
2169 -2173 -2174 0
-2169 2173 -2174 0
-2169 -2173 -2174 0
2156 2162 2168 2174 -2175 0
2156 2162 2168 -2174 2175 0
2156 2162 -2168 2174 2175 0
2156 2162 -2168 -2174 2175 0
2156 -2162 2168 2174 2175 0
2156 -2162 2168 -2174 2175 0
2156 -2162 -2168 2174 2175 0
2156 -2162 -2168 -2174 2175 0
-2156 2162 2168 2174 2175 0
-2156 2162 2168 -2174 2175 0
-2156 2162 -2168 2174 2175 0
-2156 2162 -2168 -2174 2175 0
-2156 -2162 2168 2174 2175 0
-2156 -2162 2168 -2174 2175 0
-2156 -2162 -2168 2174 2175 0
-2156 -2162 -2168 -2174 2175 0
2144 2043 2176 0
2144 -2043 -2176 0
-2144 2043 -2176 0
-2144 -2043 -2176 0
2176 2177 0
-2176 -2177 0
2072 2178 0
-2072 -2178 0
2177 2178 2179 0
2177 -2178 -2179 0
-2177 2178 -2179 0
-2177 -2178 -2179 0
2112 2180 0
-2112 -2180 0
2035 2148 2150 2181 0
2035 2148 -2150 -2181 0
2035 -2148 2150 -2181 0
2035 -2148 -2150 -2181 0
-2035 2148 2150 -2181 0
-2035 2148 -2150 -2181 0
-2035 -2148 2150 -2181 0
-2035 -2148 -2150 -2181 0
2181 2182 0
-2181 -2182 0
2144 2182 2183 0
2144 -2182 -2183 0
-2144 2182 -2183 0
-2144 -2182 -2183 0
2183 2184 0
-2183 -2184 0
2180 2184 2185 0
2180 -2184 -2185 0
-2180 2184 -2185 0
-2180 -2184 -2185 0
2068 2186 0
-2068 -2186 0
2035 2038 2148 2187 0
2035 2038 -2148 -2187 0
2035 -2038 2148 -2187 0
2035 -2038 -2148 -2187 0
-2035 2038 2148 -2187 0
-2035 2038 -2148 -2187 0
-2035 -2038 2148 -2187 0
-2035 -2038 -2148 -2187 0
2187 2188 0
-2187 -2188 0
2144 2188 2189 0
2144 -2188 -2189 0
-2144 2188 -2189 0
-2144 -2188 -2189 0
2189 2190 0
-2189 -2190 0
2186 2190 2191 0
2186 -2190 -2191 0
-2186 2190 -2191 0
-2186 -2190 -2191 0
2065 2192 0
-2065 -2192 0
2035 2150 2041 2193 0
2035 2150 -2041 -2193 0
2035 -2150 2041 -2193 0
2035 -2150 -2041 -2193 0
-2035 2150 2041 -2193 0
-2035 2150 -2041 -2193 0
-2035 -2150 2041 -2193 0
-2035 -2150 -2041 -2193 0
2193 2194 0
-2193 -2194 0
2194 2144 2195 0
2194 -2144 -2195 0
-2194 2144 -2195 0
-2194 -2144 -2195 0
2195 2196 0
-2195 -2196 0
2192 2196 2197 0
2192 -2196 -2197 0
-2192 2196 -2197 0
-2192 -2196 -2197 0
2179 2185 2191 2197 -2198 0
2179 2185 2191 -2197 2198 0
2179 2185 -2191 2197 2198 0
2179 2185 -2191 -2197 2198 0
2179 -2185 2191 2197 2198 0
2179 -2185 2191 -2197 2198 0
2179 -2185 -2191 2197 2198 0
2179 -2185 -2191 -2197 2198 0
-2179 2185 2191 2197 2198 0
-2179 2185 2191 -2197 2198 0
-2179 2185 -2191 2197 2198 0
-2179 2185 -2191 -2197 2198 0
-2179 -2185 2191 2197 2198 0
-2179 -2185 2191 -2197 2198 0
-2179 -2185 -2191 2197 2198 0
-2179 -2185 -2191 -2197 2198 0
2139 2175 2198 2199 0
2139 2175 -2198 -2199 0
2139 -2175 2198 -2199 0
2139 -2175 -2198 -2199 0
-2139 2175 2198 -2199 0
-2139 2175 -2198 -2199 0
-2139 -2175 2198 -2199 0
-2139 -2175 -2198 -2199 0
1964 1957 2200 0
1964 -1957 -2200 0
-1964 1957 -2200 0
-1964 -1957 -2200 0
2199 2200 2201 0
2199 -2200 -2201 0
-2199 2200 -2201 0
-2199 -2200 -2201 0
347 2202 0
-347 -2202 0
2202 2203 0
-2202 -2203 0
2203 2204 0
-2203 -2204 0
2045 2204 2205 0
2045 -2204 -2205 0
-2045 2204 -2205 0
-2045 -2204 -2205 0
2205 2206 0
-2205 -2206 0
2206 2158 2207 0
2206 -2158 -2207 0
-2206 2158 -2207 0
-2206 -2158 -2207 0
2207 2208 0
-2207 -2208 0
1829 2209 0
-1829 -2209 0
2209 1300 2210 0
2209 -1300 -2210 0
-2209 1300 -2210 0
-2209 -1300 -2210 0
2209 2211 0
-2209 -2211 0
2211 1103 2212 0
2211 -1103 -2212 0
-2211 1103 -2212 0
-2211 -1103 -2212 0
2210 2212 -2213 0
2210 -2212 2213 0
-2210 2212 2213 0
-2210 -2212 2213 0
2213 2214 0
-2213 -2214 0
2208 2214 2215 0
2208 -2214 -2215 0
-2208 2214 -2215 0
-2208 -2214 -2215 0
2209 1304 2216 0
2209 -1304 -2216 0
-2209 1304 -2216 0
-2209 -1304 -2216 0
2211 1107 2217 0
2211 -1107 -2217 0
-2211 1107 -2217 0
-2211 -1107 -2217 0
2216 2217 -2218 0
2216 -2217 2218 0
-2216 2217 2218 0
-2216 -2217 2218 0
2218 2219 0
-2218 -2219 0
2182 2206 2220 0
2182 -2206 -2220 0
-2182 2206 -2220 0
-2182 -2206 -2220 0
2220 2221 0
-2220 -2221 0
2219 2221 2222 0
2219 -2221 -2222 0
-2219 2221 -2222 0
-2219 -2221 -2222 0
2165 2206 2223 0
2165 -2206 -2223 0
-2165 2206 -2223 0
-2165 -2206 -2223 0
2223 2224 0
-2223 -2224 0
2209 1349 2225 0
2209 -1349 -2225 0
-2209 1349 -2225 0
-2209 -1349 -2225 0
1156 2211 2226 0
1156 -2211 -2226 0
-1156 2211 -2226 0
-1156 -2211 -2226 0
2225 2226 -2227 0
2225 -2226 2227 0
-2225 2226 2227 0
-2225 -2226 2227 0
2227 2228 0
-2227 -2228 0
2224 2228 2229 0
2224 -2228 -2229 0
-2224 2228 -2229 0
-2224 -2228 -2229 0
2194 2206 2230 0
2194 -2206 -2230 0
-2194 2206 -2230 0
-2194 -2206 -2230 0
2230 2231 0
-2230 -2231 0
1296 2209 2232 0
1296 -2209 -2232 0
-1296 2209 -2232 0
-1296 -2209 -2232 0
1099 2211 2233 0
1099 -2211 -2233 0
-1099 2211 -2233 0
-1099 -2211 -2233 0
2232 2233 -2234 0
2232 -2233 2234 0
-2232 2233 2234 0
-2232 -2233 2234 0
2234 2235 0
-2234 -2235 0
2231 2235 2236 0
2231 -2235 -2236 0
-2231 2235 -2236 0
-2231 -2235 -2236 0
2215 2222 2229 2236 -2237 0
2215 2222 2229 -2236 2237 0
2215 2222 -2229 2236 2237 0
2215 2222 -2229 -2236 2237 0
2215 -2222 2229 2236 2237 0
2215 -2222 2229 -2236 2237 0
2215 -2222 -2229 2236 2237 0
2215 -2222 -2229 -2236 2237 0
-2215 2222 2229 2236 2237 0
-2215 2222 2229 -2236 2237 0
-2215 2222 -2229 2236 2237 0
-2215 2222 -2229 -2236 2237 0
-2215 -2222 2229 2236 2237 0
-2215 -2222 2229 -2236 2237 0
-2215 -2222 -2229 2236 2237 0
-2215 -2222 -2229 -2236 2237 0
2142 2204 2238 0
2142 -2204 -2238 0
-2142 2204 -2238 0
-2142 -2204 -2238 0
2238 2239 0
-2238 -2239 0
2239 2188 2240 0
2239 -2188 -2240 0
-2239 2188 -2240 0
-2239 -2188 -2240 0
2240 2241 0
-2240 -2241 0
2200 2242 0
-2200 -2242 0
1933 2242 2243 0
1933 -2242 -2243 0
-1933 2242 -2243 0
-1933 -2242 -2243 0
2241 2243 2244 0
2241 -2243 -2244 0
-2241 2243 -2244 0
-2241 -2243 -2244 0
366 2245 0
-366 -2245 0
2245 1933 2246 0
2245 -1933 -2246 0
-2245 1933 -2246 0
-2245 -1933 -2246 0
2043 2239 2247 0
2043 -2239 -2247 0
-2043 2239 -2247 0
-2043 -2239 -2247 0
2247 2248 0
-2247 -2248 0
2246 2248 2249 0
2246 -2248 -2249 0
-2246 2248 -2249 0
-2246 -2248 -2249 0
2244 2249 -2250 0
2244 -2249 2250 0
-2244 2249 2250 0
-2244 -2249 2250 0
1829 2251 0
-1829 -2251 0
2251 916 2252 0
2251 -916 -2252 0
-2251 916 -2252 0
-2251 -916 -2252 0
2251 2253 0
-2251 -2253 0
435 2253 2254 0
435 -2253 -2254 0
-435 2253 -2254 0
-435 -2253 -2254 0
2252 2254 -2255 0
2252 -2254 2255 0
-2252 2254 2255 0
-2252 -2254 2255 0
2255 2256 0
-2255 -2256 0
2239 2158 2257 0
2239 -2158 -2257 0
-2239 2158 -2257 0
-2239 -2158 -2257 0
2257 2258 0
-2257 -2258 0
2256 2258 2259 0
2256 -2258 -2259 0
-2256 2258 -2259 0
-2256 -2258 -2259 0
2253 431 2260 0
2253 -431 -2260 0
-2253 431 -2260 0
-2253 -431 -2260 0
912 2251 2261 0
912 -2251 -2261 0
-912 2251 -2261 0
-912 -2251 -2261 0
2260 2261 -2262 0
2260 -2261 2262 0
-2260 2261 2262 0
-2260 -2261 2262 0
2262 2263 0
-2262 -2263 0
2239 2194 2264 0
2239 -2194 -2264 0
-2239 2194 -2264 0
-2239 -2194 -2264 0
2264 2265 0
-2264 -2265 0
2263 2265 2266 0
2263 -2265 -2266 0
-2263 2265 -2266 0
-2263 -2265 -2266 0
488 2253 2267 0
488 -2253 -2267 0
-488 2253 -2267 0
-488 -2253 -2267 0
966 2251 2268 0
966 -2251 -2268 0
-966 2251 -2268 0
-966 -2251 -2268 0
2267 2268 -2269 0
2267 -2268 2269 0
-2267 2268 2269 0
-2267 -2268 2269 0
2269 2270 0
-2269 -2270 0
2165 2239 2271 0
2165 -2239 -2271 0
-2165 2239 -2271 0
-2165 -2239 -2271 0
2271 2272 0
-2271 -2272 0
2270 2272 2273 0
2270 -2272 -2273 0
-2270 2272 -2273 0
-2270 -2272 -2273 0
2251 920 2274 0
2251 -920 -2274 0
-2251 920 -2274 0
-2251 -920 -2274 0
2253 439 2275 0
2253 -439 -2275 0
-2253 439 -2275 0
-2253 -439 -2275 0
2274 2275 -2276 0
2274 -2275 2276 0
-2274 2275 2276 0
-2274 -2275 2276 0
2276 2277 0
-2276 -2277 0
2182 2239 2278 0
2182 -2239 -2278 0
-2182 2239 -2278 0
-2182 -2239 -2278 0
2278 2279 0
-2278 -2279 0
2277 2279 2280 0
2277 -2279 -2280 0
-2277 2279 -2280 0
-2277 -2279 -2280 0
2259 2266 2273 2280 -2281 0
2259 2266 2273 -2280 2281 0
2259 2266 -2273 2280 2281 0
2259 2266 -2273 -2280 2281 0
2259 -2266 2273 2280 2281 0
2259 -2266 2273 -2280 2281 0
2259 -2266 -2273 2280 2281 0
2259 -2266 -2273 -2280 2281 0
-2259 2266 2273 2280 2281 0
-2259 2266 2273 -2280 2281 0
-2259 2266 -2273 2280 2281 0
-2259 2266 -2273 -2280 2281 0
-2259 -2266 2273 2280 2281 0
-2259 -2266 2273 -2280 2281 0
-2259 -2266 -2273 2280 2281 0
-2259 -2266 -2273 -2280 2281 0
949 2251 2282 0
949 -2251 -2282 0
-949 2251 -2282 0
-949 -2251 -2282 0
468 2253 2283 0
468 -2253 -2283 0
-468 2253 -2283 0
-468 -2253 -2283 0
2282 2283 -2284 0
2282 -2283 2284 0
-2282 2283 2284 0
-2282 -2283 2284 0
2284 2285 0
-2284 -2285 0
2206 2188 2286 0
2206 -2188 -2286 0
-2206 2188 -2286 0
-2206 -2188 -2286 0
2286 2287 0
-2286 -2287 0
2285 2287 2288 0
2285 -2287 -2288 0
-2285 2287 -2288 0
-2285 -2287 -2288 0
2206 2043 2289 0
2206 -2043 -2289 0
-2206 2043 -2289 0
-2206 -2043 -2289 0
2289 2290 0
-2289 -2290 0
2253 460 2291 0
2253 -460 -2291 0
-2253 460 -2291 0
-2253 -460 -2291 0
2251 941 2292 0
2251 -941 -2292 0
-2251 941 -2292 0
-2251 -941 -2292 0
2291 2292 -2293 0
2291 -2292 2293 0
-2291 2292 2293 0
-2291 -2292 2293 0
2293 2294 0
-2293 -2294 0
2290 2294 2295 0
2290 -2294 -2295 0
-2290 2294 -2295 0
-2290 -2294 -2295 0
2239 2152 2296 0
2239 -2152 -2296 0
-2239 2152 -2296 0
-2239 -2152 -2296 0
2296 2297 0
-2296 -2297 0
492 2253 2298 0
492 -2253 -2298 0
-492 2253 -2298 0
-492 -2253 -2298 0
2251 970 2299 0
2251 -970 -2299 0
-2251 970 -2299 0
-2251 -970 -2299 0
2298 2299 -2300 0
2298 -2299 2300 0
-2298 2299 2300 0
-2298 -2299 2300 0
2300 2301 0
-2300 -2301 0
2297 2301 2302 0
2297 -2301 -2302 0
-2297 2301 -2302 0
-2297 -2301 -2302 0
2171 2239 2303 0
2171 -2239 -2303 0
-2171 2239 -2303 0
-2171 -2239 -2303 0
2303 2304 0
-2303 -2304 0
496 2253 2305 0
496 -2253 -2305 0
-496 2253 -2305 0
-496 -2253 -2305 0
974 2251 2306 0
974 -2251 -2306 0
-974 2251 -2306 0
-974 -2251 -2306 0
2305 2306 -2307 0
2305 -2306 2307 0
-2305 2306 2307 0
-2305 -2306 2307 0
2307 2308 0
-2307 -2308 0
2304 2308 2309 0
2304 -2308 -2309 0
-2304 2308 -2309 0
-2304 -2308 -2309 0
2288 2295 2302 2309 -2310 0
2288 2295 2302 -2309 2310 0
2288 2295 -2302 2309 2310 0
2288 2295 -2302 -2309 2310 0
2288 -2295 2302 2309 2310 0
2288 -2295 2302 -2309 2310 0
2288 -2295 -2302 2309 2310 0
2288 -2295 -2302 -2309 2310 0
-2288 2295 2302 2309 2310 0
-2288 2295 2302 -2309 2310 0
-2288 2295 -2302 2309 2310 0
-2288 2295 -2302 -2309 2310 0
-2288 -2295 2302 2309 2310 0
-2288 -2295 2302 -2309 2310 0
-2288 -2295 -2302 2309 2310 0
-2288 -2295 -2302 -2309 2310 0
2237 2250 2281 2310 2311 0
2237 2250 2281 -2310 -2311 0
2237 2250 -2281 2310 -2311 0
2237 2250 -2281 -2310 -2311 0
2237 -2250 2281 2310 -2311 0
2237 -2250 2281 -2310 -2311 0
2237 -2250 -2281 2310 -2311 0
2237 -2250 -2281 -2310 -2311 0
-2237 2250 2281 2310 -2311 0
-2237 2250 2281 -2310 -2311 0
-2237 2250 -2281 2310 -2311 0
-2237 2250 -2281 -2310 -2311 0
-2237 -2250 2281 2310 -2311 0
-2237 -2250 2281 -2310 -2311 0
-2237 -2250 -2281 2310 -2311 0
-2237 -2250 -2281 -2310 -2311 0
407 2312 0
-407 -2312 0
2311 2312 2313 0
2311 -2312 -2313 0
-2311 2312 -2313 0
-2311 -2312 -2313 0
237 2314 0
-237 -2314 0
2314 2315 0
-2314 -2315 0
311 2316 0
-311 -2316 0
2316 2317 0
-2316 -2317 0
648 2315 2317 2318 0
648 2315 -2317 -2318 0
648 -2315 2317 -2318 0
648 -2315 -2317 -2318 0
-648 2315 2317 -2318 0
-648 2315 -2317 -2318 0
-648 -2315 2317 -2318 0
-648 -2315 -2317 -2318 0
400 2319 0
-400 -2319 0
2319 2320 0
-2319 -2320 0
362 2321 0
-362 -2321 0
2321 2322 0
-2321 -2322 0
2322 2323 0
-2322 -2323 0
377 2324 0
-377 -2324 0
2324 2325 0
-2324 -2325 0
388 2326 0
-388 -2326 0
2326 2327 0
-2326 -2327 0
2325 2327 2328 0
2325 -2327 -2328 0
-2325 2327 -2328 0
-2325 -2327 -2328 0
2323 2328 -2329 0
2323 -2328 2329 0
-2323 2328 2329 0
-2323 -2328 2329 0
2329 2330 0
-2329 -2330 0
2330 2253 2331 0
2330 -2253 -2331 0
-2330 2253 -2331 0
-2330 -2253 -2331 0
2331 2332 0
-2331 -2332 0
406 2333 0
-406 -2333 0
2333 2334 0
-2333 -2334 0
2320 2332 2334 2335 0
2320 2332 -2334 -2335 0
2320 -2332 2334 -2335 0
2320 -2332 -2334 -2335 0
-2320 2332 2334 -2335 0
-2320 2332 -2334 -2335 0
-2320 -2332 2334 -2335 0
-2320 -2332 -2334 -2335 0
2329 2336 0
-2329 -2336 0
2336 2337 0
-2336 -2337 0
2337 2253 2338 0
2337 -2253 -2338 0
-2337 2253 -2338 0
-2337 -2253 -2338 0
2338 2339 0
-2338 -2339 0
391 2340 0
-391 -2340 0
2340 2341 0
-2340 -2341 0
2334 2339 2341 2342 0
2334 2339 -2341 -2342 0
2334 -2339 2341 -2342 0
2334 -2339 -2341 -2342 0
-2334 2339 2341 -2342 0
-2334 2339 -2341 -2342 0
-2334 -2339 2341 -2342 0
-2334 -2339 -2341 -2342 0
2318 2335 2342 -2343 0
2318 2335 -2342 2343 0
2318 -2335 2342 2343 0
2318 -2335 -2342 2343 0
-2318 2335 2342 2343 0
-2318 2335 -2342 2343 0
-2318 -2335 2342 2343 0
-2318 -2335 -2342 2343 0
2201 2313 2343 2344 0
2201 2313 -2343 -2344 0
2201 -2313 2343 -2344 0
2201 -2313 -2343 -2344 0
-2201 2313 2343 -2344 0
-2201 2313 -2343 -2344 0
-2201 -2313 2343 -2344 0
-2201 -2313 -2343 -2344 0
2344 2345 0
-2344 -2345 0
2037 2346 0
-2037 -2346 0
2346 2347 0
-2346 -2347 0
305 2348 0
-305 -2348 0
2348 2349 0
-2348 -2349 0
2349 2350 0
-2349 -2350 0
2040 2351 0
-2040 -2351 0
2351 2352 0
-2351 -2352 0
2347 2350 2352 2353 0
2347 2350 -2352 -2353 0
2347 -2350 2352 -2353 0
2347 -2350 -2352 -2353 0
-2347 2350 2352 -2353 0
-2347 2350 -2352 -2353 0
-2347 -2350 2352 -2353 0
-2347 -2350 -2352 -2353 0
305 2354 0
-305 -2354 0
2354 2355 0
-2354 -2355 0
2355 2356 0
-2355 -2356 0
2356 2357 0
-2356 -2357 0
2147 2358 0
-2147 -2358 0
2358 2359 0
-2358 -2359 0
2347 2357 2359 2360 0
2347 2357 -2359 -2360 0
2347 -2357 2359 -2360 0
2347 -2357 -2359 -2360 0
-2347 2357 2359 -2360 0
-2347 2357 -2359 -2360 0
-2347 -2357 2359 -2360 0
-2347 -2357 -2359 -2360 0
2149 2361 0
-2149 -2361 0
2361 2362 0
-2361 -2362 0
2362 2350 2359 2363 0
2362 2350 -2359 -2363 0
2362 -2350 2359 -2363 0
2362 -2350 -2359 -2363 0
-2362 2350 2359 -2363 0
-2362 2350 -2359 -2363 0
-2362 -2350 2359 -2363 0
-2362 -2350 -2359 -2363 0
2362 2357 2352 2364 0
2362 2357 -2352 -2364 0
2362 -2357 2352 -2364 0
2362 -2357 -2352 -2364 0
-2362 2357 2352 -2364 0
-2362 2357 -2352 -2364 0
-2362 -2357 2352 -2364 0
-2362 -2357 -2352 -2364 0
2353 2360 2363 2364 -2365 0
2353 2360 2363 -2364 2365 0
2353 2360 -2363 2364 2365 0
2353 2360 -2363 -2364 2365 0
2353 -2360 2363 2364 2365 0
2353 -2360 2363 -2364 2365 0
2353 -2360 -2363 2364 2365 0
2353 -2360 -2363 -2364 2365 0
-2353 2360 2363 2364 2365 0
-2353 2360 2363 -2364 2365 0
-2353 2360 -2363 2364 2365 0
-2353 2360 -2363 -2364 2365 0
-2353 -2360 2363 2364 2365 0
-2353 -2360 2363 -2364 2365 0
-2353 -2360 -2363 2364 2365 0
-2353 -2360 -2363 -2364 2365 0
2365 2366 0
-2365 -2366 0
2366 2367 0
-2366 -2367 0
2203 2368 0
-2203 -2368 0
2368 2369 0
-2368 -2369 0
2034 2370 0
-2034 -2370 0
2370 2371 0
-2370 -2371 0
2141 2372 0
-2141 -2372 0
2372 2373 0
-2372 -2373 0
2369 2371 2373 2374 0
2369 2371 -2373 -2374 0
2369 -2371 2373 -2374 0
2369 -2371 -2373 -2374 0
-2369 2371 2373 -2374 0
-2369 2371 -2373 -2374 0
-2369 -2371 2373 -2374 0
-2369 -2371 -2373 -2374 0
2145 2375 0
-2145 -2375 0
2375 2376 0
-2375 -2376 0
2044 2377 0
-2044 -2377 0
2377 2378 0
-2377 -2378 0
2369 2376 2378 2379 0
2369 2376 -2378 -2379 0
2369 -2376 2378 -2379 0
2369 -2376 -2378 -2379 0
-2369 2376 2378 -2379 0
-2369 2376 -2378 -2379 0
-2369 -2376 2378 -2379 0
-2369 -2376 -2378 -2379 0
2046 2380 0
-2046 -2380 0
2380 2381 0
-2380 -2381 0
2381 2371 2378 2382 0
2381 2371 -2378 -2382 0
2381 -2371 2378 -2382 0
2381 -2371 -2378 -2382 0
-2381 2371 2378 -2382 0
-2381 2371 -2378 -2382 0
-2381 -2371 2378 -2382 0
-2381 -2371 -2378 -2382 0
2381 2376 2373 2383 0
2381 2376 -2373 -2383 0
2381 -2376 2373 -2383 0
2381 -2376 -2373 -2383 0
-2381 2376 2373 -2383 0
-2381 2376 -2373 -2383 0
-2381 -2376 2373 -2383 0
-2381 -2376 -2373 -2383 0
2374 2379 2382 2383 -2384 0
2374 2379 2382 -2383 2384 0
2374 2379 -2382 2383 2384 0
2374 2379 -2382 -2383 2384 0
2374 -2379 2382 2383 2384 0
2374 -2379 2382 -2383 2384 0
2374 -2379 -2382 2383 2384 0
2374 -2379 -2382 -2383 2384 0
-2374 2379 2382 2383 2384 0
-2374 2379 2382 -2383 2384 0
-2374 2379 -2382 2383 2384 0
-2374 2379 -2382 -2383 2384 0
-2374 -2379 2382 2383 2384 0
-2374 -2379 2382 -2383 2384 0
-2374 -2379 -2382 2383 2384 0
-2374 -2379 -2382 -2383 2384 0
2384 2385 0
-2384 -2385 0
2385 2386 0
-2385 -2386 0
2367 2386 2387 0
2367 -2386 -2387 0
-2367 2386 -2387 0
-2367 -2386 -2387 0
2367 2387 2388 0
2367 -2387 -2388 0
-2367 2387 -2388 0
-2367 -2387 -2388 0
2387 2386 2389 0
2387 -2386 -2389 0
-2387 2386 -2389 0
-2387 -2386 -2389 0
2388 2389 -2390 0
2388 -2389 2390 0
-2388 2389 2390 0
-2388 -2389 2390 0
2390 2391 0
-2390 -2391 0
2345 2391 -2392 0
2345 -2391 2392 0
-2345 2391 2392 0
-2345 -2391 2392 0
2392 2393 0
-2392 -2393 0
2393 2394 0
-2393 -2394 0
2394 2395 0
-2394 -2395 0
2395 2396 0
-2395 -2396 0
336 2397 0
-336 -2397 0
2397 2398 0
-2397 -2398 0
2398 2399 0
-2398 -2399 0
340 2400 0
-340 -2400 0
2400 2401 0
-2400 -2401 0
2401 2402 0
-2401 -2402 0
314 2403 0
-314 -2403 0
2403 2404 0
-2403 -2404 0
2404 2405 0
-2404 -2405 0
2399 2402 2405 2406 0
2399 2402 -2405 -2406 0
2399 -2402 2405 -2406 0
2399 -2402 -2405 -2406 0
-2399 2402 2405 -2406 0
-2399 2402 -2405 -2406 0
-2399 -2402 2405 -2406 0
-2399 -2402 -2405 -2406 0
2406 2407 0
-2406 -2407 0
348 2408 0
-348 -2408 0
2408 2409 0
-2408 -2409 0
347 2410 0
-347 -2410 0
2410 2411 0
-2410 -2411 0
2409 2411 2412 0
2409 -2411 -2412 0
-2409 2411 -2412 0
-2409 -2411 -2412 0
2412 2413 0
-2412 -2413 0
2407 2413 2414 0
2407 -2413 -2414 0
-2407 2413 -2414 0
-2407 -2413 -2414 0
2414 2415 0
-2414 -2415 0
239 2416 0
-239 -2416 0
2416 2417 0
-2416 -2417 0
2417 2418 0
-2417 -2418 0
2418 2419 0
-2418 -2419 0
247 2420 0
-247 -2420 0
2420 2421 0
-2420 -2421 0
2421 2422 0
-2421 -2422 0
2422 2423 0
-2422 -2423 0
229 2424 0
-229 -2424 0
2424 2425 0
-2424 -2425 0
2425 2426 0
-2425 -2426 0
2426 2427 0
-2426 -2427 0
2419 2423 2427 2428 0
2419 2423 -2427 -2428 0
2419 -2423 2427 -2428 0
2419 -2423 -2427 -2428 0
-2419 2423 2427 -2428 0
-2419 2423 -2427 -2428 0
-2419 -2423 2427 -2428 0
-2419 -2423 -2427 -2428 0
247 2429 0
-247 -2429 0
2429 2430 0
-2429 -2430 0
2430 2431 0
-2430 -2431 0
229 2432 0
-229 -2432 0
2432 2433 0
-2432 -2433 0
2433 2434 0
-2433 -2434 0
2419 2431 2434 2435 0
2419 2431 -2434 -2435 0
2419 -2431 2434 -2435 0
2419 -2431 -2434 -2435 0
-2419 2431 2434 -2435 0
-2419 2431 -2434 -2435 0
-2419 -2431 2434 -2435 0
-2419 -2431 -2434 -2435 0
239 2436 0
-239 -2436 0
2436 2437 0
-2436 -2437 0
2437 2438 0
-2437 -2438 0
2438 2423 2434 2439 0
2438 2423 -2434 -2439 0
2438 -2423 2434 -2439 0
2438 -2423 -2434 -2439 0
-2438 2423 2434 -2439 0
-2438 2423 -2434 -2439 0
-2438 -2423 2434 -2439 0
-2438 -2423 -2434 -2439 0
2438 2431 2427 2440 0
2438 2431 -2427 -2440 0
2438 -2431 2427 -2440 0
2438 -2431 -2427 -2440 0
-2438 2431 2427 -2440 0
-2438 2431 -2427 -2440 0
-2438 -2431 2427 -2440 0
-2438 -2431 -2427 -2440 0
2428 2435 2439 2440 -2441 0
2428 2435 2439 -2440 2441 0
2428 2435 -2439 2440 2441 0
2428 2435 -2439 -2440 2441 0
2428 -2435 2439 2440 2441 0
2428 -2435 2439 -2440 2441 0
2428 -2435 -2439 2440 2441 0
2428 -2435 -2439 -2440 2441 0
-2428 2435 2439 2440 2441 0
-2428 2435 2439 -2440 2441 0
-2428 2435 -2439 2440 2441 0
-2428 2435 -2439 -2440 2441 0
-2428 -2435 2439 2440 2441 0
-2428 -2435 2439 -2440 2441 0
-2428 -2435 -2439 2440 2441 0
-2428 -2435 -2439 -2440 2441 0
2441 2442 0
-2441 -2442 0
2442 2443 0
-2442 -2443 0
2443 2444 0
-2443 -2444 0
246 2445 0
-246 -2445 0
256 2446 0
-256 -2446 0
2446 2447 0
-2446 -2447 0
2445 2447 2448 0
2445 -2447 -2448 0
-2445 2447 -2448 0
-2445 -2447 -2448 0
246 2449 0
-246 -2449 0
2449 2450 0
-2449 -2450 0
256 2451 0
-256 -2451 0
2450 2451 2452 0
2450 -2451 -2452 0
-2450 2451 -2452 0
-2450 -2451 -2452 0
2448 2452 -2453 0
2448 -2452 2453 0
-2448 2452 2453 0
-2448 -2452 2453 0
2453 2454 0
-2453 -2454 0
2454 2455 0
-2454 -2455 0
261 2456 0
-261 -2456 0
2456 2457 0
-2456 -2457 0
2457 2458 0
-2457 -2458 0
2458 2459 0
-2458 -2459 0
262 2460 0
-262 -2460 0
2460 2461 0
-2460 -2461 0
2461 2462 0
-2461 -2462 0
2462 2463 0
-2462 -2463 0
263 2464 0
-263 -2464 0
2464 2465 0
-2464 -2465 0
2465 2466 0
-2465 -2466 0
2466 2467 0
-2466 -2467 0
2459 2463 2467 2468 0
2459 2463 -2467 -2468 0
2459 -2463 2467 -2468 0
2459 -2463 -2467 -2468 0
-2459 2463 2467 -2468 0
-2459 2463 -2467 -2468 0
-2459 -2463 2467 -2468 0
-2459 -2463 -2467 -2468 0
262 2469 0
-262 -2469 0
2469 2470 0
-2469 -2470 0
2470 2471 0
-2470 -2471 0
263 2472 0
-263 -2472 0
2472 2473 0
-2472 -2473 0
2473 2474 0
-2473 -2474 0
2459 2471 2474 2475 0
2459 2471 -2474 -2475 0
2459 -2471 2474 -2475 0
2459 -2471 -2474 -2475 0
-2459 2471 2474 -2475 0
-2459 2471 -2474 -2475 0
-2459 -2471 2474 -2475 0
-2459 -2471 -2474 -2475 0
261 2476 0
-261 -2476 0
2476 2477 0
-2476 -2477 0
2477 2478 0
-2477 -2478 0
2478 2463 2474 2479 0
2478 2463 -2474 -2479 0
2478 -2463 2474 -2479 0
2478 -2463 -2474 -2479 0
-2478 2463 2474 -2479 0
-2478 2463 -2474 -2479 0
-2478 -2463 2474 -2479 0
-2478 -2463 -2474 -2479 0
2478 2471 2467 2480 0
2478 2471 -2467 -2480 0
2478 -2471 2467 -2480 0
2478 -2471 -2467 -2480 0
-2478 2471 2467 -2480 0
-2478 2471 -2467 -2480 0
-2478 -2471 2467 -2480 0
-2478 -2471 -2467 -2480 0
2468 2475 2479 2480 -2481 0
2468 2475 2479 -2480 2481 0
2468 2475 -2479 2480 2481 0
2468 2475 -2479 -2480 2481 0
2468 -2475 2479 2480 2481 0
2468 -2475 2479 -2480 2481 0
2468 -2475 -2479 2480 2481 0
2468 -2475 -2479 -2480 2481 0
-2468 2475 2479 2480 2481 0
-2468 2475 2479 -2480 2481 0
-2468 2475 -2479 2480 2481 0
-2468 2475 -2479 -2480 2481 0
-2468 -2475 2479 2480 2481 0
-2468 -2475 2479 -2480 2481 0
-2468 -2475 -2479 2480 2481 0
-2468 -2475 -2479 -2480 2481 0
2481 2482 0
-2481 -2482 0
2482 2483 0
-2482 -2483 0
2483 2484 0
-2483 -2484 0
2444 2455 2484 2485 0
2444 2455 -2484 -2485 0
2444 -2455 2484 -2485 0
2444 -2455 -2484 -2485 0
-2444 2455 2484 -2485 0
-2444 2455 -2484 -2485 0
-2444 -2455 2484 -2485 0
-2444 -2455 -2484 -2485 0
2453 2486 0
-2453 -2486 0
2486 2487 0
-2486 -2487 0
2487 2488 0
-2487 -2488 0
2481 2489 0
-2481 -2489 0
2489 2490 0
-2489 -2490 0
2444 2488 2490 2491 0
2444 2488 -2490 -2491 0
2444 -2488 2490 -2491 0
2444 -2488 -2490 -2491 0
-2444 2488 2490 -2491 0
-2444 2488 -2490 -2491 0
-2444 -2488 2490 -2491 0
-2444 -2488 -2490 -2491 0
2441 2492 0
-2441 -2492 0
2492 2493 0
-2492 -2493 0
2493 2455 2490 2494 0
2493 2455 -2490 -2494 0
2493 -2455 2490 -2494 0
2493 -2455 -2490 -2494 0
-2493 2455 2490 -2494 0
-2493 2455 -2490 -2494 0
-2493 -2455 2490 -2494 0
-2493 -2455 -2490 -2494 0
2493 2488 2484 2495 0
2493 2488 -2484 -2495 0
2493 -2488 2484 -2495 0
2493 -2488 -2484 -2495 0
-2493 2488 2484 -2495 0
-2493 2488 -2484 -2495 0
-2493 -2488 2484 -2495 0
-2493 -2488 -2484 -2495 0
2485 2491 2494 2495 -2496 0
2485 2491 2494 -2495 2496 0
2485 2491 -2494 2495 2496 0
2485 2491 -2494 -2495 2496 0
2485 -2491 2494 2495 2496 0
2485 -2491 2494 -2495 2496 0
2485 -2491 -2494 2495 2496 0
2485 -2491 -2494 -2495 2496 0
-2485 2491 2494 2495 2496 0
-2485 2491 2494 -2495 2496 0
-2485 2491 -2494 2495 2496 0
-2485 2491 -2494 -2495 2496 0
-2485 -2491 2494 2495 2496 0
-2485 -2491 2494 -2495 2496 0
-2485 -2491 -2494 2495 2496 0
-2485 -2491 -2494 -2495 2496 0
2018 2497 0
-2018 -2497 0
2496 2497 2498 0
2496 -2497 -2498 0
-2496 2497 -2498 0
-2496 -2497 -2498 0
2496 2499 0
-2496 -2499 0
2499 2018 2500 0
2499 -2018 -2500 0
-2499 2018 -2500 0
-2499 -2018 -2500 0
2498 2500 -2501 0
2498 -2500 2501 0
-2498 2500 2501 0
-2498 -2500 2501 0
2501 2502 0
-2501 -2502 0
2415 2502 2503 0
2415 -2502 -2503 0
-2415 2502 -2503 0
-2415 -2502 -2503 0
348 2504 0
-348 -2504 0
2504 2505 0
-2504 -2505 0
2505 2506 0
-2505 -2506 0
2411 2506 2507 0
2411 -2506 -2507 0
-2411 2506 -2507 0
-2411 -2506 -2507 0
2507 2508 0
-2507 -2508 0
336 2509 0
-336 -2509 0
2509 2510 0
-2509 -2510 0
314 2511 0
-314 -2511 0
2511 2512 0
-2511 -2512 0
340 2513 0
-340 -2513 0
2513 2514 0
-2513 -2514 0
2510 2512 2514 2515 0
2510 2512 -2514 -2515 0
2510 -2512 2514 -2515 0
2510 -2512 -2514 -2515 0
-2510 2512 2514 -2515 0
-2510 2512 -2514 -2515 0
-2510 -2512 2514 -2515 0
-2510 -2512 -2514 -2515 0
2515 2516 0
-2515 -2516 0
2508 2516 2517 0
2508 -2516 -2517 0
-2508 2516 -2517 0
-2508 -2516 -2517 0
2517 2518 0
-2517 -2518 0
2451 2519 0
-2451 -2519 0
2518 2519 2520 0
2518 -2519 -2520 0
-2518 2519 -2520 0
-2518 -2519 -2520 0
2405 2402 2510 2521 0
2405 2402 -2510 -2521 0
2405 -2402 2510 -2521 0
2405 -2402 -2510 -2521 0
-2405 2402 2510 -2521 0
-2405 2402 -2510 -2521 0
-2405 -2402 2510 -2521 0
-2405 -2402 -2510 -2521 0
2521 2522 0
-2521 -2522 0
2508 2522 2523 0
2508 -2522 -2523 0
-2508 2522 -2523 0
-2508 -2522 -2523 0
2523 2524 0
-2523 -2524 0
2472 2525 0
-2472 -2525 0
2524 2525 2526 0
2524 -2525 -2526 0
-2524 2525 -2526 0
-2524 -2525 -2526 0
2469 2527 0
-2469 -2527 0
2512 2402 2510 2528 0
2512 2402 -2510 -2528 0
2512 -2402 2510 -2528 0
2512 -2402 -2510 -2528 0
-2512 2402 2510 -2528 0
-2512 2402 -2510 -2528 0
-2512 -2402 2510 -2528 0
-2512 -2402 -2510 -2528 0
2528 2529 0
-2528 -2529 0
2508 2529 2530 0
2508 -2529 -2530 0
-2508 2529 -2530 0
-2508 -2529 -2530 0
2530 2531 0
-2530 -2531 0
2527 2531 2532 0
2527 -2531 -2532 0
-2527 2531 -2532 0
-2527 -2531 -2532 0
2445 2533 0
-2445 -2533 0
2510 2514 2405 2534 0
2510 2514 -2405 -2534 0
2510 -2514 2405 -2534 0
2510 -2514 -2405 -2534 0
-2510 2514 2405 -2534 0
-2510 2514 -2405 -2534 0
-2510 -2514 2405 -2534 0
-2510 -2514 -2405 -2534 0
2534 2535 0
-2534 -2535 0
2508 2535 2536 0
2508 -2535 -2536 0
-2508 2535 -2536 0
-2508 -2535 -2536 0
2536 2537 0
-2536 -2537 0
2533 2537 2538 0
2533 -2537 -2538 0
-2533 2537 -2538 0
-2533 -2537 -2538 0
2520 2526 2532 2538 -2539 0
2520 2526 2532 -2538 2539 0
2520 2526 -2532 2538 2539 0
2520 2526 -2532 -2538 2539 0
2520 -2526 2532 2538 2539 0
2520 -2526 2532 -2538 2539 0
2520 -2526 -2532 2538 2539 0
2520 -2526 -2532 -2538 2539 0
-2520 2526 2532 2538 2539 0
-2520 2526 2532 -2538 2539 0
-2520 2526 -2532 2538 2539 0
-2520 2526 -2532 -2538 2539 0
-2520 -2526 2532 2538 2539 0
-2520 -2526 2532 -2538 2539 0
-2520 -2526 -2532 2538 2539 0
-2520 -2526 -2532 -2538 2539 0
2508 2407 2540 0
2508 -2407 -2540 0
-2508 2407 -2540 0
-2508 -2407 -2540 0
2540 2541 0
-2540 -2541 0
2436 2542 0
-2436 -2542 0
2541 2542 2543 0
2541 -2542 -2543 0
-2541 2542 -2543 0
-2541 -2542 -2543 0
2476 2544 0
-2476 -2544 0
2399 2512 2514 2545 0
2399 2512 -2514 -2545 0
2399 -2512 2514 -2545 0
2399 -2512 -2514 -2545 0
-2399 2512 2514 -2545 0
-2399 2512 -2514 -2545 0
-2399 -2512 2514 -2545 0
-2399 -2512 -2514 -2545 0
2545 2546 0
-2545 -2546 0
2508 2546 2547 0
2508 -2546 -2547 0
-2508 2546 -2547 0
-2508 -2546 -2547 0
2547 2548 0
-2547 -2548 0
2544 2548 2549 0
2544 -2548 -2549 0
-2544 2548 -2549 0
-2544 -2548 -2549 0
2432 2550 0
-2432 -2550 0
2399 2402 2512 2551 0
2399 2402 -2512 -2551 0
2399 -2402 2512 -2551 0
2399 -2402 -2512 -2551 0
-2399 2402 2512 -2551 0
-2399 2402 -2512 -2551 0
-2399 -2402 2512 -2551 0
-2399 -2402 -2512 -2551 0
2551 2552 0
-2551 -2552 0
2508 2552 2553 0
2508 -2552 -2553 0
-2508 2552 -2553 0
-2508 -2552 -2553 0
2553 2554 0
-2553 -2554 0
2550 2554 2555 0
2550 -2554 -2555 0
-2550 2554 -2555 0
-2550 -2554 -2555 0
2429 2556 0
-2429 -2556 0
2399 2514 2405 2557 0
2399 2514 -2405 -2557 0
2399 -2514 2405 -2557 0
2399 -2514 -2405 -2557 0
-2399 2514 2405 -2557 0
-2399 2514 -2405 -2557 0
-2399 -2514 2405 -2557 0
-2399 -2514 -2405 -2557 0
2557 2558 0
-2557 -2558 0
2558 2508 2559 0
2558 -2508 -2559 0
-2558 2508 -2559 0
-2558 -2508 -2559 0
2559 2560 0
-2559 -2560 0
2556 2560 2561 0
2556 -2560 -2561 0
-2556 2560 -2561 0
-2556 -2560 -2561 0
2543 2549 2555 2561 -2562 0
2543 2549 2555 -2561 2562 0
2543 2549 -2555 2561 2562 0
2543 2549 -2555 -2561 2562 0
2543 -2549 2555 2561 2562 0
2543 -2549 2555 -2561 2562 0
2543 -2549 -2555 2561 2562 0
2543 -2549 -2555 -2561 2562 0
-2543 2549 2555 2561 2562 0
-2543 2549 2555 -2561 2562 0
-2543 2549 -2555 2561 2562 0
-2543 2549 -2555 -2561 2562 0
-2543 -2549 2555 2561 2562 0
-2543 -2549 2555 -2561 2562 0
-2543 -2549 -2555 2561 2562 0
-2543 -2549 -2555 -2561 2562 0
2503 2539 2562 2563 0
2503 2539 -2562 -2563 0
2503 -2539 2562 -2563 0
2503 -2539 -2562 -2563 0
-2503 2539 2562 -2563 0
-2503 2539 -2562 -2563 0
-2503 -2539 2562 -2563 0
-2503 -2539 -2562 -2563 0
2018 2011 2564 0
2018 -2011 -2564 0
-2018 2011 -2564 0
-2018 -2011 -2564 0
2563 2564 2565 0
2563 -2564 -2565 0
-2563 2564 -2565 0
-2563 -2564 -2565 0
347 2566 0
-347 -2566 0
2566 2567 0
-2566 -2567 0
2567 2568 0
-2567 -2568 0
2409 2568 2569 0
2409 -2568 -2569 0
-2409 2568 -2569 0
-2409 -2568 -2569 0
2569 2570 0
-2569 -2570 0
2570 2522 2571 0
2570 -2522 -2571 0
-2570 2522 -2571 0
-2570 -2522 -2571 0
2571 2572 0
-2571 -2572 0
1840 2573 0
-1840 -2573 0
2573 1393 2574 0
2573 -1393 -2574 0
-2573 1393 -2574 0
-2573 -1393 -2574 0
2573 2575 0
-2573 -2575 0
2575 1201 2576 0
2575 -1201 -2576 0
-2575 1201 -2576 0
-2575 -1201 -2576 0
2574 2576 -2577 0
2574 -2576 2577 0
-2574 2576 2577 0
-2574 -2576 2577 0
2577 2578 0
-2577 -2578 0
2572 2578 2579 0
2572 -2578 -2579 0
-2572 2578 -2579 0
-2572 -2578 -2579 0
2573 1397 2580 0
2573 -1397 -2580 0
-2573 1397 -2580 0
-2573 -1397 -2580 0
2575 1205 2581 0
2575 -1205 -2581 0
-2575 1205 -2581 0
-2575 -1205 -2581 0
2580 2581 -2582 0
2580 -2581 2582 0
-2580 2581 2582 0
-2580 -2581 2582 0
2582 2583 0
-2582 -2583 0
2546 2570 2584 0
2546 -2570 -2584 0
-2546 2570 -2584 0
-2546 -2570 -2584 0
2584 2585 0
-2584 -2585 0
2583 2585 2586 0
2583 -2585 -2586 0
-2583 2585 -2586 0
-2583 -2585 -2586 0
2529 2570 2587 0
2529 -2570 -2587 0
-2529 2570 -2587 0
-2529 -2570 -2587 0
2587 2588 0
-2587 -2588 0
2573 1442 2589 0
2573 -1442 -2589 0
-2573 1442 -2589 0
-2573 -1442 -2589 0
1254 2575 2590 0
1254 -2575 -2590 0
-1254 2575 -2590 0
-1254 -2575 -2590 0
2589 2590 -2591 0
2589 -2590 2591 0
-2589 2590 2591 0
-2589 -2590 2591 0
2591 2592 0
-2591 -2592 0
2588 2592 2593 0
2588 -2592 -2593 0
-2588 2592 -2593 0
-2588 -2592 -2593 0
2558 2570 2594 0
2558 -2570 -2594 0
-2558 2570 -2594 0
-2558 -2570 -2594 0
2594 2595 0
-2594 -2595 0
1389 2573 2596 0
1389 -2573 -2596 0
-1389 2573 -2596 0
-1389 -2573 -2596 0
1197 2575 2597 0
1197 -2575 -2597 0
-1197 2575 -2597 0
-1197 -2575 -2597 0
2596 2597 -2598 0
2596 -2597 2598 0
-2596 2597 2598 0
-2596 -2597 2598 0
2598 2599 0
-2598 -2599 0
2595 2599 2600 0
2595 -2599 -2600 0
-2595 2599 -2600 0
-2595 -2599 -2600 0
2579 2586 2593 2600 -2601 0
2579 2586 2593 -2600 2601 0
2579 2586 -2593 2600 2601 0
2579 2586 -2593 -2600 2601 0
2579 -2586 2593 2600 2601 0
2579 -2586 2593 -2600 2601 0
2579 -2586 -2593 2600 2601 0
2579 -2586 -2593 -2600 2601 0
-2579 2586 2593 2600 2601 0
-2579 2586 2593 -2600 2601 0
-2579 2586 -2593 2600 2601 0
-2579 2586 -2593 -2600 2601 0
-2579 -2586 2593 2600 2601 0
-2579 -2586 2593 -2600 2601 0
-2579 -2586 -2593 2600 2601 0
-2579 -2586 -2593 -2600 2601 0
2506 2568 2602 0
2506 -2568 -2602 0
-2506 2568 -2602 0
-2506 -2568 -2602 0
2602 2603 0
-2602 -2603 0
2603 2552 2604 0
2603 -2552 -2604 0
-2603 2552 -2604 0
-2603 -2552 -2604 0
2604 2605 0
-2604 -2605 0
2564 2606 0
-2564 -2606 0
1987 2606 2607 0
1987 -2606 -2607 0
-1987 2606 -2607 0
-1987 -2606 -2607 0
2605 2607 2608 0
2605 -2607 -2608 0
-2605 2607 -2608 0
-2605 -2607 -2608 0
366 2609 0
-366 -2609 0
2609 1987 2610 0
2609 -1987 -2610 0
-2609 1987 -2610 0
-2609 -1987 -2610 0
2407 2603 2611 0
2407 -2603 -2611 0
-2407 2603 -2611 0
-2407 -2603 -2611 0
2611 2612 0
-2611 -2612 0
2610 2612 2613 0
2610 -2612 -2613 0
-2610 2612 -2613 0
-2610 -2612 -2613 0
2608 2613 -2614 0
2608 -2613 2614 0
-2608 2613 2614 0
-2608 -2613 2614 0
1840 2615 0
-1840 -2615 0
2615 1009 2616 0
2615 -1009 -2616 0
-2615 1009 -2616 0
-2615 -1009 -2616 0
2615 2617 0
-2615 -2617 0
533 2617 2618 0
533 -2617 -2618 0
-533 2617 -2618 0
-533 -2617 -2618 0
2616 2618 -2619 0
2616 -2618 2619 0
-2616 2618 2619 0
-2616 -2618 2619 0
2619 2620 0
-2619 -2620 0
2603 2522 2621 0
2603 -2522 -2621 0
-2603 2522 -2621 0
-2603 -2522 -2621 0
2621 2622 0
-2621 -2622 0
2620 2622 2623 0
2620 -2622 -2623 0
-2620 2622 -2623 0
-2620 -2622 -2623 0
2617 529 2624 0
2617 -529 -2624 0
-2617 529 -2624 0
-2617 -529 -2624 0
1005 2615 2625 0
1005 -2615 -2625 0
-1005 2615 -2625 0
-1005 -2615 -2625 0
2624 2625 -2626 0
2624 -2625 2626 0
-2624 2625 2626 0
-2624 -2625 2626 0
2626 2627 0
-2626 -2627 0
2603 2558 2628 0
2603 -2558 -2628 0
-2603 2558 -2628 0
-2603 -2558 -2628 0
2628 2629 0
-2628 -2629 0
2627 2629 2630 0
2627 -2629 -2630 0
-2627 2629 -2630 0
-2627 -2629 -2630 0
586 2617 2631 0
586 -2617 -2631 0
-586 2617 -2631 0
-586 -2617 -2631 0
1059 2615 2632 0
1059 -2615 -2632 0
-1059 2615 -2632 0
-1059 -2615 -2632 0
2631 2632 -2633 0
2631 -2632 2633 0
-2631 2632 2633 0
-2631 -2632 2633 0
2633 2634 0
-2633 -2634 0
2529 2603 2635 0
2529 -2603 -2635 0
-2529 2603 -2635 0
-2529 -2603 -2635 0
2635 2636 0
-2635 -2636 0
2634 2636 2637 0
2634 -2636 -2637 0
-2634 2636 -2637 0
-2634 -2636 -2637 0
2615 1013 2638 0
2615 -1013 -2638 0
-2615 1013 -2638 0
-2615 -1013 -2638 0
2617 537 2639 0
2617 -537 -2639 0
-2617 537 -2639 0
-2617 -537 -2639 0
2638 2639 -2640 0
2638 -2639 2640 0
-2638 2639 2640 0
-2638 -2639 2640 0
2640 2641 0
-2640 -2641 0
2546 2603 2642 0
2546 -2603 -2642 0
-2546 2603 -2642 0
-2546 -2603 -2642 0
2642 2643 0
-2642 -2643 0
2641 2643 2644 0
2641 -2643 -2644 0
-2641 2643 -2644 0
-2641 -2643 -2644 0
2623 2630 2637 2644 -2645 0
2623 2630 2637 -2644 2645 0
2623 2630 -2637 2644 2645 0
2623 2630 -2637 -2644 2645 0
2623 -2630 2637 2644 2645 0
2623 -2630 2637 -2644 2645 0
2623 -2630 -2637 2644 2645 0
2623 -2630 -2637 -2644 2645 0
-2623 2630 2637 2644 2645 0
-2623 2630 2637 -2644 2645 0
-2623 2630 -2637 2644 2645 0
-2623 2630 -2637 -2644 2645 0
-2623 -2630 2637 2644 2645 0
-2623 -2630 2637 -2644 2645 0
-2623 -2630 -2637 2644 2645 0
-2623 -2630 -2637 -2644 2645 0
1042 2615 2646 0
1042 -2615 -2646 0
-1042 2615 -2646 0
-1042 -2615 -2646 0
566 2617 2647 0
566 -2617 -2647 0
-566 2617 -2647 0
-566 -2617 -2647 0
2646 2647 -2648 0
2646 -2647 2648 0
-2646 2647 2648 0
-2646 -2647 2648 0
2648 2649 0
-2648 -2649 0
2570 2552 2650 0
2570 -2552 -2650 0
-2570 2552 -2650 0
-2570 -2552 -2650 0
2650 2651 0
-2650 -2651 0
2649 2651 2652 0
2649 -2651 -2652 0
-2649 2651 -2652 0
-2649 -2651 -2652 0
2570 2407 2653 0
2570 -2407 -2653 0
-2570 2407 -2653 0
-2570 -2407 -2653 0
2653 2654 0
-2653 -2654 0
2617 558 2655 0
2617 -558 -2655 0
-2617 558 -2655 0
-2617 -558 -2655 0
2615 1034 2656 0
2615 -1034 -2656 0
-2615 1034 -2656 0
-2615 -1034 -2656 0
2655 2656 -2657 0
2655 -2656 2657 0
-2655 2656 2657 0
-2655 -2656 2657 0
2657 2658 0
-2657 -2658 0
2654 2658 2659 0
2654 -2658 -2659 0
-2654 2658 -2659 0
-2654 -2658 -2659 0
2603 2516 2660 0
2603 -2516 -2660 0
-2603 2516 -2660 0
-2603 -2516 -2660 0
2660 2661 0
-2660 -2661 0
590 2617 2662 0
590 -2617 -2662 0
-590 2617 -2662 0
-590 -2617 -2662 0
2615 1063 2663 0
2615 -1063 -2663 0
-2615 1063 -2663 0
-2615 -1063 -2663 0
2662 2663 -2664 0
2662 -2663 2664 0
-2662 2663 2664 0
-2662 -2663 2664 0
2664 2665 0
-2664 -2665 0
2661 2665 2666 0
2661 -2665 -2666 0
-2661 2665 -2666 0
-2661 -2665 -2666 0
2535 2603 2667 0
2535 -2603 -2667 0
-2535 2603 -2667 0
-2535 -2603 -2667 0
2667 2668 0
-2667 -2668 0
594 2617 2669 0
594 -2617 -2669 0
-594 2617 -2669 0
-594 -2617 -2669 0
1067 2615 2670 0
1067 -2615 -2670 0
-1067 2615 -2670 0
-1067 -2615 -2670 0
2669 2670 -2671 0
2669 -2670 2671 0
-2669 2670 2671 0
-2669 -2670 2671 0
2671 2672 0
-2671 -2672 0
2668 2672 2673 0
2668 -2672 -2673 0
-2668 2672 -2673 0
-2668 -2672 -2673 0
2652 2659 2666 2673 -2674 0
2652 2659 2666 -2673 2674 0
2652 2659 -2666 2673 2674 0
2652 2659 -2666 -2673 2674 0
2652 -2659 2666 2673 2674 0
2652 -2659 2666 -2673 2674 0
2652 -2659 -2666 2673 2674 0
2652 -2659 -2666 -2673 2674 0
-2652 2659 2666 2673 2674 0
-2652 2659 2666 -2673 2674 0
-2652 2659 -2666 2673 2674 0
-2652 2659 -2666 -2673 2674 0
-2652 -2659 2666 2673 2674 0
-2652 -2659 2666 -2673 2674 0
-2652 -2659 -2666 2673 2674 0
-2652 -2659 -2666 -2673 2674 0
2601 2614 2645 2674 2675 0
2601 2614 2645 -2674 -2675 0
2601 2614 -2645 2674 -2675 0
2601 2614 -2645 -2674 -2675 0
2601 -2614 2645 2674 -2675 0
2601 -2614 2645 -2674 -2675 0
2601 -2614 -2645 2674 -2675 0
2601 -2614 -2645 -2674 -2675 0
-2601 2614 2645 2674 -2675 0
-2601 2614 2645 -2674 -2675 0
-2601 2614 -2645 2674 -2675 0
-2601 2614 -2645 -2674 -2675 0
-2601 -2614 2645 2674 -2675 0
-2601 -2614 2645 -2674 -2675 0
-2601 -2614 -2645 2674 -2675 0
-2601 -2614 -2645 -2674 -2675 0
407 2676 0
-407 -2676 0
2675 2676 2677 0
2675 -2676 -2677 0
-2675 2676 -2677 0
-2675 -2676 -2677 0
237 2678 0
-237 -2678 0
2678 2679 0
-2678 -2679 0
311 2680 0
-311 -2680 0
2680 2681 0
-2680 -2681 0
720 2679 2681 2682 0
720 2679 -2681 -2682 0
720 -2679 2681 -2682 0
720 -2679 -2681 -2682 0
-720 2679 2681 -2682 0
-720 2679 -2681 -2682 0
-720 -2679 2681 -2682 0
-720 -2679 -2681 -2682 0
400 2683 0
-400 -2683 0
2683 2684 0
-2683 -2684 0
362 2685 0
-362 -2685 0
2685 2686 0
-2685 -2686 0
2686 2687 0
-2686 -2687 0
377 2688 0
-377 -2688 0
2688 2689 0
-2688 -2689 0
388 2690 0
-388 -2690 0
2690 2691 0
-2690 -2691 0
2689 2691 2692 0
2689 -2691 -2692 0
-2689 2691 -2692 0
-2689 -2691 -2692 0
2687 2692 -2693 0
2687 -2692 2693 0
-2687 2692 2693 0
-2687 -2692 2693 0
2693 2694 0
-2693 -2694 0
2694 2617 2695 0
2694 -2617 -2695 0
-2694 2617 -2695 0
-2694 -2617 -2695 0
2695 2696 0
-2695 -2696 0
406 2697 0
-406 -2697 0
2697 2698 0
-2697 -2698 0
2684 2696 2698 2699 0
2684 2696 -2698 -2699 0
2684 -2696 2698 -2699 0
2684 -2696 -2698 -2699 0
-2684 2696 2698 -2699 0
-2684 2696 -2698 -2699 0
-2684 -2696 2698 -2699 0
-2684 -2696 -2698 -2699 0
2693 2700 0
-2693 -2700 0
2700 2701 0
-2700 -2701 0
2701 2617 2702 0
2701 -2617 -2702 0
-2701 2617 -2702 0
-2701 -2617 -2702 0
2702 2703 0
-2702 -2703 0
391 2704 0
-391 -2704 0
2704 2705 0
-2704 -2705 0
2698 2703 2705 2706 0
2698 2703 -2705 -2706 0
2698 -2703 2705 -2706 0
2698 -2703 -2705 -2706 0
-2698 2703 2705 -2706 0
-2698 2703 -2705 -2706 0
-2698 -2703 2705 -2706 0
-2698 -2703 -2705 -2706 0
2682 2699 2706 -2707 0
2682 2699 -2706 2707 0
2682 -2699 2706 2707 0
2682 -2699 -2706 2707 0
-2682 2699 2706 2707 0
-2682 2699 -2706 2707 0
-2682 -2699 2706 2707 0
-2682 -2699 -2706 2707 0
2565 2677 2707 2708 0
2565 2677 -2707 -2708 0
2565 -2677 2707 -2708 0
2565 -2677 -2707 -2708 0
-2565 2677 2707 -2708 0
-2565 2677 -2707 -2708 0
-2565 -2677 2707 -2708 0
-2565 -2677 -2707 -2708 0
2708 2709 0
-2708 -2709 0
2401 2710 0
-2401 -2710 0
2710 2711 0
-2710 -2711 0
305 2712 0
-305 -2712 0
2712 2713 0
-2712 -2713 0
2713 2714 0
-2713 -2714 0
2404 2715 0
-2404 -2715 0
2715 2716 0
-2715 -2716 0
2711 2714 2716 2717 0
2711 2714 -2716 -2717 0
2711 -2714 2716 -2717 0
2711 -2714 -2716 -2717 0
-2711 2714 2716 -2717 0
-2711 2714 -2716 -2717 0
-2711 -2714 2716 -2717 0
-2711 -2714 -2716 -2717 0
305 2718 0
-305 -2718 0
2718 2719 0
-2718 -2719 0
2719 2720 0
-2719 -2720 0
2720 2721 0
-2720 -2721 0
2511 2722 0
-2511 -2722 0
2722 2723 0
-2722 -2723 0
2711 2721 2723 2724 0
2711 2721 -2723 -2724 0
2711 -2721 2723 -2724 0
2711 -2721 -2723 -2724 0
-2711 2721 2723 -2724 0
-2711 2721 -2723 -2724 0
-2711 -2721 2723 -2724 0
-2711 -2721 -2723 -2724 0
2513 2725 0
-2513 -2725 0
2725 2726 0
-2725 -2726 0
2726 2714 2723 2727 0
2726 2714 -2723 -2727 0
2726 -2714 2723 -2727 0
2726 -2714 -2723 -2727 0
-2726 2714 2723 -2727 0
-2726 2714 -2723 -2727 0
-2726 -2714 2723 -2727 0
-2726 -2714 -2723 -2727 0
2726 2721 2716 2728 0
2726 2721 -2716 -2728 0
2726 -2721 2716 -2728 0
2726 -2721 -2716 -2728 0
-2726 2721 2716 -2728 0
-2726 2721 -2716 -2728 0
-2726 -2721 2716 -2728 0
-2726 -2721 -2716 -2728 0
2717 2724 2727 2728 -2729 0
2717 2724 2727 -2728 2729 0
2717 2724 -2727 2728 2729 0
2717 2724 -2727 -2728 2729 0
2717 -2724 2727 2728 2729 0
2717 -2724 2727 -2728 2729 0
2717 -2724 -2727 2728 2729 0
2717 -2724 -2727 -2728 2729 0
-2717 2724 2727 2728 2729 0
-2717 2724 2727 -2728 2729 0
-2717 2724 -2727 2728 2729 0
-2717 2724 -2727 -2728 2729 0
-2717 -2724 2727 2728 2729 0
-2717 -2724 2727 -2728 2729 0
-2717 -2724 -2727 2728 2729 0
-2717 -2724 -2727 -2728 2729 0
2729 2730 0
-2729 -2730 0
2730 2731 0
-2730 -2731 0
2567 2732 0
-2567 -2732 0
2732 2733 0
-2732 -2733 0
2398 2734 0
-2398 -2734 0
2734 2735 0
-2734 -2735 0
2505 2736 0
-2505 -2736 0
2736 2737 0
-2736 -2737 0
2733 2735 2737 2738 0
2733 2735 -2737 -2738 0
2733 -2735 2737 -2738 0
2733 -2735 -2737 -2738 0
-2733 2735 2737 -2738 0
-2733 2735 -2737 -2738 0
-2733 -2735 2737 -2738 0
-2733 -2735 -2737 -2738 0
2509 2739 0
-2509 -2739 0
2739 2740 0
-2739 -2740 0
2408 2741 0
-2408 -2741 0
2741 2742 0
-2741 -2742 0
2733 2740 2742 2743 0
2733 2740 -2742 -2743 0
2733 -2740 2742 -2743 0
2733 -2740 -2742 -2743 0
-2733 2740 2742 -2743 0
-2733 2740 -2742 -2743 0
-2733 -2740 2742 -2743 0
-2733 -2740 -2742 -2743 0
2410 2744 0
-2410 -2744 0
2744 2745 0
-2744 -2745 0
2745 2735 2742 2746 0
2745 2735 -2742 -2746 0
2745 -2735 2742 -2746 0
2745 -2735 -2742 -2746 0
-2745 2735 2742 -2746 0
-2745 2735 -2742 -2746 0
-2745 -2735 2742 -2746 0
-2745 -2735 -2742 -2746 0
2745 2740 2737 2747 0
2745 2740 -2737 -2747 0
2745 -2740 2737 -2747 0
2745 -2740 -2737 -2747 0
-2745 2740 2737 -2747 0
-2745 2740 -2737 -2747 0
-2745 -2740 2737 -2747 0
-2745 -2740 -2737 -2747 0
2738 2743 2746 2747 -2748 0
2738 2743 2746 -2747 2748 0
2738 2743 -2746 2747 2748 0
2738 2743 -2746 -2747 2748 0
2738 -2743 2746 2747 2748 0
2738 -2743 2746 -2747 2748 0
2738 -2743 -2746 2747 2748 0
2738 -2743 -2746 -2747 2748 0
-2738 2743 2746 2747 2748 0
-2738 2743 2746 -2747 2748 0
-2738 2743 -2746 2747 2748 0
-2738 2743 -2746 -2747 2748 0
-2738 -2743 2746 2747 2748 0
-2738 -2743 2746 -2747 2748 0
-2738 -2743 -2746 2747 2748 0
-2738 -2743 -2746 -2747 2748 0
2748 2749 0
-2748 -2749 0
2749 2750 0
-2749 -2750 0
2731 2750 2751 0
2731 -2750 -2751 0
-2731 2750 -2751 0
-2731 -2750 -2751 0
2731 2751 2752 0
2731 -2751 -2752 0
-2731 2751 -2752 0
-2731 -2751 -2752 0
2751 2750 2753 0
2751 -2750 -2753 0
-2751 2750 -2753 0
-2751 -2750 -2753 0
2752 2753 -2754 0
2752 -2753 2754 0
-2752 2753 2754 0
-2752 -2753 2754 0
2754 2755 0
-2754 -2755 0
2709 2755 -2756 0
2709 -2755 2756 0
-2709 2755 2756 0
-2709 -2755 2756 0
2756 2757 0
-2756 -2757 0
2757 2758 0
-2757 -2758 0
2758 2759 0
-2758 -2759 0
2759 2760 0
-2759 -2760 0
2396 2760 -2761 0
2396 -2760 2761 0
-2396 2760 2761 0
-2396 -2760 -2761 0
2344 2762 0
-2344 -2762 0
309 2763 0
-309 -2763 0
2763 2764 0
-2763 -2764 0
2764 2765 0
-2764 -2765 0
2765 2766 0
-2765 -2766 0
308 2767 0
-308 -2767 0
2767 2768 0
-2767 -2768 0
2768 2769 0
-2768 -2769 0
2769 2770 0
-2769 -2770 0
2770 2771 0
-2770 -2771 0
324 2772 0
-324 -2772 0
2772 2773 0
-2772 -2773 0
2773 2774 0
-2773 -2774 0
2774 2775 0
-2774 -2775 0
2766 2771 2775 2776 0
2766 2771 -2775 -2776 0
2766 -2771 2775 -2776 0
2766 -2771 -2775 -2776 0
-2766 2771 2775 -2776 0
-2766 2771 -2775 -2776 0
-2766 -2771 2775 -2776 0
-2766 -2771 -2775 -2776 0
308 2777 0
-308 -2777 0
2777 2778 0
-2777 -2778 0
2778 2779 0
-2778 -2779 0
2779 2780 0
-2779 -2780 0
324 2781 0
-324 -2781 0
2781 2782 0
-2781 -2782 0
2782 2783 0
-2782 -2783 0
2783 2784 0
-2783 -2784 0
2784 2785 0
-2784 -2785 0
2766 2780 2785 2786 0
2766 2780 -2785 -2786 0
2766 -2780 2785 -2786 0
2766 -2780 -2785 -2786 0
-2766 2780 2785 -2786 0
-2766 2780 -2785 -2786 0
-2766 -2780 2785 -2786 0
-2766 -2780 -2785 -2786 0
309 2787 0
-309 -2787 0
2787 2788 0
-2787 -2788 0
2788 2789 0
-2788 -2789 0
2789 2790 0
-2789 -2790 0
2790 2791 0
-2790 -2791 0
2791 2771 2785 2792 0
2791 2771 -2785 -2792 0
2791 -2771 2785 -2792 0
2791 -2771 -2785 -2792 0
-2791 2771 2785 -2792 0
-2791 2771 -2785 -2792 0
-2791 -2771 2785 -2792 0
-2791 -2771 -2785 -2792 0
2791 2780 2775 2793 0
2791 2780 -2775 -2793 0
2791 -2780 2775 -2793 0
2791 -2780 -2775 -2793 0
-2791 2780 2775 -2793 0
-2791 2780 -2775 -2793 0
-2791 -2780 2775 -2793 0
-2791 -2780 -2775 -2793 0
2776 2786 2792 2793 -2794 0
2776 2786 2792 -2793 2794 0
2776 2786 -2792 2793 2794 0
2776 2786 -2792 -2793 2794 0
2776 -2786 2792 2793 2794 0
2776 -2786 2792 -2793 2794 0
2776 -2786 -2792 2793 2794 0
2776 -2786 -2792 -2793 2794 0
-2776 2786 2792 2793 2794 0
-2776 2786 2792 -2793 2794 0
-2776 2786 -2792 2793 2794 0
-2776 2786 -2792 -2793 2794 0
-2776 -2786 2792 2793 2794 0
-2776 -2786 2792 -2793 2794 0
-2776 -2786 -2792 2793 2794 0
-2776 -2786 -2792 -2793 2794 0
2794 2795 0
-2794 -2795 0
2795 2796 0
-2795 -2796 0
307 2797 0
-307 -2797 0
2797 2798 0
-2797 -2798 0
2798 2799 0
-2798 -2799 0
2799 2800 0
-2799 -2800 0
306 2801 0
-306 -2801 0
2801 2802 0
-2801 -2802 0
2802 2803 0
-2802 -2803 0
2803 2804 0
-2803 -2804 0
315 2805 0
-315 -2805 0
2805 2806 0
-2805 -2806 0
2806 2807 0
-2806 -2807 0
2807 2808 0
-2807 -2808 0
2800 2804 2808 2809 0
2800 2804 -2808 -2809 0
2800 -2804 2808 -2809 0
2800 -2804 -2808 -2809 0
-2800 2804 2808 -2809 0
-2800 2804 -2808 -2809 0
-2800 -2804 2808 -2809 0
-2800 -2804 -2808 -2809 0
306 2810 0
-306 -2810 0
2810 2811 0
-2810 -2811 0
2811 2812 0
-2811 -2812 0
315 2813 0
-315 -2813 0
2813 2814 0
-2813 -2814 0
2814 2815 0
-2814 -2815 0
2800 2812 2815 2816 0
2800 2812 -2815 -2816 0
2800 -2812 2815 -2816 0
2800 -2812 -2815 -2816 0
-2800 2812 2815 -2816 0
-2800 2812 -2815 -2816 0
-2800 -2812 2815 -2816 0
-2800 -2812 -2815 -2816 0
307 2817 0
-307 -2817 0
2817 2818 0
-2817 -2818 0
2818 2819 0
-2818 -2819 0
2819 2804 2815 2820 0
2819 2804 -2815 -2820 0
2819 -2804 2815 -2820 0
2819 -2804 -2815 -2820 0
-2819 2804 2815 -2820 0
-2819 2804 -2815 -2820 0
-2819 -2804 2815 -2820 0
-2819 -2804 -2815 -2820 0
2819 2812 2808 2821 0
2819 2812 -2808 -2821 0
2819 -2812 2808 -2821 0
2819 -2812 -2808 -2821 0
-2819 2812 2808 -2821 0
-2819 2812 -2808 -2821 0
-2819 -2812 2808 -2821 0
-2819 -2812 -2808 -2821 0
2809 2816 2820 2821 -2822 0
2809 2816 2820 -2821 2822 0
2809 2816 -2820 2821 2822 0
2809 2816 -2820 -2821 2822 0
2809 -2816 2820 2821 2822 0
2809 -2816 2820 -2821 2822 0
2809 -2816 -2820 2821 2822 0
2809 -2816 -2820 -2821 2822 0
-2809 2816 2820 2821 2822 0
-2809 2816 2820 -2821 2822 0
-2809 2816 -2820 2821 2822 0
-2809 2816 -2820 -2821 2822 0
-2809 -2816 2820 2821 2822 0
-2809 -2816 2820 -2821 2822 0
-2809 -2816 -2820 2821 2822 0
-2809 -2816 -2820 -2821 2822 0
2822 2823 0
-2822 -2823 0
2823 2824 0
-2823 -2824 0
2796 2824 2825 0
2796 -2824 -2825 0
-2796 2824 -2825 0
-2796 -2824 -2825 0
2796 2825 2826 0
2796 -2825 -2826 0
-2796 2825 -2826 0
-2796 -2825 -2826 0
2825 2824 2827 0
2825 -2824 -2827 0
-2825 2824 -2827 0
-2825 -2824 -2827 0
2826 2827 -2828 0
2826 -2827 2828 0
-2826 2827 2828 0
-2826 -2827 2828 0
2828 2829 0
-2828 -2829 0
2762 2829 -2830 0
2762 -2829 2830 0
-2762 2829 2830 0
-2762 -2829 2830 0
2830 2831 0
-2830 -2831 0
2831 2832 0
-2831 -2832 0
2832 2833 0
-2832 -2833 0
2833 2834 0
-2833 -2834 0
2708 2835 0
-2708 -2835 0
309 2836 0
-309 -2836 0
2836 2837 0
-2836 -2837 0
2837 2838 0
-2837 -2838 0
2838 2839 0
-2838 -2839 0
308 2840 0
-308 -2840 0
2840 2841 0
-2840 -2841 0
2841 2842 0
-2841 -2842 0
2842 2843 0
-2842 -2843 0
2843 2844 0
-2843 -2844 0
324 2845 0
-324 -2845 0
2845 2846 0
-2845 -2846 0
2846 2847 0
-2846 -2847 0
2847 2848 0
-2847 -2848 0
2839 2844 2848 2849 0
2839 2844 -2848 -2849 0
2839 -2844 2848 -2849 0
2839 -2844 -2848 -2849 0
-2839 2844 2848 -2849 0
-2839 2844 -2848 -2849 0
-2839 -2844 2848 -2849 0
-2839 -2844 -2848 -2849 0
308 2850 0
-308 -2850 0
2850 2851 0
-2850 -2851 0
2851 2852 0
-2851 -2852 0
2852 2853 0
-2852 -2853 0
324 2854 0
-324 -2854 0
2854 2855 0
-2854 -2855 0
2855 2856 0
-2855 -2856 0
2856 2857 0
-2856 -2857 0
2857 2858 0
-2857 -2858 0
2839 2853 2858 2859 0
2839 2853 -2858 -2859 0
2839 -2853 2858 -2859 0
2839 -2853 -2858 -2859 0
-2839 2853 2858 -2859 0
-2839 2853 -2858 -2859 0
-2839 -2853 2858 -2859 0
-2839 -2853 -2858 -2859 0
309 2860 0
-309 -2860 0
2860 2861 0
-2860 -2861 0
2861 2862 0
-2861 -2862 0
2862 2863 0
-2862 -2863 0
2863 2864 0
-2863 -2864 0
2864 2844 2858 2865 0
2864 2844 -2858 -2865 0
2864 -2844 2858 -2865 0
2864 -2844 -2858 -2865 0
-2864 2844 2858 -2865 0
-2864 2844 -2858 -2865 0
-2864 -2844 2858 -2865 0
-2864 -2844 -2858 -2865 0
2864 2853 2848 2866 0
2864 2853 -2848 -2866 0
2864 -2853 2848 -2866 0
2864 -2853 -2848 -2866 0
-2864 2853 2848 -2866 0
-2864 2853 -2848 -2866 0
-2864 -2853 2848 -2866 0
-2864 -2853 -2848 -2866 0
2849 2859 2865 2866 -2867 0
2849 2859 2865 -2866 2867 0
2849 2859 -2865 2866 2867 0
2849 2859 -2865 -2866 2867 0
2849 -2859 2865 2866 2867 0
2849 -2859 2865 -2866 2867 0
2849 -2859 -2865 2866 2867 0
2849 -2859 -2865 -2866 2867 0
-2849 2859 2865 2866 2867 0
-2849 2859 2865 -2866 2867 0
-2849 2859 -2865 2866 2867 0
-2849 2859 -2865 -2866 2867 0
-2849 -2859 2865 2866 2867 0
-2849 -2859 2865 -2866 2867 0
-2849 -2859 -2865 2866 2867 0
-2849 -2859 -2865 -2866 2867 0
2867 2868 0
-2867 -2868 0
2868 2869 0
-2868 -2869 0
307 2870 0
-307 -2870 0
2870 2871 0
-2870 -2871 0
2871 2872 0
-2871 -2872 0
2872 2873 0
-2872 -2873 0
306 2874 0
-306 -2874 0
2874 2875 0
-2874 -2875 0
2875 2876 0
-2875 -2876 0
2876 2877 0
-2876 -2877 0
315 2878 0
-315 -2878 0
2878 2879 0
-2878 -2879 0
2879 2880 0
-2879 -2880 0
2880 2881 0
-2880 -2881 0
2873 2877 2881 2882 0
2873 2877 -2881 -2882 0
2873 -2877 2881 -2882 0
2873 -2877 -2881 -2882 0
-2873 2877 2881 -2882 0
-2873 2877 -2881 -2882 0
-2873 -2877 2881 -2882 0
-2873 -2877 -2881 -2882 0
306 2883 0
-306 -2883 0
2883 2884 0
-2883 -2884 0
2884 2885 0
-2884 -2885 0
315 2886 0
-315 -2886 0
2886 2887 0
-2886 -2887 0
2887 2888 0
-2887 -2888 0
2873 2885 2888 2889 0
2873 2885 -2888 -2889 0
2873 -2885 2888 -2889 0
2873 -2885 -2888 -2889 0
-2873 2885 2888 -2889 0
-2873 2885 -2888 -2889 0
-2873 -2885 2888 -2889 0
-2873 -2885 -2888 -2889 0
307 2890 0
-307 -2890 0
2890 2891 0
-2890 -2891 0
2891 2892 0
-2891 -2892 0
2892 2877 2888 2893 0
2892 2877 -2888 -2893 0
2892 -2877 2888 -2893 0
2892 -2877 -2888 -2893 0
-2892 2877 2888 -2893 0
-2892 2877 -2888 -2893 0
-2892 -2877 2888 -2893 0
-2892 -2877 -2888 -2893 0
2892 2885 2881 2894 0
2892 2885 -2881 -2894 0
2892 -2885 2881 -2894 0
2892 -2885 -2881 -2894 0
-2892 2885 2881 -2894 0
-2892 2885 -2881 -2894 0
-2892 -2885 2881 -2894 0
-2892 -2885 -2881 -2894 0
2882 2889 2893 2894 -2895 0
2882 2889 2893 -2894 2895 0
2882 2889 -2893 2894 2895 0
2882 2889 -2893 -2894 2895 0
2882 -2889 2893 2894 2895 0
2882 -2889 2893 -2894 2895 0
2882 -2889 -2893 2894 2895 0
2882 -2889 -2893 -2894 2895 0
-2882 2889 2893 2894 2895 0
-2882 2889 2893 -2894 2895 0
-2882 2889 -2893 2894 2895 0
-2882 2889 -2893 -2894 2895 0
-2882 -2889 2893 2894 2895 0
-2882 -2889 2893 -2894 2895 0
-2882 -2889 -2893 2894 2895 0
-2882 -2889 -2893 -2894 2895 0
2895 2896 0
-2895 -2896 0
2896 2897 0
-2896 -2897 0
2869 2897 2898 0
2869 -2897 -2898 0
-2869 2897 -2898 0
-2869 -2897 -2898 0
2869 2898 2899 0
2869 -2898 -2899 0
-2869 2898 -2899 0
-2869 -2898 -2899 0
2898 2897 2900 0
2898 -2897 -2900 0
-2898 2897 -2900 0
-2898 -2897 -2900 0
2899 2900 -2901 0
2899 -2900 2901 0
-2899 2900 2901 0
-2899 -2900 2901 0
2901 2902 0
-2901 -2902 0
2835 2902 -2903 0
2835 -2902 2903 0
-2835 2902 2903 0
-2835 -2902 2903 0
2903 2904 0
-2903 -2904 0
2904 2905 0
-2904 -2905 0
2905 2906 0
-2905 -2906 0
2906 2907 0
-2906 -2907 0
2834 2907 -2908 0
2834 -2907 2908 0
-2834 2907 2908 0
-2834 -2907 -2908 0
410 2909 0
-410 -2909 0
1969 1933 1943 1948 2910 0
1969 1933 1943 -1948 -2910 0
1969 1933 -1943 1948 -2910 0
1969 1933 -1943 -1948 -2910 0
1969 -1933 1943 1948 -2910 0
1969 -1933 1943 -1948 -2910 0
1969 -1933 -1943 1948 -2910 0
1969 -1933 -1943 -1948 -2910 0
-1969 1933 1943 1948 -2910 0
-1969 1933 1943 -1948 -2910 0
-1969 1933 -1943 1948 -2910 0
-1969 1933 -1943 -1948 -2910 0
-1969 -1933 1943 1948 -2910 0
-1969 -1933 1943 -1948 -2910 0
-1969 -1933 -1943 1948 -2910 0
-1969 -1933 -1943 -1948 -2910 0
2909 2337 2910 2911 0
2909 2337 -2910 -2911 0
2909 -2337 2910 -2911 0
2909 -2337 -2910 -2911 0
-2909 2337 2910 -2911 0
-2909 2337 -2910 -2911 0
-2909 -2337 2910 -2911 0
-2909 -2337 -2910 -2911 0
2337 2200 2912 0
2337 -2200 -2912 0
-2337 2200 -2912 0
-2337 -2200 -2912 0
2338 2911 2912 2913 0
2338 2911 -2912 -2913 0
2338 -2911 2912 -2913 0
2338 -2911 -2912 -2913 0
-2338 2911 2912 -2913 0
-2338 2911 -2912 -2913 0
-2338 -2911 2912 -2913 0
-2338 -2911 -2912 -2913 0
389 2914 0
-389 -2914 0
2914 2915 0
-2914 -2915 0
2913 2915 2916 0
2913 -2915 -2916 0
-2913 2915 -2916 0
-2913 -2915 -2916 0
392 2917 0
-392 -2917 0
2917 2918 0
-2917 -2918 0
2337 2334 2910 2919 0
2337 2334 -2910 -2919 0
2337 -2334 2910 -2919 0
2337 -2334 -2910 -2919 0
-2337 2334 2910 -2919 0
-2337 2334 -2910 -2919 0
-2337 -2334 2910 -2919 0
-2337 -2334 -2910 -2919 0
2919 2920 0
-2919 -2920 0
2918 2920 2921 0
2918 -2920 -2921 0
-2918 2920 -2921 0
-2918 -2920 -2921 0
384 2922 0
-384 -2922 0
2922 2923 0
-2922 -2923 0
409 2924 0
-409 -2924 0
2923 2924 2330 2925 0
2923 2924 -2330 -2925 0
2923 -2924 2330 -2925 0
2923 -2924 -2330 -2925 0
-2923 2924 2330 -2925 0
-2923 2924 -2330 -2925 0
-2923 -2924 2330 -2925 0
-2923 -2924 -2330 -2925 0
404 2926 0
-404 -2926 0
2926 2927 0
-2926 -2927 0
409 2928 0
-409 -2928 0
2928 2929 0
-2928 -2929 0
2910 2930 0
-2910 -2930 0
2930 2242 2931 0
2930 -2242 -2931 0
-2930 2242 -2931 0
-2930 -2242 -2931 0
2330 2929 2931 2932 0
2330 2929 -2931 -2932 0
2330 -2929 2931 -2932 0
2330 -2929 -2931 -2932 0
-2330 2929 2931 -2932 0
-2330 2929 -2931 -2932 0
-2330 -2929 2931 -2932 0
-2330 -2929 -2931 -2932 0
2932 2331 2933 0
2932 -2331 -2933 0
-2932 2331 -2933 0
-2932 -2331 -2933 0
2927 2933 2934 0
2927 -2933 -2934 0
-2927 2933 -2934 0
-2927 -2933 -2934 0
2916 2921 2925 2934 -2935 0
2916 2921 2925 -2934 2935 0
2916 2921 -2925 2934 2935 0
2916 2921 -2925 -2934 2935 0
2916 -2921 2925 2934 2935 0
2916 -2921 2925 -2934 2935 0
2916 -2921 -2925 2934 2935 0
2916 -2921 -2925 -2934 2935 0
-2916 2921 2925 2934 2935 0
-2916 2921 2925 -2934 2935 0
-2916 2921 -2925 2934 2935 0
-2916 2921 -2925 -2934 2935 0
-2916 -2921 2925 2934 2935 0
-2916 -2921 2925 -2934 2935 0
-2916 -2921 -2925 2934 2935 0
-2916 -2921 -2925 -2934 2935 0
2935 2936 0
-2935 -2936 0
2936 2937 0
-2936 -2937 0
2937 2938 0
-2937 -2938 0
2938 2939 0
-2938 -2939 0
2939 2940 0
-2939 -2940 0
2940 2941 0
-2940 -2941 0
410 2942 0
-410 -2942 0
2023 1987 1997 2002 2943 0
2023 1987 1997 -2002 -2943 0
2023 1987 -1997 2002 -2943 0
2023 1987 -1997 -2002 -2943 0
2023 -1987 1997 2002 -2943 0
2023 -1987 1997 -2002 -2943 0
2023 -1987 -1997 2002 -2943 0
2023 -1987 -1997 -2002 -2943 0
-2023 1987 1997 2002 -2943 0
-2023 1987 1997 -2002 -2943 0
-2023 1987 -1997 2002 -2943 0
-2023 1987 -1997 -2002 -2943 0
-2023 -1987 1997 2002 -2943 0
-2023 -1987 1997 -2002 -2943 0
-2023 -1987 -1997 2002 -2943 0
-2023 -1987 -1997 -2002 -2943 0
2942 2701 2943 2944 0
2942 2701 -2943 -2944 0
2942 -2701 2943 -2944 0
2942 -2701 -2943 -2944 0
-2942 2701 2943 -2944 0
-2942 2701 -2943 -2944 0
-2942 -2701 2943 -2944 0
-2942 -2701 -2943 -2944 0
2701 2564 2945 0
2701 -2564 -2945 0
-2701 2564 -2945 0
-2701 -2564 -2945 0
2702 2944 2945 2946 0
2702 2944 -2945 -2946 0
2702 -2944 2945 -2946 0
2702 -2944 -2945 -2946 0
-2702 2944 2945 -2946 0
-2702 2944 -2945 -2946 0
-2702 -2944 2945 -2946 0
-2702 -2944 -2945 -2946 0
389 2947 0
-389 -2947 0
2947 2948 0
-2947 -2948 0
2946 2948 2949 0
2946 -2948 -2949 0
-2946 2948 -2949 0
-2946 -2948 -2949 0
392 2950 0
-392 -2950 0
2950 2951 0
-2950 -2951 0
2701 2698 2943 2952 0
2701 2698 -2943 -2952 0
2701 -2698 2943 -2952 0
2701 -2698 -2943 -2952 0
-2701 2698 2943 -2952 0
-2701 2698 -2943 -2952 0
-2701 -2698 2943 -2952 0
-2701 -2698 -2943 -2952 0
2952 2953 0
-2952 -2953 0
2951 2953 2954 0
2951 -2953 -2954 0
-2951 2953 -2954 0
-2951 -2953 -2954 0
384 2955 0
-384 -2955 0
2955 2956 0
-2955 -2956 0
409 2957 0
-409 -2957 0
2956 2957 2694 2958 0
2956 2957 -2694 -2958 0
2956 -2957 2694 -2958 0
2956 -2957 -2694 -2958 0
-2956 2957 2694 -2958 0
-2956 2957 -2694 -2958 0
-2956 -2957 2694 -2958 0
-2956 -2957 -2694 -2958 0
404 2959 0
-404 -2959 0
2959 2960 0
-2959 -2960 0
409 2961 0
-409 -2961 0
2961 2962 0
-2961 -2962 0
2943 2963 0
-2943 -2963 0
2963 2606 2964 0
2963 -2606 -2964 0
-2963 2606 -2964 0
-2963 -2606 -2964 0
2694 2962 2964 2965 0
2694 2962 -2964 -2965 0
2694 -2962 2964 -2965 0
2694 -2962 -2964 -2965 0
-2694 2962 2964 -2965 0
-2694 2962 -2964 -2965 0
-2694 -2962 2964 -2965 0
-2694 -2962 -2964 -2965 0
2965 2695 2966 0
2965 -2695 -2966 0
-2965 2695 -2966 0
-2965 -2695 -2966 0
2960 2966 2967 0
2960 -2966 -2967 0
-2960 2966 -2967 0
-2960 -2966 -2967 0
2949 2954 2958 2967 -2968 0
2949 2954 2958 -2967 2968 0
2949 2954 -2958 2967 2968 0
2949 2954 -2958 -2967 2968 0
2949 -2954 2958 2967 2968 0
2949 -2954 2958 -2967 2968 0
2949 -2954 -2958 2967 2968 0
2949 -2954 -2958 -2967 2968 0
-2949 2954 2958 2967 2968 0
-2949 2954 2958 -2967 2968 0
-2949 2954 -2958 2967 2968 0
-2949 2954 -2958 -2967 2968 0
-2949 -2954 2958 2967 2968 0
-2949 -2954 2958 -2967 2968 0
-2949 -2954 -2958 2967 2968 0
-2949 -2954 -2958 -2967 2968 0
2968 2969 0
-2968 -2969 0
2969 2970 0
-2969 -2970 0
2970 2971 0
-2970 -2971 0
2971 2972 0
-2971 -2972 0
2972 2973 0
-2972 -2973 0
2973 2974 0
-2973 -2974 0
2941 2974 -2975 0
2941 -2974 2975 0
-2941 2974 2975 0
-2941 -2974 -2975 0
2935 2976 0
-2935 -2976 0
2976 2977 0
-2976 -2977 0
2977 2978 0
-2977 -2978 0
2978 2979 0
-2978 -2979 0
2979 2980 0
-2979 -2980 0
2980 2981 0
-2980 -2981 0
2968 2982 0
-2968 -2982 0
2982 2983 0
-2982 -2983 0
2983 2984 0
-2983 -2984 0
2984 2985 0
-2984 -2985 0
2985 2986 0
-2985 -2986 0
2986 2987 0
-2986 -2987 0
2981 2987 -2988 0
2981 -2987 2988 0
-2981 2987 2988 0
-2981 -2987 -2988 0
385 2989 0
-385 -2989 0
2989 2990 0
-2989 -2990 0
382 2991 0
-382 -2991 0
374 2992 0
-374 -2992 0
2992 1828 2993 0
2992 -1828 -2993 0
-2992 1828 -2993 0
-2992 -1828 -2993 0
2993 2994 0
-2993 -2994 0
2994 2990 2995 0
2994 -2990 -2995 0
-2994 2990 -2995 0
-2994 -2990 -2995 0
2995 2996 0
-2995 -2996 0
267 2997 0
-267 -2997 0
2997 2998 0
-2997 -2998 0
2998 2999 0
-2998 -2999 0
2996 2999 3000 0
2996 -2999 -3000 0
-2996 2999 -3000 0
-2996 -2999 -3000 0
2991 3000 3001 0
2991 -3000 -3001 0
-2991 3000 -3001 0
-2991 -3000 -3001 0
383 3002 0
-383 -3002 0
3002 2991 3003 0
3002 -2991 -3003 0
-3002 2991 -3003 0
-3002 -2991 -3003 0
3003 3004 0
-3003 -3004 0
381 3005 0
-381 -3005 0
3005 3006 0
-3005 -3006 0
3004 3006 3007 0
3004 -3006 -3007 0
-3004 3006 -3007 0
-3004 -3006 -3007 0
266 3008 0
-266 -3008 0
3008 3009 0
-3008 -3009 0
3009 3010 0
-3009 -3010 0
3010 3011 0
-3010 -3011 0
3001 3007 3011 3012 0
3001 3007 -3011 -3012 0
3001 -3007 3011 -3012 0
3001 -3007 -3011 -3012 0
-3001 3007 3011 -3012 0
-3001 3007 -3011 -3012 0
-3001 -3007 3011 -3012 0
-3001 -3007 -3011 -3012 0
3012 3013 0
-3012 -3013 0
2990 648 3013 3014 0
2990 648 -3013 -3014 0
2990 -648 3013 -3014 0
2990 -648 -3013 -3014 0
-2990 648 3013 -3014 0
-2990 648 -3013 -3014 0
-2990 -648 3013 -3014 0
-2990 -648 -3013 -3014 0
399 3015 0
-399 -3015 0
3015 3016 0
-3015 -3016 0
3016 2920 3017 0
3016 -2920 -3017 0
-3016 2920 -3017 0
-3016 -2920 -3017 0
403 3018 0
-403 -3018 0
2330 3018 3019 0
2330 -3018 -3019 0
-2330 3018 -3019 0
-2330 -3018 -3019 0
395 3020 0
-395 -3020 0
3020 3021 0
-3020 -3021 0
2912 3022 0
-2912 -3022 0
3021 3022 3023 0
3021 -3022 -3023 0
-3021 3022 -3023 0
-3021 -3022 -3023 0
3019 3023 3024 0
3019 -3023 -3024 0
-3019 3023 -3024 0
-3019 -3023 -3024 0
2341 3024 3025 0
2341 -3024 -3025 0
-2341 3024 -3025 0
-2341 -3024 -3025 0
2045 2035 2047 -3026 0
2045 2035 -2047 3026 0
2045 -2035 2047 3026 0
2045 -2035 -2047 3026 0
-2045 2035 2047 3026 0
-2045 2035 -2047 3026 0
-2045 -2035 2047 3026 0
-2045 -2035 -2047 3026 0
2150 2041 3026 -3027 0
2150 2041 -3026 3027 0
2150 -2041 3026 3027 0
2150 -2041 -3026 3027 0
-2150 2041 3026 3027 0
-2150 2041 -3026 3027 0
-2150 -2041 3026 3027 0
-2150 -2041 -3026 3027 0
3027 3028 0
-3027 -3028 0
2932 3029 0
-2932 -3029 0
3028 3029 3030 0
3028 -3029 -3030 0
-3028 3029 -3030 0
-3028 -3029 -3030 0
406 3031 0
-406 -3031 0
403 3032 0
-403 -3032 0
3032 3033 0
-3032 -3033 0
3031 3033 2332 3034 0
3031 3033 -2332 -3034 0
3031 -3033 2332 -3034 0
3031 -3033 -2332 -3034 0
-3031 3033 2332 -3034 0
-3031 3033 -2332 -3034 0
-3031 -3033 2332 -3034 0
-3031 -3033 -2332 -3034 0
3030 3034 -3035 0
3030 -3034 3035 0
-3030 3034 3035 0
-3030 -3034 3035 0
3035 3036 0
-3035 -3036 0
2320 3036 3037 0
2320 -3036 -3037 0
-2320 3036 -3037 0
-2320 -3036 -3037 0
3014 3017 3025 3037 -3038 0
3014 3017 3025 -3037 3038 0
3014 3017 -3025 3037 3038 0
3014 3017 -3025 -3037 3038 0
3014 -3017 3025 3037 3038 0
3014 -3017 3025 -3037 3038 0
3014 -3017 -3025 3037 3038 0
3014 -3017 -3025 -3037 3038 0
-3014 3017 3025 3037 3038 0
-3014 3017 3025 -3037 3038 0
-3014 3017 -3025 3037 3038 0
-3014 3017 -3025 -3037 3038 0
-3014 -3017 3025 3037 3038 0
-3014 -3017 3025 -3037 3038 0
-3014 -3017 -3025 3037 3038 0
-3014 -3017 -3025 -3037 3038 0
395 3039 0
-395 -3039 0
396 3040 0
-396 -3040 0
3040 3041 0
-3040 -3041 0
3039 3041 2329 3042 0
3039 3041 -2329 -3042 0
3039 -3041 2329 -3042 0
3039 -3041 -2329 -3042 0
-3039 3041 2329 -3042 0
-3039 3041 -2329 -3042 0
-3039 -3041 2329 -3042 0
-3039 -3041 -2329 -3042 0
2242 3021 2341 -3043 0
2242 3021 -2341 3043 0
2242 -3021 2341 3043 0
2242 -3021 -2341 3043 0
-2242 3021 2341 3043 0
-2242 3021 -2341 3043 0
-2242 -3021 2341 3043 0
-2242 -3021 -2341 3043 0
3031 2329 3043 -3044 0
3031 2329 -3043 3044 0
3031 -2329 3043 3044 0
3031 -2329 -3043 3044 0
-3031 2329 3043 3044 0
-3031 2329 -3043 3044 0
-3031 -2329 3043 3044 0
-3031 -2329 -3043 3044 0
3044 3045 0
-3044 -3045 0
3038 3042 3045 3046 0
3038 3042 -3045 -3046 0
3038 -3042 3045 -3046 0
3038 -3042 -3045 -3046 0
-3038 3042 3045 -3046 0
-3038 3042 -3045 -3046 0
-3038 -3042 3045 -3046 0
-3038 -3042 -3045 -3046 0
3046 3047 0
-3046 -3047 0
3047 3048 0
-3047 -3048 0
3048 3049 0
-3048 -3049 0
3049 3050 0
-3049 -3050 0
3050 3051 0
-3050 -3051 0
385 3052 0
-385 -3052 0
3052 3053 0
-3052 -3053 0
382 3054 0
-382 -3054 0
374 3055 0
-374 -3055 0
3055 1839 3056 0
3055 -1839 -3056 0
-3055 1839 -3056 0
-3055 -1839 -3056 0
3056 3057 0
-3056 -3057 0
3057 3053 3058 0
3057 -3053 -3058 0
-3057 3053 -3058 0
-3057 -3053 -3058 0
3058 3059 0
-3058 -3059 0
267 3060 0
-267 -3060 0
3060 3061 0
-3060 -3061 0
3061 3062 0
-3061 -3062 0
3059 3062 3063 0
3059 -3062 -3063 0
-3059 3062 -3063 0
-3059 -3062 -3063 0
3054 3063 3064 0
3054 -3063 -3064 0
-3054 3063 -3064 0
-3054 -3063 -3064 0
383 3065 0
-383 -3065 0
3065 3054 3066 0
3065 -3054 -3066 0
-3065 3054 -3066 0
-3065 -3054 -3066 0
3066 3067 0
-3066 -3067 0
381 3068 0
-381 -3068 0
3068 3069 0
-3068 -3069 0
3067 3069 3070 0
3067 -3069 -3070 0
-3067 3069 -3070 0
-3067 -3069 -3070 0
266 3071 0
-266 -3071 0
3071 3072 0
-3071 -3072 0
3072 3073 0
-3072 -3073 0
3073 3074 0
-3073 -3074 0
3064 3070 3074 3075 0
3064 3070 -3074 -3075 0
3064 -3070 3074 -3075 0
3064 -3070 -3074 -3075 0
-3064 3070 3074 -3075 0
-3064 3070 -3074 -3075 0
-3064 -3070 3074 -3075 0
-3064 -3070 -3074 -3075 0
3075 3076 0
-3075 -3076 0
3053 720 3076 3077 0
3053 720 -3076 -3077 0
3053 -720 3076 -3077 0
3053 -720 -3076 -3077 0
-3053 720 3076 -3077 0
-3053 720 -3076 -3077 0
-3053 -720 3076 -3077 0
-3053 -720 -3076 -3077 0
399 3078 0
-399 -3078 0
3078 3079 0
-3078 -3079 0
3079 2953 3080 0
3079 -2953 -3080 0
-3079 2953 -3080 0
-3079 -2953 -3080 0
403 3081 0
-403 -3081 0
2694 3081 3082 0
2694 -3081 -3082 0
-2694 3081 -3082 0
-2694 -3081 -3082 0
395 3083 0
-395 -3083 0
3083 3084 0
-3083 -3084 0
2945 3085 0
-2945 -3085 0
3084 3085 3086 0
3084 -3085 -3086 0
-3084 3085 -3086 0
-3084 -3085 -3086 0
3082 3086 3087 0
3082 -3086 -3087 0
-3082 3086 -3087 0
-3082 -3086 -3087 0
2705 3087 3088 0
2705 -3087 -3088 0
-2705 3087 -3088 0
-2705 -3087 -3088 0
2409 2399 2411 -3089 0
2409 2399 -2411 3089 0
2409 -2399 2411 3089 0
2409 -2399 -2411 3089 0
-2409 2399 2411 3089 0
-2409 2399 -2411 3089 0
-2409 -2399 2411 3089 0
-2409 -2399 -2411 3089 0
2514 2405 3089 -3090 0
2514 2405 -3089 3090 0
2514 -2405 3089 3090 0
2514 -2405 -3089 3090 0
-2514 2405 3089 3090 0
-2514 2405 -3089 3090 0
-2514 -2405 3089 3090 0
-2514 -2405 -3089 3090 0
3090 3091 0
-3090 -3091 0
2965 3092 0
-2965 -3092 0
3091 3092 3093 0
3091 -3092 -3093 0
-3091 3092 -3093 0
-3091 -3092 -3093 0
406 3094 0
-406 -3094 0
403 3095 0
-403 -3095 0
3095 3096 0
-3095 -3096 0
3094 3096 2696 3097 0
3094 3096 -2696 -3097 0
3094 -3096 2696 -3097 0
3094 -3096 -2696 -3097 0
-3094 3096 2696 -3097 0
-3094 3096 -2696 -3097 0
-3094 -3096 2696 -3097 0
-3094 -3096 -2696 -3097 0
3093 3097 -3098 0
3093 -3097 3098 0
-3093 3097 3098 0
-3093 -3097 3098 0
3098 3099 0
-3098 -3099 0
2684 3099 3100 0
2684 -3099 -3100 0
-2684 3099 -3100 0
-2684 -3099 -3100 0
3077 3080 3088 3100 -3101 0
3077 3080 3088 -3100 3101 0
3077 3080 -3088 3100 3101 0
3077 3080 -3088 -3100 3101 0
3077 -3080 3088 3100 3101 0
3077 -3080 3088 -3100 3101 0
3077 -3080 -3088 3100 3101 0
3077 -3080 -3088 -3100 3101 0
-3077 3080 3088 3100 3101 0
-3077 3080 3088 -3100 3101 0
-3077 3080 -3088 3100 3101 0
-3077 3080 -3088 -3100 3101 0
-3077 -3080 3088 3100 3101 0
-3077 -3080 3088 -3100 3101 0
-3077 -3080 -3088 3100 3101 0
-3077 -3080 -3088 -3100 3101 0
395 3102 0
-395 -3102 0
396 3103 0
-396 -3103 0
3103 3104 0
-3103 -3104 0
3102 3104 2693 3105 0
3102 3104 -2693 -3105 0
3102 -3104 2693 -3105 0
3102 -3104 -2693 -3105 0
-3102 3104 2693 -3105 0
-3102 3104 -2693 -3105 0
-3102 -3104 2693 -3105 0
-3102 -3104 -2693 -3105 0
2606 3084 2705 -3106 0
2606 3084 -2705 3106 0
2606 -3084 2705 3106 0
2606 -3084 -2705 3106 0
-2606 3084 2705 3106 0
-2606 3084 -2705 3106 0
-2606 -3084 2705 3106 0
-2606 -3084 -2705 3106 0
3094 2693 3106 -3107 0
3094 2693 -3106 3107 0
3094 -2693 3106 3107 0
3094 -2693 -3106 3107 0
-3094 2693 3106 3107 0
-3094 2693 -3106 3107 0
-3094 -2693 3106 3107 0
-3094 -2693 -3106 3107 0
3107 3108 0
-3107 -3108 0
3101 3105 3108 3109 0
3101 3105 -3108 -3109 0
3101 -3105 3108 -3109 0
3101 -3105 -3108 -3109 0
-3101 3105 3108 -3109 0
-3101 3105 -3108 -3109 0
-3101 -3105 3108 -3109 0
-3101 -3105 -3108 -3109 0
3109 3110 0
-3109 -3110 0
3110 3111 0
-3110 -3111 0
3111 3112 0
-3111 -3112 0
3112 3113 0
-3112 -3113 0
3113 3114 0
-3113 -3114 0
3051 3114 -3115 0
3051 -3114 3115 0
-3051 3114 3115 0
-3051 -3114 -3115 0
3045 3042 3038 3116 0
3045 3042 -3038 -3116 0
3045 -3042 3038 -3116 0
3045 -3042 -3038 -3116 0
-3045 3042 3038 -3116 0
-3045 3042 -3038 -3116 0
-3045 -3042 3038 -3116 0
-3045 -3042 -3038 -3116 0
3116 3117 0
-3116 -3117 0
3117 3118 0
-3117 -3118 0
3118 3119 0
-3118 -3119 0
3119 3120 0
-3119 -3120 0
3120 3121 0
-3120 -3121 0
3108 3105 3101 3122 0
3108 3105 -3101 -3122 0
3108 -3105 3101 -3122 0
3108 -3105 -3101 -3122 0
-3108 3105 3101 -3122 0
-3108 3105 -3101 -3122 0
-3108 -3105 3101 -3122 0
-3108 -3105 -3101 -3122 0
3122 3123 0
-3122 -3123 0
3123 3124 0
-3123 -3124 0
3124 3125 0
-3124 -3125 0
3125 3126 0
-3125 -3126 0
3126 3127 0
-3126 -3127 0
3121 3127 -3128 0
3121 -3127 3128 0
-3121 3127 3128 0
-3121 -3127 -3128 0
2763 2768 2772 3129 0
2763 2768 -2772 -3129 0
2763 -2768 2772 -3129 0
2763 -2768 -2772 -3129 0
-2763 2768 2772 -3129 0
-2763 2768 -2772 -3129 0
-2763 -2768 2772 -3129 0
-2763 -2768 -2772 -3129 0
3129 3130 0
-3129 -3130 0
2806 3131 0
-2806 -3131 0
2798 3132 0
-2798 -3132 0
3130 3131 3132 3133 0
3130 3131 -3132 -3133 0
3130 -3131 3132 -3133 0
3130 -3131 -3132 -3133 0
-3130 3131 3132 -3133 0
-3130 3131 -3132 -3133 0
-3130 -3131 3132 -3133 0
-3130 -3131 -3132 -3133 0
3133 3134 0
-3133 -3134 0
1948 1943 3135 0
1948 -1943 -3135 0
-1948 1943 -3135 0
-1948 -1943 -3135 0
2035 2038 2045 -3136 0
2035 2038 -2045 3136 0
2035 -2038 2045 3136 0
2035 -2038 -2045 3136 0
-2035 2038 2045 3136 0
-2035 2038 -2045 3136 0
-2035 -2038 2045 3136 0
-2035 -2038 -2045 3136 0
2148 2047 3136 -3137 0
2148 2047 -3136 3137 0
2148 -2047 3136 3137 0
2148 -2047 -3136 3137 0
-2148 2047 3136 3137 0
-2148 2047 -3136 3137 0
-2148 -2047 3136 3137 0
-2148 -2047 -3136 3137 0
3137 3138 0
-3137 -3138 0
3138 3139 0
-3138 -3139 0
3134 3135 3139 3140 0
3134 3135 -3139 -3140 0
3134 -3135 3139 -3140 0
3134 -3135 -3139 -3140 0
-3134 3135 3139 -3140 0
-3134 3135 -3139 -3140 0
-3134 -3135 3139 -3140 0
-3134 -3135 -3139 -3140 0
3140 3141 0
-3140 -3141 0
3141 3142 0
-3141 -3142 0
3142 3143 0
-3142 -3143 0
3143 3144 0
-3143 -3144 0
3144 3145 0
-3144 -3145 0
3145 3146 0
-3145 -3146 0
2836 2841 2845 3147 0
2836 2841 -2845 -3147 0
2836 -2841 2845 -3147 0
2836 -2841 -2845 -3147 0
-2836 2841 2845 -3147 0
-2836 2841 -2845 -3147 0
-2836 -2841 2845 -3147 0
-2836 -2841 -2845 -3147 0
3147 3148 0
-3147 -3148 0
2879 3149 0
-2879 -3149 0
2871 3150 0
-2871 -3150 0
3148 3149 3150 3151 0
3148 3149 -3150 -3151 0
3148 -3149 3150 -3151 0
3148 -3149 -3150 -3151 0
-3148 3149 3150 -3151 0
-3148 3149 -3150 -3151 0
-3148 -3149 3150 -3151 0
-3148 -3149 -3150 -3151 0
3151 3152 0
-3151 -3152 0
2002 1997 3153 0
2002 -1997 -3153 0
-2002 1997 -3153 0
-2002 -1997 -3153 0
2399 2402 2409 -3154 0
2399 2402 -2409 3154 0
2399 -2402 2409 3154 0
2399 -2402 -2409 3154 0
-2399 2402 2409 3154 0
-2399 2402 -2409 3154 0
-2399 -2402 2409 3154 0
-2399 -2402 -2409 3154 0
2512 2411 3154 -3155 0
2512 2411 -3154 3155 0
2512 -2411 3154 3155 0
2512 -2411 -3154 3155 0
-2512 2411 3154 3155 0
-2512 2411 -3154 3155 0
-2512 -2411 3154 3155 0
-2512 -2411 -3154 3155 0
3155 3156 0
-3155 -3156 0
3156 3157 0
-3156 -3157 0
3152 3153 3157 3158 0
3152 3153 -3157 -3158 0
3152 -3153 3157 -3158 0
3152 -3153 -3157 -3158 0
-3152 3153 3157 -3158 0
-3152 3153 -3157 -3158 0
-3152 -3153 3157 -3158 0
-3152 -3153 -3157 -3158 0
3158 3159 0
-3158 -3159 0
3159 3160 0
-3159 -3160 0
3160 3161 0
-3160 -3161 0
3161 3162 0
-3161 -3162 0
3162 3163 0
-3162 -3163 0
3163 3164 0
-3163 -3164 0
3146 3164 -3165 0
3146 -3164 3165 0
-3146 3164 3165 0
-3146 -3164 -3165 0
663 703 3166 0
663 -703 -3166 0
-663 703 -3166 0
-663 -703 -3166 0
663 795 3167 0
663 -795 -3167 0
-663 795 -3167 0
-663 -795 -3167 0
790 663 3168 0
790 -663 -3168 0
-790 663 -3168 0
-790 -663 -3168 0
3167 3168 3169 0
3167 -3168 -3169 0
-3167 3168 -3169 0
-3167 -3168 -3169 0
3169 3170 0
-3169 -3170 0
663 645 3171 0
663 -645 -3171 0
-663 645 -3171 0
-663 -645 -3171 0
3171 3172 0
-3171 -3172 0
663 671 3173 0
663 -671 -3173 0
-663 671 -3173 0
-663 -671 -3173 0
3173 3174 0
-3173 -3174 0
663 668 3175 0
663 -668 -3175 0
-663 668 -3175 0
-663 -668 -3175 0
3175 3176 0
-3175 -3176 0
3166 3177 0
-3166 -3177 0
3172 3174 3176 3177 3178 0
3172 3174 3176 -3177 -3178 0
3172 3174 -3176 3177 -3178 0
3172 3174 -3176 -3177 -3178 0
3172 -3174 3176 3177 -3178 0
3172 -3174 3176 -3177 -3178 0
3172 -3174 -3176 3177 -3178 0
3172 -3174 -3176 -3177 -3178 0
-3172 3174 3176 3177 -3178 0
-3172 3174 3176 -3177 -3178 0
-3172 3174 -3176 3177 -3178 0
-3172 3174 -3176 -3177 -3178 0
-3172 -3174 3176 3177 -3178 0
-3172 -3174 3176 -3177 -3178 0
-3172 -3174 -3176 3177 -3178 0
-3172 -3174 -3176 -3177 -3178 0
3173 3175 3179 0
3173 -3175 -3179 0
-3173 3175 -3179 0
-3173 -3175 -3179 0
3170 3178 3179 3180 0
3170 3178 -3179 -3180 0
3170 -3178 3179 -3180 0
3170 -3178 -3179 -3180 0
-3170 3178 3179 -3180 0
-3170 3178 -3179 -3180 0
-3170 -3178 3179 -3180 0
-3170 -3178 -3179 -3180 0
3180 3181 0
-3180 -3181 0
3166 3181 3182 0
3166 -3181 -3182 0
-3166 3181 -3182 0
-3166 -3181 -3182 0
668 690 3183 0
668 -690 -3183 0
-668 690 -3183 0
-668 -690 -3183 0
690 790 3184 0
690 -790 -3184 0
-690 790 -3184 0
-690 -790 -3184 0
795 690 3185 0
795 -690 -3185 0
-795 690 -3185 0
-795 -690 -3185 0
3183 3184 3185 3186 0
3183 3184 -3185 -3186 0
3183 -3184 3185 -3186 0
3183 -3184 -3185 -3186 0
-3183 3184 3185 -3186 0
-3183 3184 -3185 -3186 0
-3183 -3184 3185 -3186 0
-3183 -3184 -3185 -3186 0
3186 3187 0
-3186 -3187 0
671 690 3188 0
671 -690 -3188 0
-671 690 -3188 0
-671 -690 -3188 0
3188 3189 0
-3188 -3189 0
645 690 3190 0
645 -690 -3190 0
-645 690 -3190 0
-645 -690 -3190 0
3190 3191 0
-3190 -3191 0
690 703 3192 0
690 -703 -3192 0
-690 703 -3192 0
-690 -703 -3192 0
3192 3193 0
-3192 -3193 0
3189 3191 3193 3194 0
3189 3191 -3193 -3194 0
3189 -3191 3193 -3194 0
3189 -3191 -3193 -3194 0
-3189 3191 3193 -3194 0
-3189 3191 -3193 -3194 0
-3189 -3191 3193 -3194 0
-3189 -3191 -3193 -3194 0
3194 3195 0
-3194 -3195 0
3187 3195 3196 0
3187 -3195 -3196 0
-3187 3195 -3196 0
-3187 -3195 -3196 0
3182 3196 3197 0
3182 -3196 -3197 0
-3182 3196 -3197 0
-3182 -3196 -3197 0
3175 3188 3198 0
3175 -3188 -3198 0
-3175 3188 -3198 0
-3175 -3188 -3198 0
3198 3199 0
-3198 -3199 0
3171 3192 3200 0
3171 -3192 -3200 0
-3171 3192 -3200 0
-3171 -3192 -3200 0
3173 3190 3201 0
3173 -3190 -3201 0
-3173 3190 -3201 0
-3173 -3190 -3201 0
3199 3200 3201 3202 0
3199 3200 -3201 -3202 0
3199 -3200 3201 -3202 0
3199 -3200 -3201 -3202 0
-3199 3200 3201 -3202 0
-3199 3200 -3201 -3202 0
-3199 -3200 3201 -3202 0
-3199 -3200 -3201 -3202 0
3202 3203 0
-3202 -3203 0
468 3203 3204 0
468 -3203 -3204 0
-468 3203 -3204 0
-468 -3203 -3204 0
3201 3205 0
-3201 -3205 0
3200 3198 3205 3206 0
3200 3198 -3205 -3206 0
3200 -3198 3205 -3206 0
3200 -3198 -3205 -3206 0
-3200 3198 3205 -3206 0
-3200 3198 -3205 -3206 0
-3200 -3198 3205 -3206 0
-3200 -3198 -3205 -3206 0
3206 3207 0
-3206 -3207 0
3207 949 3208 0
3207 -949 -3208 0
-3207 949 -3208 0
-3207 -949 -3208 0
3201 3200 3198 3209 0
3201 3200 -3198 -3209 0
3201 -3200 3198 -3209 0
3201 -3200 -3198 -3209 0
-3201 3200 3198 -3209 0
-3201 3200 -3198 -3209 0
-3201 -3200 3198 -3209 0
-3201 -3200 -3198 -3209 0
3209 3210 0
-3209 -3210 0
1520 3210 3211 0
1520 -3210 -3211 0
-1520 3210 -3211 0
-1520 -3210 -3211 0
3200 3212 0
-3200 -3212 0
3201 3198 3212 3213 0
3201 3198 -3212 -3213 0
3201 -3198 3212 -3213 0
3201 -3198 -3212 -3213 0
-3201 3198 3212 -3213 0
-3201 3198 -3212 -3213 0
-3201 -3198 3212 -3213 0
-3201 -3198 -3212 -3213 0
3213 3214 0
-3213 -3214 0
3214 2155 3215 0
3214 -2155 -3215 0
-3214 2155 -3215 0
-3214 -2155 -3215 0
3204 3208 3211 3215 -3216 0
3204 3208 3211 -3215 3216 0
3204 3208 -3211 3215 3216 0
3204 3208 -3211 -3215 3216 0
3204 -3208 3211 3215 3216 0
3204 -3208 3211 -3215 3216 0
3204 -3208 -3211 3215 3216 0
3204 -3208 -3211 -3215 3216 0
-3204 3208 3211 3215 3216 0
-3204 3208 3211 -3215 3216 0
-3204 3208 -3211 3215 3216 0
-3204 3208 -3211 -3215 3216 0
-3204 -3208 3211 3215 3216 0
-3204 -3208 3211 -3215 3216 0
-3204 -3208 -3211 3215 3216 0
-3204 -3208 -3211 -3215 3216 0
3201 3212 3199 3217 0
3201 3212 -3199 -3217 0
3201 -3212 3199 -3217 0
3201 -3212 -3199 -3217 0
-3201 3212 3199 -3217 0
-3201 3212 -3199 -3217 0
-3201 -3212 3199 -3217 0
-3201 -3212 -3199 -3217 0
3217 3218 0
-3217 -3218 0
2315 3218 3219 0
2315 -3218 -3219 0
-2315 3218 -3219 0
-2315 -3218 -3219 0
3216 3219 3220 0
3216 -3219 -3220 0
-3216 3219 -3220 0
-3216 -3219 -3220 0
3197 3220 3221 0
3197 -3220 -3221 0
-3197 3220 -3221 0
-3197 -3220 -3221 0
3213 3222 0
-3213 -3222 0
418 3223 0
-418 -3223 0
3223 3224 0
-3223 -3224 0
3222 3224 3225 0
3222 -3224 -3225 0
-3222 3224 -3225 0
-3222 -3224 -3225 0
3202 3226 0
-3202 -3226 0
3226 1136 3227 0
3226 -1136 -3227 0
-3226 1136 -3227 0
-3226 -1136 -3227 0
3206 3228 0
-3206 -3228 0
1330 3228 3229 0
1330 -3228 -3229 0
-1330 3228 -3229 0
-1330 -3228 -3229 0
3227 3229 -3230 0
3227 -3229 3230 0
-3227 3229 3230 0
-3227 -3229 3230 0
3225 3230 3231 0
3225 -3230 -3231 0
-3225 3230 -3231 0
-3225 -3230 -3231 0
3177 3181 3232 0
3177 -3181 -3232 0
-3177 3181 -3232 0
-3177 -3181 -3232 0
3190 3188 3233 0
3190 -3188 -3233 0
-3190 3188 -3233 0
-3190 -3188 -3233 0
3187 3233 3234 0
3187 -3233 -3234 0
-3187 3233 -3234 0
-3187 -3233 -3234 0
3232 3234 3235 0
3232 -3234 -3235 0
-3232 3234 -3235 0
-3232 -3234 -3235 0
3231 3235 3236 0
3231 -3235 -3236 0
-3231 3235 -3236 0
-3231 -3235 -3236 0
3221 3236 -3237 0
3221 -3236 3237 0
-3221 3236 3237 0
-3221 -3236 3237 0
3237 3238 0
-3237 -3238 0
3238 3239 0
-3238 -3239 0
3239 3240 0
-3239 -3240 0
3240 3241 0
-3240 -3241 0
3241 3242 0
-3241 -3242 0
3242 3243 0
-3242 -3243 0
735 775 3244 0
735 -775 -3244 0
-735 775 -3244 0
-735 -775 -3244 0
735 849 3245 0
735 -849 -3245 0
-735 849 -3245 0
-735 -849 -3245 0
844 735 3246 0
844 -735 -3246 0
-844 735 -3246 0
-844 -735 -3246 0
3245 3246 3247 0
3245 -3246 -3247 0
-3245 3246 -3247 0
-3245 -3246 -3247 0
3247 3248 0
-3247 -3248 0
735 717 3249 0
735 -717 -3249 0
-735 717 -3249 0
-735 -717 -3249 0
3249 3250 0
-3249 -3250 0
735 743 3251 0
735 -743 -3251 0
-735 743 -3251 0
-735 -743 -3251 0
3251 3252 0
-3251 -3252 0
735 740 3253 0
735 -740 -3253 0
-735 740 -3253 0
-735 -740 -3253 0
3253 3254 0
-3253 -3254 0
3244 3255 0
-3244 -3255 0
3250 3252 3254 3255 3256 0
3250 3252 3254 -3255 -3256 0
3250 3252 -3254 3255 -3256 0
3250 3252 -3254 -3255 -3256 0
3250 -3252 3254 3255 -3256 0
3250 -3252 3254 -3255 -3256 0
3250 -3252 -3254 3255 -3256 0
3250 -3252 -3254 -3255 -3256 0
-3250 3252 3254 3255 -3256 0
-3250 3252 3254 -3255 -3256 0
-3250 3252 -3254 3255 -3256 0
-3250 3252 -3254 -3255 -3256 0
-3250 -3252 3254 3255 -3256 0
-3250 -3252 3254 -3255 -3256 0
-3250 -3252 -3254 3255 -3256 0
-3250 -3252 -3254 -3255 -3256 0
3251 3253 3257 0
3251 -3253 -3257 0
-3251 3253 -3257 0
-3251 -3253 -3257 0
3248 3256 3257 3258 0
3248 3256 -3257 -3258 0
3248 -3256 3257 -3258 0
3248 -3256 -3257 -3258 0
-3248 3256 3257 -3258 0
-3248 3256 -3257 -3258 0
-3248 -3256 3257 -3258 0
-3248 -3256 -3257 -3258 0
3258 3259 0
-3258 -3259 0
3244 3259 3260 0
3244 -3259 -3260 0
-3244 3259 -3260 0
-3244 -3259 -3260 0
740 762 3261 0
740 -762 -3261 0
-740 762 -3261 0
-740 -762 -3261 0
762 844 3262 0
762 -844 -3262 0
-762 844 -3262 0
-762 -844 -3262 0
849 762 3263 0
849 -762 -3263 0
-849 762 -3263 0
-849 -762 -3263 0
3261 3262 3263 3264 0
3261 3262 -3263 -3264 0
3261 -3262 3263 -3264 0
3261 -3262 -3263 -3264 0
-3261 3262 3263 -3264 0
-3261 3262 -3263 -3264 0
-3261 -3262 3263 -3264 0
-3261 -3262 -3263 -3264 0
3264 3265 0
-3264 -3265 0
743 762 3266 0
743 -762 -3266 0
-743 762 -3266 0
-743 -762 -3266 0
3266 3267 0
-3266 -3267 0
717 762 3268 0
717 -762 -3268 0
-717 762 -3268 0
-717 -762 -3268 0
3268 3269 0
-3268 -3269 0
762 775 3270 0
762 -775 -3270 0
-762 775 -3270 0
-762 -775 -3270 0
3270 3271 0
-3270 -3271 0
3267 3269 3271 3272 0
3267 3269 -3271 -3272 0
3267 -3269 3271 -3272 0
3267 -3269 -3271 -3272 0
-3267 3269 3271 -3272 0
-3267 3269 -3271 -3272 0
-3267 -3269 3271 -3272 0
-3267 -3269 -3271 -3272 0
3272 3273 0
-3272 -3273 0
3265 3273 3274 0
3265 -3273 -3274 0
-3265 3273 -3274 0
-3265 -3273 -3274 0
3260 3274 3275 0
3260 -3274 -3275 0
-3260 3274 -3275 0
-3260 -3274 -3275 0
3253 3266 3276 0
3253 -3266 -3276 0
-3253 3266 -3276 0
-3253 -3266 -3276 0
3276 3277 0
-3276 -3277 0
3249 3270 3278 0
3249 -3270 -3278 0
-3249 3270 -3278 0
-3249 -3270 -3278 0
3251 3268 3279 0
3251 -3268 -3279 0
-3251 3268 -3279 0
-3251 -3268 -3279 0
3277 3278 3279 3280 0
3277 3278 -3279 -3280 0
3277 -3278 3279 -3280 0
3277 -3278 -3279 -3280 0
-3277 3278 3279 -3280 0
-3277 3278 -3279 -3280 0
-3277 -3278 3279 -3280 0
-3277 -3278 -3279 -3280 0
3280 3281 0
-3280 -3281 0
566 3281 3282 0
566 -3281 -3282 0
-566 3281 -3282 0
-566 -3281 -3282 0
3279 3283 0
-3279 -3283 0
3278 3276 3283 3284 0
3278 3276 -3283 -3284 0
3278 -3276 3283 -3284 0
3278 -3276 -3283 -3284 0
-3278 3276 3283 -3284 0
-3278 3276 -3283 -3284 0
-3278 -3276 3283 -3284 0
-3278 -3276 -3283 -3284 0
3284 3285 0
-3284 -3285 0
3285 1042 3286 0
3285 -1042 -3286 0
-3285 1042 -3286 0
-3285 -1042 -3286 0
3279 3278 3276 3287 0
3279 3278 -3276 -3287 0
3279 -3278 3276 -3287 0
3279 -3278 -3276 -3287 0
-3279 3278 3276 -3287 0
-3279 3278 -3276 -3287 0
-3279 -3278 3276 -3287 0
-3279 -3278 -3276 -3287 0
3287 3288 0
-3287 -3288 0
1618 3288 3289 0
1618 -3288 -3289 0
-1618 3288 -3289 0
-1618 -3288 -3289 0
3278 3290 0
-3278 -3290 0
3279 3276 3290 3291 0
3279 3276 -3290 -3291 0
3279 -3276 3290 -3291 0
3279 -3276 -3290 -3291 0
-3279 3276 3290 -3291 0
-3279 3276 -3290 -3291 0
-3279 -3276 3290 -3291 0
-3279 -3276 -3290 -3291 0
3291 3292 0
-3291 -3292 0
3292 2519 3293 0
3292 -2519 -3293 0
-3292 2519 -3293 0
-3292 -2519 -3293 0
3282 3286 3289 3293 -3294 0
3282 3286 3289 -3293 3294 0
3282 3286 -3289 3293 3294 0
3282 3286 -3289 -3293 3294 0
3282 -3286 3289 3293 3294 0
3282 -3286 3289 -3293 3294 0
3282 -3286 -3289 3293 3294 0
3282 -3286 -3289 -3293 3294 0
-3282 3286 3289 3293 3294 0
-3282 3286 3289 -3293 3294 0
-3282 3286 -3289 3293 3294 0
-3282 3286 -3289 -3293 3294 0
-3282 -3286 3289 3293 3294 0
-3282 -3286 3289 -3293 3294 0
-3282 -3286 -3289 3293 3294 0
-3282 -3286 -3289 -3293 3294 0
3279 3290 3277 3295 0
3279 3290 -3277 -3295 0
3279 -3290 3277 -3295 0
3279 -3290 -3277 -3295 0
-3279 3290 3277 -3295 0
-3279 3290 -3277 -3295 0
-3279 -3290 3277 -3295 0
-3279 -3290 -3277 -3295 0
3295 3296 0
-3295 -3296 0
2679 3296 3297 0
2679 -3296 -3297 0
-2679 3296 -3297 0
-2679 -3296 -3297 0
3294 3297 3298 0
3294 -3297 -3298 0
-3294 3297 -3298 0
-3294 -3297 -3298 0
3275 3298 3299 0
3275 -3298 -3299 0
-3275 3298 -3299 0
-3275 -3298 -3299 0
3291 3300 0
-3291 -3300 0
418 3301 0
-418 -3301 0
3301 3302 0
-3301 -3302 0
3300 3302 3303 0
3300 -3302 -3303 0
-3300 3302 -3303 0
-3300 -3302 -3303 0
3280 3304 0
-3280 -3304 0
3304 1234 3305 0
3304 -1234 -3305 0
-3304 1234 -3305 0
-3304 -1234 -3305 0
3284 3306 0
-3284 -3306 0
1423 3306 3307 0
1423 -3306 -3307 0
-1423 3306 -3307 0
-1423 -3306 -3307 0
3305 3307 -3308 0
3305 -3307 3308 0
-3305 3307 3308 0
-3305 -3307 3308 0
3303 3308 3309 0
3303 -3308 -3309 0
-3303 3308 -3309 0
-3303 -3308 -3309 0
3255 3259 3310 0
3255 -3259 -3310 0
-3255 3259 -3310 0
-3255 -3259 -3310 0
3268 3266 3311 0
3268 -3266 -3311 0
-3268 3266 -3311 0
-3268 -3266 -3311 0
3265 3311 3312 0
3265 -3311 -3312 0
-3265 3311 -3312 0
-3265 -3311 -3312 0
3310 3312 3313 0
3310 -3312 -3313 0
-3310 3312 -3313 0
-3310 -3312 -3313 0
3309 3313 3314 0
3309 -3313 -3314 0
-3309 3313 -3314 0
-3309 -3313 -3314 0
3299 3314 -3315 0
3299 -3314 3315 0
-3299 3314 3315 0
-3299 -3314 3315 0
3315 3316 0
-3315 -3316 0
3316 3317 0
-3316 -3317 0
3317 3318 0
-3317 -3318 0
3318 3319 0
-3318 -3319 0
3319 3320 0
-3319 -3320 0
3320 3321 0
-3320 -3321 0
3243 3321 -3322 0
3243 -3321 3322 0
-3243 3321 3322 0
-3243 -3321 -3322 0
3203 460 3323 0
3203 -460 -3323 0
-3203 460 -3323 0
-3203 -460 -3323 0
1512 3210 3324 0
1512 -3210 -3324 0
-1512 3210 -3324 0
-1512 -3210 -3324 0
941 3207 3325 0
941 -3207 -3325 0
-941 3207 -3325 0
-941 -3207 -3325 0
2169 3214 3326 0
2169 -3214 -3326 0
-2169 3214 -3326 0
-2169 -3214 -3326 0
3323 3324 3325 3326 -3327 0
3323 3324 3325 -3326 3327 0
3323 3324 -3325 3326 3327 0
3323 3324 -3325 -3326 3327 0
3323 -3324 3325 3326 3327 0
3323 -3324 3325 -3326 3327 0
3323 -3324 -3325 3326 3327 0
3323 -3324 -3325 -3326 3327 0
-3323 3324 3325 3326 3327 0
-3323 3324 3325 -3326 3327 0
-3323 3324 -3325 3326 3327 0
-3323 3324 -3325 -3326 3327 0
-3323 -3324 3325 3326 3327 0
-3323 -3324 3325 -3326 3327 0
-3323 -3324 -3325 3326 3327 0
-3323 -3324 -3325 -3326 3327 0
3327 3328 0
-3327 -3328 0
3197 3328 3329 0
3197 -3328 -3329 0
-3197 3328 -3329 0
-3197 -3328 -3329 0
1322 3228 3330 0
1322 -3228 -3330 0
-1322 3228 -3330 0
-1322 -3228 -3330 0
1128 3226 3331 0
1128 -3226 -3331 0
-1128 3226 -3331 0
-1128 -3226 -3331 0
3330 3331 -3332 0
3330 -3331 3332 0
-3330 3331 3332 0
-3330 -3331 3332 0
416 3333 0
-416 -3333 0
3333 3334 0
-3333 -3334 0
3334 3222 3335 0
3334 -3222 -3335 0
-3334 3222 -3335 0
-3334 -3222 -3335 0
3332 3335 3336 0
3332 -3335 -3336 0
-3332 3335 -3336 0
-3332 -3335 -3336 0
3235 3336 3337 0
3235 -3336 -3337 0
-3235 3336 -3337 0
-3235 -3336 -3337 0
3329 3337 -3338 0
3329 -3337 3338 0
-3329 3337 3338 0
-3329 -3337 3338 0
3338 3339 0
-3338 -3339 0
3339 3340 0
-3339 -3340 0
3340 3341 0
-3340 -3341 0
3341 3342 0
-3341 -3342 0
3342 3343 0
-3342 -3343 0
3343 3344 0
-3343 -3344 0
3281 558 3345 0
3281 -558 -3345 0
-3281 558 -3345 0
-3281 -558 -3345 0
1610 3288 3346 0
1610 -3288 -3346 0
-1610 3288 -3346 0
-1610 -3288 -3346 0
1034 3285 3347 0
1034 -3285 -3347 0
-1034 3285 -3347 0
-1034 -3285 -3347 0
2533 3292 3348 0
2533 -3292 -3348 0
-2533 3292 -3348 0
-2533 -3292 -3348 0
3345 3346 3347 3348 -3349 0
3345 3346 3347 -3348 3349 0
3345 3346 -3347 3348 3349 0
3345 3346 -3347 -3348 3349 0
3345 -3346 3347 3348 3349 0
3345 -3346 3347 -3348 3349 0
3345 -3346 -3347 3348 3349 0
3345 -3346 -3347 -3348 3349 0
-3345 3346 3347 3348 3349 0
-3345 3346 3347 -3348 3349 0
-3345 3346 -3347 3348 3349 0
-3345 3346 -3347 -3348 3349 0
-3345 -3346 3347 3348 3349 0
-3345 -3346 3347 -3348 3349 0
-3345 -3346 -3347 3348 3349 0
-3345 -3346 -3347 -3348 3349 0
3349 3350 0
-3349 -3350 0
3275 3350 3351 0
3275 -3350 -3351 0
-3275 3350 -3351 0
-3275 -3350 -3351 0
1415 3306 3352 0
1415 -3306 -3352 0
-1415 3306 -3352 0
-1415 -3306 -3352 0
1226 3304 3353 0
1226 -3304 -3353 0
-1226 3304 -3353 0
-1226 -3304 -3353 0
3352 3353 -3354 0
3352 -3353 3354 0
-3352 3353 3354 0
-3352 -3353 3354 0
416 3355 0
-416 -3355 0
3355 3356 0
-3355 -3356 0
3356 3300 3357 0
3356 -3300 -3357 0
-3356 3300 -3357 0
-3356 -3300 -3357 0
3354 3357 3358 0
3354 -3357 -3358 0
-3354 3357 -3358 0
-3354 -3357 -3358 0
3313 3358 3359 0
3313 -3358 -3359 0
-3313 3358 -3359 0
-3313 -3358 -3359 0
3351 3359 -3360 0
3351 -3359 3360 0
-3351 3359 3360 0
-3351 -3359 3360 0
3360 3361 0
-3360 -3361 0
3361 3362 0
-3361 -3362 0
3362 3363 0
-3362 -3363 0
3363 3364 0
-3363 -3364 0
3364 3365 0
-3364 -3365 0
3365 3366 0
-3365 -3366 0
3344 3366 -3367 0
3344 -3366 3367 0
-3344 3366 3367 0
-3344 -3366 -3367 0
421 3368 0
-421 -3368 0
3368 3369 0
-3368 -3369 0
3222 3369 3370 0
3222 -3369 -3370 0
-3222 3369 -3370 0
-3222 -3369 -3370 0
3226 1160 3371 0
3226 -1160 -3371 0
-3226 1160 -3371 0
-3226 -1160 -3371 0
3228 1353 3372 0
3228 -1353 -3372 0
-3228 1353 -3372 0
-3228 -1353 -3372 0
3371 3372 -3373 0
3371 -3372 3373 0
-3371 3372 3373 0
-3371 -3372 3373 0
3370 3373 3374 0
3370 -3373 -3374 0
-3370 3373 -3374 0
-3370 -3373 -3374 0
3235 3374 3375 0
3235 -3374 -3375 0
-3235 3374 -3375 0
-3235 -3374 -3375 0
3214 2163 3376 0
3214 -2163 -3376 0
-3214 2163 -3376 0
-3214 -2163 -3376 0
3210 1544 3377 0
3210 -1544 -3377 0
-3210 1544 -3377 0
-3210 -1544 -3377 0
3203 492 3378 0
3203 -492 -3378 0
-3203 492 -3378 0
-3203 -492 -3378 0
970 3207 3379 0
970 -3207 -3379 0
-970 3207 -3379 0
-970 -3207 -3379 0
3376 3377 3378 3379 -3380 0
3376 3377 3378 -3379 3380 0
3376 3377 -3378 3379 3380 0
3376 3377 -3378 -3379 3380 0
3376 -3377 3378 3379 3380 0
3376 -3377 3378 -3379 3380 0
3376 -3377 -3378 3379 3380 0
3376 -3377 -3378 -3379 3380 0
-3376 3377 3378 3379 3380 0
-3376 3377 3378 -3379 3380 0
-3376 3377 -3378 3379 3380 0
-3376 3377 -3378 -3379 3380 0
-3376 -3377 3378 3379 3380 0
-3376 -3377 3378 -3379 3380 0
-3376 -3377 -3378 3379 3380 0
-3376 -3377 -3378 -3379 3380 0
3380 3381 0
-3380 -3381 0
3197 3381 3382 0
3197 -3381 -3382 0
-3197 3381 -3382 0
-3197 -3381 -3382 0
3375 3382 -3383 0
3375 -3382 3383 0
-3375 3382 3383 0
-3375 -3382 3383 0
3383 3384 0
-3383 -3384 0
3384 3385 0
-3384 -3385 0
3385 3386 0
-3385 -3386 0
3386 3387 0
-3386 -3387 0
3387 3388 0
-3387 -3388 0
3388 3389 0
-3388 -3389 0
421 3390 0
-421 -3390 0
3390 3391 0
-3390 -3391 0
3300 3391 3392 0
3300 -3391 -3392 0
-3300 3391 -3392 0
-3300 -3391 -3392 0
3304 1258 3393 0
3304 -1258 -3393 0
-3304 1258 -3393 0
-3304 -1258 -3393 0
3306 1446 3394 0
3306 -1446 -3394 0
-3306 1446 -3394 0
-3306 -1446 -3394 0
3393 3394 -3395 0
3393 -3394 3395 0
-3393 3394 3395 0
-3393 -3394 3395 0
3392 3395 3396 0
3392 -3395 -3396 0
-3392 3395 -3396 0
-3392 -3395 -3396 0
3313 3396 3397 0
3313 -3396 -3397 0
-3313 3396 -3397 0
-3313 -3396 -3397 0
3292 2527 3398 0
3292 -2527 -3398 0
-3292 2527 -3398 0
-3292 -2527 -3398 0
3288 1642 3399 0
3288 -1642 -3399 0
-3288 1642 -3399 0
-3288 -1642 -3399 0
3281 590 3400 0
3281 -590 -3400 0
-3281 590 -3400 0
-3281 -590 -3400 0
1063 3285 3401 0
1063 -3285 -3401 0
-1063 3285 -3401 0
-1063 -3285 -3401 0
3398 3399 3400 3401 -3402 0
3398 3399 3400 -3401 3402 0
3398 3399 -3400 3401 3402 0
3398 3399 -3400 -3401 3402 0
3398 -3399 3400 3401 3402 0
3398 -3399 3400 -3401 3402 0
3398 -3399 -3400 3401 3402 0
3398 -3399 -3400 -3401 3402 0
-3398 3399 3400 3401 3402 0
-3398 3399 3400 -3401 3402 0
-3398 3399 -3400 3401 3402 0
-3398 3399 -3400 -3401 3402 0
-3398 -3399 3400 3401 3402 0
-3398 -3399 3400 -3401 3402 0
-3398 -3399 -3400 3401 3402 0
-3398 -3399 -3400 -3401 3402 0
3402 3403 0
-3402 -3403 0
3275 3403 3404 0
3275 -3403 -3404 0
-3275 3403 -3404 0
-3275 -3403 -3404 0
3397 3404 -3405 0
3397 -3404 3405 0
-3397 3404 3405 0
-3397 -3404 3405 0
3405 3406 0
-3405 -3406 0
3406 3407 0
-3406 -3407 0
3407 3408 0
-3407 -3408 0
3408 3409 0
-3408 -3409 0
3409 3410 0
-3409 -3410 0
3410 3411 0
-3410 -3411 0
3389 3411 -3412 0
3389 -3411 3412 0
-3389 3411 3412 0
-3389 -3411 -3412 0
3228 1357 3413 0
3228 -1357 -3413 0
-3228 1357 -3413 0
-3228 -1357 -3413 0
3226 1164 3414 0
3226 -1164 -3414 0
-3226 1164 -3414 0
-3226 -1164 -3414 0
3413 3414 -3415 0
3413 -3414 3415 0
-3413 3414 3415 0
-3413 -3414 3415 0
426 3416 0
-426 -3416 0
3416 3417 0
-3416 -3417 0
3222 3417 3418 0
3222 -3417 -3418 0
-3222 3417 -3418 0
-3222 -3417 -3418 0
3415 3418 3419 0
3415 -3418 -3419 0
-3415 3418 -3419 0
-3415 -3418 -3419 0
3235 3419 3420 0
3235 -3419 -3420 0
-3235 3419 -3420 0
-3235 -3419 -3420 0
3214 2161 3421 0
3214 -2161 -3421 0
-3214 2161 -3421 0
-3214 -2161 -3421 0
496 3203 3422 0
496 -3203 -3422 0
-496 3203 -3422 0
-496 -3203 -3422 0
3210 1548 3423 0
3210 -1548 -3423 0
-3210 1548 -3423 0
-3210 -1548 -3423 0
3207 974 3424 0
3207 -974 -3424 0
-3207 974 -3424 0
-3207 -974 -3424 0
3421 3422 3423 3424 -3425 0
3421 3422 3423 -3424 3425 0
3421 3422 -3423 3424 3425 0
3421 3422 -3423 -3424 3425 0
3421 -3422 3423 3424 3425 0
3421 -3422 3423 -3424 3425 0
3421 -3422 -3423 3424 3425 0
3421 -3422 -3423 -3424 3425 0
-3421 3422 3423 3424 3425 0
-3421 3422 3423 -3424 3425 0
-3421 3422 -3423 3424 3425 0
-3421 3422 -3423 -3424 3425 0
-3421 -3422 3423 3424 3425 0
-3421 -3422 3423 -3424 3425 0
-3421 -3422 -3423 3424 3425 0
-3421 -3422 -3423 -3424 3425 0
3425 3426 0
-3425 -3426 0
3197 3426 3427 0
3197 -3426 -3427 0
-3197 3426 -3427 0
-3197 -3426 -3427 0
3420 3427 -3428 0
3420 -3427 3428 0
-3420 3427 3428 0
-3420 -3427 3428 0
3428 3429 0
-3428 -3429 0
3429 3430 0
-3429 -3430 0
3430 3431 0
-3430 -3431 0
3431 3432 0
-3431 -3432 0
3432 3433 0
-3432 -3433 0
3433 3434 0
-3433 -3434 0
3306 1450 3435 0
3306 -1450 -3435 0
-3306 1450 -3435 0
-3306 -1450 -3435 0
3304 1262 3436 0
3304 -1262 -3436 0
-3304 1262 -3436 0
-3304 -1262 -3436 0
3435 3436 -3437 0
3435 -3436 3437 0
-3435 3436 3437 0
-3435 -3436 3437 0
426 3438 0
-426 -3438 0
3438 3439 0
-3438 -3439 0
3300 3439 3440 0
3300 -3439 -3440 0
-3300 3439 -3440 0
-3300 -3439 -3440 0
3437 3440 3441 0
3437 -3440 -3441 0
-3437 3440 -3441 0
-3437 -3440 -3441 0
3313 3441 3442 0
3313 -3441 -3442 0
-3313 3441 -3442 0
-3313 -3441 -3442 0
3292 2525 3443 0
3292 -2525 -3443 0
-3292 2525 -3443 0
-3292 -2525 -3443 0
594 3281 3444 0
594 -3281 -3444 0
-594 3281 -3444 0
-594 -3281 -3444 0
3288 1646 3445 0
3288 -1646 -3445 0
-3288 1646 -3445 0
-3288 -1646 -3445 0
3285 1067 3446 0
3285 -1067 -3446 0
-3285 1067 -3446 0
-3285 -1067 -3446 0
3443 3444 3445 3446 -3447 0
3443 3444 3445 -3446 3447 0
3443 3444 -3445 3446 3447 0
3443 3444 -3445 -3446 3447 0
3443 -3444 3445 3446 3447 0
3443 -3444 3445 -3446 3447 0
3443 -3444 -3445 3446 3447 0
3443 -3444 -3445 -3446 3447 0
-3443 3444 3445 3446 3447 0
-3443 3444 3445 -3446 3447 0
-3443 3444 -3445 3446 3447 0
-3443 3444 -3445 -3446 3447 0
-3443 -3444 3445 3446 3447 0
-3443 -3444 3445 -3446 3447 0
-3443 -3444 -3445 3446 3447 0
-3443 -3444 -3445 -3446 3447 0
3447 3448 0
-3447 -3448 0
3275 3448 3449 0
3275 -3448 -3449 0
-3275 3448 -3449 0
-3275 -3448 -3449 0
3442 3449 -3450 0
3442 -3449 3450 0
-3442 3449 3450 0
-3442 -3449 3450 0
3450 3451 0
-3450 -3451 0
3451 3452 0
-3451 -3452 0
3452 3453 0
-3452 -3453 0
3453 3454 0
-3453 -3454 0
3454 3455 0
-3454 -3455 0
3455 3456 0
-3455 -3456 0
3434 3456 -3457 0
3434 -3456 3457 0
-3434 3456 3457 0
-3434 -3456 -3457 0
3207 966 3458 0
3207 -966 -3458 0
-3207 966 -3458 0
-3207 -966 -3458 0
3203 488 3459 0
3203 -488 -3459 0
-3203 488 -3459 0
-3203 -488 -3459 0
1540 3210 3460 0
1540 -3210 -3460 0
-1540 3210 -3460 0
-1540 -3210 -3460 0
3214 2180 3461 0
3214 -2180 -3461 0
-3214 2180 -3461 0
-3214 -2180 -3461 0
3458 3459 3460 3461 -3462 0
3458 3459 3460 -3461 3462 0
3458 3459 -3460 3461 3462 0
3458 3459 -3460 -3461 3462 0
3458 -3459 3460 3461 3462 0
3458 -3459 3460 -3461 3462 0
3458 -3459 -3460 3461 3462 0
3458 -3459 -3460 -3461 3462 0
-3458 3459 3460 3461 3462 0
-3458 3459 3460 -3461 3462 0
-3458 3459 -3460 3461 3462 0
-3458 3459 -3460 -3461 3462 0
-3458 -3459 3460 3461 3462 0
-3458 -3459 3460 -3461 3462 0
-3458 -3459 -3460 3461 3462 0
-3458 -3459 -3460 -3461 3462 0
3462 3463 0
-3462 -3463 0
3197 3463 3464 0
3197 -3463 -3464 0
-3197 3463 -3464 0
-3197 -3463 -3464 0
1349 3228 3465 0
1349 -3228 -3465 0
-1349 3228 -3465 0
-1349 -3228 -3465 0
3226 1156 3466 0
3226 -1156 -3466 0
-3226 1156 -3466 0
-3226 -1156 -3466 0
3465 3466 -3467 0
3465 -3466 3467 0
-3465 3466 3467 0
-3465 -3466 3467 0
216 3468 0
-216 -3468 0
3468 3469 0
-3468 -3469 0
3469 3222 3470 0
3469 -3222 -3470 0
-3469 3222 -3470 0
-3469 -3222 -3470 0
3467 3470 3471 0
3467 -3470 -3471 0
-3467 3470 -3471 0
-3467 -3470 -3471 0
3235 3471 3472 0
3235 -3471 -3472 0
-3235 3471 -3472 0
-3235 -3471 -3472 0
3464 3472 -3473 0
3464 -3472 3473 0
-3464 3472 3473 0
-3464 -3472 3473 0
3473 3474 0
-3473 -3474 0
3474 3475 0
-3474 -3475 0
3475 3476 0
-3475 -3476 0
3476 3477 0
-3476 -3477 0
3477 3478 0
-3477 -3478 0
3478 3479 0
-3478 -3479 0
3285 1059 3480 0
3285 -1059 -3480 0
-3285 1059 -3480 0
-3285 -1059 -3480 0
3281 586 3481 0
3281 -586 -3481 0
-3281 586 -3481 0
-3281 -586 -3481 0
1638 3288 3482 0
1638 -3288 -3482 0
-1638 3288 -3482 0
-1638 -3288 -3482 0
3292 2544 3483 0
3292 -2544 -3483 0
-3292 2544 -3483 0
-3292 -2544 -3483 0
3480 3481 3482 3483 -3484 0
3480 3481 3482 -3483 3484 0
3480 3481 -3482 3483 3484 0
3480 3481 -3482 -3483 3484 0
3480 -3481 3482 3483 3484 0
3480 -3481 3482 -3483 3484 0
3480 -3481 -3482 3483 3484 0
3480 -3481 -3482 -3483 3484 0
-3480 3481 3482 3483 3484 0
-3480 3481 3482 -3483 3484 0
-3480 3481 -3482 3483 3484 0
-3480 3481 -3482 -3483 3484 0
-3480 -3481 3482 3483 3484 0
-3480 -3481 3482 -3483 3484 0
-3480 -3481 -3482 3483 3484 0
-3480 -3481 -3482 -3483 3484 0
3484 3485 0
-3484 -3485 0
3275 3485 3486 0
3275 -3485 -3486 0
-3275 3485 -3486 0
-3275 -3485 -3486 0
1442 3306 3487 0
1442 -3306 -3487 0
-1442 3306 -3487 0
-1442 -3306 -3487 0
3304 1254 3488 0
3304 -1254 -3488 0
-3304 1254 -3488 0
-3304 -1254 -3488 0
3487 3488 -3489 0
3487 -3488 3489 0
-3487 3488 3489 0
-3487 -3488 3489 0
216 3490 0
-216 -3490 0
3490 3491 0
-3490 -3491 0
3491 3300 3492 0
3491 -3300 -3492 0
-3491 3300 -3492 0
-3491 -3300 -3492 0
3489 3492 3493 0
3489 -3492 -3493 0
-3489 3492 -3493 0
-3489 -3492 -3493 0
3313 3493 3494 0
3313 -3493 -3494 0
-3313 3493 -3494 0
-3313 -3493 -3494 0
3486 3494 -3495 0
3486 -3494 3495 0
-3486 3494 3495 0
-3486 -3494 3495 0
3495 3496 0
-3495 -3496 0
3496 3497 0
-3496 -3497 0
3497 3498 0
-3497 -3498 0
3498 3499 0
-3498 -3499 0
3499 3500 0
-3499 -3500 0
3500 3501 0
-3500 -3501 0
3479 3501 -3502 0
3479 -3501 3502 0
-3479 3501 3502 0
-3479 -3501 -3502 0
3228 1300 3503 0
3228 -1300 -3503 0
-3228 1300 -3503 0
-3228 -1300 -3503 0
1103 3226 3504 0
1103 -3226 -3504 0
-1103 3226 -3504 0
-1103 -3226 -3504 0
3503 3504 -3505 0
3503 -3504 3505 0
-3503 3504 3505 0
-3503 -3504 3505 0
422 3506 0
-422 -3506 0
3506 3507 0
-3506 -3507 0
3507 3222 3508 0
3507 -3222 -3508 0
-3507 3222 -3508 0
-3507 -3222 -3508 0
3505 3508 3509 0
3505 -3508 -3509 0
-3505 3508 -3509 0
-3505 -3508 -3509 0
3235 3509 3510 0
3235 -3509 -3510 0
-3235 3509 -3510 0
-3235 -3509 -3510 0
3203 435 3511 0
3203 -435 -3511 0
-3203 435 -3511 0
-3203 -435 -3511 0
2192 3214 3512 0
2192 -3214 -3512 0
-2192 3214 -3512 0
-2192 -3214 -3512 0
916 3207 3513 0
916 -3207 -3513 0
-916 3207 -3513 0
-916 -3207 -3513 0
3210 1487 3514 0
3210 -1487 -3514 0
-3210 1487 -3514 0
-3210 -1487 -3514 0
3511 3512 3513 3514 -3515 0
3511 3512 3513 -3514 3515 0
3511 3512 -3513 3514 3515 0
3511 3512 -3513 -3514 3515 0
3511 -3512 3513 3514 3515 0
3511 -3512 3513 -3514 3515 0
3511 -3512 -3513 3514 3515 0
3511 -3512 -3513 -3514 3515 0
-3511 3512 3513 3514 3515 0
-3511 3512 3513 -3514 3515 0
-3511 3512 -3513 3514 3515 0
-3511 3512 -3513 -3514 3515 0
-3511 -3512 3513 3514 3515 0
-3511 -3512 3513 -3514 3515 0
-3511 -3512 -3513 3514 3515 0
-3511 -3512 -3513 -3514 3515 0
3515 3516 0
-3515 -3516 0
3516 3197 3517 0
3516 -3197 -3517 0
-3516 3197 -3517 0
-3516 -3197 -3517 0
3510 3517 -3518 0
3510 -3517 3518 0
-3510 3517 3518 0
-3510 -3517 3518 0
3518 3519 0
-3518 -3519 0
3519 3520 0
-3519 -3520 0
3520 3521 0
-3520 -3521 0
3521 3522 0
-3521 -3522 0
3522 3523 0
-3522 -3523 0
3523 3524 0
-3523 -3524 0
3306 1393 3525 0
3306 -1393 -3525 0
-3306 1393 -3525 0
-3306 -1393 -3525 0
1201 3304 3526 0
1201 -3304 -3526 0
-1201 3304 -3526 0
-1201 -3304 -3526 0
3525 3526 -3527 0
3525 -3526 3527 0
-3525 3526 3527 0
-3525 -3526 3527 0
422 3528 0
-422 -3528 0
3528 3529 0
-3528 -3529 0
3529 3300 3530 0
3529 -3300 -3530 0
-3529 3300 -3530 0
-3529 -3300 -3530 0
3527 3530 3531 0
3527 -3530 -3531 0
-3527 3530 -3531 0
-3527 -3530 -3531 0
3313 3531 3532 0
3313 -3531 -3532 0
-3313 3531 -3532 0
-3313 -3531 -3532 0
3281 533 3533 0
3281 -533 -3533 0
-3281 533 -3533 0
-3281 -533 -3533 0
2556 3292 3534 0
2556 -3292 -3534 0
-2556 3292 -3534 0
-2556 -3292 -3534 0
1009 3285 3535 0
1009 -3285 -3535 0
-1009 3285 -3535 0
-1009 -3285 -3535 0
3288 1585 3536 0
3288 -1585 -3536 0
-3288 1585 -3536 0
-3288 -1585 -3536 0
3533 3534 3535 3536 -3537 0
3533 3534 3535 -3536 3537 0
3533 3534 -3535 3536 3537 0
3533 3534 -3535 -3536 3537 0
3533 -3534 3535 3536 3537 0
3533 -3534 3535 -3536 3537 0
3533 -3534 -3535 3536 3537 0
3533 -3534 -3535 -3536 3537 0
-3533 3534 3535 3536 3537 0
-3533 3534 3535 -3536 3537 0
-3533 3534 -3535 3536 3537 0
-3533 3534 -3535 -3536 3537 0
-3533 -3534 3535 3536 3537 0
-3533 -3534 3535 -3536 3537 0
-3533 -3534 -3535 3536 3537 0
-3533 -3534 -3535 -3536 3537 0
3537 3538 0
-3537 -3538 0
3538 3275 3539 0
3538 -3275 -3539 0
-3538 3275 -3539 0
-3538 -3275 -3539 0
3532 3539 -3540 0
3532 -3539 3540 0
-3532 3539 3540 0
-3532 -3539 3540 0
3540 3541 0
-3540 -3541 0
3541 3542 0
-3541 -3542 0
3542 3543 0
-3542 -3543 0
3543 3544 0
-3543 -3544 0
3544 3545 0
-3544 -3545 0
3545 3546 0
-3545 -3546 0
3524 3546 -3547 0
3524 -3546 3547 0
-3524 3546 3547 0
-3524 -3546 -3547 0
1304 3228 3548 0
1304 -3228 -3548 0
-1304 3228 -3548 0
-1304 -3228 -3548 0
3226 1107 3549 0
3226 -1107 -3549 0
-3226 1107 -3549 0
-3226 -1107 -3549 0
3548 3549 -3550 0
3548 -3549 3550 0
-3548 3549 3550 0
-3548 -3549 3550 0
424 3551 0
-424 -3551 0
3551 3552 0
-3551 -3552 0
3222 3552 3553 0
3222 -3552 -3553 0
-3222 3552 -3553 0
-3222 -3552 -3553 0
3550 3553 3554 0
3550 -3553 -3554 0
-3550 3553 -3554 0
-3550 -3553 -3554 0
3235 3554 3555 0
3235 -3554 -3555 0
-3235 3554 -3555 0
-3235 -3554 -3555 0
1491 3210 3556 0
1491 -3210 -3556 0
-1491 3210 -3556 0
-1491 -3210 -3556 0
3203 439 3557 0
3203 -439 -3557 0
-3203 439 -3557 0
-3203 -439 -3557 0
2186 3214 3558 0
2186 -3214 -3558 0
-2186 3214 -3558 0
-2186 -3214 -3558 0
920 3207 3559 0
920 -3207 -3559 0
-920 3207 -3559 0
-920 -3207 -3559 0
3556 3557 3558 3559 -3560 0
3556 3557 3558 -3559 3560 0
3556 3557 -3558 3559 3560 0
3556 3557 -3558 -3559 3560 0
3556 -3557 3558 3559 3560 0
3556 -3557 3558 -3559 3560 0
3556 -3557 -3558 3559 3560 0
3556 -3557 -3558 -3559 3560 0
-3556 3557 3558 3559 3560 0
-3556 3557 3558 -3559 3560 0
-3556 3557 -3558 3559 3560 0
-3556 3557 -3558 -3559 3560 0
-3556 -3557 3558 3559 3560 0
-3556 -3557 3558 -3559 3560 0
-3556 -3557 -3558 3559 3560 0
-3556 -3557 -3558 -3559 3560 0
3560 3561 0
-3560 -3561 0
3561 3197 3562 0
3561 -3197 -3562 0
-3561 3197 -3562 0
-3561 -3197 -3562 0
3555 3562 -3563 0
3555 -3562 3563 0
-3555 3562 3563 0
-3555 -3562 3563 0
3563 3564 0
-3563 -3564 0
3564 3565 0
-3564 -3565 0
3565 3566 0
-3565 -3566 0
3566 3567 0
-3566 -3567 0
3567 3568 0
-3567 -3568 0
3568 3569 0
-3568 -3569 0
1397 3306 3570 0
1397 -3306 -3570 0
-1397 3306 -3570 0
-1397 -3306 -3570 0
3304 1205 3571 0
3304 -1205 -3571 0
-3304 1205 -3571 0
-3304 -1205 -3571 0
3570 3571 -3572 0
3570 -3571 3572 0
-3570 3571 3572 0
-3570 -3571 3572 0
424 3573 0
-424 -3573 0
3573 3574 0
-3573 -3574 0
3300 3574 3575 0
3300 -3574 -3575 0
-3300 3574 -3575 0
-3300 -3574 -3575 0
3572 3575 3576 0
3572 -3575 -3576 0
-3572 3575 -3576 0
-3572 -3575 -3576 0
3313 3576 3577 0
3313 -3576 -3577 0
-3313 3576 -3577 0
-3313 -3576 -3577 0
1589 3288 3578 0
1589 -3288 -3578 0
-1589 3288 -3578 0
-1589 -3288 -3578 0
3281 537 3579 0
3281 -537 -3579 0
-3281 537 -3579 0
-3281 -537 -3579 0
2550 3292 3580 0
2550 -3292 -3580 0
-2550 3292 -3580 0
-2550 -3292 -3580 0
1013 3285 3581 0
1013 -3285 -3581 0
-1013 3285 -3581 0
-1013 -3285 -3581 0
3578 3579 3580 3581 -3582 0
3578 3579 3580 -3581 3582 0
3578 3579 -3580 3581 3582 0
3578 3579 -3580 -3581 3582 0
3578 -3579 3580 3581 3582 0
3578 -3579 3580 -3581 3582 0
3578 -3579 -3580 3581 3582 0
3578 -3579 -3580 -3581 3582 0
-3578 3579 3580 3581 3582 0
-3578 3579 3580 -3581 3582 0
-3578 3579 -3580 3581 3582 0
-3578 3579 -3580 -3581 3582 0
-3578 -3579 3580 3581 3582 0
-3578 -3579 3580 -3581 3582 0
-3578 -3579 -3580 3581 3582 0
-3578 -3579 -3580 -3581 3582 0
3582 3583 0
-3582 -3583 0
3583 3275 3584 0
3583 -3275 -3584 0
-3583 3275 -3584 0
-3583 -3275 -3584 0
3577 3584 -3585 0
3577 -3584 3585 0
-3577 3584 3585 0
-3577 -3584 3585 0
3585 3586 0
-3585 -3586 0
3586 3587 0
-3586 -3587 0
3587 3588 0
-3587 -3588 0
3588 3589 0
-3588 -3589 0
3589 3590 0
-3589 -3590 0
3590 3591 0
-3590 -3591 0
3569 3591 -3592 0
3569 -3591 3592 0
-3569 3591 3592 0
-3569 -3591 -3592 0
1483 3210 3593 0
1483 -3210 -3593 0
-1483 3210 -3593 0
-1483 -3210 -3593 0
431 3203 3594 0
431 -3203 -3594 0
-431 3203 -3594 0
-431 -3203 -3594 0
3214 2178 3595 0
3214 -2178 -3595 0
-3214 2178 -3595 0
-3214 -2178 -3595 0
3207 912 3596 0
3207 -912 -3596 0
-3207 912 -3596 0
-3207 -912 -3596 0
3593 3594 3595 3596 -3597 0
3593 3594 3595 -3596 3597 0
3593 3594 -3595 3596 3597 0
3593 3594 -3595 -3596 3597 0
3593 -3594 3595 3596 3597 0
3593 -3594 3595 -3596 3597 0
3593 -3594 -3595 3596 3597 0
3593 -3594 -3595 -3596 3597 0
-3593 3594 3595 3596 3597 0
-3593 3594 3595 -3596 3597 0
-3593 3594 -3595 3596 3597 0
-3593 3594 -3595 -3596 3597 0
-3593 -3594 3595 3596 3597 0
-3593 -3594 3595 -3596 3597 0
-3593 -3594 -3595 3596 3597 0
-3593 -3594 -3595 -3596 3597 0
3597 3598 0
-3597 -3598 0
3598 3197 3599 0
3598 -3197 -3599 0
-3598 3197 -3599 0
-3598 -3197 -3599 0
427 3600 0
-427 -3600 0
3600 3601 0
-3600 -3601 0
3222 3601 3602 0
3222 -3601 -3602 0
-3222 3601 -3602 0
-3222 -3601 -3602 0
3226 1099 3603 0
3226 -1099 -3603 0
-3226 1099 -3603 0
-3226 -1099 -3603 0
1296 3228 3604 0
1296 -3228 -3604 0
-1296 3228 -3604 0
-1296 -3228 -3604 0
3603 3604 -3605 0
3603 -3604 3605 0
-3603 3604 3605 0
-3603 -3604 3605 0
3602 3605 3606 0
3602 -3605 -3606 0
-3602 3605 -3606 0
-3602 -3605 -3606 0
3606 3235 3607 0
3606 -3235 -3607 0
-3606 3235 -3607 0
-3606 -3235 -3607 0
3599 3607 -3608 0
3599 -3607 3608 0
-3599 3607 3608 0
-3599 -3607 3608 0
3608 3609 0
-3608 -3609 0
3609 3610 0
-3609 -3610 0
3610 3611 0
-3610 -3611 0
3611 3612 0
-3611 -3612 0
3612 3613 0
-3612 -3613 0
3613 3614 0
-3613 -3614 0
1581 3288 3615 0
1581 -3288 -3615 0
-1581 3288 -3615 0
-1581 -3288 -3615 0
529 3281 3616 0
529 -3281 -3616 0
-529 3281 -3616 0
-529 -3281 -3616 0
3292 2542 3617 0
3292 -2542 -3617 0
-3292 2542 -3617 0
-3292 -2542 -3617 0
3285 1005 3618 0
3285 -1005 -3618 0
-3285 1005 -3618 0
-3285 -1005 -3618 0
3615 3616 3617 3618 -3619 0
3615 3616 3617 -3618 3619 0
3615 3616 -3617 3618 3619 0
3615 3616 -3617 -3618 3619 0
3615 -3616 3617 3618 3619 0
3615 -3616 3617 -3618 3619 0
3615 -3616 -3617 3618 3619 0
3615 -3616 -3617 -3618 3619 0
-3615 3616 3617 3618 3619 0
-3615 3616 3617 -3618 3619 0
-3615 3616 -3617 3618 3619 0
-3615 3616 -3617 -3618 3619 0
-3615 -3616 3617 3618 3619 0
-3615 -3616 3617 -3618 3619 0
-3615 -3616 -3617 3618 3619 0
-3615 -3616 -3617 -3618 3619 0
3619 3620 0
-3619 -3620 0
3620 3275 3621 0
3620 -3275 -3621 0
-3620 3275 -3621 0
-3620 -3275 -3621 0
427 3622 0
-427 -3622 0
3622 3623 0
-3622 -3623 0
3300 3623 3624 0
3300 -3623 -3624 0
-3300 3623 -3624 0
-3300 -3623 -3624 0
3304 1197 3625 0
3304 -1197 -3625 0
-3304 1197 -3625 0
-3304 -1197 -3625 0
1389 3306 3626 0
1389 -3306 -3626 0
-1389 3306 -3626 0
-1389 -3306 -3626 0
3625 3626 -3627 0
3625 -3626 3627 0
-3625 3626 3627 0
-3625 -3626 3627 0
3624 3627 3628 0
3624 -3627 -3628 0
-3624 3627 -3628 0
-3624 -3627 -3628 0
3628 3313 3629 0
3628 -3313 -3629 0
-3628 3313 -3629 0
-3628 -3313 -3629 0
3621 3629 -3630 0
3621 -3629 3630 0
-3621 3629 3630 0
-3621 -3629 3630 0
3630 3631 0
-3630 -3631 0
3631 3632 0
-3631 -3632 0
3632 3633 0
-3632 -3633 0
3633 3634 0
-3633 -3634 0
3634 3635 0
-3634 -3635 0
3635 3636 0
-3635 -3636 0
3614 3636 -3637 0
3614 -3636 3637 0
-3614 3636 3637 0
-3614 -3636 -3637 0
237 3638 0
-237 -3638 0
3218 3638 3639 0
3218 -3638 -3639 0
-3218 3638 -3639 0
-3218 -3638 -3639 0
3198 3212 3205 3640 0
3198 3212 -3205 -3640 0
3198 -3212 3205 -3640 0
3198 -3212 -3205 -3640 0
-3198 3212 3205 -3640 0
-3198 3212 -3205 -3640 0
-3198 -3212 3205 -3640 0
-3198 -3212 -3205 -3640 0
3640 3641 0
-3640 -3641 0
3641 3642 0
-3641 -3642 0
3639 3642 -3643 0
3639 -3642 3643 0
-3639 3642 3643 0
-3639 -3642 3643 0
945 3207 3644 0
945 -3207 -3644 0
-945 3207 -3644 0
-945 -3207 -3644 0
464 3203 3645 0
464 -3203 -3645 0
-464 3203 -3645 0
-464 -3203 -3645 0
1516 3210 3646 0
1516 -3210 -3646 0
-1516 3210 -3646 0
-1516 -3210 -3646 0
2135 3214 3647 0
2135 -3214 -3647 0
-2135 3214 -3647 0
-2135 -3214 -3647 0
3644 3645 3646 3647 -3648 0
3644 3645 3646 -3647 3648 0
3644 3645 -3646 3647 3648 0
3644 3645 -3646 -3647 3648 0
3644 -3645 3646 3647 3648 0
3644 -3645 3646 -3647 3648 0
3644 -3645 -3646 3647 3648 0
3644 -3645 -3646 -3647 3648 0
-3644 3645 3646 3647 3648 0
-3644 3645 3646 -3647 3648 0
-3644 3645 -3646 3647 3648 0
-3644 3645 -3646 -3647 3648 0
-3644 -3645 3646 3647 3648 0
-3644 -3645 3646 -3647 3648 0
-3644 -3645 -3646 3647 3648 0
-3644 -3645 -3646 -3647 3648 0
3643 3648 3649 0
3643 -3648 -3649 0
-3643 3648 -3649 0
-3643 -3648 -3649 0
3649 3197 3650 0
3649 -3197 -3650 0
-3649 3197 -3650 0
-3649 -3197 -3650 0
3601 3651 0
-3601 -3651 0
3651 3652 0
-3651 -3652 0
3507 3653 0
-3507 -3653 0
3653 3654 0
-3653 -3654 0
3552 3655 0
-3552 -3655 0
3655 3656 0
-3655 -3656 0
3652 3654 3656 3657 0
3652 3654 -3656 -3657 0
3652 -3654 3656 -3657 0
3652 -3654 -3656 -3657 0
-3652 3654 3656 -3657 0
-3652 3654 -3656 -3657 0
-3652 -3654 3656 -3657 0
-3652 -3654 -3656 -3657 0
422 3658 0
-422 -3658 0
3658 3659 0
-3658 -3659 0
3659 3660 0
-3659 -3660 0
424 3661 0
-424 -3661 0
3661 3662 0
-3661 -3662 0
3662 3663 0
-3662 -3663 0
3652 3660 3663 3664 0
3652 3660 -3663 -3664 0
3652 -3660 3663 -3664 0
3652 -3660 -3663 -3664 0
-3652 3660 3663 -3664 0
-3652 3660 -3663 -3664 0
-3652 -3660 3663 -3664 0
-3652 -3660 -3663 -3664 0
427 3665 0
-427 -3665 0
3665 3666 0
-3665 -3666 0
3666 3667 0
-3666 -3667 0
3667 3654 3663 3668 0
3667 3654 -3663 -3668 0
3667 -3654 3663 -3668 0
3667 -3654 -3663 -3668 0
-3667 3654 3663 -3668 0
-3667 3654 -3663 -3668 0
-3667 -3654 3663 -3668 0
-3667 -3654 -3663 -3668 0
3667 3660 3656 3669 0
3667 3660 -3656 -3669 0
3667 -3660 3656 -3669 0
3667 -3660 -3656 -3669 0
-3667 3660 3656 -3669 0
-3667 3660 -3656 -3669 0
-3667 -3660 3656 -3669 0
-3667 -3660 -3656 -3669 0
3657 3664 3668 3669 -3670 0
3657 3664 3668 -3669 3670 0
3657 3664 -3668 3669 3670 0
3657 3664 -3668 -3669 3670 0
3657 -3664 3668 3669 3670 0
3657 -3664 3668 -3669 3670 0
3657 -3664 -3668 3669 3670 0
3657 -3664 -3668 -3669 3670 0
-3657 3664 3668 3669 3670 0
-3657 3664 3668 -3669 3670 0
-3657 3664 -3668 3669 3670 0
-3657 3664 -3668 -3669 3670 0
-3657 -3664 3668 3669 3670 0
-3657 -3664 3668 -3669 3670 0
-3657 -3664 -3668 3669 3670 0
-3657 -3664 -3668 -3669 3670 0
3670 3671 0
-3670 -3671 0
3671 3672 0
-3671 -3672 0
3672 3673 0
-3672 -3673 0
416 3674 0
-416 -3674 0
3674 3224 3675 0
3674 -3224 -3675 0
-3674 3224 -3675 0
-3674 -3224 -3675 0
418 3676 0
-418 -3676 0
3334 3676 3677 0
3334 -3676 -3677 0
-3334 3676 -3677 0
-3334 -3676 -3677 0
3675 3677 -3678 0
3675 -3677 3678 0
-3675 3677 3678 0
-3675 -3677 3678 0
3678 3679 0
-3678 -3679 0
3679 3680 0
-3679 -3680 0
3469 3681 0
-3469 -3681 0
3681 3682 0
-3681 -3682 0
3369 3683 0
-3369 -3683 0
3683 3684 0
-3683 -3684 0
3417 3685 0
-3417 -3685 0
3685 3686 0
-3685 -3686 0
3682 3684 3686 3687 0
3682 3684 -3686 -3687 0
3682 -3684 3686 -3687 0
3682 -3684 -3686 -3687 0
-3682 3684 3686 -3687 0
-3682 3684 -3686 -3687 0
-3682 -3684 3686 -3687 0
-3682 -3684 -3686 -3687 0
421 3688 0
-421 -3688 0
3688 3689 0
-3688 -3689 0
3689 3690 0
-3689 -3690 0
426 3691 0
-426 -3691 0
3691 3692 0
-3691 -3692 0
3692 3693 0
-3692 -3693 0
3682 3690 3693 3694 0
3682 3690 -3693 -3694 0
3682 -3690 3693 -3694 0
3682 -3690 -3693 -3694 0
-3682 3690 3693 -3694 0
-3682 3690 -3693 -3694 0
-3682 -3690 3693 -3694 0
-3682 -3690 -3693 -3694 0
216 3695 0
-216 -3695 0
3695 3696 0
-3695 -3696 0
3696 3697 0
-3696 -3697 0
3697 3684 3693 3698 0
3697 3684 -3693 -3698 0
3697 -3684 3693 -3698 0
3697 -3684 -3693 -3698 0
-3697 3684 3693 -3698 0
-3697 3684 -3693 -3698 0
-3697 -3684 3693 -3698 0
-3697 -3684 -3693 -3698 0
3697 3690 3686 3699 0
3697 3690 -3686 -3699 0
3697 -3690 3686 -3699 0
3697 -3690 -3686 -3699 0
-3697 3690 3686 -3699 0
-3697 3690 -3686 -3699 0
-3697 -3690 3686 -3699 0
-3697 -3690 -3686 -3699 0
3687 3694 3698 3699 -3700 0
3687 3694 3698 -3699 3700 0
3687 3694 -3698 3699 3700 0
3687 3694 -3698 -3699 3700 0
3687 -3694 3698 3699 3700 0
3687 -3694 3698 -3699 3700 0
3687 -3694 -3698 3699 3700 0
3687 -3694 -3698 -3699 3700 0
-3687 3694 3698 3699 3700 0
-3687 3694 3698 -3699 3700 0
-3687 3694 -3698 3699 3700 0
-3687 3694 -3698 -3699 3700 0
-3687 -3694 3698 3699 3700 0
-3687 -3694 3698 -3699 3700 0
-3687 -3694 -3698 3699 3700 0
-3687 -3694 -3698 -3699 3700 0
3700 3701 0
-3700 -3701 0
3701 3702 0
-3701 -3702 0
3702 3703 0
-3702 -3703 0
3673 3680 3703 3704 0
3673 3680 -3703 -3704 0
3673 -3680 3703 -3704 0
3673 -3680 -3703 -3704 0
-3673 3680 3703 -3704 0
-3673 3680 -3703 -3704 0
-3673 -3680 3703 -3704 0
-3673 -3680 -3703 -3704 0
3678 3705 0
-3678 -3705 0
3705 3706 0
-3705 -3706 0
3706 3707 0
-3706 -3707 0
3700 3708 0
-3700 -3708 0
3708 3709 0
-3708 -3709 0
3673 3707 3709 3710 0
3673 3707 -3709 -3710 0
3673 -3707 3709 -3710 0
3673 -3707 -3709 -3710 0
-3673 3707 3709 -3710 0
-3673 3707 -3709 -3710 0
-3673 -3707 3709 -3710 0
-3673 -3707 -3709 -3710 0
3670 3711 0
-3670 -3711 0
3711 3712 0
-3711 -3712 0
3712 3680 3709 3713 0
3712 3680 -3709 -3713 0
3712 -3680 3709 -3713 0
3712 -3680 -3709 -3713 0
-3712 3680 3709 -3713 0
-3712 3680 -3709 -3713 0
-3712 -3680 3709 -3713 0
-3712 -3680 -3709 -3713 0
3712 3707 3703 3714 0
3712 3707 -3703 -3714 0
3712 -3707 3703 -3714 0
3712 -3707 -3703 -3714 0
-3712 3707 3703 -3714 0
-3712 3707 -3703 -3714 0
-3712 -3707 3703 -3714 0
-3712 -3707 -3703 -3714 0
3704 3710 3713 3714 -3715 0
3704 3710 3713 -3714 3715 0
3704 3710 -3713 3714 3715 0
3704 3710 -3713 -3714 3715 0
3704 -3710 3713 3714 3715 0
3704 -3710 3713 -3714 3715 0
3704 -3710 -3713 3714 3715 0
3704 -3710 -3713 -3714 3715 0
-3704 3710 3713 3714 3715 0
-3704 3710 3713 -3714 3715 0
-3704 3710 -3713 3714 3715 0
-3704 3710 -3713 -3714 3715 0
-3704 -3710 3713 3714 3715 0
-3704 -3710 3713 -3714 3715 0
-3704 -3710 -3713 3714 3715 0
-3704 -3710 -3713 -3714 3715 0
3715 3716 0
-3715 -3716 0
3222 3716 3717 0
3222 -3716 -3717 0
-3222 3716 -3717 0
-3222 -3716 -3717 0
1326 3228 3718 0
1326 -3228 -3718 0
-1326 3228 -3718 0
-1326 -3228 -3718 0
3226 1132 3719 0
3226 -1132 -3719 0
-3226 1132 -3719 0
-3226 -1132 -3719 0
3718 3719 -3720 0
3718 -3719 3720 0
-3718 3719 3720 0
-3718 -3719 3720 0
3717 3720 3721 0
3717 -3720 -3721 0
-3717 3720 -3721 0
-3717 -3720 -3721 0
3235 3721 3722 0
3235 -3721 -3722 0
-3235 3721 -3722 0
-3235 -3721 -3722 0
3650 3722 -3723 0
3650 -3722 3723 0
-3650 3722 3723 0
-3650 -3722 3723 0
3723 3724 0
-3723 -3724 0
3724 3725 0
-3724 -3725 0
3725 3726 0
-3725 -3726 0
3726 3727 0
-3726 -3727 0
3727 3728 0
-3727 -3728 0
3728 3729 0
-3728 -3729 0
237 3730 0
-237 -3730 0
3296 3730 3731 0
3296 -3730 -3731 0
-3296 3730 -3731 0
-3296 -3730 -3731 0
3276 3290 3283 3732 0
3276 3290 -3283 -3732 0
3276 -3290 3283 -3732 0
3276 -3290 -3283 -3732 0
-3276 3290 3283 -3732 0
-3276 3290 -3283 -3732 0
-3276 -3290 3283 -3732 0
-3276 -3290 -3283 -3732 0
3732 3733 0
-3732 -3733 0
3733 3734 0
-3733 -3734 0
3731 3734 -3735 0
3731 -3734 3735 0
-3731 3734 3735 0
-3731 -3734 3735 0
1038 3285 3736 0
1038 -3285 -3736 0
-1038 3285 -3736 0
-1038 -3285 -3736 0
562 3281 3737 0
562 -3281 -3737 0
-562 3281 -3737 0
-562 -3281 -3737 0
1614 3288 3738 0
1614 -3288 -3738 0
-1614 3288 -3738 0
-1614 -3288 -3738 0
2499 3292 3739 0
2499 -3292 -3739 0
-2499 3292 -3739 0
-2499 -3292 -3739 0
3736 3737 3738 3739 -3740 0
3736 3737 3738 -3739 3740 0
3736 3737 -3738 3739 3740 0
3736 3737 -3738 -3739 3740 0
3736 -3737 3738 3739 3740 0
3736 -3737 3738 -3739 3740 0
3736 -3737 -3738 3739 3740 0
3736 -3737 -3738 -3739 3740 0
-3736 3737 3738 3739 3740 0
-3736 3737 3738 -3739 3740 0
-3736 3737 -3738 3739 3740 0
-3736 3737 -3738 -3739 3740 0
-3736 -3737 3738 3739 3740 0
-3736 -3737 3738 -3739 3740 0
-3736 -3737 -3738 3739 3740 0
-3736 -3737 -3738 -3739 3740 0
3735 3740 3741 0
3735 -3740 -3741 0
-3735 3740 -3741 0
-3735 -3740 -3741 0
3741 3275 3742 0
3741 -3275 -3742 0
-3741 3275 -3742 0
-3741 -3275 -3742 0
3623 3743 0
-3623 -3743 0
3743 3744 0
-3743 -3744 0
3529 3745 0
-3529 -3745 0
3745 3746 0
-3745 -3746 0
3574 3747 0
-3574 -3747 0
3747 3748 0
-3747 -3748 0
3744 3746 3748 3749 0
3744 3746 -3748 -3749 0
3744 -3746 3748 -3749 0
3744 -3746 -3748 -3749 0
-3744 3746 3748 -3749 0
-3744 3746 -3748 -3749 0
-3744 -3746 3748 -3749 0
-3744 -3746 -3748 -3749 0
422 3750 0
-422 -3750 0
3750 3751 0
-3750 -3751 0
3751 3752 0
-3751 -3752 0
424 3753 0
-424 -3753 0
3753 3754 0
-3753 -3754 0
3754 3755 0
-3754 -3755 0
3744 3752 3755 3756 0
3744 3752 -3755 -3756 0
3744 -3752 3755 -3756 0
3744 -3752 -3755 -3756 0
-3744 3752 3755 -3756 0
-3744 3752 -3755 -3756 0
-3744 -3752 3755 -3756 0
-3744 -3752 -3755 -3756 0
427 3757 0
-427 -3757 0
3757 3758 0
-3757 -3758 0
3758 3759 0
-3758 -3759 0
3759 3746 3755 3760 0
3759 3746 -3755 -3760 0
3759 -3746 3755 -3760 0
3759 -3746 -3755 -3760 0
-3759 3746 3755 -3760 0
-3759 3746 -3755 -3760 0
-3759 -3746 3755 -3760 0
-3759 -3746 -3755 -3760 0
3759 3752 3748 3761 0
3759 3752 -3748 -3761 0
3759 -3752 3748 -3761 0
3759 -3752 -3748 -3761 0
-3759 3752 3748 -3761 0
-3759 3752 -3748 -3761 0
-3759 -3752 3748 -3761 0
-3759 -3752 -3748 -3761 0
3749 3756 3760 3761 -3762 0
3749 3756 3760 -3761 3762 0
3749 3756 -3760 3761 3762 0
3749 3756 -3760 -3761 3762 0
3749 -3756 3760 3761 3762 0
3749 -3756 3760 -3761 3762 0
3749 -3756 -3760 3761 3762 0
3749 -3756 -3760 -3761 3762 0
-3749 3756 3760 3761 3762 0
-3749 3756 3760 -3761 3762 0
-3749 3756 -3760 3761 3762 0
-3749 3756 -3760 -3761 3762 0
-3749 -3756 3760 3761 3762 0
-3749 -3756 3760 -3761 3762 0
-3749 -3756 -3760 3761 3762 0
-3749 -3756 -3760 -3761 3762 0
3762 3763 0
-3762 -3763 0
3763 3764 0
-3763 -3764 0
3764 3765 0
-3764 -3765 0
416 3766 0
-416 -3766 0
3766 3302 3767 0
3766 -3302 -3767 0
-3766 3302 -3767 0
-3766 -3302 -3767 0
418 3768 0
-418 -3768 0
3356 3768 3769 0
3356 -3768 -3769 0
-3356 3768 -3769 0
-3356 -3768 -3769 0
3767 3769 -3770 0
3767 -3769 3770 0
-3767 3769 3770 0
-3767 -3769 3770 0
3770 3771 0
-3770 -3771 0
3771 3772 0
-3771 -3772 0
3491 3773 0
-3491 -3773 0
3773 3774 0
-3773 -3774 0
3391 3775 0
-3391 -3775 0
3775 3776 0
-3775 -3776 0
3439 3777 0
-3439 -3777 0
3777 3778 0
-3777 -3778 0
3774 3776 3778 3779 0
3774 3776 -3778 -3779 0
3774 -3776 3778 -3779 0
3774 -3776 -3778 -3779 0
-3774 3776 3778 -3779 0
-3774 3776 -3778 -3779 0
-3774 -3776 3778 -3779 0
-3774 -3776 -3778 -3779 0
421 3780 0
-421 -3780 0
3780 3781 0
-3780 -3781 0
3781 3782 0
-3781 -3782 0
426 3783 0
-426 -3783 0
3783 3784 0
-3783 -3784 0
3784 3785 0
-3784 -3785 0
3774 3782 3785 3786 0
3774 3782 -3785 -3786 0
3774 -3782 3785 -3786 0
3774 -3782 -3785 -3786 0
-3774 3782 3785 -3786 0
-3774 3782 -3785 -3786 0
-3774 -3782 3785 -3786 0
-3774 -3782 -3785 -3786 0
216 3787 0
-216 -3787 0
3787 3788 0
-3787 -3788 0
3788 3789 0
-3788 -3789 0
3789 3776 3785 3790 0
3789 3776 -3785 -3790 0
3789 -3776 3785 -3790 0
3789 -3776 -3785 -3790 0
-3789 3776 3785 -3790 0
-3789 3776 -3785 -3790 0
-3789 -3776 3785 -3790 0
-3789 -3776 -3785 -3790 0
3789 3782 3778 3791 0
3789 3782 -3778 -3791 0
3789 -3782 3778 -3791 0
3789 -3782 -3778 -3791 0
-3789 3782 3778 -3791 0
-3789 3782 -3778 -3791 0
-3789 -3782 3778 -3791 0
-3789 -3782 -3778 -3791 0
3779 3786 3790 3791 -3792 0
3779 3786 3790 -3791 3792 0
3779 3786 -3790 3791 3792 0
3779 3786 -3790 -3791 3792 0
3779 -3786 3790 3791 3792 0
3779 -3786 3790 -3791 3792 0
3779 -3786 -3790 3791 3792 0
3779 -3786 -3790 -3791 3792 0
-3779 3786 3790 3791 3792 0
-3779 3786 3790 -3791 3792 0
-3779 3786 -3790 3791 3792 0
-3779 3786 -3790 -3791 3792 0
-3779 -3786 3790 3791 3792 0
-3779 -3786 3790 -3791 3792 0
-3779 -3786 -3790 3791 3792 0
-3779 -3786 -3790 -3791 3792 0
3792 3793 0
-3792 -3793 0
3793 3794 0
-3793 -3794 0
3794 3795 0
-3794 -3795 0
3765 3772 3795 3796 0
3765 3772 -3795 -3796 0
3765 -3772 3795 -3796 0
3765 -3772 -3795 -3796 0
-3765 3772 3795 -3796 0
-3765 3772 -3795 -3796 0
-3765 -3772 3795 -3796 0
-3765 -3772 -3795 -3796 0
3770 3797 0
-3770 -3797 0
3797 3798 0
-3797 -3798 0
3798 3799 0
-3798 -3799 0
3792 3800 0
-3792 -3800 0
3800 3801 0
-3800 -3801 0
3765 3799 3801 3802 0
3765 3799 -3801 -3802 0
3765 -3799 3801 -3802 0
3765 -3799 -3801 -3802 0
-3765 3799 3801 -3802 0
-3765 3799 -3801 -3802 0
-3765 -3799 3801 -3802 0
-3765 -3799 -3801 -3802 0
3762 3803 0
-3762 -3803 0
3803 3804 0
-3803 -3804 0
3804 3772 3801 3805 0
3804 3772 -3801 -3805 0
3804 -3772 3801 -3805 0
3804 -3772 -3801 -3805 0
-3804 3772 3801 -3805 0
-3804 3772 -3801 -3805 0
-3804 -3772 3801 -3805 0
-3804 -3772 -3801 -3805 0
3804 3799 3795 3806 0
3804 3799 -3795 -3806 0
3804 -3799 3795 -3806 0
3804 -3799 -3795 -3806 0
-3804 3799 3795 -3806 0
-3804 3799 -3795 -3806 0
-3804 -3799 3795 -3806 0
-3804 -3799 -3795 -3806 0
3796 3802 3805 3806 -3807 0
3796 3802 3805 -3806 3807 0
3796 3802 -3805 3806 3807 0
3796 3802 -3805 -3806 3807 0
3796 -3802 3805 3806 3807 0
3796 -3802 3805 -3806 3807 0
3796 -3802 -3805 3806 3807 0
3796 -3802 -3805 -3806 3807 0
-3796 3802 3805 3806 3807 0
-3796 3802 3805 -3806 3807 0
-3796 3802 -3805 3806 3807 0
-3796 3802 -3805 -3806 3807 0
-3796 -3802 3805 3806 3807 0
-3796 -3802 3805 -3806 3807 0
-3796 -3802 -3805 3806 3807 0
-3796 -3802 -3805 -3806 3807 0
3807 3808 0
-3807 -3808 0
3300 3808 3809 0
3300 -3808 -3809 0
-3300 3808 -3809 0
-3300 -3808 -3809 0
1419 3306 3810 0
1419 -3306 -3810 0
-1419 3306 -3810 0
-1419 -3306 -3810 0
3304 1230 3811 0
3304 -1230 -3811 0
-3304 1230 -3811 0
-3304 -1230 -3811 0
3810 3811 -3812 0
3810 -3811 3812 0
-3810 3811 3812 0
-3810 -3811 3812 0
3809 3812 3813 0
3809 -3812 -3813 0
-3809 3812 -3813 0
-3809 -3812 -3813 0
3313 3813 3814 0
3313 -3813 -3814 0
-3313 3813 -3814 0
-3313 -3813 -3814 0
3742 3814 -3815 0
3742 -3814 3815 0
-3742 3814 3815 0
-3742 -3814 3815 0
3815 3816 0
-3815 -3816 0
3816 3817 0
-3816 -3817 0
3817 3818 0
-3817 -3818 0
3818 3819 0
-3818 -3819 0
3819 3820 0
-3819 -3820 0
3820 3821 0
-3820 -3821 0
3729 3821 -3822 0
3729 -3821 3822 0
-3729 3821 3822 0
-3729 -3821 -3822 0
338 3823 0
-338 -3823 0
3823 3824 0
-3823 -3824 0
3824 3825 0
-3824 -3825 0
3825 3826 0
-3825 -3826 0
3826 3827 0
-3826 -3827 0
3827 3828 0
-3827 -3828 0
3828 3829 0
-3828 -3829 0
3829 3830 0
-3829 -3830 0
3830 3831 0
-3830 -3831 0
338 3832 0
-338 -3832 0
3832 3833 0
-3832 -3833 0
3833 3834 0
-3833 -3834 0
3834 3835 0
-3834 -3835 0
3835 3836 0
-3835 -3836 0
3836 3837 0
-3836 -3837 0
3837 3838 0
-3837 -3838 0
3838 3839 0
-3838 -3839 0
3839 3840 0
-3839 -3840 0
3831 3840 -3841 0
3831 -3840 3841 0
-3831 3840 3841 0
-3831 -3840 -3841 0
344 3842 0
-344 -3842 0
3842 3843 0
-3842 -3843 0
3843 3844 0
-3843 -3844 0
3844 3845 0
-3844 -3845 0
3845 3846 0
-3845 -3846 0
3846 3847 0
-3846 -3847 0
3847 3848 0
-3847 -3848 0
3848 3849 0
-3848 -3849 0
3849 3850 0
-3849 -3850 0
344 3851 0
-344 -3851 0
3851 3852 0
-3851 -3852 0
3852 3853 0
-3852 -3853 0
3853 3854 0
-3853 -3854 0
3854 3855 0
-3854 -3855 0
3855 3856 0
-3855 -3856 0
3856 3857 0
-3856 -3857 0
3857 3858 0
-3857 -3858 0
3858 3859 0
-3858 -3859 0
3850 3859 -3860 0
3850 -3859 3860 0
-3850 3859 3860 0
-3850 -3859 -3860 0
341 3861 0
-341 -3861 0
3861 3862 0
-3861 -3862 0
3862 3863 0
-3862 -3863 0
3863 3864 0
-3863 -3864 0
3864 3865 0
-3864 -3865 0
3865 3866 0
-3865 -3866 0
3866 3867 0
-3866 -3867 0
3867 3868 0
-3867 -3868 0
3868 3869 0
-3868 -3869 0
341 3870 0
-341 -3870 0
3870 3871 0
-3870 -3871 0
3871 3872 0
-3871 -3872 0
3872 3873 0
-3872 -3873 0
3873 3874 0
-3873 -3874 0
3874 3875 0
-3874 -3875 0
3875 3876 0
-3875 -3876 0
3876 3877 0
-3876 -3877 0
3877 3878 0
-3877 -3878 0
3869 3878 -3879 0
3869 -3878 3879 0
-3869 3878 3879 0
-3869 -3878 -3879 0
3234 3880 0
-3234 -3880 0
3649 3880 3881 0
3649 -3880 -3881 0
-3649 3880 -3881 0
-3649 -3880 -3881 0
323 3882 0
-323 -3882 0
338 3883 0
-338 -3883 0
3882 3883 3884 0
3882 -3883 -3884 0
-3882 3883 -3884 0
-3882 -3883 -3884 0
323 3885 0
-323 -3885 0
3885 3886 0
-3885 -3886 0
3824 3886 3887 0
3824 -3886 -3887 0
-3824 3886 -3887 0
-3824 -3886 -3887 0
3884 3887 -3888 0
3884 -3887 3888 0
-3884 3887 3888 0
-3884 -3887 3888 0
3888 3889 0
-3888 -3889 0
3889 3890 0
-3889 -3890 0
344 3891 0
-344 -3891 0
3891 3862 3892 0
3891 -3862 -3892 0
-3891 3862 -3892 0
-3891 -3862 -3892 0
341 3893 0
-341 -3893 0
3893 3843 3894 0
3893 -3843 -3894 0
-3893 3843 -3894 0
-3893 -3843 -3894 0
3892 3894 -3895 0
3892 -3894 3895 0
-3892 3894 3895 0
-3892 -3894 3895 0
3895 3896 0
-3895 -3896 0
3896 3897 0
-3896 -3897 0
3890 3897 3898 0
3890 -3897 -3898 0
-3890 3897 -3898 0
-3890 -3897 -3898 0
3890 3898 3899 0
3890 -3898 -3899 0
-3890 3898 -3899 0
-3890 -3898 -3899 0
3898 3897 3900 0
3898 -3897 -3900 0
-3898 3897 -3900 0
-3898 -3897 -3900 0
3899 3900 -3901 0
3899 -3900 3901 0
-3899 3900 3901 0
-3899 -3900 3901 0
3901 3902 0
-3901 -3902 0
3881 3902 -3903 0
3881 -3902 3903 0
-3881 3902 3903 0
-3881 -3902 3903 0
3903 3904 0
-3903 -3904 0
3904 3905 0
-3904 -3905 0
3905 3906 0
-3905 -3906 0
3906 3907 0
-3906 -3907 0
3312 3908 0
-3312 -3908 0
3741 3908 3909 0
3741 -3908 -3909 0
-3741 3908 -3909 0
-3741 -3908 -3909 0
323 3910 0
-323 -3910 0
338 3911 0
-338 -3911 0
3910 3911 3912 0
3910 -3911 -3912 0
-3910 3911 -3912 0
-3910 -3911 -3912 0
323 3913 0
-323 -3913 0
3913 3914 0
-3913 -3914 0
3833 3914 3915 0
3833 -3914 -3915 0
-3833 3914 -3915 0
-3833 -3914 -3915 0
3912 3915 -3916 0
3912 -3915 3916 0
-3912 3915 3916 0
-3912 -3915 3916 0
3916 3917 0
-3916 -3917 0
3917 3918 0
-3917 -3918 0
344 3919 0
-344 -3919 0
3919 3871 3920 0
3919 -3871 -3920 0
-3919 3871 -3920 0
-3919 -3871 -3920 0
341 3921 0
-341 -3921 0
3921 3852 3922 0
3921 -3852 -3922 0
-3921 3852 -3922 0
-3921 -3852 -3922 0
3920 3922 -3923 0
3920 -3922 3923 0
-3920 3922 3923 0
-3920 -3922 3923 0
3923 3924 0
-3923 -3924 0
3924 3925 0
-3924 -3925 0
3918 3925 3926 0
3918 -3925 -3926 0
-3918 3925 -3926 0
-3918 -3925 -3926 0
3918 3926 3927 0
3918 -3926 -3927 0
-3918 3926 -3927 0
-3918 -3926 -3927 0
3926 3925 3928 0
3926 -3925 -3928 0
-3926 3925 -3928 0
-3926 -3925 -3928 0
3927 3928 -3929 0
3927 -3928 3929 0
-3927 3928 3929 0
-3927 -3928 3929 0
3929 3930 0
-3929 -3930 0
3909 3930 -3931 0
3909 -3930 3931 0
-3909 3930 3931 0
-3909 -3930 3931 0
3931 3932 0
-3931 -3932 0
3932 3933 0
-3932 -3933 0
3933 3934 0
-3933 -3934 0
3934 3935 0
-3934 -3935 0
3907 3935 -3936 0
3907 -3935 3936 0
-3907 3935 3936 0
-3907 -3935 -3936 0
3880 3220 3937 0
3880 -3220 -3937 0
-3880 3220 -3937 0
-3880 -3220 -3937 0
419 3938 0
-419 -3938 0
3716 3938 3939 0
3716 -3938 -3939 0
-3716 3938 -3939 0
-3716 -3938 -3939 0
419 3940 0
-419 -3940 0
3940 3941 0
-3940 -3941 0
3941 3715 3942 0
3941 -3715 -3942 0
-3941 3715 -3942 0
-3941 -3715 -3942 0
3939 3942 -3943 0
3939 -3942 3943 0
-3939 3942 3943 0
-3939 -3942 3943 0
3943 3944 0
-3943 -3944 0
3937 3944 -3945 0
3937 -3944 3945 0
-3937 3944 3945 0
-3937 -3944 3945 0
3945 3946 0
-3945 -3946 0
3946 3947 0
-3946 -3947 0
3947 3948 0
-3947 -3948 0
3948 3949 0
-3948 -3949 0
3908 3298 3950 0
3908 -3298 -3950 0
-3908 3298 -3950 0
-3908 -3298 -3950 0
419 3951 0
-419 -3951 0
3808 3951 3952 0
3808 -3951 -3952 0
-3808 3951 -3952 0
-3808 -3951 -3952 0
419 3953 0
-419 -3953 0
3953 3954 0
-3953 -3954 0
3954 3807 3955 0
3954 -3807 -3955 0
-3954 3807 -3955 0
-3954 -3807 -3955 0
3952 3955 -3956 0
3952 -3955 3956 0
-3952 3955 3956 0
-3952 -3955 3956 0
3956 3957 0
-3956 -3957 0
3950 3957 -3958 0
3950 -3957 3958 0
-3950 3957 3958 0
-3950 -3957 3958 0
3958 3959 0
-3958 -3959 0
3959 3960 0
-3959 -3960 0
3960 3961 0
-3960 -3961 0
3961 3962 0
-3961 -3962 0
3949 3962 -3963 0
3949 -3962 3963 0
-3949 3962 3963 0
-3949 -3962 -3963 0
3328 3880 3964 0
3328 -3880 -3964 0
-3328 3880 -3964 0
-3328 -3880 -3964 0
238 3965 0
-238 -3965 0
3965 3966 0
-3965 -3966 0
3966 2132 3967 0
3966 -2132 -3967 0
-3966 2132 -3967 0
-3966 -2132 -3967 0
238 3968 0
-238 -3968 0
3968 2135 3969 0
3968 -2135 -3969 0
-3968 2135 -3969 0
-3968 -2135 -3969 0
3967 3969 -3970 0
3967 -3969 3970 0
-3967 3969 3970 0
-3967 -3969 3970 0
3970 3971 0
-3970 -3971 0
3964 3971 -3972 0
3964 -3971 3972 0
-3964 3971 3972 0
-3964 -3971 3972 0
3972 3973 0
-3972 -3973 0
3973 3974 0
-3973 -3974 0
3974 3975 0
-3974 -3975 0
3975 3976 0
-3975 -3976 0
3350 3908 3977 0
3350 -3908 -3977 0
-3350 3908 -3977 0
-3350 -3908 -3977 0
238 3978 0
-238 -3978 0
3978 3979 0
-3978 -3979 0
3979 2496 3980 0
3979 -2496 -3980 0
-3979 2496 -3980 0
-3979 -2496 -3980 0
238 3981 0
-238 -3981 0
3981 2499 3982 0
3981 -2499 -3982 0
-3981 2499 -3982 0
-3981 -2499 -3982 0
3980 3982 -3983 0
3980 -3982 3983 0
-3980 3982 3983 0
-3980 -3982 3983 0
3983 3984 0
-3983 -3984 0
3977 3984 -3985 0
3977 -3984 3985 0
-3977 3984 3985 0
-3977 -3984 3985 0
3985 3986 0
-3985 -3986 0
3986 3987 0
-3986 -3987 0
3987 3988 0
-3987 -3988 0
3988 3989 0
-3988 -3989 0
3976 3989 -3990 0
3976 -3989 3990 0
-3976 3989 3990 0
-3976 -3989 -3990 0
3880 3381 3991 0
3880 -3381 -3991 0
-3880 3381 -3991 0
-3880 -3381 -3991 0
1387 3992 0
-1387 -3992 0
3991 3992 -3993 0
3991 -3992 3993 0
-3991 3992 3993 0
-3991 -3992 3993 0
3993 3994 0
-3993 -3994 0
3994 3995 0
-3994 -3995 0
3995 3996 0
-3995 -3996 0
3996 3997 0
-3996 -3997 0
3908 3403 3998 0
3908 -3403 -3998 0
-3908 3403 -3998 0
-3908 -3403 -3998 0
1480 3999 0
-1480 -3999 0
3998 3999 -4000 0
3998 -3999 4000 0
-3998 3999 4000 0
-3998 -3999 4000 0
4000 4001 0
-4000 -4001 0
4001 4002 0
-4001 -4002 0
4002 4003 0
-4002 -4003 0
4003 4004 0
-4003 -4004 0
3997 4004 -4005 0
3997 -4004 4005 0
-3997 4004 4005 0
-3997 -4004 -4005 0
3880 3426 4006 0
3880 -3426 -4006 0
-3880 3426 -4006 0
-3880 -3426 -4006 0
1003 4007 0
-1003 -4007 0
4006 4007 -4008 0
4006 -4007 4008 0
-4006 4007 4008 0
-4006 -4007 4008 0
4008 4009 0
-4008 -4009 0
4009 4010 0
-4009 -4010 0
4010 4011 0
-4010 -4011 0
4011 4012 0
-4011 -4012 0
3908 3448 4013 0
3908 -3448 -4013 0
-3908 3448 -4013 0
-3908 -3448 -4013 0
1096 4014 0
-1096 -4014 0
4013 4014 -4015 0
4013 -4014 4015 0
-4013 4014 4015 0
-4013 -4014 4015 0
4015 4016 0
-4015 -4016 0
4016 4017 0
-4016 -4017 0
4017 4018 0
-4017 -4018 0
4018 4019 0
-4018 -4019 0
4012 4019 -4020 0
4012 -4019 4020 0
-4012 4019 4020 0
-4012 -4019 -4020 0
3880 3463 4021 0
3880 -3463 -4021 0
-3880 3463 -4021 0
-3880 -3463 -4021 0
1195 4022 0
-1195 -4022 0
4021 4022 -4023 0
4021 -4022 4023 0
-4021 4022 4023 0
-4021 -4022 4023 0
4023 4024 0
-4023 -4024 0
4024 4025 0
-4024 -4025 0
4025 4026 0
-4025 -4026 0
4026 4027 0
-4026 -4027 0
3908 3485 4028 0
3908 -3485 -4028 0
-3908 3485 -4028 0
-3908 -3485 -4028 0
1293 4029 0
-1293 -4029 0
4028 4029 -4030 0
4028 -4029 4030 0
-4028 4029 4030 0
-4028 -4029 4030 0
4030 4031 0
-4030 -4031 0
4031 4032 0
-4031 -4032 0
4032 4033 0
-4032 -4033 0
4033 4034 0
-4033 -4034 0
4027 4034 -4035 0
4027 -4034 4035 0
-4027 4034 4035 0
-4027 -4034 -4035 0
3516 3880 4036 0
3516 -3880 -4036 0
-3516 3880 -4036 0
-3516 -3880 -4036 0
527 4037 0
-527 -4037 0
4036 4037 -4038 0
4036 -4037 4038 0
-4036 4037 4038 0
-4036 -4037 4038 0
4038 4039 0
-4038 -4039 0
4039 4040 0
-4039 -4040 0
4040 4041 0
-4040 -4041 0
4041 4042 0
-4041 -4042 0
3538 3908 4043 0
3538 -3908 -4043 0
-3538 3908 -4043 0
-3538 -3908 -4043 0
625 4044 0
-625 -4044 0
4043 4044 -4045 0
4043 -4044 4045 0
-4043 4044 4045 0
-4043 -4044 4045 0
4045 4046 0
-4045 -4046 0
4046 4047 0
-4046 -4047 0
4047 4048 0
-4047 -4048 0
4048 4049 0
-4048 -4049 0
4042 4049 -4050 0
4042 -4049 4050 0
-4042 4049 4050 0
-4042 -4049 -4050 0
3561 3880 4051 0
3561 -3880 -4051 0
-3561 3880 -4051 0
-3561 -3880 -4051 0
1579 4052 0
-1579 -4052 0
4051 4052 -4053 0
4051 -4052 4053 0
-4051 4052 4053 0
-4051 -4052 4053 0
4053 4054 0
-4053 -4054 0
4054 4055 0
-4054 -4055 0
4055 4056 0
-4055 -4056 0
4056 4057 0
-4056 -4057 0
3583 3908 4058 0
3583 -3908 -4058 0
-3583 3908 -4058 0
-3583 -3908 -4058 0
1677 4059 0
-1677 -4059 0
4058 4059 -4060 0
4058 -4059 4060 0
-4058 4059 4060 0
-4058 -4059 4060 0
4060 4061 0
-4060 -4061 0
4061 4062 0
-4061 -4062 0
4062 4063 0
-4062 -4063 0
4063 4064 0
-4063 -4064 0
4057 4064 -4065 0
4057 -4064 4065 0
-4057 4064 4065 0
-4057 -4064 -4065 0
3598 3880 4066 0
3598 -3880 -4066 0
-3598 3880 -4066 0
-3598 -3880 -4066 0
843 4067 0
-843 -4067 0
4066 4067 -4068 0
4066 -4067 4068 0
-4066 4067 4068 0
-4066 -4067 4068 0
4068 4069 0
-4068 -4069 0
4069 4070 0
-4069 -4070 0
4070 4071 0
-4070 -4071 0
4071 4072 0
-4071 -4072 0
3620 3908 4073 0
3620 -3908 -4073 0
-3620 3908 -4073 0
-3620 -3908 -4073 0
897 4074 0
-897 -4074 0
4073 4074 -4075 0
4073 -4074 4075 0
-4073 4074 4075 0
-4073 -4074 4075 0
4075 4076 0
-4075 -4076 0
4076 4077 0
-4076 -4077 0
4077 4078 0
-4077 -4078 0
4078 4079 0
-4078 -4079 0
4072 4079 -4080 0
4072 -4079 4080 0
-4072 4079 4080 0
-4072 -4079 -4080 0
3715 4081 0
-3715 -4081 0
4081 4082 0
-4081 -4082 0
4082 4083 0
-4082 -4083 0
4083 4084 0
-4083 -4084 0
4084 4085 0
-4084 -4085 0
4085 4086 0
-4085 -4086 0
3807 4087 0
-3807 -4087 0
4087 4088 0
-4087 -4088 0
4088 4089 0
-4088 -4089 0
4089 4090 0
-4089 -4090 0
4090 4091 0
-4090 -4091 0
4091 4092 0
-4091 -4092 0
4086 4092 -4093 0
4086 -4092 4093 0
-4086 4092 4093 0
-4086 -4092 -4093 0
3676 4094 0
-3676 -4094 0
4094 4095 0
-4094 -4095 0
346 4096 0
-346 -4096 0
4096 4097 0
-4096 -4097 0
4097 4098 0
-4097 -4098 0
4098 4099 0
-4098 -4099 0
4099 4100 0
-4099 -4100 0
346 4101 0
-346 -4101 0
4101 4102 0
-4101 -4102 0
4102 4103 0
-4102 -4103 0
4103 4104 0
-4103 -4104 0
4100 4104 -4105 0
4100 -4104 4105 0
-4100 4104 4105 0
-4100 -4104 4105 0
4105 4106 0
-4105 -4106 0
4106 4107 0
-4106 -4107 0
4095 4107 -4108 0
4095 -4107 4108 0
-4095 4107 4108 0
-4095 -4107 4108 0
4108 4109 0
-4108 -4109 0
4109 4110 0
-4109 -4110 0
4110 4111 0
-4110 -4111 0
4111 4112 0
-4111 -4112 0
3768 4113 0
-3768 -4113 0
4113 4114 0
-4113 -4114 0
346 4115 0
-346 -4115 0
4115 4116 0
-4115 -4116 0
4116 4117 0
-4116 -4117 0
4117 4118 0
-4117 -4118 0
4118 4119 0
-4118 -4119 0
346 4120 0
-346 -4120 0
4120 4121 0
-4120 -4121 0
4121 4122 0
-4121 -4122 0
4122 4123 0
-4122 -4123 0
4119 4123 -4124 0
4119 -4123 4124 0
-4119 4123 4124 0
-4119 -4123 4124 0
4124 4125 0
-4124 -4125 0
4125 4126 0
-4125 -4126 0
4114 4126 -4127 0
4114 -4126 4127 0
-4114 4126 4127 0
-4114 -4126 4127 0
4127 4128 0
-4127 -4128 0
4128 4129 0
-4128 -4129 0
4129 4130 0
-4129 -4130 0
4130 4131 0
-4130 -4131 0
4112 4131 -4132 0
4112 -4131 4132 0
-4112 4131 4132 0
-4112 -4131 -4132 0
3674 4133 0
-3674 -4133 0
4133 4134 0
-4133 -4134 0
349 4135 0
-349 -4135 0
4135 4136 0
-4135 -4136 0
4101 4136 4137 0
4101 -4136 -4137 0
-4101 4136 -4137 0
-4101 -4136 -4137 0
4136 4138 0
-4136 -4138 0
349 4139 0
-349 -4139 0
4097 4139 4140 0
4097 -4139 -4140 0
-4097 4139 -4140 0
-4097 -4139 -4140 0
4137 4138 4140 -4141 0
4137 4138 -4140 4141 0
4137 -4138 4140 4141 0
4137 -4138 -4140 4141 0
-4137 4138 4140 4141 0
-4137 4138 -4140 4141 0
-4137 -4138 4140 4141 0
-4137 -4138 -4140 4141 0
4141 4142 0
-4141 -4142 0
4142 4143 0
-4142 -4143 0
4134 4143 -4144 0
4134 -4143 4144 0
-4134 4143 4144 0
-4134 -4143 4144 0
4144 4145 0
-4144 -4145 0
4145 4146 0
-4145 -4146 0
4146 4147 0
-4146 -4147 0
4147 4148 0
-4147 -4148 0
3766 4149 0
-3766 -4149 0
4149 4150 0
-4149 -4150 0
349 4151 0
-349 -4151 0
4151 4152 0
-4151 -4152 0
4120 4152 4153 0
4120 -4152 -4153 0
-4120 4152 -4153 0
-4120 -4152 -4153 0
4152 4154 0
-4152 -4154 0
349 4155 0
-349 -4155 0
4116 4155 4156 0
4116 -4155 -4156 0
-4116 4155 -4156 0
-4116 -4155 -4156 0
4153 4154 4156 -4157 0
4153 4154 -4156 4157 0
4153 -4154 4156 4157 0
4153 -4154 -4156 4157 0
-4153 4154 4156 4157 0
-4153 4154 -4156 4157 0
-4153 -4154 4156 4157 0
-4153 -4154 -4156 4157 0
4157 4158 0
-4157 -4158 0
4158 4159 0
-4158 -4159 0
4150 4159 -4160 0
4150 -4159 4160 0
-4150 4159 4160 0
-4150 -4159 4160 0
4160 4161 0
-4160 -4161 0
4161 4162 0
-4161 -4162 0
4162 4163 0
-4162 -4163 0
4163 4164 0
-4163 -4164 0
4148 4164 -4165 0
4148 -4164 4165 0
-4148 4164 4165 0
-4148 -4164 -4165 0
3688 4166 0
-3688 -4166 0
4166 4167 0
-4166 -4167 0
357 4168 0
-357 -4168 0
4097 4136 4169 0
4097 -4136 -4169 0
-4097 4136 -4169 0
-4097 -4136 -4169 0
4169 4170 0
-4169 -4170 0
4168 4170 4171 0
4168 -4170 -4171 0
-4168 4170 -4171 0
-4168 -4170 -4171 0
357 4172 0
-357 -4172 0
4172 4173 0
-4172 -4173 0
4173 4169 4174 0
4173 -4169 -4174 0
-4173 4169 -4174 0
-4173 -4169 -4174 0
4171 4174 -4175 0
4171 -4174 4175 0
-4171 4174 4175 0
-4171 -4174 4175 0
4175 4176 0
-4175 -4176 0
4176 4177 0
-4176 -4177 0
4167 4177 -4178 0
4167 -4177 4178 0
-4167 4177 4178 0
-4167 -4177 4178 0
4178 4179 0
-4178 -4179 0
4179 4180 0
-4179 -4180 0
4180 4181 0
-4180 -4181 0
4181 4182 0
-4181 -4182 0
3780 4183 0
-3780 -4183 0
4183 4184 0
-4183 -4184 0
357 4185 0
-357 -4185 0
4116 4152 4186 0
4116 -4152 -4186 0
-4116 4152 -4186 0
-4116 -4152 -4186 0
4186 4187 0
-4186 -4187 0
4185 4187 4188 0
4185 -4187 -4188 0
-4185 4187 -4188 0
-4185 -4187 -4188 0
357 4189 0
-357 -4189 0
4189 4190 0
-4189 -4190 0
4190 4186 4191 0
4190 -4186 -4191 0
-4190 4186 -4191 0
-4190 -4186 -4191 0
4188 4191 -4192 0
4188 -4191 4192 0
-4188 4191 4192 0
-4188 -4191 4192 0
4192 4193 0
-4192 -4193 0
4193 4194 0
-4193 -4194 0
4184 4194 -4195 0
4184 -4194 4195 0
-4184 4194 4195 0
-4184 -4194 4195 0
4195 4196 0
-4195 -4196 0
4196 4197 0
-4196 -4197 0
4197 4198 0
-4197 -4198 0
4198 4199 0
-4198 -4199 0
4182 4199 -4200 0
4182 -4199 4200 0
-4182 4199 4200 0
-4182 -4199 -4200 0
3691 4201 0
-3691 -4201 0
4201 4202 0
-4201 -4202 0
333 4203 0
-333 -4203 0
4203 4204 0
-4203 -4204 0
4204 4205 0
-4204 -4205 0
4205 4206 0
-4205 -4206 0
333 4207 0
-333 -4207 0
4207 4208 0
-4207 -4208 0
4208 4209 0
-4208 -4209 0
4209 4210 0
-4209 -4210 0
4210 4211 0
-4210 -4211 0
4206 4211 -4212 0
4206 -4211 4212 0
-4206 4211 4212 0
-4206 -4211 4212 0
4212 4213 0
-4212 -4213 0
4213 4214 0
-4213 -4214 0
4202 4214 -4215 0
4202 -4214 4215 0
-4202 4214 4215 0
-4202 -4214 4215 0
4215 4216 0
-4215 -4216 0
4216 4217 0
-4216 -4217 0
4217 4218 0
-4217 -4218 0
4218 4219 0
-4218 -4219 0
3783 4220 0
-3783 -4220 0
4220 4221 0
-4220 -4221 0
333 4222 0
-333 -4222 0
4222 4223 0
-4222 -4223 0
4223 4224 0
-4223 -4224 0
4224 4225 0
-4224 -4225 0
333 4226 0
-333 -4226 0
4226 4227 0
-4226 -4227 0
4227 4228 0
-4227 -4228 0
4228 4229 0
-4228 -4229 0
4229 4230 0
-4229 -4230 0
4225 4230 -4231 0
4225 -4230 4231 0
-4225 4230 4231 0
-4225 -4230 4231 0
4231 4232 0
-4231 -4232 0
4232 4233 0
-4232 -4233 0
4221 4233 -4234 0
4221 -4233 4234 0
-4221 4233 4234 0
-4221 -4233 4234 0
4234 4235 0
-4234 -4235 0
4235 4236 0
-4235 -4236 0
4236 4237 0
-4236 -4237 0
4237 4238 0
-4237 -4238 0
4219 4238 -4239 0
4219 -4238 4239 0
-4219 4238 4239 0
-4219 -4238 -4239 0
3695 4240 0
-3695 -4240 0
4240 4241 0
-4240 -4241 0
337 4242 0
-337 -4242 0
4242 4243 0
-4242 -4243 0
4243 4203 4244 0
4243 -4203 -4244 0
-4243 4203 -4244 0
-4243 -4203 -4244 0
4243 4245 0
-4243 -4245 0
337 4246 0
-337 -4246 0
4246 4208 4247 0
4246 -4208 -4247 0
-4246 4208 -4247 0
-4246 -4208 -4247 0
4244 4245 4247 -4248 0
4244 4245 -4247 4248 0
4244 -4245 4247 4248 0
4244 -4245 -4247 4248 0
-4244 4245 4247 4248 0
-4244 4245 -4247 4248 0
-4244 -4245 4247 4248 0
-4244 -4245 -4247 4248 0
4248 4249 0
-4248 -4249 0
4249 4250 0
-4249 -4250 0
4241 4250 -4251 0
4241 -4250 4251 0
-4241 4250 4251 0
-4241 -4250 4251 0
4251 4252 0
-4251 -4252 0
4252 4253 0
-4252 -4253 0
4253 4254 0
-4253 -4254 0
4254 4255 0
-4254 -4255 0
3787 4256 0
-3787 -4256 0
4256 4257 0
-4256 -4257 0
337 4258 0
-337 -4258 0
4258 4259 0
-4258 -4259 0
4259 4222 4260 0
4259 -4222 -4260 0
-4259 4222 -4260 0
-4259 -4222 -4260 0
4259 4261 0
-4259 -4261 0
337 4262 0
-337 -4262 0
4262 4227 4263 0
4262 -4227 -4263 0
-4262 4227 -4263 0
-4262 -4227 -4263 0
4260 4261 4263 -4264 0
4260 4261 -4263 4264 0
4260 -4261 4263 4264 0
4260 -4261 -4263 4264 0
-4260 4261 4263 4264 0
-4260 4261 -4263 4264 0
-4260 -4261 4263 4264 0
-4260 -4261 -4263 4264 0
4264 4265 0
-4264 -4265 0
4265 4266 0
-4265 -4266 0
4257 4266 -4267 0
4257 -4266 4267 0
-4257 4266 4267 0
-4257 -4266 4267 0
4267 4268 0
-4267 -4268 0
4268 4269 0
-4268 -4269 0
4269 4270 0
-4269 -4270 0
4270 4271 0
-4270 -4271 0
4255 4271 -4272 0
4255 -4271 4272 0
-4255 4271 4272 0
-4255 -4271 -4272 0
3658 4273 0
-3658 -4273 0
4273 4274 0
-4273 -4274 0
4243 4208 4275 0
4243 -4208 -4275 0
-4243 4208 -4275 0
-4243 -4208 -4275 0
335 4276 0
-335 -4276 0
4276 4277 0
-4276 -4277 0
4275 4277 4278 0
4275 -4277 -4278 0
-4275 4277 -4278 0
-4275 -4277 -4278 0
335 4279 0
-335 -4279 0
4275 4280 0
-4275 -4280 0
4279 4280 4281 0
4279 -4280 -4281 0
-4279 4280 -4281 0
-4279 -4280 -4281 0
4278 4281 -4282 0
4278 -4281 4282 0
-4278 4281 4282 0
-4278 -4281 4282 0
4282 4283 0
-4282 -4283 0
4283 4284 0
-4283 -4284 0
4274 4284 -4285 0
4274 -4284 4285 0
-4274 4284 4285 0
-4274 -4284 4285 0
4285 4286 0
-4285 -4286 0
4286 4287 0
-4286 -4287 0
4287 4288 0
-4287 -4288 0
4288 4289 0
-4288 -4289 0
3750 4290 0
-3750 -4290 0
4290 4291 0
-4290 -4291 0
4259 4227 4292 0
4259 -4227 -4292 0
-4259 4227 -4292 0
-4259 -4227 -4292 0
335 4293 0
-335 -4293 0
4293 4294 0
-4293 -4294 0
4292 4294 4295 0
4292 -4294 -4295 0
-4292 4294 -4295 0
-4292 -4294 -4295 0
335 4296 0
-335 -4296 0
4292 4297 0
-4292 -4297 0
4296 4297 4298 0
4296 -4297 -4298 0
-4296 4297 -4298 0
-4296 -4297 -4298 0
4295 4298 -4299 0
4295 -4298 4299 0
-4295 4298 4299 0
-4295 -4298 4299 0
4299 4300 0
-4299 -4300 0
4300 4301 0
-4300 -4301 0
4291 4301 -4302 0
4291 -4301 4302 0
-4291 4301 4302 0
-4291 -4301 4302 0
4302 4303 0
-4302 -4303 0
4303 4304 0
-4303 -4304 0
4304 4305 0
-4304 -4305 0
4305 4306 0
-4305 -4306 0
4289 4306 -4307 0
4289 -4306 4307 0
-4289 4306 4307 0
-4289 -4306 -4307 0
3661 4308 0
-3661 -4308 0
4308 4309 0
-4308 -4309 0
339 4310 0
-339 -4310 0
4277 4280 4310 4311 0
4277 4280 -4310 -4311 0
4277 -4280 4310 -4311 0
4277 -4280 -4310 -4311 0
-4277 4280 4310 -4311 0
-4277 4280 -4310 -4311 0
-4277 -4280 4310 -4311 0
-4277 -4280 -4310 -4311 0
339 4312 0
-339 -4312 0
4312 4313 0
-4312 -4313 0
4279 4313 4314 0
4279 -4313 -4314 0
-4279 4313 -4314 0
-4279 -4313 -4314 0
4275 4313 4315 0
4275 -4313 -4315 0
-4275 4313 -4315 0
-4275 -4313 -4315 0
4311 4314 4315 -4316 0
4311 4314 -4315 4316 0
4311 -4314 4315 4316 0
4311 -4314 -4315 4316 0
-4311 4314 4315 4316 0
-4311 4314 -4315 4316 0
-4311 -4314 4315 4316 0
-4311 -4314 -4315 4316 0
4316 4317 0
-4316 -4317 0
4317 4318 0
-4317 -4318 0
4309 4318 -4319 0
4309 -4318 4319 0
-4309 4318 4319 0
-4309 -4318 4319 0
4319 4320 0
-4319 -4320 0
4320 4321 0
-4320 -4321 0
4321 4322 0
-4321 -4322 0
4322 4323 0
-4322 -4323 0
3753 4324 0
-3753 -4324 0
4324 4325 0
-4324 -4325 0
339 4326 0
-339 -4326 0
4294 4297 4326 4327 0
4294 4297 -4326 -4327 0
4294 -4297 4326 -4327 0
4294 -4297 -4326 -4327 0
-4294 4297 4326 -4327 0
-4294 4297 -4326 -4327 0
-4294 -4297 4326 -4327 0
-4294 -4297 -4326 -4327 0
339 4328 0
-339 -4328 0
4328 4329 0
-4328 -4329 0
4296 4329 4330 0
4296 -4329 -4330 0
-4296 4329 -4330 0
-4296 -4329 -4330 0
4292 4329 4331 0
4292 -4329 -4331 0
-4292 4329 -4331 0
-4292 -4329 -4331 0
4327 4330 4331 -4332 0
4327 4330 -4331 4332 0
4327 -4330 4331 4332 0
4327 -4330 -4331 4332 0
-4327 4330 4331 4332 0
-4327 4330 -4331 4332 0
-4327 -4330 4331 4332 0
-4327 -4330 -4331 4332 0
4332 4333 0
-4332 -4333 0
4333 4334 0
-4333 -4334 0
4325 4334 -4335 0
4325 -4334 4335 0
-4325 4334 4335 0
-4325 -4334 4335 0
4335 4336 0
-4335 -4336 0
4336 4337 0
-4336 -4337 0
4337 4338 0
-4337 -4338 0
4338 4339 0
-4338 -4339 0
4323 4339 -4340 0
4323 -4339 4340 0
-4323 4339 4340 0
-4323 -4339 -4340 0
3665 4341 0
-3665 -4341 0
4341 4342 0
-4341 -4342 0
334 4343 0
-334 -4343 0
4313 4280 4277 4344 0
4313 4280 -4277 -4344 0
4313 -4280 4277 -4344 0
4313 -4280 -4277 -4344 0
-4313 4280 4277 -4344 0
-4313 4280 -4277 -4344 0
-4313 -4280 4277 -4344 0
-4313 -4280 -4277 -4344 0
4344 4345 0
-4344 -4345 0
4343 4345 4346 0
4343 -4345 -4346 0
-4343 4345 -4346 0
-4343 -4345 -4346 0
334 4347 0
-334 -4347 0
4347 4348 0
-4347 -4348 0
4348 4344 4349 0
4348 -4344 -4349 0
-4348 4344 -4349 0
-4348 -4344 -4349 0
4346 4349 -4350 0
4346 -4349 4350 0
-4346 4349 4350 0
-4346 -4349 4350 0
4350 4351 0
-4350 -4351 0
4351 4352 0
-4351 -4352 0
4342 4352 -4353 0
4342 -4352 4353 0
-4342 4352 4353 0
-4342 -4352 4353 0
4353 4354 0
-4353 -4354 0
4354 4355 0
-4354 -4355 0
4355 4356 0
-4355 -4356 0
4356 4357 0
-4356 -4357 0
3757 4358 0
-3757 -4358 0
4358 4359 0
-4358 -4359 0
334 4360 0
-334 -4360 0
4329 4297 4294 4361 0
4329 4297 -4294 -4361 0
4329 -4297 4294 -4361 0
4329 -4297 -4294 -4361 0
-4329 4297 4294 -4361 0
-4329 4297 -4294 -4361 0
-4329 -4297 4294 -4361 0
-4329 -4297 -4294 -4361 0
4361 4362 0
-4361 -4362 0
4360 4362 4363 0
4360 -4362 -4363 0
-4360 4362 -4363 0
-4360 -4362 -4363 0
334 4364 0
-334 -4364 0
4364 4365 0
-4364 -4365 0
4365 4361 4366 0
4365 -4361 -4366 0
-4365 4361 -4366 0
-4365 -4361 -4366 0
4363 4366 -4367 0
4363 -4366 4367 0
-4363 4366 4367 0
-4363 -4366 4367 0
4367 4368 0
-4367 -4368 0
4368 4369 0
-4368 -4369 0
4359 4369 -4370 0
4359 -4369 4370 0
-4359 4369 4370 0
-4359 -4369 4370 0
4370 4371 0
-4370 -4371 0
4371 4372 0
-4371 -4372 0
4372 4373 0
-4372 -4373 0
4373 4374 0
-4373 -4374 0
4357 4374 -4375 0
4357 -4374 4375 0
-4357 4374 4375 0
-4357 -4374 -4375 0
1885 1884 4376 0
1885 -1884 -4376 0
-1885 1884 -4376 0
-1885 -1884 -4376 0
648 4376 4377 0
648 -4376 -4377 0
-648 4376 -4377 0
-648 -4376 -4377 0
4377 4378 0
-4377 -4378 0
4378 4379 0
-4378 -4379 0
4379 4380 0
-4379 -4380 0
4380 4381 0
-4380 -4381 0
4381 4382 0
-4381 -4382 0
4382 4383 0
-4382 -4383 0
1905 1904 4384 0
1905 -1904 -4384 0
-1905 1904 -4384 0
-1905 -1904 -4384 0
720 4384 4385 0
720 -4384 -4385 0
-720 4384 -4385 0
-720 -4384 -4385 0
4385 4386 0
-4385 -4386 0
4386 4387 0
-4386 -4387 0
4387 4388 0
-4387 -4388 0
4388 4389 0
-4388 -4389 0
4389 4390 0
-4389 -4390 0
4390 4391 0
-4390 -4391 0
4383 4391 -4392 0
4383 -4391 4392 0
-4383 4391 4392 0
-4383 -4391 -4392 0
378 4393 0
-378 -4393 0
4393 4394 0
-4393 -4394 0
4394 4395 0
-4394 -4395 0
4395 4396 0
-4395 -4396 0
4396 4397 0
-4396 -4397 0
4397 4398 0
-4397 -4398 0
4398 4399 0
-4398 -4399 0
4399 4400 0
-4399 -4400 0
4400 4401 0
-4400 -4401 0
378 4402 0
-378 -4402 0
4402 4403 0
-4402 -4403 0
4403 4404 0
-4403 -4404 0
4404 4405 0
-4404 -4405 0
4405 4406 0
-4405 -4406 0
4406 4407 0
-4406 -4407 0
4407 4408 0
-4407 -4408 0
4408 4409 0
-4408 -4409 0
4409 4410 0
-4409 -4410 0
4401 4410 -4411 0
4401 -4410 4411 0
-4401 4410 4411 0
-4401 -4410 -4411 0
1683 4412 0
-1683 -4412 0
676 4413 0
-676 -4413 0
4412 4413 4414 0
4412 -4413 -4414 0
-4412 4413 -4414 0
-4412 -4413 -4414 0
1684 4415 0
-1684 -4415 0
682 4416 0
-682 -4416 0
4415 4416 4417 0
4415 -4416 -4417 0
-4415 4416 -4417 0
-4415 -4416 -4417 0
355 4418 0
-355 -4418 0
4418 4419 0
-4418 -4419 0
4419 4420 0
-4419 -4420 0
1795 1789 4420 4421 0
1795 1789 -4420 -4421 0
1795 -1789 4420 -4421 0
1795 -1789 -4420 -4421 0
-1795 1789 4420 -4421 0
-1795 1789 -4420 -4421 0
-1795 -1789 4420 -4421 0
-1795 -1789 -4420 -4421 0
355 4422 0
-355 -4422 0
4422 4423 0
-4422 -4423 0
1790 4423 4424 0
1790 -4423 -4424 0
-1790 4423 -4424 0
-1790 -4423 -4424 0
4423 1794 4425 0
4423 -1794 -4425 0
-4423 1794 -4425 0
-4423 -1794 -4425 0
4421 4424 4425 -4426 0
4421 4424 -4425 4426 0
4421 -4424 4425 4426 0
4421 -4424 -4425 4426 0
-4421 4424 4425 4426 0
-4421 4424 -4425 4426 0
-4421 -4424 4425 4426 0
-4421 -4424 -4425 4426 0
4426 4427 0
-4426 -4427 0
4427 4428 0
-4427 -4428 0
4414 4417 4428 -4429 0
4414 4417 -4428 4429 0
4414 -4417 4428 4429 0
4414 -4417 -4428 4429 0
-4414 4417 4428 4429 0
-4414 4417 -4428 4429 0
-4414 -4417 4428 4429 0
-4414 -4417 -4428 4429 0
4429 4430 0
-4429 -4430 0
4430 4431 0
-4430 -4431 0
4431 4432 0
-4431 -4432 0
4432 4433 0
-4432 -4433 0
1710 4434 0
-1710 -4434 0
748 4435 0
-748 -4435 0
4434 4435 4436 0
4434 -4435 -4436 0
-4434 4435 -4436 0
-4434 -4435 -4436 0
1711 4437 0
-1711 -4437 0
754 4438 0
-754 -4438 0
4437 4438 4439 0
4437 -4438 -4439 0
-4437 4438 -4439 0
-4437 -4438 -4439 0
355 4440 0
-355 -4440 0
4440 4441 0
-4440 -4441 0
4441 4442 0
-4441 -4442 0
1815 1809 4442 4443 0
1815 1809 -4442 -4443 0
1815 -1809 4442 -4443 0
1815 -1809 -4442 -4443 0
-1815 1809 4442 -4443 0
-1815 1809 -4442 -4443 0
-1815 -1809 4442 -4443 0
-1815 -1809 -4442 -4443 0
355 4444 0
-355 -4444 0
4444 4445 0
-4444 -4445 0
1810 4445 4446 0
1810 -4445 -4446 0
-1810 4445 -4446 0
-1810 -4445 -4446 0
4445 1814 4447 0
4445 -1814 -4447 0
-4445 1814 -4447 0
-4445 -1814 -4447 0
4443 4446 4447 -4448 0
4443 4446 -4447 4448 0
4443 -4446 4447 4448 0
4443 -4446 -4447 4448 0
-4443 4446 4447 4448 0
-4443 4446 -4447 4448 0
-4443 -4446 4447 4448 0
-4443 -4446 -4447 4448 0
4448 4449 0
-4448 -4449 0
4449 4450 0
-4449 -4450 0
4436 4439 4450 -4451 0
4436 4439 -4450 4451 0
4436 -4439 4450 4451 0
4436 -4439 -4450 4451 0
-4436 4439 4450 4451 0
-4436 4439 -4450 4451 0
-4436 -4439 4450 4451 0
-4436 -4439 -4450 4451 0
4451 4452 0
-4451 -4452 0
4452 4453 0
-4452 -4453 0
4453 4454 0
-4453 -4454 0
4454 4455 0
-4454 -4455 0
4433 4455 -4456 0
4433 -4455 4456 0
-4433 4455 4456 0
-4433 -4455 -4456 0
1738 4457 0
-1738 -4457 0
4457 4413 4458 0
4457 -4413 -4458 0
-4457 4413 -4458 0
-4457 -4413 -4458 0
1734 4459 0
-1734 -4459 0
4416 4459 4460 0
4416 -4459 -4460 0
-4416 4459 -4460 0
-4416 -4459 -4460 0
379 4461 0
-379 -4461 0
4461 4462 0
-4461 -4462 0
4462 4463 0
-4462 -4463 0
4423 1789 1795 4464 0
4423 1789 -1795 -4464 0
4423 -1789 1795 -4464 0
4423 -1789 -1795 -4464 0
-4423 1789 1795 -4464 0
-4423 1789 -1795 -4464 0
-4423 -1789 1795 -4464 0
-4423 -1789 -1795 -4464 0
4464 4465 0
-4464 -4465 0
4463 4465 4466 0
4463 -4465 -4466 0
-4463 4465 -4466 0
-4463 -4465 -4466 0
379 4467 0
-379 -4467 0
4467 4468 0
-4467 -4468 0
4464 4468 4469 0
4464 -4468 -4469 0
-4464 4468 -4469 0
-4464 -4468 -4469 0
4466 4469 -4470 0
4466 -4469 4470 0
-4466 4469 4470 0
-4466 -4469 4470 0
4470 4471 0
-4470 -4471 0
4471 4472 0
-4471 -4472 0
4458 4460 4472 -4473 0
4458 4460 -4472 4473 0
4458 -4460 4472 4473 0
4458 -4460 -4472 4473 0
-4458 4460 4472 4473 0
-4458 4460 -4472 4473 0
-4458 -4460 4472 4473 0
-4458 -4460 -4472 4473 0
4473 4474 0
-4473 -4474 0
4474 4475 0
-4474 -4475 0
4475 4476 0
-4475 -4476 0
4476 4477 0
-4476 -4477 0
1763 4478 0
-1763 -4478 0
4478 4435 4479 0
4478 -4435 -4479 0
-4478 4435 -4479 0
-4478 -4435 -4479 0
1759 4480 0
-1759 -4480 0
4438 4480 4481 0
4438 -4480 -4481 0
-4438 4480 -4481 0
-4438 -4480 -4481 0
379 4482 0
-379 -4482 0
4482 4483 0
-4482 -4483 0
4483 4484 0
-4483 -4484 0
4445 1809 1815 4485 0
4445 1809 -1815 -4485 0
4445 -1809 1815 -4485 0
4445 -1809 -1815 -4485 0
-4445 1809 1815 -4485 0
-4445 1809 -1815 -4485 0
-4445 -1809 1815 -4485 0
-4445 -1809 -1815 -4485 0
4485 4486 0
-4485 -4486 0
4484 4486 4487 0
4484 -4486 -4487 0
-4484 4486 -4487 0
-4484 -4486 -4487 0
379 4488 0
-379 -4488 0
4488 4489 0
-4488 -4489 0
4485 4489 4490 0
4485 -4489 -4490 0
-4485 4489 -4490 0
-4485 -4489 -4490 0
4487 4490 -4491 0
4487 -4490 4491 0
-4487 4490 4491 0
-4487 -4490 4491 0
4491 4492 0
-4491 -4492 0
4492 4493 0
-4492 -4493 0
4479 4481 4493 -4494 0
4479 4481 -4493 4494 0
4479 -4481 4493 4494 0
4479 -4481 -4493 4494 0
-4479 4481 4493 4494 0
-4479 4481 -4493 4494 0
-4479 -4481 4493 4494 0
-4479 -4481 -4493 4494 0
4494 4495 0
-4494 -4495 0
4495 4496 0
-4495 -4496 0
4496 4497 0
-4496 -4497 0
4497 4498 0
-4497 -4498 0
4477 4498 -4499 0
4477 -4498 4499 0
-4477 4498 4499 0
-4477 -4498 -4499 0
699 705 702 4500 0
699 705 -702 -4500 0
699 -705 702 -4500 0
699 -705 -702 -4500 0
-699 705 702 -4500 0
-699 705 -702 -4500 0
-699 -705 702 -4500 0
-699 -705 -702 -4500 0
4500 4501 0
-4500 -4501 0
4501 4416 4502 0
4501 -4416 -4502 0
-4501 4416 -4502 0
-4501 -4416 -4502 0
703 645 4503 0
703 -645 -4503 0
-703 645 -4503 0
-703 -645 -4503 0
4503 4504 0
-4503 -4504 0
4504 665 1680 4505 0
4504 665 -1680 -4505 0
4504 -665 1680 -4505 0
4504 -665 -1680 -4505 0
-4504 665 1680 -4505 0
-4504 665 -1680 -4505 0
-4504 -665 1680 -4505 0
-4504 -665 -1680 -4505 0
4505 4506 0
-4505 -4506 0
4506 4413 4507 0
4506 -4413 -4507 0
-4506 4413 -4507 0
-4506 -4413 -4507 0
4502 4507 4508 0
4502 -4507 -4508 0
-4502 4507 -4508 0
-4502 -4507 -4508 0
4508 4509 0
-4508 -4509 0
313 4510 0
-313 -4510 0
4510 4511 0
-4510 -4511 0
402 4512 0
-402 -4512 0
398 4513 0
-398 -4513 0
4513 4514 0
-4513 -4514 0
1943 4515 0
-1943 -4515 0
397 4516 0
-397 -4516 0
4516 4517 0
-4516 -4517 0
4514 4515 4517 4518 0
4514 4515 -4517 -4518 0
4514 -4515 4517 -4518 0
4514 -4515 -4517 -4518 0
-4514 4515 4517 -4518 0
-4514 4515 -4517 -4518 0
-4514 -4515 4517 -4518 0
-4514 -4515 -4517 -4518 0
4518 4519 0
-4518 -4519 0
4511 4512 4519 4520 0
4511 4512 -4519 -4520 0
4511 -4512 4519 -4520 0
4511 -4512 -4519 -4520 0
-4511 4512 4519 -4520 0
-4511 4512 -4519 -4520 0
-4511 -4512 4519 -4520 0
-4511 -4512 -4519 -4520 0
402 4521 0
-402 -4521 0
4521 4522 0
-4521 -4522 0
313 4523 0
-313 -4523 0
4522 4523 4524 0
4522 -4523 -4524 0
-4522 4523 -4524 0
-4522 -4523 -4524 0
4518 4522 4525 0
4518 -4522 -4525 0
-4518 4522 -4525 0
-4518 -4522 -4525 0
4520 4524 4525 -4526 0
4520 4524 -4525 4526 0
4520 -4524 4525 4526 0
4520 -4524 -4525 4526 0
-4520 4524 4525 4526 0
-4520 4524 -4525 4526 0
-4520 -4524 4525 4526 0
-4520 -4524 -4525 4526 0
4526 4527 0
-4526 -4527 0
4509 4527 4528 0
4509 -4527 -4528 0
-4509 4527 -4528 0
-4509 -4527 -4528 0
298 4529 0
-298 -4529 0
4529 4530 0
-4529 -4530 0
4530 4531 0
-4530 -4531 0
4531 4508 4532 0
4531 -4508 -4532 0
-4531 4508 -4532 0
-4531 -4508 -4532 0
4528 4532 -4533 0
4528 -4532 4533 0
-4528 4532 4533 0
-4528 -4532 4533 0
4533 4534 0
-4533 -4534 0
4534 4535 0
-4534 -4535 0
771 777 774 4536 0
771 777 -774 -4536 0
771 -777 774 -4536 0
771 -777 -774 -4536 0
-771 777 774 -4536 0
-771 777 -774 -4536 0
-771 -777 774 -4536 0
-771 -777 -774 -4536 0
4536 4537 0
-4536 -4537 0
4537 4438 4538 0
4537 -4438 -4538 0
-4537 4438 -4538 0
-4537 -4438 -4538 0
775 717 4539 0
775 -717 -4539 0
-775 717 -4539 0
-775 -717 -4539 0
4539 4540 0
-4539 -4540 0
4540 737 1707 4541 0
4540 737 -1707 -4541 0
4540 -737 1707 -4541 0
4540 -737 -1707 -4541 0
-4540 737 1707 -4541 0
-4540 737 -1707 -4541 0
-4540 -737 1707 -4541 0
-4540 -737 -1707 -4541 0
4541 4542 0
-4541 -4542 0
4542 4435 4543 0
4542 -4435 -4543 0
-4542 4435 -4543 0
-4542 -4435 -4543 0
4538 4543 4544 0
4538 -4543 -4544 0
-4538 4543 -4544 0
-4538 -4543 -4544 0
4544 4545 0
-4544 -4545 0
313 4546 0
-313 -4546 0
4546 4547 0
-4546 -4547 0
402 4548 0
-402 -4548 0
398 4549 0
-398 -4549 0
4549 4550 0
-4549 -4550 0
1997 4551 0
-1997 -4551 0
397 4552 0
-397 -4552 0
4552 4553 0
-4552 -4553 0
4550 4551 4553 4554 0
4550 4551 -4553 -4554 0
4550 -4551 4553 -4554 0
4550 -4551 -4553 -4554 0
-4550 4551 4553 -4554 0
-4550 4551 -4553 -4554 0
-4550 -4551 4553 -4554 0
-4550 -4551 -4553 -4554 0
4554 4555 0
-4554 -4555 0
4547 4548 4555 4556 0
4547 4548 -4555 -4556 0
4547 -4548 4555 -4556 0
4547 -4548 -4555 -4556 0
-4547 4548 4555 -4556 0
-4547 4548 -4555 -4556 0
-4547 -4548 4555 -4556 0
-4547 -4548 -4555 -4556 0
402 4557 0
-402 -4557 0
4557 4558 0
-4557 -4558 0
313 4559 0
-313 -4559 0
4558 4559 4560 0
4558 -4559 -4560 0
-4558 4559 -4560 0
-4558 -4559 -4560 0
4554 4558 4561 0
4554 -4558 -4561 0
-4554 4558 -4561 0
-4554 -4558 -4561 0
4556 4560 4561 -4562 0
4556 4560 -4561 4562 0
4556 -4560 4561 4562 0
4556 -4560 -4561 4562 0
-4556 4560 4561 4562 0
-4556 4560 -4561 4562 0
-4556 -4560 4561 4562 0
-4556 -4560 -4561 4562 0
4562 4563 0
-4562 -4563 0
4545 4563 4564 0
4545 -4563 -4564 0
-4545 4563 -4564 0
-4545 -4563 -4564 0
298 4565 0
-298 -4565 0
4565 4566 0
-4565 -4566 0
4566 4567 0
-4566 -4567 0
4567 4544 4568 0
4567 -4544 -4568 0
-4567 4544 -4568 0
-4567 -4544 -4568 0
4564 4568 -4569 0
4564 -4568 4569 0
-4564 4568 4569 0
-4564 -4568 4569 0
4569 4570 0
-4569 -4570 0
4570 4571 0
-4570 -4571 0
4535 4571 -4572 0
4535 -4571 4572 0
-4535 4571 4572 0
-4535 -4571 -4572 0
4523 4519 4573 0
4523 -4519 -4573 0
-4523 4519 -4573 0
-4523 -4519 -4573 0
4511 4518 4574 0
4511 -4518 -4574 0
-4511 4518 -4574 0
-4511 -4518 -4574 0
4573 4574 -4575 0
4573 -4574 4575 0
-4573 4574 4575 0
-4573 -4574 4575 0
4575 4576 0
-4575 -4576 0
4576 4509 4577 0
4576 -4509 -4577 0
-4576 4509 -4577 0
-4576 -4509 -4577 0
297 4578 0
-297 -4578 0
4578 4579 0
-4578 -4579 0
4579 4580 0
-4579 -4580 0
4508 4580 4581 0
4508 -4580 -4581 0
-4508 4580 -4581 0
-4508 -4580 -4581 0
4577 4581 -4582 0
4577 -4581 4582 0
-4577 4581 4582 0
-4577 -4581 4582 0
4582 4583 0
-4582 -4583 0
4583 4584 0
-4583 -4584 0
4559 4555 4585 0
4559 -4555 -4585 0
-4559 4555 -4585 0
-4559 -4555 -4585 0
4547 4554 4586 0
4547 -4554 -4586 0
-4547 4554 -4586 0
-4547 -4554 -4586 0
4585 4586 -4587 0
4585 -4586 4587 0
-4585 4586 4587 0
-4585 -4586 4587 0
4587 4588 0
-4587 -4588 0
4588 4545 4589 0
4588 -4545 -4589 0
-4588 4545 -4589 0
-4588 -4545 -4589 0
297 4590 0
-297 -4590 0
4590 4591 0
-4590 -4591 0
4591 4592 0
-4591 -4592 0
4544 4592 4593 0
4544 -4592 -4593 0
-4544 4592 -4593 0
-4544 -4592 -4593 0
4589 4593 -4594 0
4589 -4593 4594 0
-4589 4593 4594 0
-4589 -4593 4594 0
4594 4595 0
-4594 -4595 0
4595 4596 0
-4595 -4596 0
4584 4596 -4597 0
4584 -4596 4597 0
-4584 4596 4597 0
-4584 -4596 -4597 0
4515 4514 4523 4598 0
4515 4514 -4523 -4598 0
4515 -4514 4523 -4598 0
4515 -4514 -4523 -4598 0
-4515 4514 4523 -4598 0
-4515 4514 -4523 -4598 0
-4515 -4514 4523 -4598 0
-4515 -4514 -4523 -4598 0
397 4599 0
-397 -4599 0
4515 4599 4600 0
4515 -4599 -4600 0
-4515 4599 -4600 0
-4515 -4599 -4600 0
4598 4600 -4601 0
4598 -4600 4601 0
-4598 4600 4601 0
-4598 -4600 4601 0
4601 4602 0
-4601 -4602 0
249 4603 0
-249 -4603 0
4602 4603 4604 0
4602 -4603 -4604 0
-4602 4603 -4604 0
-4602 -4603 -4604 0
249 4605 0
-249 -4605 0
4605 4606 0
-4605 -4606 0
4606 4601 4607 0
4606 -4601 -4607 0
-4606 4601 -4607 0
-4606 -4601 -4607 0
4604 4607 -4608 0
4604 -4607 4608 0
-4604 4607 4608 0
-4604 -4607 4608 0
4608 4609 0
-4608 -4609 0
4609 4509 4610 0
4609 -4509 -4610 0
-4609 4509 -4610 0
-4609 -4509 -4610 0
290 4611 0
-290 -4611 0
4611 4612 0
-4611 -4612 0
4612 4613 0
-4612 -4613 0
4508 4613 4614 0
4508 -4613 -4614 0
-4508 4613 -4614 0
-4508 -4613 -4614 0
4610 4614 -4615 0
4610 -4614 4615 0
-4610 4614 4615 0
-4610 -4614 4615 0
4615 4616 0
-4615 -4616 0
4616 4617 0
-4616 -4617 0
4551 4550 4559 4618 0
4551 4550 -4559 -4618 0
4551 -4550 4559 -4618 0
4551 -4550 -4559 -4618 0
-4551 4550 4559 -4618 0
-4551 4550 -4559 -4618 0
-4551 -4550 4559 -4618 0
-4551 -4550 -4559 -4618 0
397 4619 0
-397 -4619 0
4551 4619 4620 0
4551 -4619 -4620 0
-4551 4619 -4620 0
-4551 -4619 -4620 0
4618 4620 -4621 0
4618 -4620 4621 0
-4618 4620 4621 0
-4618 -4620 4621 0
4621 4622 0
-4621 -4622 0
249 4623 0
-249 -4623 0
4622 4623 4624 0
4622 -4623 -4624 0
-4622 4623 -4624 0
-4622 -4623 -4624 0
249 4625 0
-249 -4625 0
4625 4626 0
-4625 -4626 0
4626 4621 4627 0
4626 -4621 -4627 0
-4626 4621 -4627 0
-4626 -4621 -4627 0
4624 4627 -4628 0
4624 -4627 4628 0
-4624 4627 4628 0
-4624 -4627 4628 0
4628 4629 0
-4628 -4629 0
4629 4545 4630 0
4629 -4545 -4630 0
-4629 4545 -4630 0
-4629 -4545 -4630 0
290 4631 0
-290 -4631 0
4631 4632 0
-4631 -4632 0
4632 4633 0
-4632 -4633 0
4544 4633 4634 0
4544 -4633 -4634 0
-4544 4633 -4634 0
-4544 -4633 -4634 0
4630 4634 -4635 0
4630 -4634 4635 0
-4630 4634 4635 0
-4630 -4634 4635 0
4635 4636 0
-4635 -4636 0
4636 4637 0
-4636 -4637 0
4617 4637 -4638 0
4617 -4637 4638 0
-4617 4637 4638 0
-4617 -4637 -4638 0
4502 4639 0
-4502 -4639 0
285 4640 0
-285 -4640 0
4640 4641 0
-4640 -4641 0
4641 4642 0
-4641 -4642 0
4639 4642 4643 0
4639 -4642 -4643 0
-4639 4642 -4643 0
-4639 -4642 -4643 0
255 4644 0
-255 -4644 0
260 4645 0
-260 -4645 0
4645 4646 0
-4645 -4646 0
1948 4647 0
-1948 -4647 0
254 4648 0
-254 -4648 0
4648 4649 0
-4648 -4649 0
259 4650 0
-259 -4650 0
4650 4651 0
-4650 -4651 0
4647 4649 4651 4652 0
4647 4649 -4651 -4652 0
4647 -4649 4651 -4652 0
4647 -4649 -4651 -4652 0
-4647 4649 4651 -4652 0
-4647 4649 -4651 -4652 0
-4647 -4649 4651 -4652 0
-4647 -4649 -4651 -4652 0
4652 4653 0
-4652 -4653 0
4644 4646 4653 4654 0
4644 4646 -4653 -4654 0
4644 -4646 4653 -4654 0
4644 -4646 -4653 -4654 0
-4644 4646 4653 -4654 0
-4644 4646 -4653 -4654 0
-4644 -4646 4653 -4654 0
-4644 -4646 -4653 -4654 0
260 4655 0
-260 -4655 0
255 4656 0
-255 -4656 0
4656 4657 0
-4656 -4657 0
4655 4657 4658 0
4655 -4657 -4658 0
-4655 4657 -4658 0
-4655 -4657 -4658 0
4657 4652 4659 0
4657 -4652 -4659 0
-4657 4652 -4659 0
-4657 -4652 -4659 0
4654 4658 4659 -4660 0
4654 4658 -4659 4660 0
4654 -4658 4659 4660 0
4654 -4658 -4659 4660 0
-4654 4658 4659 4660 0
-4654 4658 -4659 4660 0
-4654 -4658 4659 4660 0
-4654 -4658 -4659 4660 0
4660 4661 0
-4660 -4661 0
647 1680 665 4662 0
647 1680 -665 -4662 0
647 -1680 665 -4662 0
647 -1680 -665 -4662 0
-647 1680 665 -4662 0
-647 1680 -665 -4662 0
-647 -1680 665 -4662 0
-647 -1680 -665 -4662 0
4662 4663 0
-4662 -4663 0
4413 4663 4664 0
4413 -4663 -4664 0
-4413 4663 -4664 0
-4413 -4663 -4664 0
4502 4664 4665 0
4502 -4664 -4665 0
-4502 4664 -4665 0
-4502 -4664 -4665 0
4665 4666 0
-4665 -4666 0
4661 4666 4667 0
4661 -4666 -4667 0
-4661 4666 -4667 0
-4661 -4666 -4667 0
4664 4668 0
-4664 -4668 0
294 4669 0
-294 -4669 0
4669 4670 0
-4669 -4670 0
4670 4671 0
-4670 -4671 0
4668 4671 4672 0
4668 -4671 -4672 0
-4668 4671 -4672 0
-4668 -4671 -4672 0
4643 4667 4672 -4673 0
4643 4667 -4672 4673 0
4643 -4667 4672 4673 0
4643 -4667 -4672 4673 0
-4643 4667 4672 4673 0
-4643 4667 -4672 4673 0
-4643 -4667 4672 4673 0
-4643 -4667 -4672 4673 0
4673 4674 0
-4673 -4674 0
4674 4675 0
-4674 -4675 0
4538 4676 0
-4538 -4676 0
285 4677 0
-285 -4677 0
4677 4678 0
-4677 -4678 0
4678 4679 0
-4678 -4679 0
4676 4679 4680 0
4676 -4679 -4680 0
-4676 4679 -4680 0
-4676 -4679 -4680 0
255 4681 0
-255 -4681 0
260 4682 0
-260 -4682 0
4682 4683 0
-4682 -4683 0
2002 4684 0
-2002 -4684 0
254 4685 0
-254 -4685 0
4685 4686 0
-4685 -4686 0
259 4687 0
-259 -4687 0
4687 4688 0
-4687 -4688 0
4684 4686 4688 4689 0
4684 4686 -4688 -4689 0
4684 -4686 4688 -4689 0
4684 -4686 -4688 -4689 0
-4684 4686 4688 -4689 0
-4684 4686 -4688 -4689 0
-4684 -4686 4688 -4689 0
-4684 -4686 -4688 -4689 0
4689 4690 0
-4689 -4690 0
4681 4683 4690 4691 0
4681 4683 -4690 -4691 0
4681 -4683 4690 -4691 0
4681 -4683 -4690 -4691 0
-4681 4683 4690 -4691 0
-4681 4683 -4690 -4691 0
-4681 -4683 4690 -4691 0
-4681 -4683 -4690 -4691 0
260 4692 0
-260 -4692 0
255 4693 0
-255 -4693 0
4693 4694 0
-4693 -4694 0
4692 4694 4695 0
4692 -4694 -4695 0
-4692 4694 -4695 0
-4692 -4694 -4695 0
4694 4689 4696 0
4694 -4689 -4696 0
-4694 4689 -4696 0
-4694 -4689 -4696 0
4691 4695 4696 -4697 0
4691 4695 -4696 4697 0
4691 -4695 4696 4697 0
4691 -4695 -4696 4697 0
-4691 4695 4696 4697 0
-4691 4695 -4696 4697 0
-4691 -4695 4696 4697 0
-4691 -4695 -4696 4697 0
4697 4698 0
-4697 -4698 0
719 1707 737 4699 0
719 1707 -737 -4699 0
719 -1707 737 -4699 0
719 -1707 -737 -4699 0
-719 1707 737 -4699 0
-719 1707 -737 -4699 0
-719 -1707 737 -4699 0
-719 -1707 -737 -4699 0
4699 4700 0
-4699 -4700 0
4435 4700 4701 0
4435 -4700 -4701 0
-4435 4700 -4701 0
-4435 -4700 -4701 0
4538 4701 4702 0
4538 -4701 -4702 0
-4538 4701 -4702 0
-4538 -4701 -4702 0
4702 4703 0
-4702 -4703 0
4698 4703 4704 0
4698 -4703 -4704 0
-4698 4703 -4704 0
-4698 -4703 -4704 0
4701 4705 0
-4701 -4705 0
294 4706 0
-294 -4706 0
4706 4707 0
-4706 -4707 0
4707 4708 0
-4707 -4708 0
4705 4708 4709 0
4705 -4708 -4709 0
-4705 4708 -4709 0
-4705 -4708 -4709 0
4680 4704 4709 -4710 0
4680 4704 -4709 4710 0
4680 -4704 4709 4710 0
4680 -4704 -4709 4710 0
-4680 4704 4709 4710 0
-4680 4704 -4709 4710 0
-4680 -4704 4709 4710 0
-4680 -4704 -4709 4710 0
4710 4711 0
-4710 -4711 0
4711 4712 0
-4711 -4712 0
4675 4712 -4713 0
4675 -4712 4713 0
-4675 4712 4713 0
-4675 -4712 -4713 0
284 4714 0
-284 -4714 0
4714 4715 0
-4714 -4715 0
4715 4716 0
-4715 -4716 0
4639 4716 4717 0
4639 -4716 -4717 0
-4639 4716 -4717 0
-4639 -4716 -4717 0
4653 4655 4718 0
4653 -4655 -4718 0
-4653 4655 -4718 0
-4653 -4655 -4718 0
4646 4652 4719 0
4646 -4652 -4719 0
-4646 4652 -4719 0
-4646 -4652 -4719 0
4718 4719 -4720 0
4718 -4719 4720 0
-4718 4719 4720 0
-4718 -4719 4720 0
4720 4721 0
-4720 -4721 0
4666 4721 4722 0
4666 -4721 -4722 0
-4666 4721 -4722 0
-4666 -4721 -4722 0
293 4723 0
-293 -4723 0
4723 4724 0
-4723 -4724 0
4724 4725 0
-4724 -4725 0
4725 4668 4726 0
4725 -4668 -4726 0
-4725 4668 -4726 0
-4725 -4668 -4726 0
4717 4722 4726 -4727 0
4717 4722 -4726 4727 0
4717 -4722 4726 4727 0
4717 -4722 -4726 4727 0
-4717 4722 4726 4727 0
-4717 4722 -4726 4727 0
-4717 -4722 4726 4727 0
-4717 -4722 -4726 4727 0
4727 4728 0
-4727 -4728 0
4728 4729 0
-4728 -4729 0
284 4730 0
-284 -4730 0
4730 4731 0
-4730 -4731 0
4731 4732 0
-4731 -4732 0
4676 4732 4733 0
4676 -4732 -4733 0
-4676 4732 -4733 0
-4676 -4732 -4733 0
4690 4692 4734 0
4690 -4692 -4734 0
-4690 4692 -4734 0
-4690 -4692 -4734 0
4683 4689 4735 0
4683 -4689 -4735 0
-4683 4689 -4735 0
-4683 -4689 -4735 0
4734 4735 -4736 0
4734 -4735 4736 0
-4734 4735 4736 0
-4734 -4735 4736 0
4736 4737 0
-4736 -4737 0
4703 4737 4738 0
4703 -4737 -4738 0
-4703 4737 -4738 0
-4703 -4737 -4738 0
293 4739 0
-293 -4739 0
4739 4740 0
-4739 -4740 0
4740 4741 0
-4740 -4741 0
4741 4705 4742 0
4741 -4705 -4742 0
-4741 4705 -4742 0
-4741 -4705 -4742 0
4733 4738 4742 -4743 0
4733 4738 -4742 4743 0
4733 -4738 4742 4743 0
4733 -4738 -4742 4743 0
-4733 4738 4742 4743 0
-4733 4738 -4742 4743 0
-4733 -4738 4742 4743 0
-4733 -4738 -4742 4743 0
4743 4744 0
-4743 -4744 0
4744 4745 0
-4744 -4745 0
4729 4745 -4746 0
4729 -4745 4746 0
-4729 4745 4746 0
-4729 -4745 -4746 0
281 4747 0
-281 -4747 0
4747 4748 0
-4747 -4748 0
4748 4749 0
-4748 -4749 0
4639 4749 4750 0
4639 -4749 -4750 0
-4639 4749 -4750 0
-4639 -4749 -4750 0
250 4751 0
-250 -4751 0
4751 4752 0
-4751 -4752 0
4651 4655 4647 4753 0
4651 4655 -4647 -4753 0
4651 -4655 4647 -4753 0
4651 -4655 -4647 -4753 0
-4651 4655 4647 -4753 0
-4651 4655 -4647 -4753 0
-4651 -4655 4647 -4753 0
-4651 -4655 -4647 -4753 0
254 4754 0
-254 -4754 0
4754 4647 4755 0
4754 -4647 -4755 0
-4754 4647 -4755 0
-4754 -4647 -4755 0
4753 4755 -4756 0
4753 -4755 4756 0
-4753 4755 4756 0
-4753 -4755 4756 0
4752 4756 4757 0
4752 -4756 -4757 0
-4752 4756 -4757 0
-4752 -4756 -4757 0
4756 4758 0
-4756 -4758 0
250 4759 0
-250 -4759 0
4758 4759 4760 0
4758 -4759 -4760 0
-4758 4759 -4760 0
-4758 -4759 -4760 0
4757 4760 -4761 0
4757 -4760 4761 0
-4757 4760 4761 0
-4757 -4760 4761 0
4761 4762 0
-4761 -4762 0
4666 4762 4763 0
4666 -4762 -4763 0
-4666 4762 -4763 0
-4666 -4762 -4763 0
4668 4613 4764 0
4668 -4613 -4764 0
-4668 4613 -4764 0
-4668 -4613 -4764 0
4750 4763 4764 -4765 0
4750 4763 -4764 4765 0
4750 -4763 4764 4765 0
4750 -4763 -4764 4765 0
-4750 4763 4764 4765 0
-4750 4763 -4764 4765 0
-4750 -4763 4764 4765 0
-4750 -4763 -4764 4765 0
4765 4766 0
-4765 -4766 0
4766 4767 0
-4766 -4767 0
281 4768 0
-281 -4768 0
4768 4769 0
-4768 -4769 0
4769 4770 0
-4769 -4770 0
4676 4770 4771 0
4676 -4770 -4771 0
-4676 4770 -4771 0
-4676 -4770 -4771 0
250 4772 0
-250 -4772 0
4772 4773 0
-4772 -4773 0
4688 4692 4684 4774 0
4688 4692 -4684 -4774 0
4688 -4692 4684 -4774 0
4688 -4692 -4684 -4774 0
-4688 4692 4684 -4774 0
-4688 4692 -4684 -4774 0
-4688 -4692 4684 -4774 0
-4688 -4692 -4684 -4774 0
254 4775 0
-254 -4775 0
4775 4684 4776 0
4775 -4684 -4776 0
-4775 4684 -4776 0
-4775 -4684 -4776 0
4774 4776 -4777 0
4774 -4776 4777 0
-4774 4776 4777 0
-4774 -4776 4777 0
4773 4777 4778 0
4773 -4777 -4778 0
-4773 4777 -4778 0
-4773 -4777 -4778 0
4777 4779 0
-4777 -4779 0
250 4780 0
-250 -4780 0
4779 4780 4781 0
4779 -4780 -4781 0
-4779 4780 -4781 0
-4779 -4780 -4781 0
4778 4781 -4782 0
4778 -4781 4782 0
-4778 4781 4782 0
-4778 -4781 4782 0
4782 4783 0
-4782 -4783 0
4703 4783 4784 0
4703 -4783 -4784 0
-4703 4783 -4784 0
-4703 -4783 -4784 0
4705 4633 4785 0
4705 -4633 -4785 0
-4705 4633 -4785 0
-4705 -4633 -4785 0
4771 4784 4785 -4786 0
4771 4784 -4785 4786 0
4771 -4784 4785 4786 0
4771 -4784 -4785 4786 0
-4771 4784 4785 4786 0
-4771 4784 -4785 4786 0
-4771 -4784 4785 4786 0
-4771 -4784 -4785 4786 0
4786 4787 0
-4786 -4787 0
4787 4788 0
-4787 -4788 0
4767 4788 -4789 0
4767 -4788 4789 0
-4767 4788 4789 0
-4767 -4788 -4789 0
282 4790 0
-282 -4790 0
4790 4791 0
-4790 -4791 0
4791 4792 0
-4791 -4792 0
4792 4639 4793 0
4792 -4639 -4793 0
-4792 4639 -4793 0
-4792 -4639 -4793 0
1948 4794 0
-1948 -4794 0
4794 4795 0
-4794 -4795 0
4795 4649 4796 0
4795 -4649 -4796 0
-4795 4649 -4796 0
-4795 -4649 -4796 0
4647 4754 4797 0
4647 -4754 -4797 0
-4647 4754 -4797 0
-4647 -4754 -4797 0
4796 4797 -4798 0
4796 -4797 4798 0
-4796 4797 4798 0
-4796 -4797 4798 0
4798 4799 0
-4798 -4799 0
4666 4799 4800 0
4666 -4799 -4800 0
-4666 4799 -4800 0
-4666 -4799 -4800 0
291 4801 0
-291 -4801 0
4801 4802 0
-4801 -4802 0
4802 4803 0
-4802 -4803 0
4803 4668 4804 0
4803 -4668 -4804 0
-4803 4668 -4804 0
-4803 -4668 -4804 0
4793 4800 4804 -4805 0
4793 4800 -4804 4805 0
4793 -4800 4804 4805 0
4793 -4800 -4804 4805 0
-4793 4800 4804 4805 0
-4793 4800 -4804 4805 0
-4793 -4800 4804 4805 0
-4793 -4800 -4804 4805 0
4805 4806 0
-4805 -4806 0
4806 4807 0
-4806 -4807 0
282 4808 0
-282 -4808 0
4808 4809 0
-4808 -4809 0
4809 4810 0
-4809 -4810 0
4810 4676 4811 0
4810 -4676 -4811 0
-4810 4676 -4811 0
-4810 -4676 -4811 0
2002 4812 0
-2002 -4812 0
4812 4813 0
-4812 -4813 0
4813 4686 4814 0
4813 -4686 -4814 0
-4813 4686 -4814 0
-4813 -4686 -4814 0
4684 4775 4815 0
4684 -4775 -4815 0
-4684 4775 -4815 0
-4684 -4775 -4815 0
4814 4815 -4816 0
4814 -4815 4816 0
-4814 4815 4816 0
-4814 -4815 4816 0
4816 4817 0
-4816 -4817 0
4703 4817 4818 0
4703 -4817 -4818 0
-4703 4817 -4818 0
-4703 -4817 -4818 0
291 4819 0
-291 -4819 0
4819 4820 0
-4819 -4820 0
4820 4821 0
-4820 -4821 0
4821 4705 4822 0
4821 -4705 -4822 0
-4821 4705 -4822 0
-4821 -4705 -4822 0
4811 4818 4822 -4823 0
4811 4818 -4822 4823 0
4811 -4818 4822 4823 0
4811 -4818 -4822 4823 0
-4811 4818 4822 4823 0
-4811 4818 -4822 4823 0
-4811 -4818 4822 4823 0
-4811 -4818 -4822 4823 0
4823 4824 0
-4823 -4824 0
4824 4825 0
-4824 -4825 0
4807 4825 -4826 0
4807 -4825 4826 0
-4807 4825 4826 0
-4807 -4825 -4826 0
292 4827 0
-292 -4827 0
4827 4828 0
-4827 -4828 0
4828 4829 0
-4828 -4829 0
4668 4829 4830 0
4668 -4829 -4830 0
-4668 4829 -4830 0
-4668 -4829 -4830 0
259 4831 0
-259 -4831 0
4831 4649 4647 4832 0
4831 4649 -4647 -4832 0
4831 -4649 4647 -4832 0
4831 -4649 -4647 -4832 0
-4831 4649 4647 -4832 0
-4831 4649 -4647 -4832 0
-4831 -4649 4647 -4832 0
-4831 -4649 -4647 -4832 0
4754 4651 4833 0
4754 -4651 -4833 0
-4754 4651 -4833 0
-4754 -4651 -4833 0
4651 4795 4834 0
4651 -4795 -4834 0
-4651 4795 -4834 0
-4651 -4795 -4834 0
4832 4833 4834 -4835 0
4832 4833 -4834 4835 0
4832 -4833 4834 4835 0
4832 -4833 -4834 4835 0
-4832 4833 4834 4835 0
-4832 4833 -4834 4835 0
-4832 -4833 4834 4835 0
-4832 -4833 -4834 4835 0
4835 4836 0
-4835 -4836 0
4666 4836 4837 0
4666 -4836 -4837 0
-4666 4836 -4837 0
-4666 -4836 -4837 0
283 4838 0
-283 -4838 0
4838 4839 0
-4838 -4839 0
4839 4840 0
-4839 -4840 0
4639 4840 4841 0
4639 -4840 -4841 0
-4639 4840 -4841 0
-4639 -4840 -4841 0
4830 4837 4841 -4842 0
4830 4837 -4841 4842 0
4830 -4837 4841 4842 0
4830 -4837 -4841 4842 0
-4830 4837 4841 4842 0
-4830 4837 -4841 4842 0
-4830 -4837 4841 4842 0
-4830 -4837 -4841 4842 0
4842 4843 0
-4842 -4843 0
4843 4844 0
-4843 -4844 0
292 4845 0
-292 -4845 0
4845 4846 0
-4845 -4846 0
4846 4847 0
-4846 -4847 0
4705 4847 4848 0
4705 -4847 -4848 0
-4705 4847 -4848 0
-4705 -4847 -4848 0
259 4849 0
-259 -4849 0
4849 4686 4684 4850 0
4849 4686 -4684 -4850 0
4849 -4686 4684 -4850 0
4849 -4686 -4684 -4850 0
-4849 4686 4684 -4850 0
-4849 4686 -4684 -4850 0
-4849 -4686 4684 -4850 0
-4849 -4686 -4684 -4850 0
4775 4688 4851 0
4775 -4688 -4851 0
-4775 4688 -4851 0
-4775 -4688 -4851 0
4688 4813 4852 0
4688 -4813 -4852 0
-4688 4813 -4852 0
-4688 -4813 -4852 0
4850 4851 4852 -4853 0
4850 4851 -4852 4853 0
4850 -4851 4852 4853 0
4850 -4851 -4852 4853 0
-4850 4851 4852 4853 0
-4850 4851 -4852 4853 0
-4850 -4851 4852 4853 0
-4850 -4851 -4852 4853 0
4853 4854 0
-4853 -4854 0
4703 4854 4855 0
4703 -4854 -4855 0
-4703 4854 -4855 0
-4703 -4854 -4855 0
283 4856 0
-283 -4856 0
4856 4857 0
-4856 -4857 0
4857 4858 0
-4857 -4858 0
4676 4858 4859 0
4676 -4858 -4859 0
-4676 4858 -4859 0
-4676 -4858 -4859 0
4848 4855 4859 -4860 0
4848 4855 -4859 4860 0
4848 -4855 4859 4860 0
4848 -4855 -4859 4860 0
-4848 4855 4859 4860 0
-4848 4855 -4859 4860 0
-4848 -4855 4859 4860 0
-4848 -4855 -4859 4860 0
4860 4861 0
-4860 -4861 0
4861 4862 0
-4861 -4862 0
4844 4862 -4863 0
4844 -4862 4863 0
-4844 4862 4863 0
-4844 -4862 -4863 0
1943 4864 0
-1943 -4864 0
4864 4865 0
-4864 -4865 0
4517 4865 4866 0
4517 -4865 -4866 0
-4517 4865 -4866 0
-4517 -4865 -4866 0
4599 4515 4867 0
4599 -4515 -4867 0
-4599 4515 -4867 0
-4599 -4515 -4867 0
4866 4867 -4868 0
4866 -4867 4868 0
-4866 4867 4868 0
-4866 -4867 4868 0
4868 4869 0
-4868 -4869 0
4509 4869 4870 0
4509 -4869 -4870 0
-4509 4869 -4870 0
-4509 -4869 -4870 0
295 4871 0
-295 -4871 0
4871 4872 0
-4871 -4872 0
4872 4873 0
-4872 -4873 0
4508 4873 4874 0
4508 -4873 -4874 0
-4508 4873 -4874 0
-4508 -4873 -4874 0
4870 4874 -4875 0
4870 -4874 4875 0
-4870 4874 4875 0
-4870 -4874 4875 0
4875 4876 0
-4875 -4876 0
4876 4877 0
-4876 -4877 0
1997 4878 0
-1997 -4878 0
4878 4879 0
-4878 -4879 0
4553 4879 4880 0
4553 -4879 -4880 0
-4553 4879 -4880 0
-4553 -4879 -4880 0
4619 4551 4881 0
4619 -4551 -4881 0
-4619 4551 -4881 0
-4619 -4551 -4881 0
4880 4881 -4882 0
4880 -4881 4882 0
-4880 4881 4882 0
-4880 -4881 4882 0
4882 4883 0
-4882 -4883 0
4545 4883 4884 0
4545 -4883 -4884 0
-4545 4883 -4884 0
-4545 -4883 -4884 0
295 4885 0
-295 -4885 0
4885 4886 0
-4885 -4886 0
4886 4887 0
-4886 -4887 0
4544 4887 4888 0
4544 -4887 -4888 0
-4544 4887 -4888 0
-4544 -4887 -4888 0
4884 4888 -4889 0
4884 -4888 4889 0
-4884 4888 4889 0
-4884 -4888 4889 0
4889 4890 0
-4889 -4890 0
4890 4891 0
-4890 -4891 0
4877 4891 -4892 0
4877 -4891 4892 0
-4877 4891 4892 0
-4877 -4891 -4892 0
296 4893 0
-296 -4893 0
4893 4894 0
-4893 -4894 0
4894 4895 0
-4894 -4895 0
4895 4508 4896 0
4895 -4508 -4896 0
-4895 4508 -4896 0
-4895 -4508 -4896 0
398 4897 0
-398 -4897 0
4517 4515 4897 4898 0
4517 4515 -4897 -4898 0
4517 -4515 4897 -4898 0
4517 -4515 -4897 -4898 0
-4517 4515 4897 -4898 0
-4517 4515 -4897 -4898 0
-4517 -4515 4897 -4898 0
-4517 -4515 -4897 -4898 0
4514 4865 4899 0
4514 -4865 -4899 0
-4514 4865 -4899 0
-4514 -4865 -4899 0
4514 4599 4900 0
4514 -4599 -4900 0
-4514 4599 -4900 0
-4514 -4599 -4900 0
4898 4899 4900 -4901 0
4898 4899 -4900 4901 0
4898 -4899 4900 4901 0
4898 -4899 -4900 4901 0
-4898 4899 4900 4901 0
-4898 4899 -4900 4901 0
-4898 -4899 4900 4901 0
-4898 -4899 -4900 4901 0
4901 4902 0
-4901 -4902 0
4509 4902 4903 0
4509 -4902 -4903 0
-4509 4902 -4903 0
-4509 -4902 -4903 0
4896 4903 -4904 0
4896 -4903 4904 0
-4896 4903 4904 0
-4896 -4903 4904 0
4904 4905 0
-4904 -4905 0
4905 4906 0
-4905 -4906 0
296 4907 0
-296 -4907 0
4907 4908 0
-4907 -4908 0
4908 4909 0
-4908 -4909 0
4909 4544 4910 0
4909 -4544 -4910 0
-4909 4544 -4910 0
-4909 -4544 -4910 0
398 4911 0
-398 -4911 0
4553 4551 4911 4912 0
4553 4551 -4911 -4912 0
4553 -4551 4911 -4912 0
4553 -4551 -4911 -4912 0
-4553 4551 4911 -4912 0
-4553 4551 -4911 -4912 0
-4553 -4551 4911 -4912 0
-4553 -4551 -4911 -4912 0
4550 4879 4913 0
4550 -4879 -4913 0
-4550 4879 -4913 0
-4550 -4879 -4913 0
4550 4619 4914 0
4550 -4619 -4914 0
-4550 4619 -4914 0
-4550 -4619 -4914 0
4912 4913 4914 -4915 0
4912 4913 -4914 4915 0
4912 -4913 4914 4915 0
4912 -4913 -4914 4915 0
-4912 4913 4914 4915 0
-4912 4913 -4914 4915 0
-4912 -4913 4914 4915 0
-4912 -4913 -4914 4915 0
4915 4916 0
-4915 -4916 0
4545 4916 4917 0
4545 -4916 -4917 0
-4545 4916 -4917 0
-4545 -4916 -4917 0
4910 4917 -4918 0
4910 -4917 4918 0
-4910 4917 4918 0
-4910 -4917 4918 0
4918 4919 0
-4918 -4919 0
4919 4920 0
-4919 -4920 0
4906 4920 -4921 0
4906 -4920 4921 0
-4906 4920 4921 0
-4906 -4920 -4921 0
304 4922 0
-304 -4922 0
4922 4923 0
-4922 -4923 0
4203 4924 0
-4203 -4924 0
4243 4279 4925 0
4243 -4279 -4925 0
-4243 4279 -4925 0
-4243 -4279 -4925 0
4924 4925 -4926 0
4924 -4925 4926 0
-4924 4925 4926 0
-4924 -4925 4926 0
4926 4344 4927 0
4926 -4344 -4927 0
-4926 4344 -4927 0
-4926 -4344 -4927 0
4927 4928 0
-4927 -4928 0
4923 4928 4929 0
4923 -4928 -4929 0
-4923 4928 -4929 0
-4923 -4928 -4929 0
304 4930 0
-304 -4930 0
4927 4930 4931 0
4927 -4930 -4931 0
-4927 4930 -4931 0
-4927 -4930 -4931 0
4929 4931 -4932 0
4929 -4931 4932 0
-4929 4931 4932 0
-4929 -4931 4932 0
4343 4933 0
-4343 -4933 0
4310 4934 0
-4310 -4934 0
4246 4935 0
-4246 -4935 0
4208 4936 0
-4208 -4936 0
4277 4937 0
-4277 -4937 0
4935 4936 4937 4938 0
4935 4936 -4937 -4938 0
4935 -4936 4937 -4938 0
4935 -4936 -4937 -4938 0
-4935 4936 4937 -4938 0
-4935 4936 -4937 -4938 0
-4935 -4936 4937 -4938 0
-4935 -4936 -4937 -4938 0
4938 4939 0
-4938 -4939 0
4933 4934 4939 4940 0
4933 4934 -4939 -4940 0
4933 -4934 4939 -4940 0
4933 -4934 -4939 -4940 0
-4933 4934 4939 -4940 0
-4933 4934 -4939 -4940 0
-4933 -4934 4939 -4940 0
-4933 -4934 -4939 -4940 0
4940 4941 0
-4940 -4941 0
2336 4941 4942 0
2336 -4941 -4942 0
-2336 4941 -4942 0
-2336 -4941 -4942 0
4203 4943 0
-4203 -4943 0
4243 4944 0
-4243 -4944 0
4943 4944 4937 4945 0
4943 4944 -4937 -4945 0
4943 -4944 4937 -4945 0
4943 -4944 -4937 -4945 0
-4943 4944 4937 -4945 0
-4943 4944 -4937 -4945 0
-4943 -4944 4937 -4945 0
-4943 -4944 -4937 -4945 0
4945 4946 0
-4945 -4946 0
4946 4933 4934 4947 0
4946 4933 -4934 -4947 0
4946 -4933 4934 -4947 0
4946 -4933 -4934 -4947 0
-4946 4933 4934 -4947 0
-4946 4933 -4934 -4947 0
-4946 -4933 4934 -4947 0
-4946 -4933 -4934 -4947 0
4947 4948 0
-4947 -4948 0
2337 4948 4949 0
2337 -4948 -4949 0
-2337 4948 -4949 0
-2337 -4948 -4949 0
4942 4949 -4950 0
4942 -4949 4950 0
-4942 4949 4950 0
-4942 -4949 4950 0
363 4951 0
-363 -4951 0
2993 4951 4952 0
2993 -4951 -4952 0
-2993 4951 -4952 0
-2993 -4951 -4952 0
264 4953 0
-264 -4953 0
4953 4954 0
-4953 -4954 0
4954 4955 0
-4954 -4955 0
4955 4956 0
-4955 -4956 0
312 4957 0
-312 -4957 0
320 4958 0
-320 -4958 0
303 4959 0
-303 -4959 0
322 4960 0
-322 -4960 0
321 4961 0
-321 -4961 0
4958 4959 4960 4961 4962 0
4958 4959 4960 -4961 -4962 0
4958 4959 -4960 4961 -4962 0
4958 4959 -4960 -4961 -4962 0
4958 -4959 4960 4961 -4962 0
4958 -4959 4960 -4961 -4962 0
4958 -4959 -4960 4961 -4962 0
4958 -4959 -4960 -4961 -4962 0
-4958 4959 4960 4961 -4962 0
-4958 4959 4960 -4961 -4962 0
-4958 4959 -4960 4961 -4962 0
-4958 4959 -4960 -4961 -4962 0
-4958 -4959 4960 4961 -4962 0
-4958 -4959 4960 -4961 -4962 0
-4958 -4959 -4960 4961 -4962 0
-4958 -4959 -4960 -4961 -4962 0
4962 4963 0
-4962 -4963 0
343 4964 0
-343 -4964 0
4957 4963 4964 4965 0
4957 4963 -4964 -4965 0
4957 -4963 4964 -4965 0
4957 -4963 -4964 -4965 0
-4957 4963 4964 -4965 0
-4957 4963 -4964 -4965 0
-4957 -4963 4964 -4965 0
-4957 -4963 -4964 -4965 0
4965 4966 0
-4965 -4966 0
4966 4967 0
-4966 -4967 0
4956 4967 4968 0
4956 -4967 -4968 0
-4956 4967 -4968 0
-4956 -4967 -4968 0
1891 1890 4952 4968 4969 0
1891 1890 4952 -4968 -4969 0
1891 1890 -4952 4968 -4969 0
1891 1890 -4952 -4968 -4969 0
1891 -1890 4952 4968 -4969 0
1891 -1890 4952 -4968 -4969 0
1891 -1890 -4952 4968 -4969 0
1891 -1890 -4952 -4968 -4969 0
-1891 1890 4952 4968 -4969 0
-1891 1890 4952 -4968 -4969 0
-1891 1890 -4952 4968 -4969 0
-1891 1890 -4952 -4968 -4969 0
-1891 -1890 4952 4968 -4969 0
-1891 -1890 4952 -4968 -4969 0
-1891 -1890 -4952 4968 -4969 0
-1891 -1890 -4952 -4968 -4969 0
4969 4970 0
-4969 -4970 0
4950 4970 4971 0
4950 -4970 -4971 0
-4950 4970 -4971 0
-4950 -4970 -4971 0
4971 4972 0
-4971 -4972 0
4932 4972 4973 0
4932 -4972 -4973 0
-4932 4972 -4973 0
-4932 -4972 -4973 0
4973 4974 0
-4973 -4974 0
4974 4975 0
-4974 -4975 0
4975 4976 0
-4975 -4976 0
304 4977 0
-304 -4977 0
4977 4978 0
-4977 -4978 0
4222 4979 0
-4222 -4979 0
4259 4296 4980 0
4259 -4296 -4980 0
-4259 4296 -4980 0
-4259 -4296 -4980 0
4979 4980 -4981 0
4979 -4980 4981 0
-4979 4980 4981 0
-4979 -4980 4981 0
4981 4361 4982 0
4981 -4361 -4982 0
-4981 4361 -4982 0
-4981 -4361 -4982 0
4982 4983 0
-4982 -4983 0
4978 4983 4984 0
4978 -4983 -4984 0
-4978 4983 -4984 0
-4978 -4983 -4984 0
304 4985 0
-304 -4985 0
4982 4985 4986 0
4982 -4985 -4986 0
-4982 4985 -4986 0
-4982 -4985 -4986 0
4984 4986 -4987 0
4984 -4986 4987 0
-4984 4986 4987 0
-4984 -4986 4987 0
4360 4988 0
-4360 -4988 0
4326 4989 0
-4326 -4989 0
4262 4990 0
-4262 -4990 0
4227 4991 0
-4227 -4991 0
4294 4992 0
-4294 -4992 0
4990 4991 4992 4993 0
4990 4991 -4992 -4993 0
4990 -4991 4992 -4993 0
4990 -4991 -4992 -4993 0
-4990 4991 4992 -4993 0
-4990 4991 -4992 -4993 0
-4990 -4991 4992 -4993 0
-4990 -4991 -4992 -4993 0
4993 4994 0
-4993 -4994 0
4988 4989 4994 4995 0
4988 4989 -4994 -4995 0
4988 -4989 4994 -4995 0
4988 -4989 -4994 -4995 0
-4988 4989 4994 -4995 0
-4988 4989 -4994 -4995 0
-4988 -4989 4994 -4995 0
-4988 -4989 -4994 -4995 0
4995 4996 0
-4995 -4996 0
2700 4996 4997 0
2700 -4996 -4997 0
-2700 4996 -4997 0
-2700 -4996 -4997 0
4222 4998 0
-4222 -4998 0
4259 4999 0
-4259 -4999 0
4998 4999 4992 5000 0
4998 4999 -4992 -5000 0
4998 -4999 4992 -5000 0
4998 -4999 -4992 -5000 0
-4998 4999 4992 -5000 0
-4998 4999 -4992 -5000 0
-4998 -4999 4992 -5000 0
-4998 -4999 -4992 -5000 0
5000 5001 0
-5000 -5001 0
5001 4988 4989 5002 0
5001 4988 -4989 -5002 0
5001 -4988 4989 -5002 0
5001 -4988 -4989 -5002 0
-5001 4988 4989 -5002 0
-5001 4988 -4989 -5002 0
-5001 -4988 4989 -5002 0
-5001 -4988 -4989 -5002 0
5002 5003 0
-5002 -5003 0
2701 5003 5004 0
2701 -5003 -5004 0
-2701 5003 -5004 0
-2701 -5003 -5004 0
4997 5004 -5005 0
4997 -5004 5005 0
-4997 5004 5005 0
-4997 -5004 5005 0
363 5006 0
-363 -5006 0
3056 5006 5007 0
3056 -5006 -5007 0
-3056 5006 -5007 0
-3056 -5006 -5007 0
264 5008 0
-264 -5008 0
5008 5009 0
-5008 -5009 0
5009 5010 0
-5009 -5010 0
5010 5011 0
-5010 -5011 0
312 5012 0
-312 -5012 0
320 5013 0
-320 -5013 0
303 5014 0
-303 -5014 0
322 5015 0
-322 -5015 0
321 5016 0
-321 -5016 0
5013 5014 5015 5016 5017 0
5013 5014 5015 -5016 -5017 0
5013 5014 -5015 5016 -5017 0
5013 5014 -5015 -5016 -5017 0
5013 -5014 5015 5016 -5017 0
5013 -5014 5015 -5016 -5017 0
5013 -5014 -5015 5016 -5017 0
5013 -5014 -5015 -5016 -5017 0
-5013 5014 5015 5016 -5017 0
-5013 5014 5015 -5016 -5017 0
-5013 5014 -5015 5016 -5017 0
-5013 5014 -5015 -5016 -5017 0
-5013 -5014 5015 5016 -5017 0
-5013 -5014 5015 -5016 -5017 0
-5013 -5014 -5015 5016 -5017 0
-5013 -5014 -5015 -5016 -5017 0
5017 5018 0
-5017 -5018 0
343 5019 0
-343 -5019 0
5012 5018 5019 5020 0
5012 5018 -5019 -5020 0
5012 -5018 5019 -5020 0
5012 -5018 -5019 -5020 0
-5012 5018 5019 -5020 0
-5012 5018 -5019 -5020 0
-5012 -5018 5019 -5020 0
-5012 -5018 -5019 -5020 0
5020 5021 0
-5020 -5021 0
5021 5022 0
-5021 -5022 0
5011 5022 5023 0
5011 -5022 -5023 0
-5011 5022 -5023 0
-5011 -5022 -5023 0
1911 1910 5007 5023 5024 0
1911 1910 5007 -5023 -5024 0
1911 1910 -5007 5023 -5024 0
1911 1910 -5007 -5023 -5024 0
1911 -1910 5007 5023 -5024 0
1911 -1910 5007 -5023 -5024 0
1911 -1910 -5007 5023 -5024 0
1911 -1910 -5007 -5023 -5024 0
-1911 1910 5007 5023 -5024 0
-1911 1910 5007 -5023 -5024 0
-1911 1910 -5007 5023 -5024 0
-1911 1910 -5007 -5023 -5024 0
-1911 -1910 5007 5023 -5024 0
-1911 -1910 5007 -5023 -5024 0
-1911 -1910 -5007 5023 -5024 0
-1911 -1910 -5007 -5023 -5024 0
5024 5025 0
-5024 -5025 0
5005 5025 5026 0
5005 -5025 -5026 0
-5005 5025 -5026 0
-5005 -5025 -5026 0
5026 5027 0
-5026 -5027 0
4987 5027 5028 0
4987 -5027 -5028 0
-4987 5027 -5028 0
-4987 -5027 -5028 0
5028 5029 0
-5028 -5029 0
5029 5030 0
-5029 -5030 0
5030 5031 0
-5030 -5031 0
4976 5031 -5032 0
4976 -5031 5032 0
-4976 5031 5032 0
-4976 -5031 -5032 0
375 5033 0
-375 -5033 0
5033 5034 0
-5033 -5034 0
1742 1794 5035 0
1742 -1794 -5035 0
-1742 1794 -5035 0
-1742 -1794 -5035 0
1689 5036 0
-1689 -5036 0
5035 5036 -5037 0
5035 -5036 5037 0
-5035 5036 5037 0
-5035 -5036 5037 0
5037 4464 5038 0
5037 -4464 -5038 0
-5037 4464 -5038 0
-5037 -4464 -5038 0
5038 5039 0
-5038 -5039 0
5034 5039 5040 0
5034 -5039 -5040 0
-5034 5039 -5040 0
-5034 -5039 -5040 0
375 5041 0
-375 -5041 0
5038 5041 5042 0
5038 -5041 -5042 0
-5038 5041 -5042 0
-5038 -5041 -5042 0
5040 5042 -5043 0
5040 -5042 5043 0
-5040 5042 5043 0
-5040 -5042 5043 0
401 5044 0
-401 -5044 0
5044 5045 0
-5044 -5045 0
365 5046 0
-365 -5046 0
5046 5047 0
-5046 -5047 0
2337 5045 5047 5048 0
2337 5045 -5047 -5048 0
2337 -5045 5047 -5048 0
2337 -5045 -5047 -5048 0
-2337 5045 5047 -5048 0
-2337 5045 -5047 -5048 0
-2337 -5045 5047 -5048 0
-2337 -5045 -5047 -5048 0
390 5049 0
-390 -5049 0
5049 2336 5050 0
5049 -2336 -5050 0
-5049 2336 -5050 0
-5049 -2336 -5050 0
390 5051 0
-390 -5051 0
5051 5052 0
-5051 -5052 0
5052 2336 5053 0
5052 -2336 -5053 0
-5052 2336 -5053 0
-5052 -2336 -5053 0
5048 5050 5053 5054 0
5048 5050 -5053 -5054 0
5048 -5050 5053 -5054 0
5048 -5050 -5053 -5054 0
-5048 5050 5053 -5054 0
-5048 5050 -5053 -5054 0
-5048 -5050 5053 -5054 0
-5048 -5050 -5053 -5054 0
5054 5055 0
-5054 -5055 0
1788 5056 0
-1788 -5056 0
4462 5057 0
-4462 -5057 0
4419 5058 0
-4419 -5058 0
1693 5059 0
-1693 -5059 0
1741 5060 0
-1741 -5060 0
5058 5059 5060 -5061 0
5058 5059 -5060 5061 0
5058 -5059 5060 5061 0
5058 -5059 -5060 5061 0
-5058 5059 5060 5061 0
-5058 5059 -5060 5061 0
-5058 -5059 5060 5061 0
-5058 -5059 -5060 5061 0
5056 5057 5061 -5062 0
5056 5057 -5061 5062 0
5056 -5057 5061 5062 0
5056 -5057 -5061 5062 0
-5056 5057 5061 5062 0
-5056 5057 -5061 5062 0
-5056 -5057 5061 5062 0
-5056 -5057 -5061 5062 0
5062 5063 0
-5062 -5063 0
5063 5064 0
-5063 -5064 0
5055 5064 5065 0
5055 -5064 -5065 0
-5055 5064 -5065 0
-5055 -5064 -5065 0
5050 5066 0
-5050 -5066 0
4422 5067 0
-4422 -5067 0
5057 5056 5060 -5068 0
5057 5056 -5060 5068 0
5057 -5056 5060 5068 0
5057 -5056 -5060 5068 0
-5057 5056 5060 5068 0
-5057 5056 -5060 5068 0
-5057 -5056 5060 5068 0
-5057 -5056 -5060 5068 0
5059 5067 5068 -5069 0
5059 5067 -5068 5069 0
5059 -5067 5068 5069 0
5059 -5067 -5068 5069 0
-5059 5067 5068 5069 0
-5059 5067 -5068 5069 0
-5059 -5067 5068 5069 0
-5059 -5067 -5068 5069 0
5069 5070 0
-5069 -5070 0
5070 5071 0
-5070 -5071 0
5066 5071 5072 0
5066 -5071 -5072 0
-5066 5071 -5072 0
-5066 -5071 -5072 0
4467 5073 0
-4467 -5073 0
1793 5074 0
-1793 -5074 0
1748 5075 0
-1748 -5075 0
5058 5074 5075 -5076 0
5058 5074 -5075 5076 0
5058 -5074 5075 5076 0
5058 -5074 -5075 5076 0
-5058 5074 5075 5076 0
-5058 5074 -5075 5076 0
-5058 -5074 5075 5076 0
-5058 -5074 -5075 5076 0
5059 5073 5076 -5077 0
5059 5073 -5076 5077 0
5059 -5073 5076 5077 0
5059 -5073 -5076 5077 0
-5059 5073 5076 5077 0
-5059 5073 -5076 5077 0
-5059 -5073 5076 5077 0
-5059 -5073 -5076 5077 0
5077 5078 0
-5077 -5078 0
5078 5079 0
-5078 -5079 0
5053 5080 0
-5053 -5080 0
5079 5080 5081 0
5079 -5080 -5081 0
-5079 5080 -5081 0
-5079 -5080 -5081 0
5057 5075 5058 -5082 0
5057 5075 -5058 5082 0
5057 -5075 5058 5082 0
5057 -5075 -5058 5082 0
-5057 5075 5058 5082 0
-5057 5075 -5058 5082 0
-5057 -5075 5058 5082 0
-5057 -5075 -5058 5082 0
5056 5059 5082 -5083 0
5056 5059 -5082 5083 0
5056 -5059 5082 5083 0
5056 -5059 -5082 5083 0
-5056 5059 5082 5083 0
-5056 5059 -5082 5083 0
-5056 -5059 5082 5083 0
-5056 -5059 -5082 5083 0
5083 5084 0
-5083 -5084 0
5084 5085 0
-5084 -5085 0
5048 5086 0
-5048 -5086 0
5085 5086 5087 0
5085 -5086 -5087 0
-5085 5086 -5087 0
-5085 -5086 -5087 0
5065 5072 5081 5087 5088 0
5065 5072 5081 -5087 -5088 0
5065 5072 -5081 5087 -5088 0
5065 5072 -5081 -5087 -5088 0
5065 -5072 5081 5087 -5088 0
5065 -5072 5081 -5087 -5088 0
5065 -5072 -5081 5087 -5088 0
5065 -5072 -5081 -5087 -5088 0
-5065 5072 5081 5087 -5088 0
-5065 5072 5081 -5087 -5088 0
-5065 5072 -5081 5087 -5088 0
-5065 5072 -5081 -5087 -5088 0
-5065 -5072 5081 5087 -5088 0
-5065 -5072 5081 -5087 -5088 0
-5065 -5072 -5081 5087 -5088 0
-5065 -5072 -5081 -5087 -5088 0
5088 5089 0
-5088 -5089 0
5089 4970 5090 0
5089 -4970 -5090 0
-5089 4970 -5090 0
-5089 -4970 -5090 0
5090 5091 0
-5090 -5091 0
5043 5091 5092 0
5043 -5091 -5092 0
-5043 5091 -5092 0
-5043 -5091 -5092 0
5092 5093 0
-5092 -5093 0
5093 5094 0
-5093 -5094 0
5094 5095 0
-5094 -5095 0
375 5096 0
-375 -5096 0
5096 5097 0
-5096 -5097 0
1767 1814 5098 0
1767 -1814 -5098 0
-1767 1814 -5098 0
-1767 -1814 -5098 0
1716 5099 0
-1716 -5099 0
5098 5099 -5100 0
5098 -5099 5100 0
-5098 5099 5100 0
-5098 -5099 5100 0
5100 4485 5101 0
5100 -4485 -5101 0
-5100 4485 -5101 0
-5100 -4485 -5101 0
5101 5102 0
-5101 -5102 0
5097 5102 5103 0
5097 -5102 -5103 0
-5097 5102 -5103 0
-5097 -5102 -5103 0
375 5104 0
-375 -5104 0
5101 5104 5105 0
5101 -5104 -5105 0
-5101 5104 -5105 0
-5101 -5104 -5105 0
5103 5105 -5106 0
5103 -5105 5106 0
-5103 5105 5106 0
-5103 -5105 5106 0
401 5107 0
-401 -5107 0
5107 5108 0
-5107 -5108 0
365 5109 0
-365 -5109 0
5109 5110 0
-5109 -5110 0
2701 5108 5110 5111 0
2701 5108 -5110 -5111 0
2701 -5108 5110 -5111 0
2701 -5108 -5110 -5111 0
-2701 5108 5110 -5111 0
-2701 5108 -5110 -5111 0
-2701 -5108 5110 -5111 0
-2701 -5108 -5110 -5111 0
390 5112 0
-390 -5112 0
5112 2700 5113 0
5112 -2700 -5113 0
-5112 2700 -5113 0
-5112 -2700 -5113 0
390 5114 0
-390 -5114 0
5114 5115 0
-5114 -5115 0
5115 2700 5116 0
5115 -2700 -5116 0
-5115 2700 -5116 0
-5115 -2700 -5116 0
5111 5113 5116 5117 0
5111 5113 -5116 -5117 0
5111 -5113 5116 -5117 0
5111 -5113 -5116 -5117 0
-5111 5113 5116 -5117 0
-5111 5113 -5116 -5117 0
-5111 -5113 5116 -5117 0
-5111 -5113 -5116 -5117 0
5117 5118 0
-5117 -5118 0
1808 5119 0
-1808 -5119 0
4483 5120 0
-4483 -5120 0
4441 5121 0
-4441 -5121 0
1720 5122 0
-1720 -5122 0
1766 5123 0
-1766 -5123 0
5121 5122 5123 -5124 0
5121 5122 -5123 5124 0
5121 -5122 5123 5124 0
5121 -5122 -5123 5124 0
-5121 5122 5123 5124 0
-5121 5122 -5123 5124 0
-5121 -5122 5123 5124 0
-5121 -5122 -5123 5124 0
5119 5120 5124 -5125 0
5119 5120 -5124 5125 0
5119 -5120 5124 5125 0
5119 -5120 -5124 5125 0
-5119 5120 5124 5125 0
-5119 5120 -5124 5125 0
-5119 -5120 5124 5125 0
-5119 -5120 -5124 5125 0
5125 5126 0
-5125 -5126 0
5126 5127 0
-5126 -5127 0
5118 5127 5128 0
5118 -5127 -5128 0
-5118 5127 -5128 0
-5118 -5127 -5128 0
5113 5129 0
-5113 -5129 0
4444 5130 0
-4444 -5130 0
5120 5119 5123 -5131 0
5120 5119 -5123 5131 0
5120 -5119 5123 5131 0
5120 -5119 -5123 5131 0
-5120 5119 5123 5131 0
-5120 5119 -5123 5131 0
-5120 -5119 5123 5131 0
-5120 -5119 -5123 5131 0
5122 5130 5131 -5132 0
5122 5130 -5131 5132 0
5122 -5130 5131 5132 0
5122 -5130 -5131 5132 0
-5122 5130 5131 5132 0
-5122 5130 -5131 5132 0
-5122 -5130 5131 5132 0
-5122 -5130 -5131 5132 0
5132 5133 0
-5132 -5133 0
5133 5134 0
-5133 -5134 0
5129 5134 5135 0
5129 -5134 -5135 0
-5129 5134 -5135 0
-5129 -5134 -5135 0
4488 5136 0
-4488 -5136 0
1813 5137 0
-1813 -5137 0
1773 5138 0
-1773 -5138 0
5121 5137 5138 -5139 0
5121 5137 -5138 5139 0
5121 -5137 5138 5139 0
5121 -5137 -5138 5139 0
-5121 5137 5138 5139 0
-5121 5137 -5138 5139 0
-5121 -5137 5138 5139 0
-5121 -5137 -5138 5139 0
5122 5136 5139 -5140 0
5122 5136 -5139 5140 0
5122 -5136 5139 5140 0
5122 -5136 -5139 5140 0
-5122 5136 5139 5140 0
-5122 5136 -5139 5140 0
-5122 -5136 5139 5140 0
-5122 -5136 -5139 5140 0
5140 5141 0
-5140 -5141 0
5141 5142 0
-5141 -5142 0
5116 5143 0
-5116 -5143 0
5142 5143 5144 0
5142 -5143 -5144 0
-5142 5143 -5144 0
-5142 -5143 -5144 0
5120 5138 5121 -5145 0
5120 5138 -5121 5145 0
5120 -5138 5121 5145 0
5120 -5138 -5121 5145 0
-5120 5138 5121 5145 0
-5120 5138 -5121 5145 0
-5120 -5138 5121 5145 0
-5120 -5138 -5121 5145 0
5119 5122 5145 -5146 0
5119 5122 -5145 5146 0
5119 -5122 5145 5146 0
5119 -5122 -5145 5146 0
-5119 5122 5145 5146 0
-5119 5122 -5145 5146 0
-5119 -5122 5145 5146 0
-5119 -5122 -5145 5146 0
5146 5147 0
-5146 -5147 0
5147 5148 0
-5147 -5148 0
5111 5149 0
-5111 -5149 0
5148 5149 5150 0
5148 -5149 -5150 0
-5148 5149 -5150 0
-5148 -5149 -5150 0
5128 5135 5144 5150 5151 0
5128 5135 5144 -5150 -5151 0
5128 5135 -5144 5150 -5151 0
5128 5135 -5144 -5150 -5151 0
5128 -5135 5144 5150 -5151 0
5128 -5135 5144 -5150 -5151 0
5128 -5135 -5144 5150 -5151 0
5128 -5135 -5144 -5150 -5151 0
-5128 5135 5144 5150 -5151 0
-5128 5135 5144 -5150 -5151 0
-5128 5135 -5144 5150 -5151 0
-5128 5135 -5144 -5150 -5151 0
-5128 -5135 5144 5150 -5151 0
-5128 -5135 5144 -5150 -5151 0
-5128 -5135 -5144 5150 -5151 0
-5128 -5135 -5144 -5150 -5151 0
5151 5152 0
-5151 -5152 0
5152 5025 5153 0
5152 -5025 -5153 0
-5152 5025 -5153 0
-5152 -5025 -5153 0
5153 5154 0
-5153 -5154 0
5106 5154 5155 0
5106 -5154 -5155 0
-5106 5154 -5155 0
-5106 -5154 -5155 0
5155 5156 0
-5155 -5156 0
5156 5157 0
-5156 -5157 0
5157 5158 0
-5157 -5158 0
5095 5158 -5159 0
5095 -5158 5159 0
-5095 5158 5159 0
-5095 -5158 -5159 0
358 5160 0
-358 -5160 0
5160 5161 0
-5160 -5161 0
360 5162 0
-360 -5162 0
1849 1864 5163 0
1849 -1864 -5163 0
-1849 1864 -5163 0
-1849 -1864 -5163 0
5163 5164 0
-5163 -5164 0
5164 5165 0
-5164 -5165 0
4956 5165 5166 0
4956 -5165 -5166 0
-4956 5165 -5166 0
-4956 -5165 -5166 0
5161 5162 5166 5167 0
5161 5162 -5166 -5167 0
5161 -5162 5166 -5167 0
5161 -5162 -5166 -5167 0
-5161 5162 5166 -5167 0
-5161 5162 -5166 -5167 0
-5161 -5162 5166 -5167 0
-5161 -5162 -5166 -5167 0
5167 5168 0
-5167 -5168 0
5168 5169 0
-5168 -5169 0
358 5170 0
-358 -5170 0
5170 5171 0
-5170 -5171 0
360 5172 0
-360 -5172 0
1856 1873 5173 0
1856 -1873 -5173 0
-1856 1873 -5173 0
-1856 -1873 -5173 0
5173 5174 0
-5173 -5174 0
5174 5175 0
-5174 -5175 0
5011 5175 5176 0
5011 -5175 -5176 0
-5011 5175 -5176 0
-5011 -5175 -5176 0
5171 5172 5176 5177 0
5171 5172 -5176 -5177 0
5171 -5172 5176 -5177 0
5171 -5172 -5176 -5177 0
-5171 5172 5176 -5177 0
-5171 5172 -5176 -5177 0
-5171 -5172 5176 -5177 0
-5171 -5172 -5176 -5177 0
5177 5178 0
-5177 -5178 0
5178 5179 0
-5178 -5179 0
5169 5179 -5180 0
5169 -5179 5180 0
-5169 5179 5180 0
-5169 -5179 -5180 0
4972 4317 5181 0
4972 -4317 -5181 0
-4972 4317 -5181 0
-4972 -4317 -5181 0
5181 5182 0
-5181 -5182 0
5182 5183 0
-5182 -5183 0
5027 4333 5184 0
5027 -4333 -5184 0
-5027 4333 -5184 0
-5027 -4333 -5184 0
5184 5185 0
-5184 -5185 0
5185 5186 0
-5185 -5186 0
5183 5186 -5187 0
5183 -5186 5187 0
-5183 5186 5187 0
-5183 -5186 -5187 0
4972 4351 5188 0
4972 -4351 -5188 0
-4972 4351 -5188 0
-4972 -4351 -5188 0
5188 5189 0
-5188 -5189 0
5189 5190 0
-5189 -5190 0
5027 4368 5191 0
5027 -4368 -5191 0
-5027 4368 -5191 0
-5027 -4368 -5191 0
5191 5192 0
-5191 -5192 0
5192 5193 0
-5192 -5193 0
5190 5193 -5194 0
5190 -5193 5194 0
-5190 5193 5194 0
-5190 -5193 -5194 0
4972 4249 5195 0
4972 -4249 -5195 0
-4972 4249 -5195 0
-4972 -4249 -5195 0
5195 5196 0
-5195 -5196 0
5196 5197 0
-5196 -5197 0
5027 4265 5198 0
5027 -4265 -5198 0
-5027 4265 -5198 0
-5027 -4265 -5198 0
5198 5199 0
-5198 -5199 0
5199 5200 0
-5199 -5200 0
5197 5200 -5201 0
5197 -5200 5201 0
-5197 5200 5201 0
-5197 -5200 -5201 0
4972 4283 5202 0
4972 -4283 -5202 0
-4972 4283 -5202 0
-4972 -4283 -5202 0
5202 5203 0
-5202 -5203 0
5203 5204 0
-5203 -5204 0
5027 4300 5205 0
5027 -4300 -5205 0
-5027 4300 -5205 0
-5027 -4300 -5205 0
5205 5206 0
-5205 -5206 0
5206 5207 0
-5206 -5207 0
5204 5207 -5208 0
5204 -5207 5208 0
-5204 5207 5208 0
-5204 -5207 -5208 0
4972 4213 5209 0
4972 -4213 -5209 0
-4972 4213 -5209 0
-4972 -4213 -5209 0
5209 5210 0
-5209 -5210 0
5210 5211 0
-5210 -5211 0
5027 4232 5212 0
5027 -4232 -5212 0
-5027 4232 -5212 0
-5027 -4232 -5212 0
5212 5213 0
-5212 -5213 0
5213 5214 0
-5213 -5214 0
5211 5214 -5215 0
5211 -5214 5215 0
-5211 5214 5215 0
-5211 -5214 -5215 0
5091 1752 5216 0
5091 -1752 -5216 0
-5091 1752 -5216 0
-5091 -1752 -5216 0
5216 5217 0
-5216 -5217 0
5217 5218 0
-5217 -5218 0
5154 1777 5219 0
5154 -1777 -5219 0
-5154 1777 -5219 0
-5154 -1777 -5219 0
5219 5220 0
-5219 -5220 0
5220 5221 0
-5220 -5221 0
5218 5221 -5222 0
5218 -5221 5222 0
-5218 5221 5222 0
-5218 -5221 -5222 0
1798 5091 5223 0
1798 -5091 -5223 0
-1798 5091 -5223 0
-1798 -5091 -5223 0
5223 5224 0
-5223 -5224 0
5224 5225 0
-5224 -5225 0
1818 5154 5226 0
1818 -5154 -5226 0
-1818 5154 -5226 0
-1818 -5154 -5226 0
5226 5227 0
-5226 -5227 0
5227 5228 0
-5227 -5228 0
5225 5228 -5229 0
5225 -5228 5229 0
-5225 5228 5229 0
-5225 -5228 -5229 0
5091 4427 5230 0
5091 -4427 -5230 0
-5091 4427 -5230 0
-5091 -4427 -5230 0
5230 5231 0
-5230 -5231 0
5231 5232 0
-5231 -5232 0
5154 4449 5233 0
5154 -4449 -5233 0
-5154 4449 -5233 0
-5154 -4449 -5233 0
5233 5234 0
-5233 -5234 0
5234 5235 0
-5234 -5235 0
5232 5235 -5236 0
5232 -5235 5236 0
-5232 5235 5236 0
-5232 -5235 -5236 0
1699 5091 5237 0
1699 -5091 -5237 0
-1699 5091 -5237 0
-1699 -5091 -5237 0
5237 5238 0
-5237 -5238 0
5238 5239 0
-5238 -5239 0
1726 5154 5240 0
1726 -5154 -5240 0
-1726 5154 -5240 0
-1726 -5154 -5240 0
5240 5241 0
-5240 -5241 0
5241 5242 0
-5241 -5242 0
5239 5242 -5243 0
5239 -5242 5243 0
-5239 5242 5243 0
-5239 -5242 -5243 0
4471 5091 5244 0
4471 -5091 -5244 0
-4471 5091 -5244 0
-4471 -5091 -5244 0
5244 5245 0
-5244 -5245 0
5245 5246 0
-5245 -5246 0
4492 5154 5247 0
4492 -5154 -5247 0
-4492 5154 -5247 0
-4492 -5154 -5247 0
5247 5248 0
-5247 -5248 0
5248 5249 0
-5248 -5249 0
5246 5249 -5250 0
5246 -5249 5250 0
-5246 5249 5250 0
-5246 -5249 -5250 0
4136 5251 0
-4136 -5251 0
4101 5252 0
-4101 -5252 0
5251 5252 -5253 0
5251 -5252 5253 0
-5251 5252 5253 0
-5251 -5252 5253 0
5253 5254 0
-5253 -5254 0
345 5255 0
-345 -5255 0
5254 5255 5256 0
5254 -5255 -5256 0
-5254 5255 -5256 0
-5254 -5255 -5256 0
345 5257 0
-345 -5257 0
5257 5258 0
-5257 -5258 0
5258 5253 5259 0
5258 -5253 -5259 0
-5258 5253 -5259 0
-5258 -5253 -5259 0
5256 5259 -5260 0
5256 -5259 5260 0
-5256 5259 5260 0
-5256 -5259 5260 0
4970 5260 5261 0
4970 -5260 -5261 0
-4970 5260 -5261 0
-4970 -5260 -5261 0
5261 5262 0
-5261 -5262 0
5262 5263 0
-5262 -5263 0
5263 5264 0
-5263 -5264 0
4152 5265 0
-4152 -5265 0
4120 5266 0
-4120 -5266 0
5265 5266 -5267 0
5265 -5266 5267 0
-5265 5266 5267 0
-5265 -5266 5267 0
5267 5268 0
-5267 -5268 0
345 5269 0
-345 -5269 0
5268 5269 5270 0
5268 -5269 -5270 0
-5268 5269 -5270 0
-5268 -5269 -5270 0
345 5271 0
-345 -5271 0
5271 5272 0
-5271 -5272 0
5272 5267 5273 0
5272 -5267 -5273 0
-5272 5267 -5273 0
-5272 -5267 -5273 0
5270 5273 -5274 0
5270 -5273 5274 0
-5270 5273 5274 0
-5270 -5273 5274 0
5025 5274 5275 0
5025 -5274 -5275 0
-5025 5274 -5275 0
-5025 -5274 -5275 0
5275 5276 0
-5275 -5276 0
5276 5277 0
-5276 -5277 0
5277 5278 0
-5277 -5278 0
5264 5278 -5279 0
5264 -5278 5279 0
-5264 5278 5279 0
-5264 -5278 -5279 0
4176 4970 5280 0
4176 -4970 -5280 0
-4176 4970 -5280 0
-4176 -4970 -5280 0
5280 5281 0
-5280 -5281 0
5281 5282 0
-5281 -5282 0
4193 5025 5283 0
4193 -5025 -5283 0
-4193 5025 -5283 0
-4193 -5025 -5283 0
5283 5284 0
-5283 -5284 0
5284 5285 0
-5284 -5285 0
5282 5285 -5286 0
5282 -5285 5286 0
-5282 5285 5286 0
-5282 -5285 -5286 0
4106 4970 5287 0
4106 -4970 -5287 0
-4106 4970 -5287 0
-4106 -4970 -5287 0
5287 5288 0
-5287 -5288 0
5288 5289 0
-5288 -5289 0
4125 5025 5290 0
4125 -5025 -5290 0
-4125 5025 -5290 0
-4125 -5025 -5290 0
5290 5291 0
-5290 -5291 0
5291 5292 0
-5291 -5292 0
5289 5292 -5293 0
5289 -5292 5293 0
-5289 5292 5293 0
-5289 -5292 -5293 0
4142 4970 5294 0
4142 -4970 -5294 0
-4142 4970 -5294 0
-4142 -4970 -5294 0
5294 5295 0
-5294 -5295 0
5295 5296 0
-5295 -5296 0
4158 5025 5297 0
4158 -5025 -5297 0
-4158 5025 -5297 0
-4158 -5025 -5297 0
5297 5298 0
-5297 -5298 0
5298 5299 0
-5298 -5299 0
5296 5299 -5300 0
5296 -5299 5300 0
-5296 5299 5300 0
-5296 -5299 -5300 0
327 5301 0
-327 -5301 0
328 5302 0
-328 -5302 0
325 5303 0
-325 -5303 0
316 5304 0
-316 -5304 0
273 5305 0
-273 -5305 0
5305 5306 0
-5305 -5306 0
5306 5307 0
-5306 -5307 0
5307 5308 0
-5307 -5308 0
5303 5304 5308 -5309 0
5303 5304 -5308 5309 0
5303 -5304 5308 5309 0
5303 -5304 -5308 5309 0
-5303 5304 5308 5309 0
-5303 5304 -5308 5309 0
-5303 -5304 5308 5309 0
-5303 -5304 -5308 5309 0
5301 5302 5309 -5310 0
5301 5302 -5309 5310 0
5301 -5302 5309 5310 0
5301 -5302 -5309 5310 0
-5301 5302 5309 5310 0
-5301 5302 -5309 5310 0
-5301 -5302 5309 5310 0
-5301 -5302 -5309 5310 0
5310 5311 0
-5310 -5311 0
5311 5312 0
-5311 -5312 0
318 5313 0
-318 -5313 0
5313 5314 0
-5313 -5314 0
5314 5315 0
-5314 -5315 0
317 5316 0
-317 -5316 0
310 5317 0
-310 -5317 0
5315 5316 5317 5318 0
5315 5316 -5317 -5318 0
5315 -5316 5317 -5318 0
5315 -5316 -5317 -5318 0
-5315 5316 5317 -5318 0
-5315 5316 -5317 -5318 0
-5315 -5316 5317 -5318 0
-5315 -5316 -5317 -5318 0
5318 5319 0
-5318 -5319 0
5312 5319 -5320 0
5312 -5319 5320 0
-5312 5319 5320 0
-5312 -5319 5320 0
327 5321 0
-327 -5321 0
328 5322 0
-328 -5322 0
325 5323 0
-325 -5323 0
316 5324 0
-316 -5324 0
273 5325 0
-273 -5325 0
5325 5326 0
-5325 -5326 0
5326 5327 0
-5326 -5327 0
5327 5328 0
-5327 -5328 0
5323 5324 5328 -5329 0
5323 5324 -5328 5329 0
5323 -5324 5328 5329 0
5323 -5324 -5328 5329 0
-5323 5324 5328 5329 0
-5323 5324 -5328 5329 0
-5323 -5324 5328 5329 0
-5323 -5324 -5328 5329 0
5321 5322 5329 -5330 0
5321 5322 -5329 5330 0
5321 -5322 5329 5330 0
5321 -5322 -5329 5330 0
-5321 5322 5329 5330 0
-5321 5322 -5329 5330 0
-5321 -5322 5329 5330 0
-5321 -5322 -5329 5330 0
5330 5331 0
-5330 -5331 0
5331 5332 0
-5331 -5332 0
318 5333 0
-318 -5333 0
5333 5334 0
-5333 -5334 0
5334 5335 0
-5334 -5335 0
317 5336 0
-317 -5336 0
310 5337 0
-310 -5337 0
5335 5336 5337 5338 0
5335 5336 -5337 -5338 0
5335 -5336 5337 -5338 0
5335 -5336 -5337 -5338 0
-5335 5336 5337 -5338 0
-5335 5336 -5337 -5338 0
-5335 -5336 5337 -5338 0
-5335 -5336 -5337 -5338 0
5338 5339 0
-5338 -5339 0
5332 5339 -5340 0
5332 -5339 5340 0
-5332 5339 5340 0
-5332 -5339 5340 0
5320 5340 -5341 0
5320 -5340 5341 0
-5320 5340 5341 0
-5320 -5340 -5341 0
3970 3983 -5342 0
3970 -3983 5342 0
-3970 3983 5342 0
-3970 -3983 -5342 0
2344 5343 0
-2344 -5343 0
2344 5344 0
-2344 -5344 0
5344 5345 0
-5344 -5345 0
5343 5345 -5346 0
5343 -5345 5346 0
-5343 5345 5346 0
-5343 -5345 5346 0
2708 5347 0
-2708 -5347 0
2708 5348 0
-2708 -5348 0
5348 5349 0
-5348 -5349 0
5347 5349 -5350 0
5347 -5349 5350 0
-5347 5349 5350 0
-5347 -5349 5350 0
5346 5350 -5351 0
5346 -5350 5351 0
-5346 5350 5351 0
-5346 -5350 -5351 0
351 5352 0
-351 -5352 0
5352 5353 0
-5352 -5353 0
4950 5354 0
-4950 -5354 0
4136 4173 4097 5355 0
4136 4173 -4097 -5355 0
4136 -4173 4097 -5355 0
4136 -4173 -4097 -5355 0
-4136 4173 4097 -5355 0
-4136 4173 -4097 -5355 0
-4136 -4173 4097 -5355 0
-4136 -4173 -4097 -5355 0
5355 5356 0
-5355 -5356 0
5088 5353 5354 5356 5357 0
5088 5353 5354 -5356 -5357 0
5088 5353 -5354 5356 -5357 0
5088 5353 -5354 -5356 -5357 0
5088 -5353 5354 5356 -5357 0
5088 -5353 5354 -5356 -5357 0
5088 -5353 -5354 5356 -5357 0
5088 -5353 -5354 -5356 -5357 0
-5088 5353 5354 5356 -5357 0
-5088 5353 5354 -5356 -5357 0
-5088 5353 -5354 5356 -5357 0
-5088 5353 -5354 -5356 -5357 0
-5088 -5353 5354 5356 -5357 0
-5088 -5353 5354 -5356 -5357 0
-5088 -5353 -5354 5356 -5357 0
-5088 -5353 -5354 -5356 -5357 0
350 5358 0
-350 -5358 0
5358 5359 0
-5358 -5359 0
5088 5354 5359 5360 0
5088 5354 -5359 -5360 0
5088 -5354 5359 -5360 0
5088 -5354 -5359 -5360 0
-5088 5354 5359 -5360 0
-5088 5354 -5359 -5360 0
-5088 -5354 5359 -5360 0
-5088 -5354 -5359 -5360 0
5357 5360 -5361 0
5357 -5360 5361 0
-5357 5360 5361 0
-5357 -5360 5361 0
351 5362 0
-351 -5362 0
5362 5363 0
-5362 -5363 0
5005 5364 0
-5005 -5364 0
4152 4190 4116 5365 0
4152 4190 -4116 -5365 0
4152 -4190 4116 -5365 0
4152 -4190 -4116 -5365 0
-4152 4190 4116 -5365 0
-4152 4190 -4116 -5365 0
-4152 -4190 4116 -5365 0
-4152 -4190 -4116 -5365 0
5365 5366 0
-5365 -5366 0
5151 5363 5364 5366 5367 0
5151 5363 5364 -5366 -5367 0
5151 5363 -5364 5366 -5367 0
5151 5363 -5364 -5366 -5367 0
5151 -5363 5364 5366 -5367 0
5151 -5363 5364 -5366 -5367 0
5151 -5363 -5364 5366 -5367 0
5151 -5363 -5364 -5366 -5367 0
-5151 5363 5364 5366 -5367 0
-5151 5363 5364 -5366 -5367 0
-5151 5363 -5364 5366 -5367 0
-5151 5363 -5364 -5366 -5367 0
-5151 -5363 5364 5366 -5367 0
-5151 -5363 5364 -5366 -5367 0
-5151 -5363 -5364 5366 -5367 0
-5151 -5363 -5364 -5366 -5367 0
350 5368 0
-350 -5368 0
5368 5369 0
-5368 -5369 0
5151 5364 5369 5370 0
5151 5364 -5369 -5370 0
5151 -5364 5369 -5370 0
5151 -5364 -5369 -5370 0
-5151 5364 5369 -5370 0
-5151 5364 -5369 -5370 0
-5151 -5364 5369 -5370 0
-5151 -5364 -5369 -5370 0
5367 5370 -5371 0
5367 -5370 5371 0
-5367 5370 5371 0
-5367 -5370 5371 0
5361 5371 -5372 0
5361 -5371 5372 0
-5361 5371 5372 0
-5361 -5371 -5372 0
3943 3956 -5373 0
3943 -3956 5373 0
-3943 3956 5373 0
-3943 -3956 -5373 0
700 704 702 5374 0
700 704 -702 -5374 0
700 -704 702 -5374 0
700 -704 -702 -5374 0
-700 704 702 -5374 0
-700 704 -702 -5374 0
-700 -704 702 -5374 0
-700 -704 -702 -5374 0
5374 5375 0
-5374 -5375 0
5375 685 5376 0
5375 -685 -5376 0
-5375 685 -5376 0
-5375 -685 -5376 0
1682 665 673 5377 0
1682 665 -673 -5377 0
1682 -665 673 -5377 0
1682 -665 -673 -5377 0
-1682 665 673 -5377 0
-1682 665 -673 -5377 0
-1682 -665 673 -5377 0
-1682 -665 -673 -5377 0
5377 5378 0
-5377 -5378 0
679 5378 5379 0
679 -5378 -5379 0
-679 5378 -5379 0
-679 -5378 -5379 0
5376 5379 5380 0
5376 -5379 -5380 0
-5376 5379 -5380 0
-5376 -5379 -5380 0
5380 4895 5381 0
5380 -4895 -5381 0
-5380 4895 -5381 0
-5380 -4895 -5381 0
2777 2782 2788 5382 0
2777 2782 -2788 -5382 0
2777 -2782 2788 -5382 0
2777 -2782 -2788 -5382 0
-2777 2782 2788 -5382 0
-2777 2782 -2788 -5382 0
-2777 -2782 2788 -5382 0
-2777 -2782 -2788 -5382 0
5382 5383 0
-5382 -5383 0
2813 5384 0
-2813 -5384 0
5383 3132 5384 5385 0
5383 3132 -5384 -5385 0
5383 -3132 5384 -5385 0
5383 -3132 -5384 -5385 0
-5383 3132 5384 -5385 0
-5383 3132 -5384 -5385 0
-5383 -3132 5384 -5385 0
-5383 -3132 -5384 -5385 0
5385 5386 0
-5385 -5386 0
354 5387 0
-354 -5387 0
5387 5388 0
-5387 -5388 0
5386 5388 5389 0
5386 -5388 -5389 0
-5386 5388 -5389 0
-5386 -5388 -5389 0
2772 2768 2788 5390 0
2772 2768 -2788 -5390 0
2772 -2768 2788 -5390 0
2772 -2768 -2788 -5390 0
-2772 2768 2788 -5390 0
-2772 2768 -2788 -5390 0
-2772 -2768 2788 -5390 0
-2772 -2768 -2788 -5390 0
5390 5391 0
-5390 -5391 0
5391 3131 3132 5392 0
5391 3131 -3132 -5392 0
5391 -3131 3132 -5392 0
5391 -3131 -3132 -5392 0
-5391 3131 3132 -5392 0
-5391 3131 -3132 -5392 0
-5391 -3131 3132 -5392 0
-5391 -3131 -3132 -5392 0
5392 5393 0
-5392 -5393 0
354 5394 0
-354 -5394 0
5393 5394 5395 0
5393 -5394 -5395 0
-5393 5394 -5395 0
-5393 -5394 -5395 0
5389 5395 5396 0
5389 -5395 -5396 0
-5389 5395 -5396 0
-5389 -5395 -5396 0
3138 5396 3028 -5397 0
3138 5396 -3028 5397 0
3138 -5396 3028 5397 0
3138 -5396 -3028 5397 0
-3138 5396 3028 5397 0
-3138 5396 -3028 5397 0
-3138 -5396 3028 5397 0
-3138 -5396 -3028 5397 0
2910 2047 5397 -5398 0
2910 2047 -5397 5398 0
2910 -2047 5397 5398 0
2910 -2047 -5397 5398 0
-2910 2047 5397 5398 0
-2910 2047 -5397 5398 0
-2910 -2047 5397 5398 0
-2910 -2047 -5397 5398 0
5398 5399 0
-5398 -5399 0
5399 5400 0
-5399 -5400 0
5400 5401 0
-5400 -5401 0
5381 5401 -5402 0
5381 -5401 5402 0
-5381 5401 5402 0
-5381 -5401 5402 0
772 776 774 5403 0
772 776 -774 -5403 0
772 -776 774 -5403 0
772 -776 -774 -5403 0
-772 776 774 -5403 0
-772 776 -774 -5403 0
-772 -776 774 -5403 0
-772 -776 -774 -5403 0
5403 5404 0
-5403 -5404 0
5404 757 5405 0
5404 -757 -5405 0
-5404 757 -5405 0
-5404 -757 -5405 0
1709 737 745 5406 0
1709 737 -745 -5406 0
1709 -737 745 -5406 0
1709 -737 -745 -5406 0
-1709 737 745 -5406 0
-1709 737 -745 -5406 0
-1709 -737 745 -5406 0
-1709 -737 -745 -5406 0
5406 5407 0
-5406 -5407 0
751 5407 5408 0
751 -5407 -5408 0
-751 5407 -5408 0
-751 -5407 -5408 0
5405 5408 5409 0
5405 -5408 -5409 0
-5405 5408 -5409 0
-5405 -5408 -5409 0
5409 4909 5410 0
5409 -4909 -5410 0
-5409 4909 -5410 0
-5409 -4909 -5410 0
3156 -429 3091 -5411 0
3156 -429 -3091 5411 0
3156 429 3091 5411 0
3156 429 -3091 5411 0
-3156 -429 3091 5411 0
-3156 -429 -3091 5411 0
-3156 429 3091 5411 0
-3156 429 -3091 5411 0
2943 2411 5411 -5412 0
2943 2411 -5411 5412 0
2943 -2411 5411 5412 0
2943 -2411 -5411 5412 0
-2943 2411 5411 5412 0
-2943 2411 -5411 5412 0
-2943 -2411 5411 5412 0
-2943 -2411 -5411 5412 0
5412 5413 0
-5412 -5413 0
5413 5414 0
-5413 -5414 0
5414 5415 0
-5414 -5415 0
5410 5415 -5416 0
5410 -5415 5416 0
-5410 5415 5416 0
-5410 -5415 5416 0
5402 5416 -5417 0
5402 -5416 5417 0
-5402 5416 5417 0
-5402 -5416 -5417 0
689 5418 0
-689 -5418 0
287 5419 0
-287 -5419 0
5419 5420 0
-5419 -5420 0
5420 5421 0
-5420 -5421 0
5418 5421 5422 0
5418 -5421 -5422 0
-5418 5421 -5422 0
-5418 -5421 -5422 0
662 5423 0
-662 -5423 0
4895 5423 5424 0
4895 -5423 -5424 0
-4895 5423 -5424 0
-4895 -5423 -5424 0
5422 5424 -5425 0
5422 -5424 5425 0
-5422 5424 5425 0
-5422 -5424 5425 0
761 5426 0
-761 -5426 0
287 5427 0
-287 -5427 0
5427 5428 0
-5427 -5428 0
5428 5429 0
-5428 -5429 0
5426 5429 5430 0
5426 -5429 -5430 0
-5426 5429 -5430 0
-5426 -5429 -5430 0
734 5431 0
-734 -5431 0
4909 5431 5432 0
4909 -5431 -5432 0
-4909 5431 -5432 0
-4909 -5431 -5432 0
5430 5432 -5433 0
5430 -5432 5433 0
-5430 5432 5433 0
-5430 -5432 5433 0
5425 5433 -5434 0
5425 -5433 5434 0
-5425 5433 5434 0
-5425 -5433 -5434 0
288 5435 0
-288 -5435 0
5435 5436 0
-5435 -5436 0
5436 5437 0
-5436 -5437 0
5418 5437 5438 0
5418 -5437 -5438 0
-5418 5437 -5438 0
-5418 -5437 -5438 0
5423 4580 5439 0
5423 -4580 -5439 0
-5423 4580 -5439 0
-5423 -4580 -5439 0
5438 5439 -5440 0
5438 -5439 5440 0
-5438 5439 5440 0
-5438 -5439 5440 0
288 5441 0
-288 -5441 0
5441 5442 0
-5441 -5442 0
5442 5443 0
-5442 -5443 0
5426 5443 5444 0
5426 -5443 -5444 0
-5426 5443 -5444 0
-5426 -5443 -5444 0
5431 4592 5445 0
5431 -4592 -5445 0
-5431 4592 -5445 0
-5431 -4592 -5445 0
5444 5445 -5446 0
5444 -5445 5446 0
-5444 5445 5446 0
-5444 -5445 5446 0
5440 5446 -5447 0
5440 -5446 5447 0
-5440 5446 5447 0
-5440 -5446 -5447 0
5423 4613 5448 0
5423 -4613 -5448 0
-5423 4613 -5448 0
-5423 -4613 -5448 0
4749 5418 5449 0
4749 -5418 -5449 0
-4749 5418 -5449 0
-4749 -5418 -5449 0
5448 5449 -5450 0
5448 -5449 5450 0
-5448 5449 5450 0
-5448 -5449 5450 0
5431 4633 5451 0
5431 -4633 -5451 0
-5431 4633 -5451 0
-5431 -4633 -5451 0
4770 5426 5452 0
4770 -5426 -5452 0
-4770 5426 -5452 0
-4770 -5426 -5452 0
5451 5452 -5453 0
5451 -5452 5453 0
-5451 5452 5453 0
-5451 -5452 5453 0
5450 5453 -5454 0
5450 -5453 5454 0
-5450 5453 5454 0
-5450 -5453 -5454 0
4725 5423 5455 0
4725 -5423 -5455 0
-4725 5423 -5455 0
-4725 -5423 -5455 0
5418 4716 5456 0
5418 -4716 -5456 0
-5418 4716 -5456 0
-5418 -4716 -5456 0
5455 5456 -5457 0
5455 -5456 5457 0
-5455 5456 5457 0
-5455 -5456 5457 0
4741 5431 5458 0
4741 -5431 -5458 0
-4741 5431 -5458 0
-4741 -5431 -5458 0
5426 4732 5459 0
5426 -4732 -5459 0
-5426 4732 -5459 0
-5426 -4732 -5459 0
5458 5459 -5460 0
5458 -5459 5460 0
-5458 5459 5460 0
-5458 -5459 5460 0
5457 5460 -5461 0
5457 -5460 5461 0
-5457 5460 5461 0
-5457 -5460 -5461 0
4668 4895 5462 0
4668 -4895 -5462 0
-4668 4895 -5462 0
-4668 -4895 -5462 0
5421 4639 5463 0
5421 -4639 -5463 0
-5421 4639 -5463 0
-5421 -4639 -5463 0
5462 5463 -5464 0
5462 -5463 5464 0
-5462 5463 5464 0
-5462 -5463 5464 0
4705 4909 5465 0
4705 -4909 -5465 0
-4705 4909 -5465 0
-4705 -4909 -5465 0
5429 4676 5466 0
5429 -4676 -5466 0
-5429 4676 -5466 0
-5429 -4676 -5466 0
5465 5466 -5467 0
5465 -5466 5467 0
-5465 5466 5467 0
-5465 -5466 5467 0
5464 5467 -5468 0
5464 -5467 5468 0
-5464 5467 5468 0
-5464 -5467 -5468 0
5380 4580 5469 0
5380 -4580 -5469 0
-5380 4580 -5469 0
-5380 -4580 -5469 0
5400 5470 0
-5400 -5470 0
5469 5470 -5471 0
5469 -5470 5471 0
-5469 5470 5471 0
-5469 -5470 5471 0
5409 4592 5472 0
5409 -4592 -5472 0
-5409 4592 -5472 0
-5409 -4592 -5472 0
5414 5473 0
-5414 -5473 0
5472 5473 -5474 0
5472 -5473 5474 0
-5472 5473 5474 0
-5472 -5473 5474 0
5471 5474 -5475 0
5471 -5474 5475 0
-5471 5474 5475 0
-5471 -5474 -5475 0
5380 4531 5476 0
5380 -4531 -5476 0
-5380 4531 -5476 0
-5380 -4531 -5476 0
5400 5477 0
-5400 -5477 0
5476 5477 -5478 0
5476 -5477 5478 0
-5476 5477 5478 0
-5476 -5477 5478 0
5409 4567 5479 0
5409 -4567 -5479 0
-5409 4567 -5479 0
-5409 -4567 -5479 0
5414 5480 0
-5414 -5480 0
5479 5480 -5481 0
5479 -5480 5481 0
-5479 5480 5481 0
-5479 -5480 5481 0
5478 5481 -5482 0
5478 -5481 5482 0
-5478 5481 5482 0
-5478 -5481 -5482 0
690 5399 5483 0
690 -5399 -5483 0
-690 5399 -5483 0
-690 -5399 -5483 0
5483 5484 0
-5483 -5484 0
5437 5484 5485 0
5437 -5484 -5485 0
-5437 5484 -5485 0
-5437 -5484 -5485 0
5399 663 5486 0
5399 -663 -5486 0
-5399 663 -5486 0
-5399 -663 -5486 0
5486 5487 0
-5486 -5487 0
4580 5487 5488 0
4580 -5487 -5488 0
-4580 5487 -5488 0
-4580 -5487 -5488 0
5399 5489 0
-5399 -5489 0
5489 5490 0
-5489 -5490 0
5485 5488 5490 -5491 0
5485 5488 -5490 5491 0
5485 -5488 5490 5491 0
5485 -5488 -5490 5491 0
-5485 5488 5490 5491 0
-5485 5488 -5490 5491 0
-5485 -5488 5490 5491 0
-5485 -5488 -5490 5491 0
762 5413 5492 0
762 -5413 -5492 0
-762 5413 -5492 0
-762 -5413 -5492 0
5492 5493 0
-5492 -5493 0
5443 5493 5494 0
5443 -5493 -5494 0
-5443 5493 -5494 0
-5443 -5493 -5494 0
5413 735 5495 0
5413 -735 -5495 0
-5413 735 -5495 0
-5413 -735 -5495 0
5495 5496 0
-5495 -5496 0
4592 5496 5497 0
4592 -5496 -5497 0
-4592 5496 -5497 0
-4592 -5496 -5497 0
5413 5498 0
-5413 -5498 0
5498 5499 0
-5498 -5499 0
5494 5497 5499 -5500 0
5494 5497 -5499 5500 0
5494 -5497 5499 5500 0
5494 -5497 -5499 5500 0
-5494 5497 5499 5500 0
-5494 5497 -5499 5500 0
-5494 -5497 5499 5500 0
-5494 -5497 -5499 5500 0
5491 5500 -5501 0
5491 -5500 5501 0
-5491 5500 5501 0
-5491 -5500 -5501 0
5423 4531 5502 0
5423 -4531 -5502 0
-5423 4531 -5502 0
-5423 -4531 -5502 0
289 5503 0
-289 -5503 0
5503 5504 0
-5503 -5504 0
5504 5505 0
-5504 -5505 0
5418 5505 5506 0
5418 -5505 -5506 0
-5418 5505 -5506 0
-5418 -5505 -5506 0
5502 5506 -5507 0
5502 -5506 5507 0
-5502 5506 5507 0
-5502 -5506 5507 0
5431 4567 5508 0
5431 -4567 -5508 0
-5431 4567 -5508 0
-5431 -4567 -5508 0
289 5509 0
-289 -5509 0
5509 5510 0
-5509 -5510 0
5510 5511 0
-5510 -5511 0
5426 5511 5512 0
5426 -5511 -5512 0
-5426 5511 -5512 0
-5426 -5511 -5512 0
5508 5512 -5513 0
5508 -5512 5513 0
-5508 5512 5513 0
-5508 -5512 5513 0
5507 5513 -5514 0
5507 -5513 5514 0
-5507 5513 5514 0
-5507 -5513 -5514 0
4668 4531 5515 0
4668 -4531 -5515 0
-4668 4531 -5515 0
-4668 -4531 -5515 0
5505 4639 5516 0
5505 -4639 -5516 0
-5505 4639 -5516 0
-5505 -4639 -5516 0
5515 5516 -5517 0
5515 -5516 5517 0
-5515 5516 5517 0
-5515 -5516 5517 0
4705 4567 5518 0
4705 -4567 -5518 0
-4705 4567 -5518 0
-4705 -4567 -5518 0
5511 4676 5519 0
5511 -4676 -5519 0
-5511 4676 -5519 0
-5511 -4676 -5519 0
5518 5519 -5520 0
5518 -5519 5520 0
-5518 5519 5520 0
-5518 -5519 5520 0
5517 5520 -5521 0
5517 -5520 5521 0
-5517 5520 5521 0
-5517 -5520 -5521 0
5400 5522 0
-5400 -5522 0
4725 5380 5523 0
4725 -5380 -5523 0
-4725 5380 -5523 0
-4725 -5380 -5523 0
5522 5523 -5524 0
5522 -5523 5524 0
-5522 5523 5524 0
-5522 -5523 5524 0
5414 5525 0
-5414 -5525 0
4741 5409 5526 0
4741 -5409 -5526 0
-4741 5409 -5526 0
-4741 -5409 -5526 0
5525 5526 -5527 0
5525 -5526 5527 0
-5525 5526 5527 0
-5525 -5526 5527 0
5524 5527 -5528 0
5524 -5527 5528 0
-5524 5527 5528 0
-5524 -5527 -5528 0
5400 5529 0
-5400 -5529 0
5380 4873 5530 0
5380 -4873 -5530 0
-5380 4873 -5530 0
-5380 -4873 -5530 0
5529 5530 -5531 0
5529 -5530 5531 0
-5529 5530 5531 0
-5529 -5530 5531 0
5414 5532 0
-5414 -5532 0
5409 4887 5533 0
5409 -4887 -5533 0
-5409 4887 -5533 0
-5409 -4887 -5533 0
5532 5533 -5534 0
5532 -5533 5534 0
-5532 5533 5534 0
-5532 -5533 5534 0
5531 5534 -5535 0
5531 -5534 5535 0
-5531 5534 5535 0
-5531 -5534 -5535 0
4829 5380 5536 0
4829 -5380 -5536 0
-4829 5380 -5536 0
-4829 -5380 -5536 0
5400 5537 0
-5400 -5537 0
5536 5537 -5538 0
5536 -5537 5538 0
-5536 5537 5538 0
-5536 -5537 5538 0
4847 5409 5539 0
4847 -5409 -5539 0
-4847 5409 -5539 0
-4847 -5409 -5539 0
5414 5540 0
-5414 -5540 0
5539 5540 -5541 0
5539 -5540 5541 0
-5539 5540 5541 0
-5539 -5540 5541 0
5538 5541 -5542 0
5538 -5541 5542 0
-5538 5541 5542 0
-5538 -5541 -5542 0
4671 5380 5543 0
4671 -5380 -5543 0
-4671 5380 -5543 0
-4671 -5380 -5543 0
5400 5544 0
-5400 -5544 0
5543 5544 -5545 0
5543 -5544 5545 0
-5543 5544 5545 0
-5543 -5544 5545 0
4708 5409 5546 0
4708 -5409 -5546 0
-4708 5409 -5546 0
-4708 -5409 -5546 0
5414 5547 0
-5414 -5547 0
5546 5547 -5548 0
5546 -5547 5548 0
-5546 5547 5548 0
-5546 -5547 5548 0
5545 5548 -5549 0
5545 -5548 5549 0
-5545 5548 5549 0
-5545 -5548 -5549 0
4613 5380 5550 0
4613 -5380 -5550 0
-4613 5380 -5550 0
-4613 -5380 -5550 0
5400 5551 0
-5400 -5551 0
5550 5551 -5552 0
5550 -5551 5552 0
-5550 5551 5552 0
-5550 -5551 5552 0
4633 5409 5553 0
4633 -5409 -5553 0
-4633 5409 -5553 0
-4633 -5409 -5553 0
5414 5554 0
-5414 -5554 0
5553 5554 -5555 0
5553 -5554 5555 0
-5553 5554 5555 0
-5553 -5554 5555 0
5552 5555 -5556 0
5552 -5555 5556 0
-5552 5555 5556 0
-5552 -5555 -5556 0
5380 4803 5557 0
5380 -4803 -5557 0
-5380 4803 -5557 0
-5380 -4803 -5557 0
5400 5558 0
-5400 -5558 0
5557 5558 -5559 0
5557 -5558 5559 0
-5557 5558 5559 0
-5557 -5558 5559 0
5409 4821 5560 0
5409 -4821 -5560 0
-5409 4821 -5560 0
-5409 -4821 -5560 0
5414 5561 0
-5414 -5561 0
5560 5561 -5562 0
5560 -5561 5562 0
-5560 5561 5562 0
-5560 -5561 5562 0
5559 5562 -5563 0
5559 -5562 5563 0
-5559 5562 5563 0
-5559 -5562 -5563 0
4639 5437 5564 0
4639 -5437 -5564 0
-4639 5437 -5564 0
-4639 -5437 -5564 0
4668 4580 5565 0
4668 -4580 -5565 0
-4668 4580 -5565 0
-4668 -4580 -5565 0
5564 5565 -5566 0
5564 -5565 5566 0
-5564 5565 5566 0
-5564 -5565 5566 0
4676 5443 5567 0
4676 -5443 -5567 0
-4676 5443 -5567 0
-4676 -5443 -5567 0
4705 4592 5568 0
4705 -4592 -5568 0
-4705 4592 -5568 0
-4705 -4592 -5568 0
5567 5568 -5569 0
5567 -5568 5569 0
-5567 5568 5569 0
-5567 -5568 5569 0
5566 5569 -5570 0
5566 -5569 5570 0
-5566 5569 5570 0
-5566 -5569 -5570 0
4749 5484 5571 0
4749 -5484 -5571 0
-4749 5484 -5571 0
-4749 -5484 -5571 0
5489 5572 0
-5489 -5572 0
4613 5487 5573 0
4613 -5487 -5573 0
-4613 5487 -5573 0
-4613 -5487 -5573 0
5571 5572 5573 -5574 0
5571 5572 -5573 5574 0
5571 -5572 5573 5574 0
5571 -5572 -5573 5574 0
-5571 5572 5573 5574 0
-5571 5572 -5573 5574 0
-5571 -5572 5573 5574 0
-5571 -5572 -5573 5574 0
4770 5493 5575 0
4770 -5493 -5575 0
-4770 5493 -5575 0
-4770 -5493 -5575 0
5498 5576 0
-5498 -5576 0
4633 5496 5577 0
4633 -5496 -5577 0
-4633 5496 -5577 0
-4633 -5496 -5577 0
5575 5576 5577 -5578 0
5575 5576 -5577 5578 0
5575 -5576 5577 5578 0
5575 -5576 -5577 5578 0
-5575 5576 5577 5578 0
-5575 5576 -5577 5578 0
-5575 -5576 5577 5578 0
-5575 -5576 -5577 5578 0
5574 5578 -5579 0
5574 -5578 5579 0
-5574 5578 5579 0
-5574 -5578 -5579 0
5487 4895 5580 0
5487 -4895 -5580 0
-5487 4895 -5580 0
-5487 -4895 -5580 0
5484 5421 5581 0
5484 -5421 -5581 0
-5484 5421 -5581 0
-5484 -5421 -5581 0
5489 5582 0
-5489 -5582 0
5580 5581 5582 -5583 0
5580 5581 -5582 5583 0
5580 -5581 5582 5583 0
5580 -5581 -5582 5583 0
-5580 5581 5582 5583 0
-5580 5581 -5582 5583 0
-5580 -5581 5582 5583 0
-5580 -5581 -5582 5583 0
5496 4909 5584 0
5496 -4909 -5584 0
-5496 4909 -5584 0
-5496 -4909 -5584 0
5493 5429 5585 0
5493 -5429 -5585 0
-5493 5429 -5585 0
-5493 -5429 -5585 0
5498 5586 0
-5498 -5586 0
5584 5585 5586 -5587 0
5584 5585 -5586 5587 0
5584 -5585 5586 5587 0
5584 -5585 -5586 5587 0
-5584 5585 5586 5587 0
-5584 5585 -5586 5587 0
-5584 -5585 5586 5587 0
-5584 -5585 -5586 5587 0
5583 5587 -5588 0
5583 -5587 5588 0
-5583 5587 5588 0
-5583 -5587 -5588 0
5489 5589 0
-5489 -5589 0
5487 4829 5590 0
5487 -4829 -5590 0
-5487 4829 -5590 0
-5487 -4829 -5590 0
5484 4840 5591 0
5484 -4840 -5591 0
-5484 4840 -5591 0
-5484 -4840 -5591 0
5589 5590 5591 -5592 0
5589 5590 -5591 5592 0
5589 -5590 5591 5592 0
5589 -5590 -5591 5592 0
-5589 5590 5591 5592 0
-5589 5590 -5591 5592 0
-5589 -5590 5591 5592 0
-5589 -5590 -5591 5592 0
5498 5593 0
-5498 -5593 0
5496 4847 5594 0
5496 -4847 -5594 0
-5496 4847 -5594 0
-5496 -4847 -5594 0
5493 4858 5595 0
5493 -4858 -5595 0
-5493 4858 -5595 0
-5493 -4858 -5595 0
5593 5594 5595 -5596 0
5593 5594 -5595 5596 0
5593 -5594 5595 5596 0
5593 -5594 -5595 5596 0
-5593 5594 5595 5596 0
-5593 5594 -5595 5596 0
-5593 -5594 5595 5596 0
-5593 -5594 -5595 5596 0
5592 5596 -5597 0
5592 -5596 5597 0
-5592 5596 5597 0
-5592 -5596 -5597 0
286 5598 0
-286 -5598 0
5598 5599 0
-5598 -5599 0
5599 5600 0
-5599 -5600 0
5600 4639 5601 0
5600 -4639 -5601 0
-5600 4639 -5601 0
-5600 -4639 -5601 0
4873 4668 5602 0
4873 -4668 -5602 0
-4873 4668 -5602 0
-4873 -4668 -5602 0
5601 5602 -5603 0
5601 -5602 5603 0
-5601 5602 5603 0
-5601 -5602 5603 0
286 5604 0
-286 -5604 0
5604 5605 0
-5604 -5605 0
5605 5606 0
-5605 -5606 0
5606 4676 5607 0
5606 -4676 -5607 0
-5606 4676 -5607 0
-5606 -4676 -5607 0
4887 4705 5608 0
4887 -4705 -5608 0
-4887 4705 -5608 0
-4887 -4705 -5608 0
5607 5608 -5609 0
5607 -5608 5609 0
-5607 5608 5609 0
-5607 -5608 5609 0
5603 5609 -5610 0
5603 -5609 5610 0
-5603 5609 5610 0
-5603 -5609 -5610 0
5423 4803 5611 0
5423 -4803 -5611 0
-5423 4803 -5611 0
-5423 -4803 -5611 0
4792 5418 5612 0
4792 -5418 -5612 0
-4792 5418 -5612 0
-4792 -5418 -5612 0
5611 5612 -5613 0
5611 -5612 5613 0
-5611 5612 5613 0
-5611 -5612 5613 0
5431 4821 5614 0
5431 -4821 -5614 0
-5431 4821 -5614 0
-5431 -4821 -5614 0
4810 5426 5615 0
4810 -5426 -5615 0
-4810 5426 -5615 0
-4810 -5426 -5615 0
5614 5615 -5616 0
5614 -5615 5616 0
-5614 5615 5616 0
-5614 -5615 5616 0
5613 5616 -5617 0
5613 -5616 5617 0
-5613 5616 5617 0
-5613 -5616 -5617 0
4829 5423 5618 0
4829 -5423 -5618 0
-4829 5423 -5618 0
-4829 -5423 -5618 0
5418 4840 5619 0
5418 -4840 -5619 0
-5418 4840 -5619 0
-5418 -4840 -5619 0
5618 5619 -5620 0
5618 -5619 5620 0
-5618 5619 5620 0
-5618 -5619 5620 0
4847 5431 5621 0
4847 -5431 -5621 0
-4847 5431 -5621 0
-4847 -5431 -5621 0
5426 4858 5622 0
5426 -4858 -5622 0
-5426 4858 -5622 0
-5426 -4858 -5622 0
5621 5622 -5623 0
5621 -5622 5623 0
-5621 5622 5623 0
-5621 -5622 5623 0
5620 5623 -5624 0
5620 -5623 5624 0
-5620 5623 5624 0
-5620 -5623 -5624 0
5423 4671 5625 0
5423 -4671 -5625 0
-5423 4671 -5625 0
-5423 -4671 -5625 0
5418 4642 5626 0
5418 -4642 -5626 0
-5418 4642 -5626 0
-5418 -4642 -5626 0
5625 5626 -5627 0
5625 -5626 5627 0
-5625 5626 5627 0
-5625 -5626 5627 0
5431 4708 5628 0
5431 -4708 -5628 0
-5431 4708 -5628 0
-5431 -4708 -5628 0
5426 4679 5629 0
5426 -4679 -5629 0
-5426 4679 -5629 0
-5426 -4679 -5629 0
5628 5629 -5630 0
5628 -5629 5630 0
-5628 5629 5630 0
-5628 -5629 5630 0
5627 5630 -5631 0
5627 -5630 5631 0
-5627 5630 5631 0
-5627 -5630 -5631 0
4873 5423 5632 0
4873 -5423 -5632 0
-4873 5423 -5632 0
-4873 -5423 -5632 0
5418 5600 5633 0
5418 -5600 -5633 0
-5418 5600 -5633 0
-5418 -5600 -5633 0
5632 5633 -5634 0
5632 -5633 5634 0
-5632 5633 5634 0
-5632 -5633 5634 0
4887 5431 5635 0
4887 -5431 -5635 0
-4887 5431 -5635 0
-4887 -5431 -5635 0
5426 5606 5636 0
5426 -5606 -5636 0
-5426 5606 -5636 0
-5426 -5606 -5636 0
5635 5636 -5637 0
5635 -5636 5637 0
-5635 5636 5637 0
-5635 -5636 5637 0
5634 5637 -5638 0
5634 -5637 5638 0
-5634 5637 5638 0
-5634 -5637 -5638 0
4531 5487 5639 0
4531 -5487 -5639 0
-4531 5487 -5639 0
-4531 -5487 -5639 0
5484 5505 5640 0
5484 -5505 -5640 0
-5484 5505 -5640 0
-5484 -5505 -5640 0
5489 5641 0
-5489 -5641 0
5639 5640 5641 -5642 0
5639 5640 -5641 5642 0
5639 -5640 5641 5642 0
5639 -5640 -5641 5642 0
-5639 5640 5641 5642 0
-5639 5640 -5641 5642 0
-5639 -5640 5641 5642 0
-5639 -5640 -5641 5642 0
4567 5496 5643 0
4567 -5496 -5643 0
-4567 5496 -5643 0
-4567 -5496 -5643 0
5493 5511 5644 0
5493 -5511 -5644 0
-5493 5511 -5644 0
-5493 -5511 -5644 0
5498 5645 0
-5498 -5645 0
5643 5644 5645 -5646 0
5643 5644 -5645 5646 0
5643 -5644 5645 5646 0
5643 -5644 -5645 5646 0
-5643 5644 5645 5646 0
-5643 5644 -5645 5646 0
-5643 -5644 5645 5646 0
-5643 -5644 -5645 5646 0
5642 5646 -5647 0
5642 -5646 5647 0
-5642 5646 5647 0
-5642 -5646 -5647 0
5484 4792 5648 0
5484 -4792 -5648 0
-5484 4792 -5648 0
-5484 -4792 -5648 0
4803 5487 5649 0
4803 -5487 -5649 0
-4803 5487 -5649 0
-4803 -5487 -5649 0
5489 5650 0
-5489 -5650 0
5648 5649 5650 -5651 0
5648 5649 -5650 5651 0
5648 -5649 5650 5651 0
5648 -5649 -5650 5651 0
-5648 5649 5650 5651 0
-5648 5649 -5650 5651 0
-5648 -5649 5650 5651 0
-5648 -5649 -5650 5651 0
5493 4810 5652 0
5493 -4810 -5652 0
-5493 4810 -5652 0
-5493 -4810 -5652 0
4821 5496 5653 0
4821 -5496 -5653 0
-4821 5496 -5653 0
-4821 -5496 -5653 0
5498 5654 0
-5498 -5654 0
5652 5653 5654 -5655 0
5652 5653 -5654 5655 0
5652 -5653 5654 5655 0
5652 -5653 -5654 5655 0
-5652 5653 5654 5655 0
-5652 5653 -5654 5655 0
-5652 -5653 5654 5655 0
-5652 -5653 -5654 5655 0
5651 5655 -5656 0
5651 -5655 5656 0
-5651 5655 5656 0
-5651 -5655 -5656 0
5489 5657 0
-5489 -5657 0
4873 5487 5658 0
4873 -5487 -5658 0
-4873 5487 -5658 0
-4873 -5487 -5658 0
5600 5484 5659 0
5600 -5484 -5659 0
-5600 5484 -5659 0
-5600 -5484 -5659 0
5657 5658 5659 -5660 0
5657 5658 -5659 5660 0
5657 -5658 5659 5660 0
5657 -5658 -5659 5660 0
-5657 5658 5659 5660 0
-5657 5658 -5659 5660 0
-5657 -5658 5659 5660 0
-5657 -5658 -5659 5660 0
5498 5661 0
-5498 -5661 0
4887 5496 5662 0
4887 -5496 -5662 0
-4887 5496 -5662 0
-4887 -5496 -5662 0
5606 5493 5663 0
5606 -5493 -5663 0
-5606 5493 -5663 0
-5606 -5493 -5663 0
5661 5662 5663 -5664 0
5661 5662 -5663 5664 0
5661 -5662 5663 5664 0
5661 -5662 -5663 5664 0
-5661 5662 5663 5664 0
-5661 5662 -5663 5664 0
-5661 -5662 5663 5664 0
-5661 -5662 -5663 5664 0
5660 5664 -5665 0
5660 -5664 5665 0
-5660 5664 5665 0
-5660 -5664 -5665 0
5484 4716 5666 0
5484 -4716 -5666 0
-5484 4716 -5666 0
-5484 -4716 -5666 0
5487 4725 5667 0
5487 -4725 -5667 0
-5487 4725 -5667 0
-5487 -4725 -5667 0
5489 5668 0
-5489 -5668 0
5666 5667 5668 -5669 0
5666 5667 -5668 5669 0
5666 -5667 5668 5669 0
5666 -5667 -5668 5669 0
-5666 5667 5668 5669 0
-5666 5667 -5668 5669 0
-5666 -5667 5668 5669 0
-5666 -5667 -5668 5669 0
5493 4732 5670 0
5493 -4732 -5670 0
-5493 4732 -5670 0
-5493 -4732 -5670 0
5496 4741 5671 0
5496 -4741 -5671 0
-5496 4741 -5671 0
-5496 -4741 -5671 0
5498 5672 0
-5498 -5672 0
5670 5671 5672 -5673 0
5670 5671 -5672 5673 0
5670 -5671 5672 5673 0
5670 -5671 -5672 5673 0
-5670 5671 5672 5673 0
-5670 5671 -5672 5673 0
-5670 -5671 5672 5673 0
-5670 -5671 -5672 5673 0
5669 5673 -5674 0
5669 -5673 5674 0
-5669 5673 5674 0
-5669 -5673 -5674 0
4642 5484 5675 0
4642 -5484 -5675 0
-4642 5484 -5675 0
-4642 -5484 -5675 0
5487 4671 5676 0
5487 -4671 -5676 0
-5487 4671 -5676 0
-5487 -4671 -5676 0
5489 5677 0
-5489 -5677 0
5675 5676 5677 -5678 0
5675 5676 -5677 5678 0
5675 -5676 5677 5678 0
5675 -5676 -5677 5678 0
-5675 5676 5677 5678 0
-5675 5676 -5677 5678 0
-5675 -5676 5677 5678 0
-5675 -5676 -5677 5678 0
4679 5493 5679 0
4679 -5493 -5679 0
-4679 5493 -5679 0
-4679 -5493 -5679 0
5496 4708 5680 0
5496 -4708 -5680 0
-5496 4708 -5680 0
-5496 -4708 -5680 0
5498 5681 0
-5498 -5681 0
5679 5680 5681 -5682 0
5679 5680 -5681 5682 0
5679 -5680 5681 5682 0
5679 -5680 -5681 5682 0
-5679 5680 5681 5682 0
-5679 5680 -5681 5682 0
-5679 -5680 5681 5682 0
-5679 -5680 -5681 5682 0
5678 5682 -5683 0
5678 -5682 5683 0
-5678 5682 5683 0
-5678 -5682 -5683 0
4828 5684 0
-4828 -5684 0
5684 5685 0
-5684 -5685 0
4846 5686 0
-4846 -5686 0
5686 5687 0
-5686 -5687 0
5685 5687 -5688 0
5685 -5687 5688 0
-5685 5687 5688 0
-5685 -5687 -5688 0
4724 5689 0
-4724 -5689 0
5689 5690 0
-5689 -5690 0
4740 5691 0
-4740 -5691 0
5691 5692 0
-5691 -5692 0
5690 5692 -5693 0
5690 -5692 5693 0
-5690 5692 5693 0
-5690 -5692 -5693 0
4670 5694 0
-4670 -5694 0
5694 5695 0
-5694 -5695 0
4707 5696 0
-4707 -5696 0
5696 5697 0
-5696 -5697 0
5695 5697 -5698 0
5695 -5697 5698 0
-5695 5697 5698 0
-5695 -5697 -5698 0
4872 5699 0
-4872 -5699 0
5699 5700 0
-5699 -5700 0
4886 5701 0
-4886 -5701 0
5701 5702 0
-5701 -5702 0
5700 5702 -5703 0
5700 -5702 5703 0
-5700 5702 5703 0
-5700 -5702 -5703 0
4894 5704 0
-4894 -5704 0
5704 5705 0
-5704 -5705 0
4908 5706 0
-4908 -5706 0
5706 5707 0
-5706 -5707 0
5705 5707 -5708 0
5705 -5707 5708 0
-5705 5707 5708 0
-5705 -5707 -5708 0
4579 5709 0
-4579 -5709 0
5709 5710 0
-5709 -5710 0
4591 5711 0
-4591 -5711 0
5711 5712 0
-5711 -5712 0
5710 5712 -5713 0
5710 -5712 5713 0
-5710 5712 5713 0
-5710 -5712 -5713 0
4530 5714 0
-4530 -5714 0
5714 5715 0
-5714 -5715 0
4566 5716 0
-4566 -5716 0
5716 5717 0
-5716 -5717 0
5715 5717 -5718 0
5715 -5717 5718 0
-5715 5717 5718 0
-5715 -5717 -5718 0
4612 5719 0
-4612 -5719 0
5719 5720 0
-5719 -5720 0
4632 5721 0
-4632 -5721 0
5721 5722 0
-5721 -5722 0
5720 5722 -5723 0
5720 -5722 5723 0
-5720 5722 5723 0
-5720 -5722 -5723 0
4802 5724 0
-4802 -5724 0
5724 5725 0
-5724 -5725 0
4820 5726 0
-4820 -5726 0
5726 5727 0
-5726 -5727 0
5725 5727 -5728 0
5725 -5727 5728 0
-5725 5727 5728 0
-5725 -5727 -5728 0
4963 4957 5729 0
4963 -4957 -5729 0
-4963 4957 -5729 0
-4963 -4957 -5729 0
5729 5730 0
-5729 -5730 0
5018 5012 5731 0
5018 -5012 -5731 0
-5018 5012 -5731 0
-5018 -5012 -5731 0
5731 5732 0
-5731 -5732 0
5730 5732 -5733 0
5730 -5732 5733 0
-5730 5732 5733 0
-5730 -5732 -5733 0
3901 3929 -5734 0
3901 -3929 5734 0
-3901 3929 5734 0
-3901 -3929 -5734 0
2348 2712 -5735 0
2348 -2712 5735 0
-2348 2712 5735 0
-2348 -2712 -5735 0
2810 2883 -5736 0
2810 -2883 5736 0
-2810 2883 5736 0
-2810 -2883 -5736 0
2817 2890 -5737 0
2817 -2890 5737 0
-2817 2890 5737 0
-2817 -2890 -5737 0
2828 2901 -5738 0
2828 -2901 5738 0
-2828 2901 5738 0
-2828 -2901 -5738 0
311 5739 0
-311 -5739 0
311 5740 0
-311 -5740 0
5739 5740 -5741 0
5739 -5740 5741 0
-5739 5740 5741 0
-5739 -5740 -5741 0
2390 2754 -5742 0
2390 -2754 5742 0
-2390 2754 5742 0
-2390 -2754 -5742 0
2147 2511 -5743 0
2147 -2511 5743 0
-2147 2511 5743 0
-2147 -2511 -5743 0
2789 2862 -5744 0
2789 -2862 5744 0
-2789 2862 5744 0
-2789 -2862 -5744 0
2813 2886 -5745 0
2813 -2886 5745 0
-2813 2886 5745 0
-2813 -2886 -5745 0
2769 2842 -5746 0
2769 -2842 5746 0
-2769 2842 5746 0
-2769 -2842 -5746 0
3882 3910 -5747 0
3882 -3910 5747 0
-3882 3910 5747 0
-3882 -3910 -5747 0
2783 2856 -5748 0
2783 -2856 5748 0
-2783 2856 5748 0
-2783 -2856 -5748 0
326 5749 0
-326 -5749 0
326 5750 0
-326 -5750 0
5749 5750 -5751 0
5749 -5750 5751 0
-5749 5750 5751 0
-5749 -5750 -5751 0
329 5752 0
-329 -5752 0
329 5753 0
-329 -5753 0
5752 5753 -5754 0
5752 -5753 5754 0
-5752 5753 5754 0
-5752 -5753 -5754 0
2145 2509 -5755 0
2145 -2509 5755 0
-2145 2509 5755 0
-2145 -2509 -5755 0
3883 3911 -5756 0
3883 -3911 5756 0
-3883 3911 5756 0
-3883 -3911 -5756 0
2149 2513 -5757 0
2149 -2513 5757 0
-2149 2513 5757 0
-2149 -2513 -5757 0
3893 3921 -5758 0
3893 -3921 5758 0
-3893 3921 5758 0
-3893 -3921 -5758 0
4964 5019 -5759 0
4964 -5019 5759 0
-4964 5019 5759 0
-4964 -5019 -5759 0
3891 3919 -5760 0
3891 -3919 5760 0
-3891 3919 5760 0
-3891 -3919 -5760 0
2046 2410 -5761 0
2046 -2410 5761 0
-2046 2410 5761 0
-2046 -2410 -5761 0
2044 2408 -5762 0
2044 -2408 5762 0
-2044 2408 5762 0
-2044 -2408 -5762 0
1894 1914 -5763 0
1894 -1914 5763 0
-1894 1914 5763 0
-1894 -1914 -5763 0
5079 2336 2211 5764 0
5079 2336 -2211 -5764 0
5079 -2336 2211 -5764 0
5079 -2336 -2211 -5764 0
-5079 2336 2211 -5764 0
-5079 2336 -2211 -5764 0
-5079 -2336 2211 -5764 0
-5079 -2336 -2211 -5764 0
2211 2337 5064 5765 0
2211 2337 -5064 -5765 0
2211 -2337 5064 -5765 0
2211 -2337 -5064 -5765 0
-2211 2337 5064 -5765 0
-2211 2337 -5064 -5765 0
-2211 -2337 5064 -5765 0
-2211 -2337 -5064 -5765 0
5764 5765 -5766 0
5764 -5765 5766 0
-5764 5765 5766 0
-5764 -5765 5766 0
5766 5767 0
-5766 -5767 0
1171 1128 5768 0
1171 -1128 -5768 0
-1171 1128 -5768 0
-1171 -1128 -5768 0
1136 1171 5769 0
1136 -1171 -5769 0
-1136 1171 -5769 0
-1136 -1171 -5769 0
5769 5770 0
-5769 -5770 0
1171 1160 5771 0
1171 -1160 -5771 0
-1171 1160 -5771 0
-1171 -1160 -5771 0
5768 5770 5771 5772 0
5768 5770 -5771 -5772 0
5768 -5770 5771 -5772 0
5768 -5770 -5771 -5772 0
-5768 5770 5771 -5772 0
-5768 5770 -5771 -5772 0
-5768 -5770 5771 -5772 0
-5768 -5770 -5771 -5772 0
5772 5773 0
-5772 -5773 0
4943 4944 5774 0
4943 -4944 -5774 0
-4943 4944 -5774 0
-4943 -4944 -5774 0
5774 5775 0
-5774 -5775 0
4313 5776 0
-4313 -5776 0
4937 5776 5777 0
4937 -5776 -5777 0
-4937 5776 -5777 0
-4937 -5776 -5777 0
5777 5778 0
-5777 -5778 0
4348 5779 0
-4348 -5779 0
5779 5780 0
-5779 -5780 0
5775 5778 5780 5781 0
5775 5778 -5780 -5781 0
5775 -5778 5780 -5781 0
5775 -5778 -5780 -5781 0
-5775 5778 5780 -5781 0
-5775 5778 -5780 -5781 0
-5775 -5778 5780 -5781 0
-5775 -5778 -5780 -5781 0
5781 5782 0
-5781 -5782 0
5767 5773 5782 5783 0
5767 5773 -5782 -5783 0
5767 -5773 5782 -5783 0
5767 -5773 -5782 -5783 0
-5767 5773 5782 -5783 0
-5767 5773 -5782 -5783 0
-5767 -5773 5782 -5783 0
-5767 -5773 -5782 -5783 0
4936 4935 5784 0
4936 -4935 -5784 0
-4936 4935 -5784 0
-4936 -4935 -5784 0
5784 5785 0
-5784 -5785 0
5778 5785 5780 5786 0
5778 5785 -5780 -5786 0
5778 -5785 5780 -5786 0
5778 -5785 -5780 -5786 0
-5778 5785 5780 -5786 0
-5778 5785 -5780 -5786 0
-5778 -5785 5780 -5786 0
-5778 -5785 -5780 -5786 0
5786 5787 0
-5786 -5787 0
5768 5788 0
-5768 -5788 0
5769 5788 5771 5789 0
5769 5788 -5771 -5789 0
5769 -5788 5771 -5789 0
5769 -5788 -5771 -5789 0
-5769 5788 5771 -5789 0
-5769 5788 -5771 -5789 0
-5769 -5788 5771 -5789 0
-5769 -5788 -5771 -5789 0
5789 5790 0
-5789 -5790 0
5787 5767 5790 5791 0
5787 5767 -5790 -5791 0
5787 -5767 5790 -5791 0
5787 -5767 -5790 -5791 0
-5787 5767 5790 -5791 0
-5787 5767 -5790 -5791 0
-5787 -5767 5790 -5791 0
-5787 -5767 -5790 -5791 0
4944 4936 5792 0
4944 -4936 -5792 0
-4944 4936 -5792 0
-4944 -4936 -5792 0
5792 5793 0
-5792 -5793 0
5778 5780 5793 5794 0
5778 5780 -5793 -5794 0
5778 -5780 5793 -5794 0
5778 -5780 -5793 -5794 0
-5778 5780 5793 -5794 0
-5778 5780 -5793 -5794 0
-5778 -5780 5793 -5794 0
-5778 -5780 -5793 -5794 0
5794 5795 0
-5794 -5795 0
5768 5769 5771 1171 5796 0
5768 5769 5771 -1171 -5796 0
5768 5769 -5771 1171 -5796 0
5768 5769 -5771 -1171 -5796 0
5768 -5769 5771 1171 -5796 0
5768 -5769 5771 -1171 -5796 0
5768 -5769 -5771 1171 -5796 0
5768 -5769 -5771 -1171 -5796 0
-5768 5769 5771 1171 -5796 0
-5768 5769 5771 -1171 -5796 0
-5768 5769 -5771 1171 -5796 0
-5768 5769 -5771 -1171 -5796 0
-5768 -5769 5771 1171 -5796 0
-5768 -5769 5771 -1171 -5796 0
-5768 -5769 -5771 1171 -5796 0
-5768 -5769 -5771 -1171 -5796 0
5796 5797 0
-5796 -5797 0
5795 5767 5797 5798 0
5795 5767 -5797 -5798 0
5795 -5767 5797 -5798 0
5795 -5767 -5797 -5798 0
-5795 5767 5797 -5798 0
-5795 5767 -5797 -5798 0
-5795 -5767 5797 -5798 0
-5795 -5767 -5797 -5798 0
5783 5791 5798 -5799 0
5783 5791 -5798 5799 0
5783 -5791 5798 5799 0
5783 -5791 -5798 5799 0
-5783 5791 5798 5799 0
-5783 5791 -5798 5799 0
-5783 -5791 5798 5799 0
-5783 -5791 -5798 5799 0
4935 4943 5800 0
4935 -4943 -5800 0
-4935 4943 -5800 0
-4935 -4943 -5800 0
5800 5801 0
-5800 -5801 0
5801 5778 5780 5802 0
5801 5778 -5780 -5802 0
5801 -5778 5780 -5802 0
5801 -5778 -5780 -5802 0
-5801 5778 5780 -5802 0
-5801 5778 -5780 -5802 0
-5801 -5778 5780 -5802 0
-5801 -5778 -5780 -5802 0
5802 5803 0
-5802 -5803 0
5771 5788 5770 5804 0
5771 5788 -5770 -5804 0
5771 -5788 5770 -5804 0
5771 -5788 -5770 -5804 0
-5771 5788 5770 -5804 0
-5771 5788 -5770 -5804 0
-5771 -5788 5770 -5804 0
-5771 -5788 -5770 -5804 0
5804 5805 0
-5804 -5805 0
5803 5767 5805 5806 0
5803 5767 -5805 -5806 0
5803 -5767 5805 -5806 0
5803 -5767 -5805 -5806 0
-5803 5767 5805 -5806 0
-5803 5767 -5805 -5806 0
-5803 -5767 5805 -5806 0
-5803 -5767 -5805 -5806 0
5771 5807 0
-5771 -5807 0
5770 5807 5768 5808 0
5770 5807 -5768 -5808 0
5770 -5807 5768 -5808 0
5770 -5807 -5768 -5808 0
-5770 5807 5768 -5808 0
-5770 5807 -5768 -5808 0
-5770 -5807 5768 -5808 0
-5770 -5807 -5768 -5808 0
5808 5809 0
-5808 -5809 0
4279 5810 0
-4279 -5810 0
5776 5810 5811 0
5776 -5810 -5811 0
-5776 5810 -5811 0
-5776 -5810 -5811 0
5811 5812 0
-5811 -5812 0
5780 5775 5812 5813 0
5780 5775 -5812 -5813 0
5780 -5775 5812 -5813 0
5780 -5775 -5812 -5813 0
-5780 5775 5812 -5813 0
-5780 5775 -5812 -5813 0
-5780 -5775 5812 -5813 0
-5780 -5775 -5812 -5813 0
5813 5814 0
-5813 -5814 0
5809 5767 5814 5815 0
5809 5767 -5814 -5815 0
5809 -5767 5814 -5815 0
5809 -5767 -5814 -5815 0
-5809 5767 5814 -5815 0
-5809 5767 -5814 -5815 0
-5809 -5767 5814 -5815 0
-5809 -5767 -5814 -5815 0
5793 5780 5812 5816 0
5793 5780 -5812 -5816 0
5793 -5780 5812 -5816 0
5793 -5780 -5812 -5816 0
-5793 5780 5812 -5816 0
-5793 5780 -5812 -5816 0
-5793 -5780 5812 -5816 0
-5793 -5780 -5812 -5816 0
5816 5817 0
-5816 -5817 0
5768 5807 5769 5818 0
5768 5807 -5769 -5818 0
5768 -5807 5769 -5818 0
5768 -5807 -5769 -5818 0
-5768 5807 5769 -5818 0
-5768 5807 -5769 -5818 0
-5768 -5807 5769 -5818 0
-5768 -5807 -5769 -5818 0
5818 5819 0
-5818 -5819 0
5817 5819 5767 5820 0
5817 5819 -5767 -5820 0
5817 -5819 5767 -5820 0
5817 -5819 -5767 -5820 0
-5817 5819 5767 -5820 0
-5817 5819 -5767 -5820 0
-5817 -5819 5767 -5820 0
-5817 -5819 -5767 -5820 0
5806 5815 5820 -5821 0
5806 5815 -5820 5821 0
5806 -5815 5820 5821 0
5806 -5815 -5820 5821 0
-5806 5815 5820 5821 0
-5806 5815 -5820 5821 0
-5806 -5815 5820 5821 0
-5806 -5815 -5820 5821 0
4934 4937 5822 0
4934 -4937 -5822 0
-4934 4937 -5822 0
-4934 -4937 -5822 0
5822 5823 0
-5822 -5823 0
5779 5824 0
-5779 -5824 0
5823 5824 5793 5825 0
5823 5824 -5793 -5825 0
5823 -5824 5793 -5825 0
5823 -5824 -5793 -5825 0
-5823 5824 5793 -5825 0
-5823 5824 -5793 -5825 0
-5823 -5824 5793 -5825 0
-5823 -5824 -5793 -5825 0
5825 5826 0
-5825 -5826 0
5826 5767 5827 0
5826 -5767 -5827 0
-5826 5767 -5827 0
-5826 -5767 -5827 0
5788 5769 5807 5828 0
5788 5769 -5807 -5828 0
5788 -5769 5807 -5828 0
5788 -5769 -5807 -5828 0
-5788 5769 5807 -5828 0
-5788 5769 -5807 -5828 0
-5788 -5769 5807 -5828 0
-5788 -5769 -5807 -5828 0
5828 5829 0
-5828 -5829 0
5785 5812 5780 5830 0
5785 5812 -5780 -5830 0
5785 -5812 5780 -5830 0
5785 -5812 -5780 -5830 0
-5785 5812 5780 -5830 0
-5785 5812 -5780 -5830 0
-5785 -5812 5780 -5830 0
-5785 -5812 -5780 -5830 0
5830 5831 0
-5830 -5831 0
5829 5831 5767 5832 0
5829 5831 -5767 -5832 0
5829 -5831 5767 -5832 0
5829 -5831 -5767 -5832 0
-5829 5831 5767 -5832 0
-5829 5831 -5767 -5832 0
-5829 -5831 5767 -5832 0
-5829 -5831 -5767 -5832 0
5807 5770 5788 5833 0
5807 5770 -5788 -5833 0
5807 -5770 5788 -5833 0
5807 -5770 -5788 -5833 0
-5807 5770 5788 -5833 0
-5807 5770 -5788 -5833 0
-5807 -5770 5788 -5833 0
-5807 -5770 -5788 -5833 0
5833 5834 0
-5833 -5834 0
5780 5812 5801 5835 0
5780 5812 -5801 -5835 0
5780 -5812 5801 -5835 0
5780 -5812 -5801 -5835 0
-5780 5812 5801 -5835 0
-5780 5812 -5801 -5835 0
-5780 -5812 5801 -5835 0
-5780 -5812 -5801 -5835 0
5835 5836 0
-5835 -5836 0
5834 5836 5767 5837 0
5834 5836 -5767 -5837 0
5834 -5836 5767 -5837 0
5834 -5836 -5767 -5837 0
-5834 5836 5767 -5837 0
-5834 5836 -5767 -5837 0
-5834 -5836 5767 -5837 0
-5834 -5836 -5767 -5837 0
5827 5832 5837 -5838 0
5827 5832 -5837 5838 0
5827 -5832 5837 5838 0
5827 -5832 -5837 5838 0
-5827 5832 5837 5838 0
-5827 5832 -5837 5838 0
-5827 -5832 5837 5838 0
-5827 -5832 -5837 5838 0
5799 5821 5838 5839 0
5799 5821 -5838 -5839 0
5799 -5821 5838 -5839 0
5799 -5821 -5838 -5839 0
-5799 5821 5838 -5839 0
-5799 5821 -5838 -5839 0
-5799 -5821 5838 -5839 0
-5799 -5821 -5838 -5839 0
5839 5840 0
-5839 -5840 0
413 5841 0
-413 -5841 0
353 5842 0
-353 -5842 0
5842 5843 0
-5842 -5843 0
5840 5841 4968 5843 5844 0
5840 5841 4968 -5843 -5844 0
5840 5841 -4968 5843 -5844 0
5840 5841 -4968 -5843 -5844 0
5840 -5841 4968 5843 -5844 0
5840 -5841 4968 -5843 -5844 0
5840 -5841 -4968 5843 -5844 0
5840 -5841 -4968 -5843 -5844 0
-5840 5841 4968 5843 -5844 0
-5840 5841 4968 -5843 -5844 0
-5840 5841 -4968 5843 -5844 0
-5840 5841 -4968 -5843 -5844 0
-5840 -5841 4968 5843 -5844 0
-5840 -5841 4968 -5843 -5844 0
-5840 -5841 -4968 5843 -5844 0
-5840 -5841 -4968 -5843 -5844 0
5142 2700 2575 5845 0
5142 2700 -2575 -5845 0
5142 -2700 2575 -5845 0
5142 -2700 -2575 -5845 0
-5142 2700 2575 -5845 0
-5142 2700 -2575 -5845 0
-5142 -2700 2575 -5845 0
-5142 -2700 -2575 -5845 0
2575 2701 5127 5846 0
2575 2701 -5127 -5846 0
2575 -2701 5127 -5846 0
2575 -2701 -5127 -5846 0
-2575 2701 5127 -5846 0
-2575 2701 -5127 -5846 0
-2575 -2701 5127 -5846 0
-2575 -2701 -5127 -5846 0
5845 5846 -5847 0
5845 -5846 5847 0
-5845 5846 5847 0
-5845 -5846 5847 0
5847 5848 0
-5847 -5848 0
1269 1226 5849 0
1269 -1226 -5849 0
-1269 1226 -5849 0
-1269 -1226 -5849 0
1234 1269 5850 0
1234 -1269 -5850 0
-1234 1269 -5850 0
-1234 -1269 -5850 0
5850 5851 0
-5850 -5851 0
1269 1258 5852 0
1269 -1258 -5852 0
-1269 1258 -5852 0
-1269 -1258 -5852 0
5849 5851 5852 5853 0
5849 5851 -5852 -5853 0
5849 -5851 5852 -5853 0
5849 -5851 -5852 -5853 0
-5849 5851 5852 -5853 0
-5849 5851 -5852 -5853 0
-5849 -5851 5852 -5853 0
-5849 -5851 -5852 -5853 0
5853 5854 0
-5853 -5854 0
4998 4999 5855 0
4998 -4999 -5855 0
-4998 4999 -5855 0
-4998 -4999 -5855 0
5855 5856 0
-5855 -5856 0
4329 5857 0
-4329 -5857 0
4992 5857 5858 0
4992 -5857 -5858 0
-4992 5857 -5858 0
-4992 -5857 -5858 0
5858 5859 0
-5858 -5859 0
4365 5860 0
-4365 -5860 0
5860 5861 0
-5860 -5861 0
5856 5859 5861 5862 0
5856 5859 -5861 -5862 0
5856 -5859 5861 -5862 0
5856 -5859 -5861 -5862 0
-5856 5859 5861 -5862 0
-5856 5859 -5861 -5862 0
-5856 -5859 5861 -5862 0
-5856 -5859 -5861 -5862 0
5862 5863 0
-5862 -5863 0
5848 5854 5863 5864 0
5848 5854 -5863 -5864 0
5848 -5854 5863 -5864 0
5848 -5854 -5863 -5864 0
-5848 5854 5863 -5864 0
-5848 5854 -5863 -5864 0
-5848 -5854 5863 -5864 0
-5848 -5854 -5863 -5864 0
4991 4990 5865 0
4991 -4990 -5865 0
-4991 4990 -5865 0
-4991 -4990 -5865 0
5865 5866 0
-5865 -5866 0
5859 5866 5861 5867 0
5859 5866 -5861 -5867 0
5859 -5866 5861 -5867 0
5859 -5866 -5861 -5867 0
-5859 5866 5861 -5867 0
-5859 5866 -5861 -5867 0
-5859 -5866 5861 -5867 0
-5859 -5866 -5861 -5867 0
5867 5868 0
-5867 -5868 0
5849 5869 0
-5849 -5869 0
5850 5869 5852 5870 0
5850 5869 -5852 -5870 0
5850 -5869 5852 -5870 0
5850 -5869 -5852 -5870 0
-5850 5869 5852 -5870 0
-5850 5869 -5852 -5870 0
-5850 -5869 5852 -5870 0
-5850 -5869 -5852 -5870 0
5870 5871 0
-5870 -5871 0
5868 5848 5871 5872 0
5868 5848 -5871 -5872 0
5868 -5848 5871 -5872 0
5868 -5848 -5871 -5872 0
-5868 5848 5871 -5872 0
-5868 5848 -5871 -5872 0
-5868 -5848 5871 -5872 0
-5868 -5848 -5871 -5872 0
4999 4991 5873 0
4999 -4991 -5873 0
-4999 4991 -5873 0
-4999 -4991 -5873 0
5873 5874 0
-5873 -5874 0
5859 5861 5874 5875 0
5859 5861 -5874 -5875 0
5859 -5861 5874 -5875 0
5859 -5861 -5874 -5875 0
-5859 5861 5874 -5875 0
-5859 5861 -5874 -5875 0
-5859 -5861 5874 -5875 0
-5859 -5861 -5874 -5875 0
5875 5876 0
-5875 -5876 0
5849 5850 5852 1269 5877 0
5849 5850 5852 -1269 -5877 0
5849 5850 -5852 1269 -5877 0
5849 5850 -5852 -1269 -5877 0
5849 -5850 5852 1269 -5877 0
5849 -5850 5852 -1269 -5877 0
5849 -5850 -5852 1269 -5877 0
5849 -5850 -5852 -1269 -5877 0
-5849 5850 5852 1269 -5877 0
-5849 5850 5852 -1269 -5877 0
-5849 5850 -5852 1269 -5877 0
-5849 5850 -5852 -1269 -5877 0
-5849 -5850 5852 1269 -5877 0
-5849 -5850 5852 -1269 -5877 0
-5849 -5850 -5852 1269 -5877 0
-5849 -5850 -5852 -1269 -5877 0
5877 5878 0
-5877 -5878 0
5876 5848 5878 5879 0
5876 5848 -5878 -5879 0
5876 -5848 5878 -5879 0
5876 -5848 -5878 -5879 0
-5876 5848 5878 -5879 0
-5876 5848 -5878 -5879 0
-5876 -5848 5878 -5879 0
-5876 -5848 -5878 -5879 0
5864 5872 5879 -5880 0
5864 5872 -5879 5880 0
5864 -5872 5879 5880 0
5864 -5872 -5879 5880 0
-5864 5872 5879 5880 0
-5864 5872 -5879 5880 0
-5864 -5872 5879 5880 0
-5864 -5872 -5879 5880 0
4990 4998 5881 0
4990 -4998 -5881 0
-4990 4998 -5881 0
-4990 -4998 -5881 0
5881 5882 0
-5881 -5882 0
5882 5859 5861 5883 0
5882 5859 -5861 -5883 0
5882 -5859 5861 -5883 0
5882 -5859 -5861 -5883 0
-5882 5859 5861 -5883 0
-5882 5859 -5861 -5883 0
-5882 -5859 5861 -5883 0
-5882 -5859 -5861 -5883 0
5883 5884 0
-5883 -5884 0
5852 5869 5851 5885 0
5852 5869 -5851 -5885 0
5852 -5869 5851 -5885 0
5852 -5869 -5851 -5885 0
-5852 5869 5851 -5885 0
-5852 5869 -5851 -5885 0
-5852 -5869 5851 -5885 0
-5852 -5869 -5851 -5885 0
5885 5886 0
-5885 -5886 0
5884 5848 5886 5887 0
5884 5848 -5886 -5887 0
5884 -5848 5886 -5887 0
5884 -5848 -5886 -5887 0
-5884 5848 5886 -5887 0
-5884 5848 -5886 -5887 0
-5884 -5848 5886 -5887 0
-5884 -5848 -5886 -5887 0
5852 5888 0
-5852 -5888 0
5851 5888 5849 5889 0
5851 5888 -5849 -5889 0
5851 -5888 5849 -5889 0
5851 -5888 -5849 -5889 0
-5851 5888 5849 -5889 0
-5851 5888 -5849 -5889 0
-5851 -5888 5849 -5889 0
-5851 -5888 -5849 -5889 0
5889 5890 0
-5889 -5890 0
4296 5891 0
-4296 -5891 0
5857 5891 5892 0
5857 -5891 -5892 0
-5857 5891 -5892 0
-5857 -5891 -5892 0
5892 5893 0
-5892 -5893 0
5861 5856 5893 5894 0
5861 5856 -5893 -5894 0
5861 -5856 5893 -5894 0
5861 -5856 -5893 -5894 0
-5861 5856 5893 -5894 0
-5861 5856 -5893 -5894 0
-5861 -5856 5893 -5894 0
-5861 -5856 -5893 -5894 0
5894 5895 0
-5894 -5895 0
5890 5848 5895 5896 0
5890 5848 -5895 -5896 0
5890 -5848 5895 -5896 0
5890 -5848 -5895 -5896 0
-5890 5848 5895 -5896 0
-5890 5848 -5895 -5896 0
-5890 -5848 5895 -5896 0
-5890 -5848 -5895 -5896 0
5874 5861 5893 5897 0
5874 5861 -5893 -5897 0
5874 -5861 5893 -5897 0
5874 -5861 -5893 -5897 0
-5874 5861 5893 -5897 0
-5874 5861 -5893 -5897 0
-5874 -5861 5893 -5897 0
-5874 -5861 -5893 -5897 0
5897 5898 0
-5897 -5898 0
5849 5888 5850 5899 0
5849 5888 -5850 -5899 0
5849 -5888 5850 -5899 0
5849 -5888 -5850 -5899 0
-5849 5888 5850 -5899 0
-5849 5888 -5850 -5899 0
-5849 -5888 5850 -5899 0
-5849 -5888 -5850 -5899 0
5899 5900 0
-5899 -5900 0
5898 5900 5848 5901 0
5898 5900 -5848 -5901 0
5898 -5900 5848 -5901 0
5898 -5900 -5848 -5901 0
-5898 5900 5848 -5901 0
-5898 5900 -5848 -5901 0
-5898 -5900 5848 -5901 0
-5898 -5900 -5848 -5901 0
5887 5896 5901 -5902 0
5887 5896 -5901 5902 0
5887 -5896 5901 5902 0
5887 -5896 -5901 5902 0
-5887 5896 5901 5902 0
-5887 5896 -5901 5902 0
-5887 -5896 5901 5902 0
-5887 -5896 -5901 5902 0
4989 4992 5903 0
4989 -4992 -5903 0
-4989 4992 -5903 0
-4989 -4992 -5903 0
5903 5904 0
-5903 -5904 0
5860 5905 0
-5860 -5905 0
5904 5905 5874 5906 0
5904 5905 -5874 -5906 0
5904 -5905 5874 -5906 0
5904 -5905 -5874 -5906 0
-5904 5905 5874 -5906 0
-5904 5905 -5874 -5906 0
-5904 -5905 5874 -5906 0
-5904 -5905 -5874 -5906 0
5906 5907 0
-5906 -5907 0
5907 5848 5908 0
5907 -5848 -5908 0
-5907 5848 -5908 0
-5907 -5848 -5908 0
5869 5850 5888 5909 0
5869 5850 -5888 -5909 0
5869 -5850 5888 -5909 0
5869 -5850 -5888 -5909 0
-5869 5850 5888 -5909 0
-5869 5850 -5888 -5909 0
-5869 -5850 5888 -5909 0
-5869 -5850 -5888 -5909 0
5909 5910 0
-5909 -5910 0
5866 5893 5861 5911 0
5866 5893 -5861 -5911 0
5866 -5893 5861 -5911 0
5866 -5893 -5861 -5911 0
-5866 5893 5861 -5911 0
-5866 5893 -5861 -5911 0
-5866 -5893 5861 -5911 0
-5866 -5893 -5861 -5911 0
5911 5912 0
-5911 -5912 0
5910 5912 5848 5913 0
5910 5912 -5848 -5913 0
5910 -5912 5848 -5913 0
5910 -5912 -5848 -5913 0
-5910 5912 5848 -5913 0
-5910 5912 -5848 -5913 0
-5910 -5912 5848 -5913 0
-5910 -5912 -5848 -5913 0
5888 5851 5869 5914 0
5888 5851 -5869 -5914 0
5888 -5851 5869 -5914 0
5888 -5851 -5869 -5914 0
-5888 5851 5869 -5914 0
-5888 5851 -5869 -5914 0
-5888 -5851 5869 -5914 0
-5888 -5851 -5869 -5914 0
5914 5915 0
-5914 -5915 0
5861 5893 5882 5916 0
5861 5893 -5882 -5916 0
5861 -5893 5882 -5916 0
5861 -5893 -5882 -5916 0
-5861 5893 5882 -5916 0
-5861 5893 -5882 -5916 0
-5861 -5893 5882 -5916 0
-5861 -5893 -5882 -5916 0
5916 5917 0
-5916 -5917 0
5915 5917 5848 5918 0
5915 5917 -5848 -5918 0
5915 -5917 5848 -5918 0
5915 -5917 -5848 -5918 0
-5915 5917 5848 -5918 0
-5915 5917 -5848 -5918 0
-5915 -5917 5848 -5918 0
-5915 -5917 -5848 -5918 0
5908 5913 5918 -5919 0
5908 5913 -5918 5919 0
5908 -5913 5918 5919 0
5908 -5913 -5918 5919 0
-5908 5913 5918 5919 0
-5908 5913 -5918 5919 0
-5908 -5913 5918 5919 0
-5908 -5913 -5918 5919 0
5880 5902 5919 5920 0
5880 5902 -5919 -5920 0
5880 -5902 5919 -5920 0
5880 -5902 -5919 -5920 0
-5880 5902 5919 -5920 0
-5880 5902 -5919 -5920 0
-5880 -5902 5919 -5920 0
-5880 -5902 -5919 -5920 0
5920 5921 0
-5920 -5921 0
413 5922 0
-413 -5922 0
353 5923 0
-353 -5923 0
5923 5924 0
-5923 -5924 0
5921 5922 5023 5924 5925 0
5921 5922 5023 -5924 -5925 0
5921 5922 -5023 5924 -5925 0
5921 5922 -5023 -5924 -5925 0
5921 -5922 5023 5924 -5925 0
5921 -5922 5023 -5924 -5925 0
5921 -5922 -5023 5924 -5925 0
5921 -5922 -5023 -5924 -5925 0
-5921 5922 5023 5924 -5925 0
-5921 5922 5023 -5924 -5925 0
-5921 5922 -5023 5924 -5925 0
-5921 5922 -5023 -5924 -5925 0
-5921 -5922 5023 5924 -5925 0
-5921 -5922 5023 -5924 -5925 0
-5921 -5922 -5023 5924 -5925 0
-5921 -5922 -5023 -5924 -5925 0
5844 5925 -5926 0
5844 -5925 5926 0
-5844 5925 5926 0
-5844 -5925 -5926 0
358 5927 0
-358 -5927 0
358 5928 0
-358 -5928 0
5927 5928 -5929 0
5927 -5928 5929 0
-5927 5928 5929 0
-5927 -5928 -5929 0
359 5930 0
-359 -5930 0
359 5931 0
-359 -5931 0
5930 5931 -5932 0
5930 -5931 5932 0
-5930 5931 5932 0
-5930 -5931 -5932 0
1889 1909 -5933 0
1889 -1909 5933 0
-1889 1909 5933 0
-1889 -1909 -5933 0
1890 1910 -5934 0
1890 -1910 5934 0
-1890 1910 5934 0
-1890 -1910 -5934 0
368 5935 0
-368 -5935 0
368 5936 0
-368 -5936 0
5935 5936 -5937 0
5935 -5936 5937 0
-5935 5936 5937 0
-5935 -5936 -5937 0
1891 1911 -5938 0
1891 -1911 5938 0
-1891 1911 5938 0
-1891 -1911 -5938 0
1893 1913 -5939 0
1893 -1913 5939 0
-1893 1913 5939 0
-1893 -1913 -5939 0
372 5940 0
-372 -5940 0
372 5941 0
-372 -5941 0
5940 5941 -5942 0
5940 -5941 5942 0
-5940 5941 5942 0
-5940 -5941 -5942 0
373 5943 0
-373 -5943 0
373 5944 0
-373 -5944 0
5943 5944 -5945 0
5943 -5944 5945 0
-5943 5944 5945 0
-5943 -5944 -5945 0
5840 2993 5946 0
5840 -2993 -5946 0
-5840 2993 -5946 0
-5840 -2993 -5946 0
5921 3056 5947 0
5921 -3056 -5947 0
-5921 3056 -5947 0
-5921 -3056 -5947 0
5946 5947 -5948 0
5946 -5947 5948 0
-5946 5947 5948 0
-5946 -5947 -5948 0
369 5949 0
-369 -5949 0
5949 5950 0
-5949 -5950 0
412 5951 0
-412 -5951 0
5951 5952 0
-5951 -5952 0
5950 2990 5952 5953 0
5950 2990 -5952 -5953 0
5950 -2990 5952 -5953 0
5950 -2990 -5952 -5953 0
-5950 2990 5952 -5953 0
-5950 2990 -5952 -5953 0
-5950 -2990 5952 -5953 0
-5950 -2990 -5952 -5953 0
369 5954 0
-369 -5954 0
5954 5955 0
-5954 -5955 0
412 5956 0
-412 -5956 0
5956 5957 0
-5956 -5957 0
5955 3053 5957 5958 0
5955 3053 -5957 -5958 0
5955 -3053 5957 -5958 0
5955 -3053 -5957 -5958 0
-5955 3053 5957 -5958 0
-5955 3053 -5957 -5958 0
-5955 -3053 5957 -5958 0
-5955 -3053 -5957 -5958 0
5953 5958 -5959 0
5953 -5958 5959 0
-5953 5958 5959 0
-5953 -5958 -5959 0
413 5960 0
-413 -5960 0
5960 5961 0
-5960 -5961 0
5961 1885 5962 0
5961 -1885 -5962 0
-5961 1885 -5962 0
-5961 -1885 -5962 0
5962 5840 5963 0
5962 -5840 -5963 0
-5962 5840 -5963 0
-5962 -5840 -5963 0
5963 5964 0
-5963 -5964 0
2993 4968 5964 5965 0
2993 4968 -5964 -5965 0
2993 -4968 5964 -5965 0
2993 -4968 -5964 -5965 0
-2993 4968 5964 -5965 0
-2993 4968 -5964 -5965 0
-2993 -4968 5964 -5965 0
-2993 -4968 -5964 -5965 0
413 5966 0
-413 -5966 0
5966 5967 0
-5966 -5967 0
5967 1905 5968 0
5967 -1905 -5968 0
-5967 1905 -5968 0
-5967 -1905 -5968 0
5968 5921 5969 0
5968 -5921 -5969 0
-5968 5921 -5969 0
-5968 -5921 -5969 0
5969 5970 0
-5969 -5970 0
3056 5023 5970 5971 0
3056 5023 -5970 -5971 0
3056 -5023 5970 -5971 0
3056 -5023 -5970 -5971 0
-3056 5023 5970 -5971 0
-3056 5023 -5970 -5971 0
-3056 -5023 5970 -5971 0
-3056 -5023 -5970 -5971 0
5965 5971 -5972 0
5965 -5971 5972 0
-5965 5971 5972 0
-5965 -5971 -5972 0
3135 5973 0
-3135 -5973 0
3153 5974 0
-3153 -5974 0
5973 5974 -5975 0
5973 -5974 5975 0
-5973 5974 5975 0
-5973 -5974 -5975 0
5840 5064 5976 0
5840 -5064 -5976 0
-5840 5064 -5976 0
-5840 -5064 -5976 0
5921 5127 5977 0
5921 -5127 -5977 0
-5921 5127 -5977 0
-5921 -5127 -5977 0
5976 5977 -5978 0
5976 -5977 5978 0
-5976 5977 5978 0
-5976 -5977 -5978 0
4944 4943 5810 5979 0
4944 4943 -5810 -5979 0
4944 -4943 5810 -5979 0
4944 -4943 -5810 -5979 0
-4944 4943 5810 -5979 0
-4944 4943 -5810 -5979 0
-4944 -4943 5810 -5979 0
-4944 -4943 -5810 -5979 0
5979 5980 0
-5979 -5980 0
4934 5779 5980 5981 0
4934 5779 -5980 -5981 0
4934 -5779 5980 -5981 0
4934 -5779 -5980 -5981 0
-4934 5779 5980 -5981 0
-4934 5779 -5980 -5981 0
-4934 -5779 5980 -5981 0
-4934 -5779 -5980 -5981 0
5981 5982 0
-5981 -5982 0
5071 5982 5983 0
5071 -5982 -5983 0
-5071 5982 -5983 0
-5071 -5982 -5983 0
4999 4998 5891 5984 0
4999 4998 -5891 -5984 0
4999 -4998 5891 -5984 0
4999 -4998 -5891 -5984 0
-4999 4998 5891 -5984 0
-4999 4998 -5891 -5984 0
-4999 -4998 5891 -5984 0
-4999 -4998 -5891 -5984 0
5984 5985 0
-5984 -5985 0
4989 5860 5985 5986 0
4989 5860 -5985 -5986 0
4989 -5860 5985 -5986 0
4989 -5860 -5985 -5986 0
-4989 5860 5985 -5986 0
-4989 5860 -5985 -5986 0
-4989 -5860 5985 -5986 0
-4989 -5860 -5985 -5986 0
5986 5987 0
-5986 -5987 0
5134 5987 5988 0
5134 -5987 -5988 0
-5134 5987 -5988 0
-5134 -5987 -5988 0
5983 5988 -5989 0
5983 -5988 5989 0
-5983 5988 5989 0
-5983 -5988 -5989 0
2337 2701 -5990 0
2337 -2701 5990 0
-2337 2701 5990 0
-2337 -2701 -5990 0
1933 1969 1964 1957 5991 0
1933 1969 1964 -1957 -5991 0
1933 1969 -1964 1957 -5991 0
1933 1969 -1964 -1957 -5991 0
1933 -1969 1964 1957 -5991 0
1933 -1969 1964 -1957 -5991 0
1933 -1969 -1964 1957 -5991 0
1933 -1969 -1964 -1957 -5991 0
-1933 1969 1964 1957 -5991 0
-1933 1969 1964 -1957 -5991 0
-1933 1969 -1964 1957 -5991 0
-1933 1969 -1964 -1957 -5991 0
-1933 -1969 1964 1957 -5991 0
-1933 -1969 1964 -1957 -5991 0
-1933 -1969 -1964 1957 -5991 0
-1933 -1969 -1964 -1957 -5991 0
5991 5992 0
-5991 -5992 0
1987 2023 2018 2011 5993 0
1987 2023 2018 -2011 -5993 0
1987 2023 -2018 2011 -5993 0
1987 2023 -2018 -2011 -5993 0
1987 -2023 2018 2011 -5993 0
1987 -2023 2018 -2011 -5993 0
1987 -2023 -2018 2011 -5993 0
1987 -2023 -2018 -2011 -5993 0
-1987 2023 2018 2011 -5993 0
-1987 2023 2018 -2011 -5993 0
-1987 2023 -2018 2011 -5993 0
-1987 2023 -2018 -2011 -5993 0
-1987 -2023 2018 2011 -5993 0
-1987 -2023 2018 -2011 -5993 0
-1987 -2023 -2018 2011 -5993 0
-1987 -2023 -2018 -2011 -5993 0
5993 5994 0
-5993 -5994 0
5992 5994 -5995 0
5992 -5994 5995 0
-5992 5994 5995 0
-5992 -5994 -5995 0
265 5996 0
-265 -5996 0
5996 5997 0
-5996 -5997 0
5997 5998 0
-5997 -5998 0
5998 5999 0
-5998 -5999 0
342 6000 0
-342 -6000 0
5999 6000 6001 0
5999 -6000 -6001 0
-5999 6000 -6001 0
-5999 -6000 -6001 0
265 6002 0
-265 -6002 0
6002 6003 0
-6002 -6003 0
6003 6004 0
-6003 -6004 0
6004 6005 0
-6004 -6005 0
342 6006 0
-342 -6006 0
6005 6006 6007 0
6005 -6006 -6007 0
-6005 6006 -6007 0
-6005 -6006 -6007 0
6001 6007 -6008 0
6001 -6007 6008 0
-6001 6007 6008 0
-6001 -6007 -6008 0
3004 3067 -6009 0
3004 -3067 6009 0
-3004 3067 6009 0
-3004 -3067 -6009 0
5064 5982 6010 0
5064 -5982 -6010 0
-5064 5982 -6010 0
-5064 -5982 -6010 0
5127 5987 6011 0
5127 -5987 -6011 0
-5127 5987 -6011 0
-5127 -5987 -6011 0
6010 6011 -6012 0
6010 -6011 6012 0
-6010 6011 6012 0
-6010 -6011 -6012 0
2336 5079 6013 0
2336 -5079 -6013 0
-2336 5079 -6013 0
-2336 -5079 -6013 0
2337 5064 6014 0
2337 -5064 -6014 0
-2337 5064 -6014 0
-2337 -5064 -6014 0
6013 6014 6015 0
6013 -6014 -6015 0
-6013 6014 -6015 0
-6013 -6014 -6015 0
5810 4935 4936 6016 0
5810 4935 -4936 -6016 0
5810 -4935 4936 -6016 0
5810 -4935 -4936 -6016 0
-5810 4935 4936 -6016 0
-5810 4935 -4936 -6016 0
-5810 -4935 4936 -6016 0
-5810 -4935 -4936 -6016 0
6016 6017 0
-6016 -6017 0
6017 5779 4934 6018 0
6017 5779 -4934 -6018 0
6017 -5779 4934 -6018 0
6017 -5779 -4934 -6018 0
-6017 5779 4934 -6018 0
-6017 5779 -4934 -6018 0
-6017 -5779 4934 -6018 0
-6017 -5779 -4934 -6018 0
6018 6019 0
-6018 -6019 0
6015 6019 6020 0
6015 -6019 -6020 0
-6015 6019 -6020 0
-6015 -6019 -6020 0
2700 5142 6021 0
2700 -5142 -6021 0
-2700 5142 -6021 0
-2700 -5142 -6021 0
2701 5127 6022 0
2701 -5127 -6022 0
-2701 5127 -6022 0
-2701 -5127 -6022 0
6021 6022 6023 0
6021 -6022 -6023 0
-6021 6022 -6023 0
-6021 -6022 -6023 0
5891 4990 4991 6024 0
5891 4990 -4991 -6024 0
5891 -4990 4991 -6024 0
5891 -4990 -4991 -6024 0
-5891 4990 4991 -6024 0
-5891 4990 -4991 -6024 0
-5891 -4990 4991 -6024 0
-5891 -4990 -4991 -6024 0
6024 6025 0
-6024 -6025 0
6025 5860 4989 6026 0
6025 5860 -4989 -6026 0
6025 -5860 4989 -6026 0
6025 -5860 -4989 -6026 0
-6025 5860 4989 -6026 0
-6025 5860 -4989 -6026 0
-6025 -5860 4989 -6026 0
-6025 -5860 -4989 -6026 0
6026 6027 0
-6026 -6027 0
6023 6027 6028 0
6023 -6027 -6028 0
-6023 6027 -6028 0
-6023 -6027 -6028 0
6020 6028 -6029 0
6020 -6028 6029 0
-6020 6028 6029 0
-6020 -6028 -6029 0
1972 6030 0
-1972 -6030 0
1786 6031 0
-1786 -6031 0
6031 6032 0
-6031 -6032 0
1938 1961 6033 0
1938 -1961 -6033 0
-1938 1961 -6033 0
-1938 -1961 -6033 0
6033 6034 0
-6033 -6034 0
6032 6034 6035 0
6032 -6034 -6035 0
-6032 6034 -6035 0
-6032 -6034 -6035 0
1938 1950 6036 0
1938 -1950 -6036 0
-1938 1950 -6036 0
-1938 -1950 -6036 0
6036 6037 0
-6036 -6037 0
1786 6038 0
-1786 -6038 0
6038 6039 0
-6038 -6039 0
6037 6039 6040 0
6037 -6039 -6040 0
-6037 6039 -6040 0
-6037 -6039 -6040 0
6030 6035 6040 6041 0
6030 6035 -6040 -6041 0
6030 -6035 6040 -6041 0
6030 -6035 -6040 -6041 0
-6030 6035 6040 -6041 0
-6030 6035 -6040 -6041 0
-6030 -6035 6040 -6041 0
-6030 -6035 -6040 -6041 0
6041 6042 0
-6041 -6042 0
2026 6043 0
-2026 -6043 0
1806 6044 0
-1806 -6044 0
6044 6045 0
-6044 -6045 0
1992 2015 6046 0
1992 -2015 -6046 0
-1992 2015 -6046 0
-1992 -2015 -6046 0
6046 6047 0
-6046 -6047 0
6045 6047 6048 0
6045 -6047 -6048 0
-6045 6047 -6048 0
-6045 -6047 -6048 0
1992 2004 6049 0
1992 -2004 -6049 0
-1992 2004 -6049 0
-1992 -2004 -6049 0
6049 6050 0
-6049 -6050 0
1806 6051 0
-1806 -6051 0
6051 6052 0
-6051 -6052 0
6050 6052 6053 0
6050 -6052 -6053 0
-6050 6052 -6053 0
-6050 -6052 -6053 0
6043 6048 6053 6054 0
6043 6048 -6053 -6054 0
6043 -6048 6053 -6054 0
6043 -6048 -6053 -6054 0
-6043 6048 6053 -6054 0
-6043 6048 -6053 -6054 0
-6043 -6048 6053 -6054 0
-6043 -6048 -6053 -6054 0
6054 6055 0
-6054 -6055 0
6042 6055 -6056 0
6042 -6055 6056 0
-6042 6055 6056 0
-6042 -6055 -6056 0
6030 6043 -6057 0
6030 -6043 6057 0
-6030 6043 6057 0
-6030 -6043 -6057 0
1885 1905 -6058 0
1885 -1905 6058 0
-1885 1905 6058 0
-1885 -1905 -6058 0
5070 5133 -6059 0
5070 -5133 6059 0
-5070 5133 6059 0
-5070 -5133 -6059 0
5084 5147 -6060 0
5084 -5147 6060 0
-5084 5147 6060 0
-5084 -5147 -6060 0
1688 6061 0
-1688 -6061 0
6061 5056 5058 -6062 0
6061 5056 -5058 6062 0
6061 -5056 5058 6062 0
6061 -5056 -5058 6062 0
-6061 5056 5058 6062 0
-6061 5056 -5058 6062 0
-6061 -5056 5058 6062 0
-6061 -5056 -5058 6062 0
5075 5057 6062 -6063 0
5075 5057 -6062 6063 0
5075 -5057 6062 6063 0
5075 -5057 -6062 6063 0
-5075 5057 6062 6063 0
-5075 5057 -6062 6063 0
-5075 -5057 6062 6063 0
-5075 -5057 -6062 6063 0
6063 6064 0
-6063 -6064 0
1715 6065 0
-1715 -6065 0
6065 5119 5121 -6066 0
6065 5119 -5121 6066 0
6065 -5119 5121 6066 0
6065 -5119 -5121 6066 0
-6065 5119 5121 6066 0
-6065 5119 -5121 6066 0
-6065 -5119 5121 6066 0
-6065 -5119 -5121 6066 0
5138 5120 6066 -6067 0
5138 5120 -6066 6067 0
5138 -5120 6066 6067 0
5138 -5120 -6066 6067 0
-5138 5120 6066 6067 0
-5138 5120 -6066 6067 0
-5138 -5120 6066 6067 0
-5138 -5120 -6066 6067 0
6067 6068 0
-6067 -6068 0
6064 6068 -6069 0
6064 -6068 6069 0
-6064 6068 6069 0
-6064 -6068 -6069 0
6040 6070 0
-6040 -6070 0
5749 3007 5166 6071 0
5749 3007 -5166 -6071 0
5749 -3007 5166 -6071 0
5749 -3007 -5166 -6071 0
-5749 3007 5166 -6071 0
-5749 3007 -5166 -6071 0
-5749 -3007 5166 -6071 0
-5749 -3007 -5166 -6071 0
6071 6072 0
-6071 -6072 0
6070 6072 6073 0
6070 -6072 -6073 0
-6070 6072 -6073 0
-6070 -6072 -6073 0
6053 6074 0
-6053 -6074 0
5750 3070 5176 6075 0
5750 3070 -5176 -6075 0
5750 -3070 5176 -6075 0
5750 -3070 -5176 -6075 0
-5750 3070 5176 -6075 0
-5750 3070 -5176 -6075 0
-5750 -3070 5176 -6075 0
-5750 -3070 -5176 -6075 0
6075 6076 0
-6075 -6076 0
6074 6076 6077 0
6074 -6076 -6077 0
-6074 6076 -6077 0
-6074 -6076 -6077 0
6073 6077 -6078 0
6073 -6077 6078 0
-6073 6077 6078 0
-6073 -6077 -6078 0
2930 2963 -6079 0
2930 -2963 6079 0
-2930 2963 6079 0
-2930 -2963 -6079 0
5075 5059 5057 -6080 0
5075 5059 -5057 6080 0
5075 -5059 5057 6080 0
5075 -5059 -5057 6080 0
-5075 5059 5057 6080 0
-5075 5059 -5057 6080 0
-5075 -5059 5057 6080 0
-5075 -5059 -5057 6080 0
5074 5067 6080 -6081 0
5074 5067 -6080 6081 0
5074 -5067 6080 6081 0
5074 -5067 -6080 6081 0
-5074 5067 6080 6081 0
-5074 5067 -6080 6081 0
-5074 -5067 6080 6081 0
-5074 -5067 -6080 6081 0
6081 6082 0
-6081 -6082 0
6082 6083 0
-6082 -6083 0
2330 6083 6084 0
2330 -6083 -6084 0
-2330 6083 -6084 0
-2330 -6083 -6084 0
5138 5122 5120 -6085 0
5138 5122 -5120 6085 0
5138 -5122 5120 6085 0
5138 -5122 -5120 6085 0
-5138 5122 5120 6085 0
-5138 5122 -5120 6085 0
-5138 -5122 5120 6085 0
-5138 -5122 -5120 6085 0
5137 5130 6085 -6086 0
5137 5130 -6085 6086 0
5137 -5130 6085 6086 0
5137 -5130 -6085 6086 0
-5137 5130 6085 6086 0
-5137 5130 -6085 6086 0
-5137 -5130 6085 6086 0
-5137 -5130 -6085 6086 0
6086 6087 0
-6086 -6087 0
6087 6088 0
-6087 -6088 0
2694 6088 6089 0
2694 -6088 -6089 0
-2694 6088 -6089 0
-2694 -6088 -6089 0
6084 6089 -6090 0
6084 -6089 6090 0
-6084 6089 6090 0
-6084 -6089 -6090 0
5060 6061 5074 -6091 0
5060 6061 -5074 6091 0
5060 -6061 5074 6091 0
5060 -6061 -5074 6091 0
-5060 6061 5074 6091 0
-5060 6061 -5074 6091 0
-5060 -6061 5074 6091 0
-5060 -6061 -5074 6091 0
5058 5057 6091 -6092 0
5058 5057 -6091 6092 0
5058 -5057 6091 6092 0
5058 -5057 -6091 6092 0
-5058 5057 6091 6092 0
-5058 5057 -6091 6092 0
-5058 -5057 6091 6092 0
-5058 -5057 -6091 6092 0
6092 6093 0
-6092 -6093 0
5123 6065 5137 -6094 0
5123 6065 -5137 6094 0
5123 -6065 5137 6094 0
5123 -6065 -5137 6094 0
-5123 6065 5137 6094 0
-5123 6065 -5137 6094 0
-5123 -6065 5137 6094 0
-5123 -6065 -5137 6094 0
5121 5120 6094 -6095 0
5121 5120 -6094 6095 0
5121 -5120 6094 6095 0
5121 -5120 -6094 6095 0
-5121 5120 6094 6095 0
-5121 5120 -6094 6095 0
-5121 -5120 6094 6095 0
-5121 -5120 -6094 6095 0
6095 6096 0
-6095 -6096 0
6093 6096 -6097 0
6093 -6096 6097 0
-6093 6096 6097 0
-6093 -6096 -6097 0
6040 6053 -6098 0
6040 -6053 6098 0
-6040 6053 6098 0
-6040 -6053 -6098 0
6035 6048 -6099 0
6035 -6048 6099 0
-6035 6048 6099 0
-6035 -6048 -6099 0
1926 1952 6100 0
1926 -1952 -6100 0
-1926 1952 -6100 0
-1926 -1952 -6100 0
1980 2006 6101 0
1980 -2006 -6101 0
-1980 2006 -6101 0
-1980 -2006 -6101 0
6100 6101 -6102 0
6100 -6101 6102 0
-6100 6101 6102 0
-6100 -6101 -6102 0
6035 6103 0
-6035 -6103 0
6103 6072 6104 0
6103 -6072 -6104 0
-6103 6072 -6104 0
-6103 -6072 -6104 0
6048 6105 0
-6048 -6105 0
6105 6076 6106 0
6105 -6076 -6106 0
-6105 6076 -6106 0
-6105 -6076 -6106 0
6104 6106 -6107 0
6104 -6106 6107 0
-6104 6106 6107 0
-6104 -6106 -6107 0
1786 6108 0
-1786 -6108 0
6108 6109 0
-6108 -6109 0
6109 1483 6110 0
6109 -1483 -6110 0
-6109 1483 -6110 0
-6109 -1483 -6110 0
6110 6111 0
-6110 -6111 0
6072 6111 6112 0
6072 -6111 -6112 0
-6072 6111 -6112 0
-6072 -6111 -6112 0
1806 6113 0
-1806 -6113 0
6113 6114 0
-6113 -6114 0
6114 1581 6115 0
6114 -1581 -6115 0
-6114 1581 -6115 0
-6114 -1581 -6115 0
6115 6116 0
-6115 -6116 0
6076 6116 6117 0
6076 -6116 -6117 0
-6076 6116 -6117 0
-6076 -6116 -6117 0
6112 6117 -6118 0
6112 -6117 6118 0
-6112 6117 6118 0
-6112 -6117 -6118 0
6110 6115 -6119 0
6110 -6115 6119 0
-6110 6115 6119 0
-6110 -6115 -6119 0
2251 2615 -6120 0
2251 -2615 6120 0
-2251 2615 6120 0
-2251 -2615 -6120 0
5075 5074 5058 -6121 0
5075 5074 -5058 6121 0
5075 -5074 5058 6121 0
5075 -5074 -5058 6121 0
-5075 5074 5058 6121 0
-5075 5074 -5058 6121 0
-5075 -5074 5058 6121 0
-5075 -5074 -5058 6121 0
5059 5057 6121 -6122 0
5059 5057 -6121 6122 0
5059 -5057 6121 6122 0
5059 -5057 -6121 6122 0
-5059 5057 6121 6122 0
-5059 5057 -6121 6122 0
-5059 -5057 6121 6122 0
-5059 -5057 -6121 6122 0
6122 6123 0
-6122 -6123 0
6123 6124 0
-6123 -6124 0
6124 5841 6125 0
6124 -5841 -6125 0
-6124 5841 -6125 0
-6124 -5841 -6125 0
5138 5137 5121 -6126 0
5138 5137 -5121 6126 0
5138 -5137 5121 6126 0
5138 -5137 -5121 6126 0
-5138 5137 5121 6126 0
-5138 5137 -5121 6126 0
-5138 -5137 5121 6126 0
-5138 -5137 -5121 6126 0
5122 5120 6126 -6127 0
5122 5120 -6126 6127 0
5122 -5120 6126 6127 0
5122 -5120 -6126 6127 0
-5122 5120 6126 6127 0
-5122 5120 -6126 6127 0
-5122 -5120 6126 6127 0
-5122 -5120 -6126 6127 0
6127 6128 0
-6127 -6128 0
6128 6129 0
-6128 -6129 0
6129 5922 6130 0
6129 -5922 -6130 0
-6129 5922 -6130 0
-6129 -5922 -6130 0
6125 6130 -6131 0
6125 -6130 6131 0
-6125 6130 6131 0
-6125 -6130 -6131 0
6064 6132 0
-6064 -6132 0
6132 6019 6133 0
6132 -6019 -6133 0
-6132 6019 -6133 0
-6132 -6019 -6133 0
6068 6134 0
-6068 -6134 0
6134 6027 6135 0
6134 -6027 -6135 0
-6134 6027 -6135 0
-6134 -6027 -6135 0
6133 6135 -6136 0
6133 -6135 6136 0
-6133 6135 6136 0
-6133 -6135 -6136 0
5057 5060 5059 -6137 0
5057 5060 -5059 6137 0
5057 -5060 5059 6137 0
5057 -5060 -5059 6137 0
-5057 5060 5059 6137 0
-5057 5060 -5059 6137 0
-5057 -5060 5059 6137 0
-5057 -5060 -5059 6137 0
5058 5074 6137 -6138 0
5058 5074 -6137 6138 0
5058 -5074 6137 6138 0
5058 -5074 -6137 6138 0
-5058 5074 6137 6138 0
-5058 5074 -6137 6138 0
-5058 -5074 6137 6138 0
-5058 -5074 -6137 6138 0
6138 6139 0
-6138 -6139 0
6139 6140 0
-6139 -6140 0
6019 6140 6141 0
6019 -6140 -6141 0
-6019 6140 -6141 0
-6019 -6140 -6141 0
5120 5123 5122 -6142 0
5120 5123 -5122 6142 0
5120 -5123 5122 6142 0
5120 -5123 -5122 6142 0
-5120 5123 5122 6142 0
-5120 5123 -5122 6142 0
-5120 -5123 5122 6142 0
-5120 -5123 -5122 6142 0
5121 5137 6142 -6143 0
5121 5137 -6142 6143 0
5121 -5137 6142 6143 0
5121 -5137 -6142 6143 0
-5121 5137 6142 6143 0
-5121 5137 -6142 6143 0
-5121 -5137 6142 6143 0
-5121 -5137 -6142 6143 0
6143 6144 0
-6143 -6144 0
6144 6145 0
-6144 -6145 0
6027 6145 6146 0
6027 -6145 -6146 0
-6027 6145 -6146 0
-6027 -6145 -6146 0
6141 6146 -6147 0
6141 -6146 6147 0
-6141 6146 6147 0
-6141 -6146 -6147 0
2330 5079 5840 4940 6148 0
2330 5079 5840 -4940 -6148 0
2330 5079 -5840 4940 -6148 0
2330 5079 -5840 -4940 -6148 0
2330 -5079 5840 4940 -6148 0
2330 -5079 5840 -4940 -6148 0
2330 -5079 -5840 4940 -6148 0
2330 -5079 -5840 -4940 -6148 0
-2330 5079 5840 4940 -6148 0
-2330 5079 5840 -4940 -6148 0
-2330 5079 -5840 4940 -6148 0
-2330 5079 -5840 -4940 -6148 0
-2330 -5079 5840 4940 -6148 0
-2330 -5079 5840 -4940 -6148 0
-2330 -5079 -5840 4940 -6148 0
-2330 -5079 -5840 -4940 -6148 0
2694 5142 5921 4995 6149 0
2694 5142 5921 -4995 -6149 0
2694 5142 -5921 4995 -6149 0
2694 5142 -5921 -4995 -6149 0
2694 -5142 5921 4995 -6149 0
2694 -5142 5921 -4995 -6149 0
2694 -5142 -5921 4995 -6149 0
2694 -5142 -5921 -4995 -6149 0
-2694 5142 5921 4995 -6149 0
-2694 5142 5921 -4995 -6149 0
-2694 5142 -5921 4995 -6149 0
-2694 5142 -5921 -4995 -6149 0
-2694 -5142 5921 4995 -6149 0
-2694 -5142 5921 -4995 -6149 0
-2694 -5142 -5921 4995 -6149 0
-2694 -5142 -5921 -4995 -6149 0
6148 6149 -6150 0
6148 -6149 6150 0
-6148 6149 6150 0
-6148 -6149 -6150 0
4936 4937 4944 6151 0
4936 4937 -4944 -6151 0
4936 -4937 4944 -6151 0
4936 -4937 -4944 -6151 0
-4936 4937 4944 -6151 0
-4936 4937 -4944 -6151 0
-4936 -4937 4944 -6151 0
-4936 -4937 -4944 -6151 0
6151 6152 0
-6151 -6152 0
5776 4933 6152 6153 0
5776 4933 -6152 -6153 0
5776 -4933 6152 -6153 0
5776 -4933 -6152 -6153 0
-5776 4933 6152 -6153 0
-5776 4933 -6152 -6153 0
-5776 -4933 6152 -6153 0
-5776 -4933 -6152 -6153 0
6153 6154 0
-6153 -6154 0
6124 6154 6155 0
6124 -6154 -6155 0
-6124 6154 -6155 0
-6124 -6154 -6155 0
4991 4992 4999 6156 0
4991 4992 -4999 -6156 0
4991 -4992 4999 -6156 0
4991 -4992 -4999 -6156 0
-4991 4992 4999 -6156 0
-4991 4992 -4999 -6156 0
-4991 -4992 4999 -6156 0
-4991 -4992 -4999 -6156 0
6156 6157 0
-6156 -6157 0
5857 4988 6157 6158 0
5857 4988 -6157 -6158 0
5857 -4988 6157 -6158 0
5857 -4988 -6157 -6158 0
-5857 4988 6157 -6158 0
-5857 4988 -6157 -6158 0
-5857 -4988 6157 -6158 0
-5857 -4988 -6157 -6158 0
6158 6159 0
-6158 -6159 0
6129 6159 6160 0
6129 -6159 -6160 0
-6129 6159 -6160 0
-6129 -6159 -6160 0
6155 6160 -6161 0
6155 -6160 6161 0
-6155 6160 6161 0
-6155 -6160 -6161 0
405 6162 0
-405 -6162 0
405 6163 0
-405 -6163 0
6162 6163 -6164 0
6162 -6163 6164 0
-6162 6163 6164 0
-6162 -6163 -6164 0
3031 3094 -6165 0
3031 -3094 6165 0
-3031 3094 6165 0
-3031 -3094 -6165 0
2041 2142 2047 -6166 0
2041 2142 -2047 6166 0
2041 -2142 2047 6166 0
2041 -2142 -2047 6166 0
-2041 2142 2047 6166 0
-2041 2142 -2047 6166 0
-2041 -2142 2047 6166 0
-2041 -2142 -2047 6166 0
2035 2038 6166 -6167 0
2035 2038 -6166 6167 0
2035 -2038 6166 6167 0
2035 -2038 -6166 6167 0
-2035 2038 6166 6167 0
-2035 2038 -6166 6167 0
-2035 -2038 6166 6167 0
-2035 -2038 -6166 6167 0
6167 6168 0
-6167 -6168 0
6168 6169 0
-6168 -6169 0
6169 3134 6170 0
6169 -3134 -6170 0
-6169 3134 -6170 0
-6169 -3134 -6170 0
2405 2506 2411 -6171 0
2405 2506 -2411 6171 0
2405 -2506 2411 6171 0
2405 -2506 -2411 6171 0
-2405 2506 2411 6171 0
-2405 2506 -2411 6171 0
-2405 -2506 2411 6171 0
-2405 -2506 -2411 6171 0
2399 2402 6171 -6172 0
2399 2402 -6171 6172 0
2399 -2402 6171 6172 0
2399 -2402 -6171 6172 0
-2399 2402 6171 6172 0
-2399 2402 -6171 6172 0
-2399 -2402 6171 6172 0
-2399 -2402 -6171 6172 0
6172 6173 0
-6172 -6173 0
6173 6174 0
-6173 -6174 0
6174 3152 6175 0
6174 -3152 -6175 0
-6174 3152 -6175 0
-6174 -3152 -6175 0
6170 6175 -6176 0
6170 -6175 6176 0
-6170 6175 6176 0
-6170 -6175 -6176 0
408 6177 0
-408 -6177 0
408 6178 0
-408 -6178 0
6177 6178 -6179 0
6177 -6178 6179 0
-6177 6178 6179 0
-6177 -6178 -6179 0
411 6180 0
-411 -6180 0
411 6181 0
-411 -6181 0
6180 6181 -6182 0
6180 -6181 6182 0
-6180 6181 6182 0
-6180 -6181 -6182 0
412 6183 0
-412 -6183 0
412 6184 0
-412 -6184 0
6183 6184 -6185 0
6183 -6184 6185 0
-6183 6184 6185 0
-6183 -6184 -6185 0
-626 6186 0
-629 6186 0
-632 6186 0
-635 6186 0
-638 6186 0
-783 6186 0
-786 6186 0
-789 6186 0
-898 6186 0
-901 6186 0
-904 6186 0
-907 6186 0
-910 6186 0
-1097 6186 0
-1294 6186 0
-1481 6186 0
-1678 6186 0
-1733 6186 0
-1784 6186 0
-1825 6186 0
-1848 6186 0
-1863 6186 0
-1882 6186 0
-1923 6186 0
-2032 6186 0
-2761 6186 0
-2908 6186 0
-2975 6186 0
-2988 6186 0
-3115 6186 0
-3128 6186 0
-3165 6186 0
-3322 6186 0
-3367 6186 0
-3412 6186 0
-3457 6186 0
-3502 6186 0
-3547 6186 0
-3592 6186 0
-3637 6186 0
-3822 6186 0
-3841 6186 0
-3860 6186 0
-3879 6186 0
-3936 6186 0
-3963 6186 0
-3990 6186 0
-4005 6186 0
-4020 6186 0
-4035 6186 0
-4050 6186 0
-4065 6186 0
-4080 6186 0
-4093 6186 0
-4132 6186 0
-4165 6186 0
-4200 6186 0
-4239 6186 0
-4272 6186 0
-4307 6186 0
-4340 6186 0
-4375 6186 0
-4392 6186 0
-4411 6186 0
-4456 6186 0
-4499 6186 0
-4572 6186 0
-4597 6186 0
-4638 6186 0
-4713 6186 0
-4746 6186 0
-4789 6186 0
-4826 6186 0
-4863 6186 0
-4892 6186 0
-4921 6186 0
-5032 6186 0
-5159 6186 0
-5180 6186 0
-5187 6186 0
-5194 6186 0
-5201 6186 0
-5208 6186 0
-5215 6186 0
-5222 6186 0
-5229 6186 0
-5236 6186 0
-5243 6186 0
-5250 6186 0
-5279 6186 0
-5286 6186 0
-5293 6186 0
-5300 6186 0
-5341 6186 0
-5342 6186 0
-5351 6186 0
-5372 6186 0
-5373 6186 0
-5417 6186 0
-5434 6186 0
-5447 6186 0
-5454 6186 0
-5461 6186 0
-5468 6186 0
-5475 6186 0
-5482 6186 0
-5501 6186 0
-5514 6186 0
-5521 6186 0
-5528 6186 0
-5535 6186 0
-5542 6186 0
-5549 6186 0
-5556 6186 0
-5563 6186 0
-5570 6186 0
-5579 6186 0
-5588 6186 0
-5597 6186 0
-5610 6186 0
-5617 6186 0
-5624 6186 0
-5631 6186 0
-5638 6186 0
-5647 6186 0
-5656 6186 0
-5665 6186 0
-5674 6186 0
-5683 6186 0
-5688 6186 0
-5693 6186 0
-5698 6186 0
-5703 6186 0
-5708 6186 0
-5713 6186 0
-5718 6186 0
-5723 6186 0
-5728 6186 0
-5733 6186 0
-5734 6186 0
-5735 6186 0
-5736 6186 0
-5737 6186 0
-5738 6186 0
-5741 6186 0
-5742 6186 0
-5743 6186 0
-5744 6186 0
-5745 6186 0
-5746 6186 0
-5747 6186 0
-5748 6186 0
-5751 6186 0
-5754 6186 0
-5755 6186 0
-5756 6186 0
-5757 6186 0
-5758 6186 0
-5759 6186 0
-5760 6186 0
-5761 6186 0
-5762 6186 0
-5763 6186 0
-5926 6186 0
-5929 6186 0
-5932 6186 0
-5933 6186 0
-5934 6186 0
-5937 6186 0
-5938 6186 0
-5939 6186 0
-5942 6186 0
-5945 6186 0
-5948 6186 0
-5959 6186 0
-5972 6186 0
-5975 6186 0
-5978 6186 0
-5989 6186 0
-5990 6186 0
-5995 6186 0
-6008 6186 0
-6009 6186 0
-6012 6186 0
-6029 6186 0
-6056 6186 0
-6057 6186 0
-6058 6186 0
-6059 6186 0
-6060 6186 0
-6069 6186 0
-6078 6186 0
-6079 6186 0
-6090 6186 0
-6097 6186 0
-6098 6186 0
-6099 6186 0
-6102 6186 0
-6107 6186 0
-6118 6186 0
-6119 6186 0
-6120 6186 0
-6131 6186 0
-6136 6186 0
-6147 6186 0
-6150 6186 0
-6161 6186 0
-6164 6186 0
-6165 6186 0
-6176 6186 0
-6179 6186 0
-6182 6186 0
-6185 6186 0
-6186 626 629 632 635 638 783 786 789 898 901 904 907 910 1097 1294 1481 1678 1733 1784 1825 1848 1863 1882 1923 2032 2761 2908 2975 2988 3115 3128 3165 3322 3367 3412 3457 3502 3547 3592 3637 3822 3841 3860 3879 3936 3963 3990 4005 4020 4035 4050 4065 4080 4093 4132 4165 4200 4239 4272 4307 4340 4375 4392 4411 4456 4499 4572 4597 4638 4713 4746 4789 4826 4863 4892 4921 5032 5159 5180 5187 5194 5201 5208 5215 5222 5229 5236 5243 5250 5279 5286 5293 5300 5341 5342 5351 5372 5373 5417 5434 5447 5454 5461 5468 5475 5482 5501 5514 5521 5528 5535 5542 5549 5556 5563 5570 5579 5588 5597 5610 5617 5624 5631 5638 5647 5656 5665 5674 5683 5688 5693 5698 5703 5708 5713 5718 5723 5728 5733 5734 5735 5736 5737 5738 5741 5742 5743 5744 5745 5746 5747 5748 5751 5754 5755 5756 5757 5758 5759 5760 5761 5762 5763 5926 5929 5932 5933 5934 5937 5938 5939 5942 5945 5948 5959 5972 5975 5978 5989 5990 5995 6008 6009 6012 6029 6056 6057 6058 6059 6060 6069 6078 6079 6090 6097 6098 6099 6102 6107 6118 6119 6120 6131 6136 6147 6150 6161 6164 6165 6176 6179 6182 6185 0
-1 215 0
1 -215 0
-2 216 0
2 -216 0
-3 217 0
3 -217 0
-4 218 0
4 -218 0
-5 219 0
5 -219 0
-6 220 0
6 -220 0
-7 221 0
7 -221 0
-8 222 0
8 -222 0
-9 223 0
9 -223 0
-10 224 0
10 -224 0
-11 225 0
11 -225 0
-12 226 0
12 -226 0
-13 227 0
13 -227 0
-14 228 0
14 -228 0
-15 229 0
15 -229 0
-16 230 0
16 -230 0
-17 231 0
17 -231 0
-18 232 0
18 -232 0
-19 233 0
19 -233 0
-20 234 0
20 -234 0
-21 235 0
21 -235 0
-22 236 0
22 -236 0
-23 237 0
23 -237 0
-24 238 0
24 -238 0
-25 239 0
25 -239 0
-26 240 0
26 -240 0
-27 241 0
27 -241 0
-28 242 0
28 -242 0
-29 243 0
29 -243 0
-30 244 0
30 -244 0
-31 245 0
31 -245 0
-32 246 0
32 -246 0
-33 247 0
33 -247 0
-34 248 0
34 -248 0
-35 249 0
35 -249 0
-36 250 0
36 -250 0
-37 251 0
37 -251 0
-38 252 0
38 -252 0
-39 253 0
39 -253 0
-40 254 0
40 -254 0
-41 255 0
41 -255 0
-42 256 0
42 -256 0
-43 257 0
43 -257 0
-44 258 0
44 -258 0
-45 259 0
45 -259 0
-46 260 0
46 -260 0
-47 261 0
47 -261 0
-48 262 0
48 -262 0
-49 263 0
49 -263 0
-50 264 0
50 -264 0
-51 265 0
51 -265 0
-52 266 0
52 -266 0
-53 267 0
53 -267 0
-54 268 0
54 -268 0
-55 269 0
55 -269 0
-56 270 0
56 -270 0
-57 271 0
57 -271 0
-58 272 0
58 -272 0
-59 273 0
59 -273 0
-60 274 0
60 -274 0
-61 275 0
61 -275 0
-62 276 0
62 -276 0
-63 277 0
63 -277 0
-64 278 0
64 -278 0
-65 279 0
65 -279 0
-66 280 0
66 -280 0
-67 281 0
67 -281 0
-68 282 0
68 -282 0
-69 283 0
69 -283 0
-70 284 0
70 -284 0
-71 285 0
71 -285 0
-72 286 0
72 -286 0
-73 287 0
73 -287 0
-74 288 0
74 -288 0
-75 289 0
75 -289 0
-76 290 0
76 -290 0
-77 291 0
77 -291 0
-78 292 0
78 -292 0
-79 293 0
79 -293 0
-80 294 0
80 -294 0
-81 295 0
81 -295 0
-82 296 0
82 -296 0
-83 297 0
83 -297 0
-84 298 0
84 -298 0
-85 299 0
85 -299 0
-86 300 0
86 -300 0
-87 301 0
87 -301 0
-88 302 0
88 -302 0
-89 303 0
89 -303 0
-90 304 0
90 -304 0
-91 305 0
91 -305 0
-92 306 0
92 -306 0
-93 307 0
93 -307 0
-94 308 0
94 -308 0
-95 309 0
95 -309 0
-96 310 0
96 -310 0
-97 311 0
97 -311 0
-98 312 0
98 -312 0
-99 313 0
99 -313 0
-100 314 0
100 -314 0
-101 315 0
101 -315 0
-102 316 0
102 -316 0
-103 317 0
103 -317 0
-104 318 0
104 -318 0
-105 319 0
105 -319 0
-106 320 0
106 -320 0
-107 321 0
107 -321 0
-108 322 0
108 -322 0
-109 323 0
109 -323 0
-110 324 0
110 -324 0
-111 325 0
111 -325 0
-112 326 0
112 -326 0
-113 327 0
113 -327 0
-114 328 0
114 -328 0
-115 329 0
115 -329 0
-116 330 0
116 -330 0
-117 331 0
117 -331 0
-118 332 0
118 -332 0
-119 333 0
119 -333 0
-120 334 0
120 -334 0
-121 335 0
121 -335 0
-122 336 0
122 -336 0
-123 337 0
123 -337 0
-124 338 0
124 -338 0
-125 339 0
125 -339 0
-126 340 0
126 -340 0
-127 341 0
127 -341 0
-128 342 0
128 -342 0
-129 343 0
129 -343 0
-130 344 0
130 -344 0
-131 345 0
131 -345 0
-132 346 0
132 -346 0
-133 347 0
133 -347 0
-134 348 0
134 -348 0
-135 349 0
135 -349 0
-136 350 0
136 -350 0
-137 351 0
137 -351 0
-138 352 0
138 -352 0
-139 353 0
139 -353 0
-140 354 0
140 -354 0
-141 355 0
141 -355 0
-142 356 0
142 -356 0
-143 357 0
143 -357 0
-144 358 0
144 -358 0
-145 359 0
145 -359 0
-146 360 0
146 -360 0
-147 361 0
147 -361 0
-148 362 0
148 -362 0
-149 363 0
149 -363 0
-150 364 0
150 -364 0
-151 365 0
151 -365 0
-152 366 0
152 -366 0
-153 367 0
153 -367 0
-154 368 0
154 -368 0
-155 369 0
155 -369 0
-156 370 0
156 -370 0
-157 371 0
157 -371 0
-158 372 0
158 -372 0
-159 373 0
159 -373 0
-160 374 0
160 -374 0
-161 375 0
161 -375 0
-162 376 0
162 -376 0
-163 377 0
163 -377 0
-164 378 0
164 -378 0
-165 379 0
165 -379 0
-166 380 0
166 -380 0
-167 381 0
167 -381 0
-168 382 0
168 -382 0
-169 383 0
169 -383 0
-170 384 0
170 -384 0
-171 385 0
171 -385 0
-172 386 0
172 -386 0
-173 387 0
173 -387 0
-174 388 0
174 -388 0
-175 389 0
175 -389 0
-176 390 0
176 -390 0
-177 391 0
177 -391 0
-178 392 0
178 -392 0
-179 393 0
179 -393 0
-180 394 0
180 -394 0
-181 395 0
181 -395 0
-182 396 0
182 -396 0
-183 397 0
183 -397 0
-184 398 0
184 -398 0
-185 399 0
185 -399 0
-186 400 0
186 -400 0
-187 401 0
187 -401 0
-188 402 0
188 -402 0
-189 403 0
189 -403 0
-190 404 0
190 -404 0
-191 405 0
191 -405 0
-192 406 0
192 -406 0
-193 407 0
193 -407 0
-194 408 0
194 -408 0
-195 409 0
195 -409 0
-196 410 0
196 -410 0
-197 411 0
197 -411 0
-198 412 0
198 -412 0
-199 413 0
199 -413 0
-200 414 0
200 -414 0
-201 415 0
201 -415 0
-202 416 0
202 -416 0
-203 417 0
203 -417 0
-204 418 0
204 -418 0
-205 419 0
205 -419 0
-206 420 0
206 -420 0
-207 421 0
207 -421 0
-208 422 0
208 -422 0
-209 423 0
209 -423 0
-210 424 0
210 -424 0
-211 425 0
211 -425 0
-212 426 0
212 -426 0
-213 427 0
213 -427 0
-214 428 0
214 -428 0
-6187 16 0
-6187 -19 0
-6187 39 0
-6187 62 0
-6187 64 0
-6187 95 0
-6187 100 0
-6187 -116 0
-6187 126 0
-6187 -133 0
6187 -16 19 -39 -62 -64 -95 -100 116 -126 133 0
-6188 16 0
-6188 -19 0
-6188 39 0
-6188 65 0
-6188 95 0
-6188 100 0
-6188 -116 0
-6188 126 0
-6188 -133 0
6188 -16 19 -39 -65 -95 -100 116 -126 133 0
-6189 16 0
-6189 -19 0
-6189 39 0
-6189 66 0
-6189 95 0
-6189 100 0
-6189 -116 0
-6189 126 0
-6189 -133 0
6189 -16 19 -39 -66 -95 -100 116 -126 133 0
-6190 16 0
-6190 -19 0
-6190 39 0
-6190 -57 0
-6190 -58 0
-6190 -62 0
-6190 95 0
-6190 100 0
-6190 -116 0
-6190 126 0
-6190 -133 0
6190 -16 19 -39 57 58 62 -95 -100 116 -126 133 0
-6191 16 0
-6191 -19 0
-6191 39 0
-6191 -61 0
-6191 -62 0
-6191 95 0
-6191 100 0
-6191 -116 0
-6191 126 0
-6191 -133 0
6191 -16 19 -39 61 62 -95 -100 116 -126 133 0
-6192 16 0
-6192 -19 0
-6192 39 0
-6192 -63 0
-6192 95 0
-6192 100 0
-6192 -116 0
-6192 126 0
-6192 -133 0
6192 -16 19 -39 63 -95 -100 116 -126 133 0
-6193 16 0
-6193 -19 0
-6193 39 0
-6193 -82 0
-6193 95 0
-6193 100 0
-6193 -116 0
-6193 126 0
-6193 -133 0
6193 -16 19 -39 82 -95 -100 116 -126 133 0
-6194 16 0
-6194 -19 0
-6194 39 0
-6194 62 0
-6194 64 0
-6194 94 0
-6194 100 0
-6194 101 0
-6194 -116 0
-6194 126 0
-6194 -133 0
6194 -16 19 -39 -62 -64 -94 -100 -101 116 -126 133 0
-6195 16 0
-6195 -19 0
-6195 39 0
-6195 65 0
-6195 94 0
-6195 100 0
-6195 101 0
-6195 -116 0
-6195 126 0
-6195 -133 0
6195 -16 19 -39 -65 -94 -100 -101 116 -126 133 0
-6196 16 0
-6196 -19 0
-6196 39 0
-6196 66 0
-6196 94 0
-6196 100 0
-6196 101 0
-6196 -116 0
-6196 126 0
-6196 -133 0
6196 -16 19 -39 -66 -94 -100 -101 116 -126 133 0
-6197 16 0
-6197 -19 0
-6197 39 0
-6197 -57 0
-6197 -58 0
-6197 -62 0
-6197 94 0
-6197 100 0
-6197 101 0
-6197 -116 0
-6197 126 0
-6197 -133 0
6197 -16 19 -39 57 58 62 -94 -100 -101 116 -126 133 0
-6198 16 0
-6198 -19 0
-6198 39 0
-6198 -61 0
-6198 -62 0
-6198 94 0
-6198 100 0
-6198 101 0
-6198 -116 0
-6198 126 0
-6198 -133 0
6198 -16 19 -39 61 62 -94 -100 -101 116 -126 133 0
-6199 16 0
-6199 -19 0
-6199 39 0
-6199 -63 0
-6199 94 0
-6199 100 0
-6199 101 0
-6199 -116 0
-6199 126 0
-6199 -133 0
6199 -16 19 -39 63 -94 -100 -101 116 -126 133 0
-6200 16 0
-6200 -19 0
-6200 39 0
-6200 -82 0
-6200 94 0
-6200 100 0
-6200 101 0
-6200 -116 0
-6200 126 0
-6200 -133 0
6200 -16 19 -39 82 -94 -100 -101 116 -126 133 0
-6201 16 0
-6201 -19 0
-6201 39 0
-6201 62 0
-6201 64 0
-6201 -93 0
-6201 100 0
-6201 -116 0
-6201 126 0
-6201 -133 0
6201 -16 19 -39 -62 -64 93 -100 116 -126 133 0
-6202 16 0
-6202 -19 0
-6202 39 0
-6202 65 0
-6202 -93 0
-6202 100 0
-6202 -116 0
-6202 126 0
-6202 -133 0
6202 -16 19 -39 -65 93 -100 116 -126 133 0
-6203 16 0
-6203 -19 0
-6203 39 0
-6203 66 0
-6203 -93 0
-6203 100 0
-6203 -116 0
-6203 126 0
-6203 -133 0
6203 -16 19 -39 -66 93 -100 116 -126 133 0
-6204 16 0
-6204 -19 0
-6204 39 0
-6204 -57 0
-6204 -58 0
-6204 -62 0
-6204 -93 0
-6204 100 0
-6204 -116 0
-6204 126 0
-6204 -133 0
6204 -16 19 -39 57 58 62 93 -100 116 -126 133 0
-6205 16 0
-6205 -19 0
-6205 39 0
-6205 -61 0
-6205 -62 0
-6205 -93 0
-6205 100 0
-6205 -116 0
-6205 126 0
-6205 -133 0
6205 -16 19 -39 61 62 93 -100 116 -126 133 0
-6206 16 0
-6206 -19 0
-6206 39 0
-6206 -63 0
-6206 -93 0
-6206 100 0
-6206 -116 0
-6206 126 0
-6206 -133 0
6206 -16 19 -39 63 93 -100 116 -126 133 0
-6207 16 0
-6207 -19 0
-6207 39 0
-6207 -82 0
-6207 -93 0
-6207 100 0
-6207 -116 0
-6207 126 0
-6207 -133 0
6207 -16 19 -39 82 93 -100 116 -126 133 0
-6208 16 0
-6208 -19 0
-6208 39 0
-6208 62 0
-6208 64 0
-6208 95 0
-6208 -116 0
-6208 -133 0
-6208 134 0
6208 -16 19 -39 -62 -64 -95 116 133 -134 0
-6209 16 0
-6209 -19 0
-6209 39 0
-6209 65 0
-6209 95 0
-6209 -116 0
-6209 -133 0
-6209 134 0
6209 -16 19 -39 -65 -95 116 133 -134 0
-6210 16 0
-6210 -19 0
-6210 39 0
-6210 66 0
-6210 95 0
-6210 -116 0
-6210 -133 0
-6210 134 0
6210 -16 19 -39 -66 -95 116 133 -134 0
-6211 16 0
-6211 -19 0
-6211 39 0
-6211 -57 0
-6211 -58 0
-6211 -62 0
-6211 95 0
-6211 -116 0
-6211 -133 0
-6211 134 0
6211 -16 19 -39 57 58 62 -95 116 133 -134 0
-6212 16 0
-6212 -19 0
-6212 39 0
-6212 -61 0
-6212 -62 0
-6212 95 0
-6212 -116 0
-6212 -133 0
-6212 134 0
6212 -16 19 -39 61 62 -95 116 133 -134 0
-6213 16 0
-6213 -19 0
-6213 39 0
-6213 -63 0
-6213 95 0
-6213 -116 0
-6213 -133 0
-6213 134 0
6213 -16 19 -39 63 -95 116 133 -134 0
-6214 16 0
-6214 -19 0
-6214 39 0
-6214 -83 0
-6214 95 0
-6214 -116 0
-6214 -133 0
-6214 134 0
6214 -16 19 -39 83 -95 116 133 -134 0
-6215 16 0
-6215 -19 0
-6215 39 0
-6215 62 0
-6215 64 0
-6215 94 0
-6215 101 0
-6215 -116 0
-6215 -133 0
-6215 134 0
6215 -16 19 -39 -62 -64 -94 -101 116 133 -134 0
-6216 16 0
-6216 -19 0
-6216 39 0
-6216 65 0
-6216 94 0
-6216 101 0
-6216 -116 0
-6216 -133 0
-6216 134 0
6216 -16 19 -39 -65 -94 -101 116 133 -134 0
-6217 16 0
-6217 -19 0
-6217 39 0
-6217 66 0
-6217 94 0
-6217 101 0
-6217 -116 0
-6217 -133 0
-6217 134 0
6217 -16 19 -39 -66 -94 -101 116 133 -134 0
-6218 16 0
-6218 -19 0
-6218 39 0
-6218 -57 0
-6218 -58 0
-6218 -62 0
-6218 94 0
-6218 101 0
-6218 -116 0
-6218 -133 0
-6218 134 0
6218 -16 19 -39 57 58 62 -94 -101 116 133 -134 0
-6219 16 0
-6219 -19 0
-6219 39 0
-6219 -61 0
-6219 -62 0
-6219 94 0
-6219 101 0
-6219 -116 0
-6219 -133 0
-6219 134 0
6219 -16 19 -39 61 62 -94 -101 116 133 -134 0
-6220 16 0
-6220 -19 0
-6220 39 0
-6220 -63 0
-6220 94 0
-6220 101 0
-6220 -116 0
-6220 -133 0
-6220 134 0
6220 -16 19 -39 63 -94 -101 116 133 -134 0
-6221 16 0
-6221 -19 0
-6221 39 0
-6221 -83 0
-6221 94 0
-6221 101 0
-6221 -116 0
-6221 -133 0
-6221 134 0
6221 -16 19 -39 83 -94 -101 116 133 -134 0
-6222 16 0
-6222 -19 0
-6222 39 0
-6222 62 0
-6222 64 0
-6222 -93 0
-6222 -116 0
-6222 -133 0
-6222 134 0
6222 -16 19 -39 -62 -64 93 116 133 -134 0
-6223 16 0
-6223 -19 0
-6223 39 0
-6223 65 0
-6223 -93 0
-6223 -116 0
-6223 -133 0
-6223 134 0
6223 -16 19 -39 -65 93 116 133 -134 0
-6224 16 0
-6224 -19 0
-6224 39 0
-6224 66 0
-6224 -93 0
-6224 -116 0
-6224 -133 0
-6224 134 0
6224 -16 19 -39 -66 93 116 133 -134 0
-6225 16 0
-6225 -19 0
-6225 39 0
-6225 -57 0
-6225 -58 0
-6225 -62 0
-6225 -93 0
-6225 -116 0
-6225 -133 0
-6225 134 0
6225 -16 19 -39 57 58 62 93 116 133 -134 0
-6226 16 0
-6226 -19 0
-6226 39 0
-6226 -61 0
-6226 -62 0
-6226 -93 0
-6226 -116 0
-6226 -133 0
-6226 134 0
6226 -16 19 -39 61 62 93 116 133 -134 0
-6227 16 0
-6227 -19 0
-6227 39 0
-6227 -63 0
-6227 -93 0
-6227 -116 0
-6227 -133 0
-6227 134 0
6227 -16 19 -39 63 93 116 133 -134 0
-6228 16 0
-6228 -19 0
-6228 39 0
-6228 -83 0
-6228 -93 0
-6228 -116 0
-6228 -133 0
-6228 134 0
6228 -16 19 -39 83 93 116 133 -134 0
-6229 16 0
-6229 -19 0
-6229 39 0
-6229 62 0
-6229 64 0
-6229 94 0
-6229 100 0
-6229 110 0
-6229 -116 0
-6229 126 0
-6229 -133 0
6229 -16 19 -39 -62 -64 -94 -100 -110 116 -126 133 0
-6230 16 0
-6230 -19 0
-6230 39 0
-6230 65 0
-6230 94 0
-6230 100 0
-6230 110 0
-6230 -116 0
-6230 126 0
-6230 -133 0
6230 -16 19 -39 -65 -94 -100 -110 116 -126 133 0
-6231 16 0
-6231 -19 0
-6231 39 0
-6231 66 0
-6231 94 0
-6231 100 0
-6231 110 0
-6231 -116 0
-6231 126 0
-6231 -133 0
6231 -16 19 -39 -66 -94 -100 -110 116 -126 133 0
-6232 16 0
-6232 -19 0
-6232 39 0
-6232 -57 0
-6232 -58 0
-6232 -62 0
-6232 94 0
-6232 100 0
-6232 110 0
-6232 -116 0
-6232 126 0
-6232 -133 0
6232 -16 19 -39 57 58 62 -94 -100 -110 116 -126 133 0
-6233 16 0
-6233 -19 0
-6233 39 0
-6233 -61 0
-6233 -62 0
-6233 94 0
-6233 100 0
-6233 110 0
-6233 -116 0
-6233 126 0
-6233 -133 0
6233 -16 19 -39 61 62 -94 -100 -110 116 -126 133 0
-6234 16 0
-6234 -19 0
-6234 39 0
-6234 -63 0
-6234 94 0
-6234 100 0
-6234 110 0
-6234 -116 0
-6234 126 0
-6234 -133 0
6234 -16 19 -39 63 -94 -100 -110 116 -126 133 0
-6235 16 0
-6235 -19 0
-6235 39 0
-6235 -82 0
-6235 94 0
-6235 100 0
-6235 110 0
-6235 -116 0
-6235 126 0
-6235 -133 0
6235 -16 19 -39 82 -94 -100 -110 116 -126 133 0
-6236 16 0
-6236 -19 0
-6236 39 0
-6236 62 0
-6236 64 0
-6236 -94 0
-6236 100 0
-6236 -101 0
-6236 -116 0
-6236 126 0
-6236 -133 0
6236 -16 19 -39 -62 -64 94 -100 101 116 -126 133 0
-6237 16 0
-6237 -19 0
-6237 39 0
-6237 65 0
-6237 -94 0
-6237 100 0
-6237 -101 0
-6237 -116 0
-6237 126 0
-6237 -133 0
6237 -16 19 -39 -65 94 -100 101 116 -126 133 0
-6238 16 0
-6238 -19 0
-6238 39 0
-6238 66 0
-6238 -94 0
-6238 100 0
-6238 -101 0
-6238 -116 0
-6238 126 0
-6238 -133 0
6238 -16 19 -39 -66 94 -100 101 116 -126 133 0
-6239 16 0
-6239 -19 0
-6239 39 0
-6239 -57 0
-6239 -58 0
-6239 -62 0
-6239 -94 0
-6239 100 0
-6239 -101 0
-6239 -116 0
-6239 126 0
-6239 -133 0
6239 -16 19 -39 57 58 62 94 -100 101 116 -126 133 0
-6240 16 0
-6240 -19 0
-6240 39 0
-6240 -61 0
-6240 -62 0
-6240 -94 0
-6240 100 0
-6240 -101 0
-6240 -116 0
-6240 126 0
-6240 -133 0
6240 -16 19 -39 61 62 94 -100 101 116 -126 133 0
-6241 16 0
-6241 -19 0
-6241 39 0
-6241 -63 0
-6241 -94 0
-6241 100 0
-6241 -101 0
-6241 -116 0
-6241 126 0
-6241 -133 0
6241 -16 19 -39 63 94 -100 101 116 -126 133 0
-6242 16 0
-6242 -19 0
-6242 39 0
-6242 -82 0
-6242 -94 0
-6242 100 0
-6242 -101 0
-6242 -116 0
-6242 126 0
-6242 -133 0
6242 -16 19 -39 82 94 -100 101 116 -126 133 0
-6243 16 0
-6243 -19 0
-6243 39 0
-6243 62 0
-6243 64 0
-6243 94 0
-6243 110 0
-6243 -116 0
-6243 -133 0
-6243 134 0
6243 -16 19 -39 -62 -64 -94 -110 116 133 -134 0
-6244 16 0
-6244 -19 0
-6244 39 0
-6244 65 0
-6244 94 0
-6244 110 0
-6244 -116 0
-6244 -133 0
-6244 134 0
6244 -16 19 -39 -65 -94 -110 116 133 -134 0
-6245 16 0
-6245 -19 0
-6245 39 0
-6245 66 0
-6245 94 0
-6245 110 0
-6245 -116 0
-6245 -133 0
-6245 134 0
6245 -16 19 -39 -66 -94 -110 116 133 -134 0
-6246 16 0
-6246 -19 0
-6246 39 0
-6246 -57 0
-6246 -58 0
-6246 -62 0
-6246 94 0
-6246 110 0
-6246 -116 0
-6246 -133 0
-6246 134 0
6246 -16 19 -39 57 58 62 -94 -110 116 133 -134 0
-6247 16 0
-6247 -19 0
-6247 39 0
-6247 -61 0
-6247 -62 0
-6247 94 0
-6247 110 0
-6247 -116 0
-6247 -133 0
-6247 134 0
6247 -16 19 -39 61 62 -94 -110 116 133 -134 0
-6248 16 0
-6248 -19 0
-6248 39 0
-6248 -63 0
-6248 94 0
-6248 110 0
-6248 -116 0
-6248 -133 0
-6248 134 0
6248 -16 19 -39 63 -94 -110 116 133 -134 0
-6249 16 0
-6249 -19 0
-6249 39 0
-6249 -83 0
-6249 94 0
-6249 110 0
-6249 -116 0
-6249 -133 0
-6249 134 0
6249 -16 19 -39 83 -94 -110 116 133 -134 0
-6250 16 0
-6250 -19 0
-6250 39 0
-6250 62 0
-6250 64 0
-6250 -94 0
-6250 -101 0
-6250 -116 0
-6250 -133 0
-6250 134 0
6250 -16 19 -39 -62 -64 94 101 116 133 -134 0
-6251 16 0
-6251 -19 0
-6251 39 0
-6251 65 0
-6251 -94 0
-6251 -101 0
-6251 -116 0
-6251 -133 0
-6251 134 0
6251 -16 19 -39 -65 94 101 116 133 -134 0
-6252 16 0
-6252 -19 0
-6252 39 0
-6252 66 0
-6252 -94 0
-6252 -101 0
-6252 -116 0
-6252 -133 0
-6252 134 0
6252 -16 19 -39 -66 94 101 116 133 -134 0
-6253 16 0
-6253 -19 0
-6253 39 0
-6253 -57 0
-6253 -58 0
-6253 -62 0
-6253 -94 0
-6253 -101 0
-6253 -116 0
-6253 -133 0
-6253 134 0
6253 -16 19 -39 57 58 62 94 101 116 133 -134 0
-6254 16 0
-6254 -19 0
-6254 39 0
-6254 -61 0
-6254 -62 0
-6254 -94 0
-6254 -101 0
-6254 -116 0
-6254 -133 0
-6254 134 0
6254 -16 19 -39 61 62 94 101 116 133 -134 0
-6255 16 0
-6255 -19 0
-6255 39 0
-6255 -63 0
-6255 -94 0
-6255 -101 0
-6255 -116 0
-6255 -133 0
-6255 134 0
6255 -16 19 -39 63 94 101 116 133 -134 0
-6256 16 0
-6256 -19 0
-6256 39 0
-6256 -83 0
-6256 -94 0
-6256 -101 0
-6256 -116 0
-6256 -133 0
-6256 134 0
6256 -16 19 -39 83 94 101 116 133 -134 0
-6257 16 0
-6257 -19 0
-6257 39 0
-6257 62 0
-6257 64 0
-6257 -94 0
-6257 100 0
-6257 -110 0
-6257 -116 0
-6257 126 0
-6257 -133 0
6257 -16 19 -39 -62 -64 94 -100 110 116 -126 133 0
-6258 16 0
-6258 -19 0
-6258 39 0
-6258 65 0
-6258 -94 0
-6258 100 0
-6258 -110 0
-6258 -116 0
-6258 126 0
-6258 -133 0
6258 -16 19 -39 -65 94 -100 110 116 -126 133 0
-6259 16 0
-6259 -19 0
-6259 39 0
-6259 66 0
-6259 -94 0
-6259 100 0
-6259 -110 0
-6259 -116 0
-6259 126 0
-6259 -133 0
6259 -16 19 -39 -66 94 -100 110 116 -126 133 0
-6260 16 0
-6260 -19 0
-6260 39 0
-6260 -57 0
-6260 -58 0
-6260 -62 0
-6260 -94 0
-6260 100 0
-6260 -110 0
-6260 -116 0
-6260 126 0
-6260 -133 0
6260 -16 19 -39 57 58 62 94 -100 110 116 -126 133 0
-6261 16 0
-6261 -19 0
-6261 39 0
-6261 -61 0
-6261 -62 0
-6261 -94 0
-6261 100 0
-6261 -110 0
-6261 -116 0
-6261 126 0
-6261 -133 0
6261 -16 19 -39 61 62 94 -100 110 116 -126 133 0
-6262 16 0
-6262 -19 0
-6262 39 0
-6262 -63 0
-6262 -94 0
-6262 100 0
-6262 -110 0
-6262 -116 0
-6262 126 0
-6262 -133 0
6262 -16 19 -39 63 94 -100 110 116 -126 133 0
-6263 16 0
-6263 -19 0
-6263 39 0
-6263 -82 0
-6263 -94 0
-6263 100 0
-6263 -110 0
-6263 -116 0
-6263 126 0
-6263 -133 0
6263 -16 19 -39 82 94 -100 110 116 -126 133 0
-6264 16 0
-6264 -19 0
-6264 39 0
-6264 62 0
-6264 64 0
-6264 -94 0
-6264 -110 0
-6264 -116 0
-6264 -133 0
-6264 134 0
6264 -16 19 -39 -62 -64 94 110 116 133 -134 0
-6265 16 0
-6265 -19 0
-6265 39 0
-6265 65 0
-6265 -94 0
-6265 -110 0
-6265 -116 0
-6265 -133 0
-6265 134 0
6265 -16 19 -39 -65 94 110 116 133 -134 0
-6266 16 0
-6266 -19 0
-6266 39 0
-6266 66 0
-6266 -94 0
-6266 -110 0
-6266 -116 0
-6266 -133 0
-6266 134 0
6266 -16 19 -39 -66 94 110 116 133 -134 0
-6267 16 0
-6267 -19 0
-6267 39 0
-6267 -57 0
-6267 -58 0
-6267 -62 0
-6267 -94 0
-6267 -110 0
-6267 -116 0
-6267 -133 0
-6267 134 0
6267 -16 19 -39 57 58 62 94 110 116 133 -134 0
-6268 16 0
-6268 -19 0
-6268 39 0
-6268 -61 0
-6268 -62 0
-6268 -94 0
-6268 -110 0
-6268 -116 0
-6268 -133 0
-6268 134 0
6268 -16 19 -39 61 62 94 110 116 133 -134 0
-6269 16 0
-6269 -19 0
-6269 39 0
-6269 -63 0
-6269 -94 0
-6269 -110 0
-6269 -116 0
-6269 -133 0
-6269 134 0
6269 -16 19 -39 63 94 110 116 133 -134 0
-6270 16 0
-6270 -19 0
-6270 39 0
-6270 -83 0
-6270 -94 0
-6270 -110 0
-6270 -116 0
-6270 -133 0
-6270 134 0
6270 -16 19 -39 83 94 110 116 133 -134 0
-6271 16 0
-6271 -19 0
-6271 39 0
-6271 62 0
-6271 64 0
-6271 94 0
-6271 100 0
-6271 -116 0
-6271 126 0
-6271 -133 0
-6271 140 0
6271 -16 19 -39 -62 -64 -94 -100 116 -126 133 -140 0
-6272 16 0
-6272 -19 0
-6272 39 0
-6272 65 0
-6272 94 0
-6272 100 0
-6272 -116 0
-6272 126 0
-6272 -133 0
-6272 140 0
6272 -16 19 -39 -65 -94 -100 116 -126 133 -140 0
-6273 16 0
-6273 -19 0
-6273 39 0
-6273 66 0
-6273 94 0
-6273 100 0
-6273 -116 0
-6273 126 0
-6273 -133 0
-6273 140 0
6273 -16 19 -39 -66 -94 -100 116 -126 133 -140 0
-6274 16 0
-6274 -19 0
-6274 39 0
-6274 -57 0
-6274 -58 0
-6274 -62 0
-6274 94 0
-6274 100 0
-6274 -116 0
-6274 126 0
-6274 -133 0
-6274 140 0
6274 -16 19 -39 57 58 62 -94 -100 116 -126 133 -140 0
-6275 16 0
-6275 -19 0
-6275 39 0
-6275 -61 0
-6275 -62 0
-6275 94 0
-6275 100 0
-6275 -116 0
-6275 126 0
-6275 -133 0
-6275 140 0
6275 -16 19 -39 61 62 -94 -100 116 -126 133 -140 0
-6276 16 0
-6276 -19 0
-6276 39 0
-6276 -63 0
-6276 94 0
-6276 100 0
-6276 -116 0
-6276 126 0
-6276 -133 0
-6276 140 0
6276 -16 19 -39 63 -94 -100 116 -126 133 -140 0
-6277 16 0
-6277 -19 0
-6277 39 0
-6277 -82 0
-6277 94 0
-6277 100 0
-6277 -116 0
-6277 126 0
-6277 -133 0
-6277 140 0
6277 -16 19 -39 82 -94 -100 116 -126 133 -140 0
-6278 16 0
-6278 -19 0
-6278 39 0
-6278 62 0
-6278 64 0
-6278 94 0
-6278 -116 0
-6278 -133 0
-6278 134 0
-6278 140 0
6278 -16 19 -39 -62 -64 -94 116 133 -134 -140 0
-6279 16 0
-6279 -19 0
-6279 39 0
-6279 65 0
-6279 94 0
-6279 -116 0
-6279 -133 0
-6279 134 0
-6279 140 0
6279 -16 19 -39 -65 -94 116 133 -134 -140 0
-6280 16 0
-6280 -19 0
-6280 39 0
-6280 66 0
-6280 94 0
-6280 -116 0
-6280 -133 0
-6280 134 0
-6280 140 0
6280 -16 19 -39 -66 -94 116 133 -134 -140 0
-6281 16 0
-6281 -19 0
-6281 39 0
-6281 -57 0
-6281 -58 0
-6281 -62 0
-6281 94 0
-6281 -116 0
-6281 -133 0
-6281 134 0
-6281 140 0
6281 -16 19 -39 57 58 62 -94 116 133 -134 -140 0
-6282 16 0
-6282 -19 0
-6282 39 0
-6282 -61 0
-6282 -62 0
-6282 94 0
-6282 -116 0
-6282 -133 0
-6282 134 0
-6282 140 0
6282 -16 19 -39 61 62 -94 116 133 -134 -140 0
-6283 16 0
-6283 -19 0
-6283 39 0
-6283 -63 0
-6283 94 0
-6283 -116 0
-6283 -133 0
-6283 134 0
-6283 140 0
6283 -16 19 -39 63 -94 116 133 -134 -140 0
-6284 16 0
-6284 -19 0
-6284 39 0
-6284 -83 0
-6284 94 0
-6284 -116 0
-6284 -133 0
-6284 134 0
-6284 140 0
6284 -16 19 -39 83 -94 116 133 -134 -140 0
-6285 16 0
-6285 -19 0
-6285 39 0
-6285 62 0
-6285 64 0
-6285 95 0
-6285 -116 0
-6285 -122 0
-6285 -133 0
6285 -16 19 -39 -62 -64 -95 116 122 133 0
-6286 16 0
-6286 -19 0
-6286 39 0
-6286 65 0
-6286 95 0
-6286 -116 0
-6286 -122 0
-6286 -133 0
6286 -16 19 -39 -65 -95 116 122 133 0
-6287 16 0
-6287 -19 0
-6287 39 0
-6287 66 0
-6287 95 0
-6287 -116 0
-6287 -122 0
-6287 -133 0
6287 -16 19 -39 -66 -95 116 122 133 0
-6288 16 0
-6288 -19 0
-6288 39 0
-6288 -57 0
-6288 -58 0
-6288 -62 0
-6288 95 0
-6288 -116 0
-6288 -122 0
-6288 -133 0
6288 -16 19 -39 57 58 62 -95 116 122 133 0
-6289 16 0
-6289 -19 0
-6289 39 0
-6289 -61 0
-6289 -62 0
-6289 95 0
-6289 -116 0
-6289 -122 0
-6289 -133 0
6289 -16 19 -39 61 62 -95 116 122 133 0
-6290 16 0
-6290 -19 0
-6290 39 0
-6290 -63 0
-6290 95 0
-6290 -116 0
-6290 -122 0
-6290 -133 0
6290 -16 19 -39 63 -95 116 122 133 0
-6291 16 0
-6291 -19 0
-6291 39 0
-6291 -82 0
-6291 95 0
-6291 -116 0
-6291 -122 0
-6291 -133 0
6291 -16 19 -39 82 -95 116 122 133 0
-6292 16 0
-6292 -19 0
-6292 39 0
-6292 62 0
-6292 64 0
-6292 94 0
-6292 101 0
-6292 -116 0
-6292 -122 0
-6292 -133 0
6292 -16 19 -39 -62 -64 -94 -101 116 122 133 0
-6293 16 0
-6293 -19 0
-6293 39 0
-6293 65 0
-6293 94 0
-6293 101 0
-6293 -116 0
-6293 -122 0
-6293 -133 0
6293 -16 19 -39 -65 -94 -101 116 122 133 0
-6294 16 0
-6294 -19 0
-6294 39 0
-6294 66 0
-6294 94 0
-6294 101 0
-6294 -116 0
-6294 -122 0
-6294 -133 0
6294 -16 19 -39 -66 -94 -101 116 122 133 0
-6295 16 0
-6295 -19 0
-6295 39 0
-6295 -57 0
-6295 -58 0
-6295 -62 0
-6295 94 0
-6295 101 0
-6295 -116 0
-6295 -122 0
-6295 -133 0
6295 -16 19 -39 57 58 62 -94 -101 116 122 133 0
-6296 16 0
-6296 -19 0
-6296 39 0
-6296 -61 0
-6296 -62 0
-6296 94 0
-6296 101 0
-6296 -116 0
-6296 -122 0
-6296 -133 0
6296 -16 19 -39 61 62 -94 -101 116 122 133 0
-6297 16 0
-6297 -19 0
-6297 39 0
-6297 -63 0
-6297 94 0
-6297 101 0
-6297 -116 0
-6297 -122 0
-6297 -133 0
6297 -16 19 -39 63 -94 -101 116 122 133 0
-6298 16 0
-6298 -19 0
-6298 39 0
-6298 -82 0
-6298 94 0
-6298 101 0
-6298 -116 0
-6298 -122 0
-6298 -133 0
6298 -16 19 -39 82 -94 -101 116 122 133 0
-6299 16 0
-6299 -19 0
-6299 39 0
-6299 62 0
-6299 64 0
-6299 -93 0
-6299 -116 0
-6299 -122 0
-6299 -133 0
6299 -16 19 -39 -62 -64 93 116 122 133 0
-6300 16 0
-6300 -19 0
-6300 39 0
-6300 65 0
-6300 -93 0
-6300 -116 0
-6300 -122 0
-6300 -133 0
6300 -16 19 -39 -65 93 116 122 133 0
-6301 16 0
-6301 -19 0
-6301 39 0
-6301 66 0
-6301 -93 0
-6301 -116 0
-6301 -122 0
-6301 -133 0
6301 -16 19 -39 -66 93 116 122 133 0
-6302 16 0
-6302 -19 0
-6302 39 0
-6302 -57 0
-6302 -58 0
-6302 -62 0
-6302 -93 0
-6302 -116 0
-6302 -122 0
-6302 -133 0
6302 -16 19 -39 57 58 62 93 116 122 133 0
-6303 16 0
-6303 -19 0
-6303 39 0
-6303 -61 0
-6303 -62 0
-6303 -93 0
-6303 -116 0
-6303 -122 0
-6303 -133 0
6303 -16 19 -39 61 62 93 116 122 133 0
-6304 16 0
-6304 -19 0
-6304 39 0
-6304 -63 0
-6304 -93 0
-6304 -116 0
-6304 -122 0
-6304 -133 0
6304 -16 19 -39 63 93 116 122 133 0
-6305 16 0
-6305 -19 0
-6305 39 0
-6305 -82 0
-6305 -93 0
-6305 -116 0
-6305 -122 0
-6305 -133 0
6305 -16 19 -39 82 93 116 122 133 0
-6306 16 0
-6306 -19 0
-6306 39 0
-6306 62 0
-6306 64 0
-6306 94 0
-6306 110 0
-6306 -116 0
-6306 -122 0
-6306 -133 0
6306 -16 19 -39 -62 -64 -94 -110 116 122 133 0
-6307 16 0
-6307 -19 0
-6307 39 0
-6307 65 0
-6307 94 0
-6307 110 0
-6307 -116 0
-6307 -122 0
-6307 -133 0
6307 -16 19 -39 -65 -94 -110 116 122 133 0
-6308 16 0
-6308 -19 0
-6308 39 0
-6308 66 0
-6308 94 0
-6308 110 0
-6308 -116 0
-6308 -122 0
-6308 -133 0
6308 -16 19 -39 -66 -94 -110 116 122 133 0
-6309 16 0
-6309 -19 0
-6309 39 0
-6309 -57 0
-6309 -58 0
-6309 -62 0
-6309 94 0
-6309 110 0
-6309 -116 0
-6309 -122 0
-6309 -133 0
6309 -16 19 -39 57 58 62 -94 -110 116 122 133 0
-6310 16 0
-6310 -19 0
-6310 39 0
-6310 -61 0
-6310 -62 0
-6310 94 0
-6310 110 0
-6310 -116 0
-6310 -122 0
-6310 -133 0
6310 -16 19 -39 61 62 -94 -110 116 122 133 0
-6311 16 0
-6311 -19 0
-6311 39 0
-6311 -63 0
-6311 94 0
-6311 110 0
-6311 -116 0
-6311 -122 0
-6311 -133 0
6311 -16 19 -39 63 -94 -110 116 122 133 0
-6312 16 0
-6312 -19 0
-6312 39 0
-6312 -82 0
-6312 94 0
-6312 110 0
-6312 -116 0
-6312 -122 0
-6312 -133 0
6312 -16 19 -39 82 -94 -110 116 122 133 0
-6313 16 0
-6313 -19 0
-6313 39 0
-6313 62 0
-6313 64 0
-6313 -94 0
-6313 -101 0
-6313 -116 0
-6313 -122 0
-6313 -133 0
6313 -16 19 -39 -62 -64 94 101 116 122 133 0
-6314 16 0
-6314 -19 0
-6314 39 0
-6314 65 0
-6314 -94 0
-6314 -101 0
-6314 -116 0
-6314 -122 0
-6314 -133 0
6314 -16 19 -39 -65 94 101 116 122 133 0
-6315 16 0
-6315 -19 0
-6315 39 0
-6315 66 0
-6315 -94 0
-6315 -101 0
-6315 -116 0
-6315 -122 0
-6315 -133 0
6315 -16 19 -39 -66 94 101 116 122 133 0
-6316 16 0
-6316 -19 0
-6316 39 0
-6316 -57 0
-6316 -58 0
-6316 -62 0
-6316 -94 0
-6316 -101 0
-6316 -116 0
-6316 -122 0
-6316 -133 0
6316 -16 19 -39 57 58 62 94 101 116 122 133 0
-6317 16 0
-6317 -19 0
-6317 39 0
-6317 -61 0
-6317 -62 0
-6317 -94 0
-6317 -101 0
-6317 -116 0
-6317 -122 0
-6317 -133 0
6317 -16 19 -39 61 62 94 101 116 122 133 0
-6318 16 0
-6318 -19 0
-6318 39 0
-6318 -63 0
-6318 -94 0
-6318 -101 0
-6318 -116 0
-6318 -122 0
-6318 -133 0
6318 -16 19 -39 63 94 101 116 122 133 0
-6319 16 0
-6319 -19 0
-6319 39 0
-6319 -82 0
-6319 -94 0
-6319 -101 0
-6319 -116 0
-6319 -122 0
-6319 -133 0
6319 -16 19 -39 82 94 101 116 122 133 0
-6320 16 0
-6320 -19 0
-6320 39 0
-6320 62 0
-6320 64 0
-6320 -94 0
-6320 -110 0
-6320 -116 0
-6320 -122 0
-6320 -133 0
6320 -16 19 -39 -62 -64 94 110 116 122 133 0
-6321 16 0
-6321 -19 0
-6321 39 0
-6321 65 0
-6321 -94 0
-6321 -110 0
-6321 -116 0
-6321 -122 0
-6321 -133 0
6321 -16 19 -39 -65 94 110 116 122 133 0
-6322 16 0
-6322 -19 0
-6322 39 0
-6322 66 0
-6322 -94 0
-6322 -110 0
-6322 -116 0
-6322 -122 0
-6322 -133 0
6322 -16 19 -39 -66 94 110 116 122 133 0
-6323 16 0
-6323 -19 0
-6323 39 0
-6323 -57 0
-6323 -58 0
-6323 -62 0
-6323 -94 0
-6323 -110 0
-6323 -116 0
-6323 -122 0
-6323 -133 0
6323 -16 19 -39 57 58 62 94 110 116 122 133 0
-6324 16 0
-6324 -19 0
-6324 39 0
-6324 -61 0
-6324 -62 0
-6324 -94 0
-6324 -110 0
-6324 -116 0
-6324 -122 0
-6324 -133 0
6324 -16 19 -39 61 62 94 110 116 122 133 0
-6325 16 0
-6325 -19 0
-6325 39 0
-6325 -63 0
-6325 -94 0
-6325 -110 0
-6325 -116 0
-6325 -122 0
-6325 -133 0
6325 -16 19 -39 63 94 110 116 122 133 0
-6326 16 0
-6326 -19 0
-6326 39 0
-6326 -82 0
-6326 -94 0
-6326 -110 0
-6326 -116 0
-6326 -122 0
-6326 -133 0
6326 -16 19 -39 82 94 110 116 122 133 0
-6327 16 0
-6327 -19 0
-6327 39 0
-6327 62 0
-6327 64 0
-6327 94 0
-6327 -116 0
-6327 -122 0
-6327 -133 0
-6327 140 0
6327 -16 19 -39 -62 -64 -94 116 122 133 -140 0
-6328 16 0
-6328 -19 0
-6328 39 0
-6328 65 0
-6328 94 0
-6328 -116 0
-6328 -122 0
-6328 -133 0
-6328 140 0
6328 -16 19 -39 -65 -94 116 122 133 -140 0
-6329 16 0
-6329 -19 0
-6329 39 0
-6329 66 0
-6329 94 0
-6329 -116 0
-6329 -122 0
-6329 -133 0
-6329 140 0
6329 -16 19 -39 -66 -94 116 122 133 -140 0
-6330 16 0
-6330 -19 0
-6330 39 0
-6330 -57 0
-6330 -58 0
-6330 -62 0
-6330 94 0
-6330 -116 0
-6330 -122 0
-6330 -133 0
-6330 140 0
6330 -16 19 -39 57 58 62 -94 116 122 133 -140 0
-6331 16 0
-6331 -19 0
-6331 39 0
-6331 -61 0
-6331 -62 0
-6331 94 0
-6331 -116 0
-6331 -122 0
-6331 -133 0
-6331 140 0
6331 -16 19 -39 61 62 -94 116 122 133 -140 0
-6332 16 0
-6332 -19 0
-6332 39 0
-6332 -63 0
-6332 94 0
-6332 -116 0
-6332 -122 0
-6332 -133 0
-6332 140 0
6332 -16 19 -39 63 -94 116 122 133 -140 0
-6333 16 0
-6333 -19 0
-6333 39 0
-6333 -82 0
-6333 94 0
-6333 -116 0
-6333 -122 0
-6333 -133 0
-6333 140 0
6333 -16 19 -39 82 -94 116 122 133 -140 0
-6334 16 0
-6334 -19 0
-6334 39 0
-6334 -54 0
-6334 62 0
-6334 -93 0
-6334 -100 0
-6334 -116 0
-6334 -126 0
-6334 -133 0
6334 -16 19 -39 54 -62 93 100 116 126 133 0
-6335 16 0
-6335 -19 0
-6335 39 0
-6335 65 0
-6335 -93 0
-6335 -100 0
-6335 -116 0
-6335 -126 0
-6335 -133 0
6335 -16 19 -39 -65 93 100 116 126 133 0
-6336 16 0
-6336 -19 0
-6336 39 0
-6336 66 0
-6336 -93 0
-6336 -100 0
-6336 -116 0
-6336 -126 0
-6336 -133 0
6336 -16 19 -39 -66 93 100 116 126 133 0
-6337 16 0
-6337 -19 0
-6337 39 0
-6337 -54 0
-6337 -57 0
-6337 -58 0
-6337 -93 0
-6337 -100 0
-6337 -116 0
-6337 -126 0
-6337 -133 0
6337 -16 19 -39 54 57 58 93 100 116 126 133 0
-6338 16 0
-6338 -19 0
-6338 39 0
-6338 -54 0
-6338 -61 0
-6338 -93 0
-6338 -100 0
-6338 -116 0
-6338 -126 0
-6338 -133 0
6338 -16 19 -39 54 61 93 100 116 126 133 0
-6339 16 0
-6339 -19 0
-6339 39 0
-6339 -63 0
-6339 -93 0
-6339 -100 0
-6339 -116 0
-6339 -126 0
-6339 -133 0
6339 -16 19 -39 63 93 100 116 126 133 0
-6340 16 0
-6340 -19 0
-6340 39 0
-6340 -54 0
-6340 -64 0
-6340 -93 0
-6340 -100 0
-6340 -116 0
-6340 -126 0
-6340 -133 0
6340 -16 19 -39 54 64 93 100 116 126 133 0
-6341 16 0
-6341 -19 0
-6341 39 0
-6341 -82 0
-6341 -93 0
-6341 -100 0
-6341 -116 0
-6341 -126 0
-6341 -133 0
6341 -16 19 -39 82 93 100 116 126 133 0
-6342 16 0
-6342 -19 0
-6342 39 0
-6342 -76 0
-6342 -93 0
-6342 -100 0
-6342 -116 0
-6342 -126 0
-6342 -133 0
6342 -16 19 -39 76 93 100 116 126 133 0
-6343 16 0
-6343 -19 0
-6343 39 0
-6343 -83 0
-6343 -93 0
-6343 -100 0
-6343 -116 0
-6343 -126 0
-6343 -133 0
6343 -16 19 -39 83 93 100 116 126 133 0
-6344 16 0
-6344 -19 0
-6344 39 0
-6344 -84 0
-6344 -93 0
-6344 -100 0
-6344 -116 0
-6344 -126 0
-6344 -133 0
6344 -16 19 -39 84 93 100 116 126 133 0
-6345 16 0
-6345 -19 0
-6345 39 0
-6345 -79 0
-6345 -93 0
-6345 -100 0
-6345 -116 0
-6345 -126 0
-6345 -133 0
6345 -16 19 -39 79 93 100 116 126 133 0
-6346 16 0
-6346 -19 0
-6346 39 0
-6346 -81 0
-6346 -93 0
-6346 -100 0
-6346 -116 0
-6346 -126 0
-6346 -133 0
6346 -16 19 -39 81 93 100 116 126 133 0
-6347 16 0
-6347 -19 0
-6347 39 0
-6347 -78 0
-6347 -93 0
-6347 -100 0
-6347 -116 0
-6347 -126 0
-6347 -133 0
6347 -16 19 -39 78 93 100 116 126 133 0
-6348 16 0
-6348 -19 0
-6348 39 0
-6348 -80 0
-6348 -93 0
-6348 -100 0
-6348 -116 0
-6348 -126 0
-6348 -133 0
6348 -16 19 -39 80 93 100 116 126 133 0
-6349 16 0
-6349 -19 0
-6349 39 0
-6349 -77 0
-6349 -93 0
-6349 -100 0
-6349 -116 0
-6349 -126 0
-6349 -133 0
6349 -16 19 -39 77 93 100 116 126 133 0
-6350 16 0
-6350 -19 0
-6350 39 0
-6350 -93 0
-6350 -100 0
-6350 -116 0
-6350 -126 0
-6350 -133 0
-6350 -164 0
6350 -16 19 -39 93 100 116 126 133 164 0
-6351 16 0
-6351 -19 0
-6351 39 0
-6351 -54 0
-6351 -56 0
-6351 -93 0
-6351 -100 0
-6351 -116 0
-6351 -126 0
-6351 -133 0
6351 -16 19 -39 54 56 93 100 116 126 133 0
-6352 16 0
-6352 -19 0
-6352 39 0
-6352 -57 0
-6352 -58 0
-6352 -62 0
-6352 -93 0
-6352 -100 0
-6352 -116 0
-6352 -126 0
-6352 -133 0
6352 -16 19 -39 57 58 62 93 100 116 126 133 0
-6353 16 0
-6353 -19 0
-6353 39 0
-6353 -57 0
-6353 -58 0
-6353 64 0
-6353 -93 0
-6353 -100 0
-6353 -116 0
-6353 -126 0
-6353 -133 0
6353 -16 19 -39 57 58 -64 93 100 116 126 133 0
-6354 16 0
-6354 -19 0
-6354 39 0
-6354 62 0
-6354 64 0
-6354 -93 0
-6354 -100 0
-6354 -116 0
-6354 -126 0
-6354 -133 0
6354 -16 19 -39 -62 -64 93 100 116 126 133 0
-6355 16 0
-6355 -19 0
-6355 39 0
-6355 -61 0
-6355 -62 0
-6355 -93 0
-6355 -100 0
-6355 -116 0
-6355 -126 0
-6355 -133 0
6355 -16 19 -39 61 62 93 100 116 126 133 0
-6356 16 0
-6356 -19 0
-6356 39 0
-6356 -55 0
-6356 -61 0
-6356 -93 0
-6356 -100 0
-6356 -116 0
-6356 -126 0
-6356 -133 0
6356 -16 19 -39 55 61 93 100 116 126 133 0
-6357 16 0
-6357 -19 0
-6357 39 0
-6357 61 0
-6357 -64 0
-6357 -93 0
-6357 -100 0
-6357 -116 0
-6357 -126 0
-6357 -133 0
6357 -16 19 -39 -61 64 93 100 116 126 133 0
-6358 16 0
-6358 -19 0
-6358 39 0
-6358 -56 0
-6358 -74 0
-6358 -93 0
-6358 -100 0
-6358 -116 0
-6358 -126 0
-6358 -133 0
6358 -16 19 -39 56 74 93 100 116 126 133 0
-6359 16 0
-6359 -19 0
-6359 39 0
-6359 -56 0
-6359 -67 0
-6359 -93 0
-6359 -100 0
-6359 -116 0
-6359 -126 0
-6359 -133 0
6359 -16 19 -39 56 67 93 100 116 126 133 0
-6360 16 0
-6360 -19 0
-6360 39 0
-6360 -56 0
-6360 -73 0
-6360 -93 0
-6360 -100 0
-6360 -116 0
-6360 -126 0
-6360 -133 0
6360 -16 19 -39 56 73 93 100 116 126 133 0
-6361 16 0
-6361 -19 0
-6361 39 0
-6361 -56 0
-6361 -69 0
-6361 -93 0
-6361 -100 0
-6361 -116 0
-6361 -126 0
-6361 -133 0
6361 -16 19 -39 56 69 93 100 116 126 133 0
-6362 16 0
-6362 -19 0
-6362 39 0
-6362 -56 0
-6362 -75 0
-6362 -93 0
-6362 -100 0
-6362 -116 0
-6362 -126 0
-6362 -133 0
6362 -16 19 -39 56 75 93 100 116 126 133 0
-6363 16 0
-6363 -19 0
-6363 39 0
-6363 -56 0
-6363 -68 0
-6363 -93 0
-6363 -100 0
-6363 -116 0
-6363 -126 0
-6363 -133 0
6363 -16 19 -39 56 68 93 100 116 126 133 0
-6364 16 0
-6364 -19 0
-6364 39 0
-6364 -56 0
-6364 -72 0
-6364 -93 0
-6364 -100 0
-6364 -116 0
-6364 -126 0
-6364 -133 0
6364 -16 19 -39 56 72 93 100 116 126 133 0
-6365 16 0
-6365 -19 0
-6365 39 0
-6365 -56 0
-6365 -70 0
-6365 -93 0
-6365 -100 0
-6365 -116 0
-6365 -126 0
-6365 -133 0
6365 -16 19 -39 56 70 93 100 116 126 133 0
-6366 16 0
-6366 -19 0
-6366 39 0
-6366 -56 0
-6366 -71 0
-6366 -93 0
-6366 -100 0
-6366 -116 0
-6366 -126 0
-6366 -133 0
6366 -16 19 -39 56 71 93 100 116 126 133 0
-6367 16 0
-6367 -19 0
-6367 39 0
-6367 -56 0
-6367 -62 0
-6367 -93 0
-6367 -100 0
-6367 -116 0
-6367 -126 0
-6367 -133 0
6367 -16 19 -39 56 62 93 100 116 126 133 0
-6368 16 0
-6368 -19 0
-6368 39 0
-6368 -76 0
-6368 -93 0
-6368 -116 0
-6368 -122 0
-6368 -133 0
6368 -16 19 -39 76 93 116 122 133 0
-6369 16 0
-6369 17 0
-6369 19 0
-6369 -39 0
-6369 62 0
-6369 64 0
-6369 95 0
-6369 100 0
-6369 -116 0
-6369 126 0
-6369 -133 0
6369 -16 -17 -19 39 -62 -64 -95 -100 116 -126 133 0
-6370 16 0
-6370 17 0
-6370 19 0
-6370 -39 0
-6370 62 0
-6370 64 0
-6370 95 0
-6370 -116 0
-6370 -133 0
-6370 134 0
6370 -16 -17 -19 39 -62 -64 -95 116 133 -134 0
-6371 16 0
-6371 17 0
-6371 19 0
-6371 -39 0
-6371 62 0
-6371 64 0
-6371 95 0
-6371 -116 0
-6371 -122 0
-6371 -133 0
6371 -16 -17 -19 39 -62 -64 -95 116 122 133 0
-6372 16 0
-6372 17 0
-6372 19 0
-6372 -39 0
-6372 62 0
-6372 64 0
-6372 95 0
-6372 -100 0
-6372 -116 0
-6372 -126 0
-6372 -133 0
6372 -16 -17 -19 39 -62 -64 -95 100 116 126 133 0
-6373 16 0
-6373 -17 0
-6373 39 0
-6373 -56 0
-6373 -67 0
-6373 -93 0
-6373 -116 0
-6373 -122 0
-6373 -133 0
6373 -16 17 -39 56 67 93 116 122 133 0
-6374 16 0
-6374 -17 0
-6374 39 0
-6374 -56 0
-6374 -67 0
-6374 -94 0
-6374 -101 0
-6374 -116 0
-6374 -122 0
-6374 -133 0
6374 -16 17 -39 56 67 94 101 116 122 133 0
-6375 16 0
-6375 -17 0
-6375 39 0
-6375 -56 0
-6375 -67 0
-6375 95 0
-6375 -116 0
-6375 -122 0
-6375 -133 0
6375 -16 17 -39 56 67 -95 116 122 133 0
-6376 16 0
-6376 -17 0
-6376 39 0
-6376 -56 0
-6376 -67 0
-6376 -94 0
-6376 -110 0
-6376 -116 0
-6376 -122 0
-6376 -133 0
6376 -16 17 -39 56 67 94 110 116 122 133 0
-6377 16 0
-6377 -17 0
-6377 39 0
-6377 -56 0
-6377 -67 0
-6377 94 0
-6377 101 0
-6377 -116 0
-6377 -122 0
-6377 -133 0
6377 -16 17 -39 56 67 -94 -101 116 122 133 0
-6378 16 0
-6378 -17 0
-6378 39 0
-6378 -56 0
-6378 -67 0
-6378 94 0
-6378 110 0
-6378 -116 0
-6378 -122 0
-6378 -133 0
6378 -16 17 -39 56 67 -94 -110 116 122 133 0
-6379 16 0
-6379 -17 0
-6379 39 0
-6379 -56 0
-6379 -74 0
-6379 -94 0
-6379 -116 0
-6379 -122 0
-6379 -133 0
-6379 -140 0
6379 -16 17 -39 56 74 94 116 122 133 140 0
-6380 16 0
-6380 -17 0
-6380 39 0
-6380 -56 0
-6380 -74 0
-6380 -93 0
-6380 -100 0
-6380 -116 0
-6380 -126 0
-6380 -133 0
6380 -16 17 -39 56 74 93 100 116 126 133 0
-6381 16 0
-6381 -17 0
-6381 39 0
-6381 -56 0
-6381 -74 0
-6381 -94 0
-6381 -100 0
-6381 -101 0
-6381 -116 0
-6381 -126 0
-6381 -133 0
6381 -16 17 -39 56 74 94 100 101 116 126 133 0
-6382 16 0
-6382 -17 0
-6382 39 0
-6382 -56 0
-6382 -74 0
-6382 95 0
-6382 -100 0
-6382 -116 0
-6382 -126 0
-6382 -133 0
6382 -16 17 -39 56 74 -95 100 116 126 133 0
-6383 16 0
-6383 -17 0
-6383 39 0
-6383 -56 0
-6383 -74 0
-6383 -94 0
-6383 -100 0
-6383 -110 0
-6383 -116 0
-6383 -126 0
-6383 -133 0
6383 -16 17 -39 56 74 94 100 110 116 126 133 0
-6384 16 0
-6384 -17 0
-6384 39 0
-6384 -56 0
-6384 -74 0
-6384 94 0
-6384 -100 0
-6384 101 0
-6384 -116 0
-6384 -126 0
-6384 -133 0
6384 -16 17 -39 56 74 -94 100 -101 116 126 133 0
-6385 16 0
-6385 -17 0
-6385 39 0
-6385 -56 0
-6385 -74 0
-6385 94 0
-6385 -100 0
-6385 110 0
-6385 -116 0
-6385 -126 0
-6385 -133 0
6385 -16 17 -39 56 74 -94 100 -110 116 126 133 0
-6386 16 0
-6386 -17 0
-6386 39 0
-6386 -56 0
-6386 -74 0
-6386 -94 0
-6386 -100 0
-6386 -116 0
-6386 -126 0
-6386 -133 0
-6386 -140 0
6386 -16 17 -39 56 74 94 100 116 126 133 140 0
-6387 16 0
-6387 17 0
-6387 19 0
-6387 -39 0
-6387 -61 0
-6387 -62 0
-6387 -93 0
-6387 -116 0
-6387 -122 0
-6387 -133 0
6387 -16 -17 -19 39 61 62 93 116 122 133 0
-6388 16 0
-6388 17 0
-6388 19 0
-6388 -39 0
-6388 -54 0
-6388 -61 0
-6388 -93 0
-6388 -116 0
-6388 -122 0
-6388 -133 0
6388 -16 -17 -19 39 54 61 93 116 122 133 0
-6389 16 0
-6389 17 0
-6389 19 0
-6389 -39 0
-6389 -55 0
-6389 -61 0
-6389 -93 0
-6389 -116 0
-6389 -122 0
-6389 -133 0
6389 -16 -17 -19 39 55 61 93 116 122 133 0
-6390 16 0
-6390 17 0
-6390 19 0
-6390 -39 0
-6390 -63 0
-6390 -93 0
-6390 -116 0
-6390 -122 0
-6390 -133 0
6390 -16 -17 -19 39 63 93 116 122 133 0
-6391 16 0
-6391 17 0
-6391 19 0
-6391 -39 0
-6391 -93 0
-6391 -116 0
-6391 -122 0
-6391 -133 0
-6391 -164 0
6391 -16 -17 -19 39 93 116 122 133 164 0
-6392 16 0
-6392 -19 0
-6392 39 0
-6392 -77 0
-6392 -93 0
-6392 -116 0
-6392 -122 0
-6392 -133 0
6392 -16 19 -39 77 93 116 122 133 0
-6393 16 0
-6393 -19 0
-6393 39 0
-6393 -83 0
-6393 -93 0
-6393 -116 0
-6393 -122 0
-6393 -133 0
6393 -16 19 -39 83 93 116 122 133 0
-6394 16 0
-6394 -19 0
-6394 39 0
-6394 -84 0
-6394 -93 0
-6394 -116 0
-6394 -122 0
-6394 -133 0
6394 -16 19 -39 84 93 116 122 133 0
-6395 16 0
-6395 -19 0
-6395 39 0
-6395 -79 0
-6395 -93 0
-6395 -116 0
-6395 -122 0
-6395 -133 0
6395 -16 19 -39 79 93 116 122 133 0
-6396 16 0
-6396 -19 0
-6396 39 0
-6396 -81 0
-6396 -93 0
-6396 -116 0
-6396 -122 0
-6396 -133 0
6396 -16 19 -39 81 93 116 122 133 0
-6397 16 0
-6397 -19 0
-6397 39 0
-6397 -78 0
-6397 -93 0
-6397 -116 0
-6397 -122 0
-6397 -133 0
6397 -16 19 -39 78 93 116 122 133 0
-6398 16 0
-6398 -19 0
-6398 39 0
-6398 -80 0
-6398 -93 0
-6398 -116 0
-6398 -122 0
-6398 -133 0
6398 -16 19 -39 80 93 116 122 133 0
-6399 16 0
-6399 -19 0
-6399 39 0
-6399 -82 0
-6399 -93 0
-6399 -116 0
-6399 -133 0
-6399 134 0
6399 -16 19 -39 82 93 116 133 -134 0
-6400 16 0
-6400 -19 0
-6400 39 0
-6400 -93 0
-6400 -116 0
-6400 -133 0
-6400 134 0
-6400 -164 0
6400 -16 19 -39 93 116 133 -134 164 0
-6401 16 0
-6401 -19 0
-6401 39 0
-6401 -80 0
-6401 -93 0
-6401 -116 0
-6401 -133 0
-6401 134 0
6401 -16 19 -39 80 93 116 133 -134 0
-6402 16 0
-6402 -19 0
-6402 39 0
-6402 -78 0
-6402 -93 0
-6402 -116 0
-6402 -133 0
-6402 134 0
6402 -16 19 -39 78 93 116 133 -134 0
-6403 16 0
-6403 -19 0
-6403 39 0
-6403 -84 0
-6403 -93 0
-6403 -116 0
-6403 -133 0
-6403 134 0
6403 -16 19 -39 84 93 116 133 -134 0
-6404 16 0
-6404 -19 0
-6404 39 0
-6404 -77 0
-6404 -93 0
-6404 -116 0
-6404 -133 0
-6404 134 0
6404 -16 19 -39 77 93 116 133 -134 0
-6405 16 0
-6405 -19 0
-6405 39 0
-6405 -81 0
-6405 -93 0
-6405 -116 0
-6405 -133 0
-6405 134 0
6405 -16 19 -39 81 93 116 133 -134 0
-6406 16 0
-6406 -19 0
-6406 39 0
-6406 -79 0
-6406 -93 0
-6406 -116 0
-6406 -133 0
-6406 134 0
6406 -16 19 -39 79 93 116 133 -134 0
-6407 16 0
-6407 -19 0
-6407 39 0
-6407 -76 0
-6407 -93 0
-6407 -116 0
-6407 -133 0
-6407 134 0
6407 -16 19 -39 76 93 116 133 -134 0
-6408 16 0
-6408 -19 0
-6408 39 0
-6408 61 0
-6408 -64 0
-6408 -93 0
-6408 -116 0
-6408 -133 0
-6408 134 0
6408 -16 19 -39 -61 64 93 116 133 -134 0
-6409 16 0
-6409 -19 0
-6409 39 0
-6409 -55 0
-6409 -61 0
-6409 -93 0
-6409 -116 0
-6409 -133 0
-6409 134 0
6409 -16 19 -39 55 61 93 116 133 -134 0
-6410 16 0
-6410 -19 0
-6410 39 0
-6410 -54 0
-6410 -61 0
-6410 -93 0
-6410 -116 0
-6410 -133 0
-6410 134 0
6410 -16 19 -39 54 61 93 116 133 -134 0
-6411 16 0
-6411 -19 0
-6411 39 0
-6411 -56 0
-6411 -73 0
-6411 -93 0
-6411 -116 0
-6411 -133 0
-6411 134 0
6411 -16 19 -39 56 73 93 116 133 -134 0
-6412 16 0
-6412 -19 0
-6412 39 0
-6412 -56 0
-6412 -71 0
-6412 -93 0
-6412 -116 0
-6412 -133 0
-6412 134 0
6412 -16 19 -39 56 71 93 116 133 -134 0
-6413 16 0
-6413 -19 0
-6413 39 0
-6413 -56 0
-6413 -69 0
-6413 -93 0
-6413 -116 0
-6413 -133 0
-6413 134 0
6413 -16 19 -39 56 69 93 116 133 -134 0
-6414 16 0
-6414 -19 0
-6414 39 0
-6414 -56 0
-6414 -75 0
-6414 -93 0
-6414 -116 0
-6414 -133 0
-6414 134 0
6414 -16 19 -39 56 75 93 116 133 -134 0
-6415 16 0
-6415 -19 0
-6415 39 0
-6415 -56 0
-6415 -68 0
-6415 -93 0
-6415 -116 0
-6415 -133 0
-6415 134 0
6415 -16 19 -39 56 68 93 116 133 -134 0
-6416 16 0
-6416 -19 0
-6416 39 0
-6416 -56 0
-6416 -72 0
-6416 -93 0
-6416 -116 0
-6416 -133 0
-6416 134 0
6416 -16 19 -39 56 72 93 116 133 -134 0
-6417 16 0
-6417 -19 0
-6417 39 0
-6417 -56 0
-6417 -70 0
-6417 -93 0
-6417 -116 0
-6417 -133 0
-6417 134 0
6417 -16 19 -39 56 70 93 116 133 -134 0
-6418 16 0
-6418 -19 0
-6418 39 0
-6418 -56 0
-6418 -74 0
-6418 -93 0
-6418 -116 0
-6418 -133 0
-6418 134 0
6418 -16 19 -39 56 74 93 116 133 -134 0
-6419 16 0
-6419 -19 0
-6419 39 0
-6419 -56 0
-6419 -67 0
-6419 -93 0
-6419 -116 0
-6419 -133 0
-6419 134 0
6419 -16 19 -39 56 67 93 116 133 -134 0
-6420 16 0
-6420 -19 0
-6420 39 0
-6420 -56 0
-6420 -62 0
-6420 -93 0
-6420 -116 0
-6420 -133 0
-6420 134 0
6420 -16 19 -39 56 62 93 116 133 -134 0
-6421 16 0
-6421 -19 0
-6421 39 0
-6421 -56 0
-6421 -62 0
-6421 -93 0
-6421 100 0
-6421 -116 0
-6421 126 0
-6421 -133 0
6421 -16 19 -39 56 62 93 -100 116 -126 133 0
-6422 16 0
-6422 -19 0
-6422 39 0
-6422 -80 0
-6422 -93 0
-6422 100 0
-6422 -116 0
-6422 126 0
-6422 -133 0
6422 -16 19 -39 80 93 -100 116 -126 133 0
-6423 16 0
-6423 -19 0
-6423 39 0
-6423 -78 0
-6423 -93 0
-6423 100 0
-6423 -116 0
-6423 126 0
-6423 -133 0
6423 -16 19 -39 78 93 -100 116 -126 133 0
-6424 16 0
-6424 -19 0
-6424 39 0
-6424 -84 0
-6424 -93 0
-6424 100 0
-6424 -116 0
-6424 126 0
-6424 -133 0
6424 -16 19 -39 84 93 -100 116 -126 133 0
-6425 16 0
-6425 -19 0
-6425 39 0
-6425 -77 0
-6425 -93 0
-6425 100 0
-6425 -116 0
-6425 126 0
-6425 -133 0
6425 -16 19 -39 77 93 -100 116 -126 133 0
-6426 16 0
-6426 -19 0
-6426 39 0
-6426 -81 0
-6426 -93 0
-6426 100 0
-6426 -116 0
-6426 126 0
-6426 -133 0
6426 -16 19 -39 81 93 -100 116 -126 133 0
-6427 16 0
-6427 -19 0
-6427 39 0
-6427 -79 0
-6427 -93 0
-6427 100 0
-6427 -116 0
-6427 126 0
-6427 -133 0
6427 -16 19 -39 79 93 -100 116 -126 133 0
-6428 16 0
-6428 -19 0
-6428 39 0
-6428 -83 0
-6428 -93 0
-6428 100 0
-6428 -116 0
-6428 126 0
-6428 -133 0
6428 -16 19 -39 83 93 -100 116 -126 133 0
-6429 16 0
-6429 -19 0
-6429 39 0
-6429 -76 0
-6429 -93 0
-6429 100 0
-6429 -116 0
-6429 126 0
-6429 -133 0
6429 -16 19 -39 76 93 -100 116 -126 133 0
-6430 16 0
-6430 -19 0
-6430 39 0
-6430 -93 0
-6430 100 0
-6430 -116 0
-6430 126 0
-6430 -133 0
-6430 -164 0
6430 -16 19 -39 93 -100 116 -126 133 164 0
-6431 16 0
-6431 -19 0
-6431 39 0
-6431 61 0
-6431 -64 0
-6431 -93 0
-6431 100 0
-6431 -116 0
-6431 126 0
-6431 -133 0
6431 -16 19 -39 -61 64 93 -100 116 -126 133 0
-6432 16 0
-6432 -19 0
-6432 39 0
-6432 -55 0
-6432 -61 0
-6432 -93 0
-6432 100 0
-6432 -116 0
-6432 126 0
-6432 -133 0
6432 -16 19 -39 55 61 93 -100 116 -126 133 0
-6433 16 0
-6433 -19 0
-6433 39 0
-6433 -54 0
-6433 -61 0
-6433 -93 0
-6433 100 0
-6433 -116 0
-6433 126 0
-6433 -133 0
6433 -16 19 -39 54 61 93 -100 116 -126 133 0
-6434 16 0
-6434 -19 0
-6434 39 0
-6434 -56 0
-6434 -73 0
-6434 -93 0
-6434 100 0
-6434 -116 0
-6434 126 0
-6434 -133 0
6434 -16 19 -39 56 73 93 -100 116 -126 133 0
-6435 16 0
-6435 -19 0
-6435 39 0
-6435 -56 0
-6435 -73 0
-6435 -93 0
-6435 -116 0
-6435 -122 0
-6435 -133 0
6435 -16 19 -39 56 73 93 116 122 133 0
-6436 16 0
-6436 -19 0
-6436 39 0
-6436 -55 0
-6436 -56 0
-6436 -93 0
-6436 -116 0
-6436 -122 0
-6436 -133 0
6436 -16 19 -39 55 56 93 116 122 133 0
-6437 16 0
-6437 -19 0
-6437 39 0
-6437 61 0
-6437 -64 0
-6437 -93 0
-6437 -116 0
-6437 -122 0
-6437 -133 0
6437 -16 19 -39 -61 64 93 116 122 133 0
-6438 16 0
-6438 -19 0
-6438 39 0
-6438 -93 0
-6438 -116 0
-6438 -122 0
-6438 -133 0
-6438 -164 0
6438 -16 19 -39 93 116 122 133 164 0
-6439 16 0
-6439 -19 0
-6439 39 0
-6439 -56 0
-6439 -62 0
-6439 -93 0
-6439 -116 0
-6439 -122 0
-6439 -133 0
6439 -16 19 -39 56 62 93 116 122 133 0
-6440 16 0
-6440 -19 0
-6440 39 0
-6440 -55 0
-6440 -61 0
-6440 -93 0
-6440 -116 0
-6440 -122 0
-6440 -133 0
6440 -16 19 -39 55 61 93 116 122 133 0
-6441 16 0
-6441 -19 0
-6441 39 0
-6441 -54 0
-6441 -61 0
-6441 -93 0
-6441 -116 0
-6441 -122 0
-6441 -133 0
6441 -16 19 -39 54 61 93 116 122 133 0
-6442 16 0
-6442 -19 0
-6442 39 0
-6442 -56 0
-6442 -71 0
-6442 -93 0
-6442 -116 0
-6442 -122 0
-6442 -133 0
6442 -16 19 -39 56 71 93 116 122 133 0
-6443 16 0
-6443 -19 0
-6443 39 0
-6443 -56 0
-6443 -69 0
-6443 -93 0
-6443 -116 0
-6443 -122 0
-6443 -133 0
6443 -16 19 -39 56 69 93 116 122 133 0
-6444 16 0
-6444 -19 0
-6444 39 0
-6444 -56 0
-6444 -75 0
-6444 -93 0
-6444 -116 0
-6444 -122 0
-6444 -133 0
6444 -16 19 -39 56 75 93 116 122 133 0
-6445 16 0
-6445 -19 0
-6445 39 0
-6445 -56 0
-6445 -68 0
-6445 -93 0
-6445 -116 0
-6445 -122 0
-6445 -133 0
6445 -16 19 -39 56 68 93 116 122 133 0
-6446 16 0
-6446 -19 0
-6446 39 0
-6446 -56 0
-6446 -72 0
-6446 -93 0
-6446 -116 0
-6446 -122 0
-6446 -133 0
6446 -16 19 -39 56 72 93 116 122 133 0
-6447 16 0
-6447 -19 0
-6447 39 0
-6447 -56 0
-6447 -70 0
-6447 -93 0
-6447 -116 0
-6447 -122 0
-6447 -133 0
6447 -16 19 -39 56 70 93 116 122 133 0
-6448 16 0
-6448 -19 0
-6448 39 0
-6448 -56 0
-6448 -74 0
-6448 -93 0
-6448 -116 0
-6448 -122 0
-6448 -133 0
6448 -16 19 -39 56 74 93 116 122 133 0
-6449 16 0
-6449 -19 0
-6449 39 0
-6449 -56 0
-6449 -67 0
-6449 -93 0
-6449 -116 0
-6449 -122 0
-6449 -133 0
6449 -16 19 -39 56 67 93 116 122 133 0
-6450 16 0
-6450 -19 0
-6450 39 0
-6450 -56 0
-6450 -71 0
-6450 -93 0
-6450 100 0
-6450 -116 0
-6450 126 0
-6450 -133 0
6450 -16 19 -39 56 71 93 -100 116 -126 133 0
-6451 16 0
-6451 -19 0
-6451 39 0
-6451 -56 0
-6451 -69 0
-6451 -93 0
-6451 100 0
-6451 -116 0
-6451 126 0
-6451 -133 0
6451 -16 19 -39 56 69 93 -100 116 -126 133 0
-6452 16 0
-6452 -19 0
-6452 39 0
-6452 -56 0
-6452 -75 0
-6452 -93 0
-6452 100 0
-6452 -116 0
-6452 126 0
-6452 -133 0
6452 -16 19 -39 56 75 93 -100 116 -126 133 0
-6453 16 0
-6453 -19 0
-6453 39 0
-6453 -56 0
-6453 -68 0
-6453 -93 0
-6453 100 0
-6453 -116 0
-6453 126 0
-6453 -133 0
6453 -16 19 -39 56 68 93 -100 116 -126 133 0
-6454 16 0
-6454 -19 0
-6454 39 0
-6454 -56 0
-6454 -72 0
-6454 -93 0
-6454 100 0
-6454 -116 0
-6454 126 0
-6454 -133 0
6454 -16 19 -39 56 72 93 -100 116 -126 133 0
-6455 16 0
-6455 -19 0
-6455 39 0
-6455 -56 0
-6455 -70 0
-6455 -93 0
-6455 100 0
-6455 -116 0
-6455 126 0
-6455 -133 0
6455 -16 19 -39 56 70 93 -100 116 -126 133 0
-6456 16 0
-6456 -19 0
-6456 39 0
-6456 -56 0
-6456 -74 0
-6456 -93 0
-6456 100 0
-6456 -116 0
-6456 126 0
-6456 -133 0
6456 -16 19 -39 56 74 93 -100 116 -126 133 0
-6457 16 0
-6457 -19 0
-6457 39 0
-6457 -56 0
-6457 -67 0
-6457 -93 0
-6457 100 0
-6457 -116 0
-6457 126 0
-6457 -133 0
6457 -16 19 -39 56 67 93 -100 116 -126 133 0
-6458 16 0
-6458 -19 0
-6458 39 0
-6458 -80 0
-6458 94 0
-6458 100 0
-6458 101 0
-6458 -116 0
-6458 126 0
-6458 -133 0
6458 -16 19 -39 80 -94 -100 -101 116 -126 133 0
-6459 16 0
-6459 -19 0
-6459 39 0
-6459 -80 0
-6459 95 0
-6459 100 0
-6459 -116 0
-6459 126 0
-6459 -133 0
6459 -16 19 -39 80 -95 -100 116 -126 133 0
-6460 16 0
-6460 -19 0
-6460 39 0
-6460 -80 0
-6460 -94 0
-6460 100 0
-6460 -101 0
-6460 -116 0
-6460 126 0
-6460 -133 0
6460 -16 19 -39 80 94 -100 101 116 -126 133 0
-6461 16 0
-6461 -19 0
-6461 39 0
-6461 -80 0
-6461 94 0
-6461 100 0
-6461 110 0
-6461 -116 0
-6461 126 0
-6461 -133 0
6461 -16 19 -39 80 -94 -100 -110 116 -126 133 0
-6462 16 0
-6462 -19 0
-6462 39 0
-6462 -80 0
-6462 94 0
-6462 100 0
-6462 -116 0
-6462 126 0
-6462 -133 0
-6462 140 0
6462 -16 19 -39 80 -94 -100 116 -126 133 -140 0
-6463 16 0
-6463 -19 0
-6463 39 0
-6463 -80 0
-6463 -94 0
-6463 100 0
-6463 -110 0
-6463 -116 0
-6463 126 0
-6463 -133 0
6463 -16 19 -39 80 94 -100 110 116 -126 133 0
-6464 16 0
-6464 -19 0
-6464 39 0
-6464 -80 0
-6464 -94 0
-6464 100 0
-6464 -116 0
-6464 126 0
-6464 -133 0
-6464 -140 0
6464 -16 19 -39 80 94 -100 116 -126 133 140 0
-6465 16 0
-6465 -19 0
-6465 39 0
-6465 62 0
-6465 64 0
-6465 95 0
-6465 -100 0
-6465 -116 0
-6465 -126 0
-6465 -133 0
6465 -16 19 -39 -62 -64 -95 100 116 126 133 0
-6466 16 0
-6466 -19 0
-6466 39 0
-6466 65 0
-6466 95 0
-6466 -100 0
-6466 -116 0
-6466 -126 0
-6466 -133 0
6466 -16 19 -39 -65 -95 100 116 126 133 0
-6467 16 0
-6467 -19 0
-6467 39 0
-6467 66 0
-6467 95 0
-6467 -100 0
-6467 -116 0
-6467 -126 0
-6467 -133 0
6467 -16 19 -39 -66 -95 100 116 126 133 0
-6468 16 0
-6468 -19 0
-6468 39 0
-6468 -57 0
-6468 -58 0
-6468 -62 0
-6468 95 0
-6468 -100 0
-6468 -116 0
-6468 -126 0
-6468 -133 0
6468 -16 19 -39 57 58 62 -95 100 116 126 133 0
-6469 16 0
-6469 -19 0
-6469 39 0
-6469 -61 0
-6469 -62 0
-6469 95 0
-6469 -100 0
-6469 -116 0
-6469 -126 0
-6469 -133 0
6469 -16 19 -39 61 62 -95 100 116 126 133 0
-6470 16 0
-6470 -19 0
-6470 39 0
-6470 -63 0
-6470 95 0
-6470 -100 0
-6470 -116 0
-6470 -126 0
-6470 -133 0
6470 -16 19 -39 63 -95 100 116 126 133 0
-6471 16 0
-6471 -19 0
-6471 39 0
-6471 61 0
-6471 -64 0
-6471 95 0
-6471 -100 0
-6471 -116 0
-6471 -126 0
-6471 -133 0
6471 -16 19 -39 -61 64 -95 100 116 126 133 0
-6472 16 0
-6472 -19 0
-6472 39 0
-6472 -55 0
-6472 -61 0
-6472 95 0
-6472 -100 0
-6472 -116 0
-6472 -126 0
-6472 -133 0
6472 -16 19 -39 55 61 -95 100 116 126 133 0
-6473 16 0
-6473 -19 0
-6473 39 0
-6473 -80 0
-6473 -94 0
-6473 -116 0
-6473 -133 0
-6473 134 0
-6473 -140 0
6473 -16 19 -39 80 94 116 133 -134 140 0
-6474 16 0
-6474 -19 0
-6474 39 0
-6474 -80 0
-6474 -94 0
-6474 -116 0
-6474 -122 0
-6474 -133 0
-6474 -140 0
6474 -16 19 -39 80 94 116 122 133 140 0
-6475 16 0
-6475 -19 0
-6475 39 0
-6475 -80 0
-6475 94 0
-6475 101 0
-6475 -116 0
-6475 -133 0
-6475 134 0
6475 -16 19 -39 80 -94 -101 116 133 -134 0
-6476 16 0
-6476 -19 0
-6476 39 0
-6476 -80 0
-6476 94 0
-6476 110 0
-6476 -116 0
-6476 -133 0
-6476 134 0
6476 -16 19 -39 80 -94 -110 116 133 -134 0
-6477 16 0
-6477 -19 0
-6477 39 0
-6477 -80 0
-6477 95 0
-6477 -116 0
-6477 -133 0
-6477 134 0
6477 -16 19 -39 80 -95 116 133 -134 0
-6478 16 0
-6478 -19 0
-6478 39 0
-6478 -80 0
-6478 95 0
-6478 -116 0
-6478 -122 0
-6478 -133 0
6478 -16 19 -39 80 -95 116 122 133 0
-6479 16 0
-6479 -19 0
-6479 39 0
-6479 -80 0
-6479 95 0
-6479 -100 0
-6479 -116 0
-6479 -126 0
-6479 -133 0
6479 -16 19 -39 80 -95 100 116 126 133 0
-6480 16 0
-6480 -19 0
-6480 39 0
-6480 62 0
-6480 64 0
-6480 94 0
-6480 -100 0
-6480 101 0
-6480 -116 0
-6480 -126 0
-6480 -133 0
6480 -16 19 -39 -62 -64 -94 100 -101 116 126 133 0
-6481 16 0
-6481 -19 0
-6481 39 0
-6481 65 0
-6481 94 0
-6481 -100 0
-6481 101 0
-6481 -116 0
-6481 -126 0
-6481 -133 0
6481 -16 19 -39 -65 -94 100 -101 116 126 133 0
-6482 16 0
-6482 -19 0
-6482 39 0
-6482 66 0
-6482 94 0
-6482 -100 0
-6482 101 0
-6482 -116 0
-6482 -126 0
-6482 -133 0
6482 -16 19 -39 -66 -94 100 -101 116 126 133 0
-6483 16 0
-6483 -19 0
-6483 39 0
-6483 -57 0
-6483 -58 0
-6483 -62 0
-6483 94 0
-6483 -100 0
-6483 101 0
-6483 -116 0
-6483 -126 0
-6483 -133 0
6483 -16 19 -39 57 58 62 -94 100 -101 116 126 133 0
-6484 16 0
-6484 -19 0
-6484 39 0
-6484 -61 0
-6484 -62 0
-6484 94 0
-6484 -100 0
-6484 101 0
-6484 -116 0
-6484 -126 0
-6484 -133 0
6484 -16 19 -39 61 62 -94 100 -101 116 126 133 0
-6485 16 0
-6485 -19 0
-6485 39 0
-6485 -63 0
-6485 94 0
-6485 -100 0
-6485 101 0
-6485 -116 0
-6485 -126 0
-6485 -133 0
6485 -16 19 -39 63 -94 100 -101 116 126 133 0
-6486 16 0
-6486 -19 0
-6486 39 0
-6486 61 0
-6486 -64 0
-6486 94 0
-6486 -100 0
-6486 101 0
-6486 -116 0
-6486 -126 0
-6486 -133 0
6486 -16 19 -39 -61 64 -94 100 -101 116 126 133 0
-6487 16 0
-6487 -19 0
-6487 39 0
-6487 -55 0
-6487 -61 0
-6487 94 0
-6487 -100 0
-6487 101 0
-6487 -116 0
-6487 -126 0
-6487 -133 0
6487 -16 19 -39 55 61 -94 100 -101 116 126 133 0
-6488 16 0
-6488 17 0
-6488 19 0
-6488 -39 0
-6488 -61 0
-6488 -62 0
-6488 -93 0
-6488 -100 0
-6488 -116 0
-6488 -126 0
-6488 -133 0
6488 -16 -17 -19 39 61 62 93 100 116 126 133 0
-6489 16 0
-6489 17 0
-6489 19 0
-6489 -39 0
-6489 -61 0
-6489 -62 0
-6489 -94 0
-6489 -100 0
-6489 -101 0
-6489 -116 0
-6489 -126 0
-6489 -133 0
6489 -16 -17 -19 39 61 62 94 100 101 116 126 133 0
-6490 16 0
-6490 17 0
-6490 19 0
-6490 -39 0
-6490 -55 0
-6490 -61 0
-6490 -94 0
-6490 -101 0
-6490 -116 0
-6490 -122 0
-6490 -133 0
6490 -16 -17 -19 39 55 61 94 101 116 122 133 0
-6491 16 0
-6491 17 0
-6491 19 0
-6491 -39 0
-6491 -55 0
-6491 -61 0
-6491 -94 0
-6491 -100 0
-6491 -101 0
-6491 -116 0
-6491 -126 0
-6491 -133 0
6491 -16 -17 -19 39 55 61 94 100 101 116 126 133 0
-6492 16 0
-6492 17 0
-6492 19 0
-6492 -39 0
-6492 -61 0
-6492 -62 0
-6492 -94 0
-6492 -101 0
-6492 -116 0
-6492 -122 0
-6492 -133 0
6492 -16 -17 -19 39 61 62 94 101 116 122 133 0
-6493 16 0
-6493 17 0
-6493 19 0
-6493 -39 0
-6493 -63 0
-6493 -94 0
-6493 -101 0
-6493 -116 0
-6493 -122 0
-6493 -133 0
6493 -16 -17 -19 39 63 94 101 116 122 133 0
-6494 16 0
-6494 17 0
-6494 19 0
-6494 -39 0
-6494 -94 0
-6494 -101 0
-6494 -116 0
-6494 -122 0
-6494 -133 0
-6494 -164 0
6494 -16 -17 -19 39 94 101 116 122 133 164 0
-6495 16 0
-6495 17 0
-6495 19 0
-6495 -39 0
-6495 -94 0
-6495 -100 0
-6495 -101 0
-6495 -116 0
-6495 -126 0
-6495 -133 0
-6495 -164 0
6495 -16 -17 -19 39 94 100 101 116 126 133 164 0
-6496 16 0
-6496 17 0
-6496 19 0
-6496 -39 0
-6496 -63 0
-6496 -94 0
-6496 -100 0
-6496 -101 0
-6496 -116 0
-6496 -126 0
-6496 -133 0
6496 -16 -17 -19 39 63 94 100 101 116 126 133 0
-6497 16 0
-6497 17 0
-6497 19 0
-6497 -39 0
-6497 -54 0
-6497 -61 0
-6497 -94 0
-6497 -101 0
-6497 -116 0
-6497 -122 0
-6497 -133 0
6497 -16 -17 -19 39 54 61 94 101 116 122 133 0
-6498 16 0
-6498 17 0
-6498 19 0
-6498 -39 0
-6498 -54 0
-6498 -61 0
-6498 -94 0
-6498 -100 0
-6498 -101 0
-6498 -116 0
-6498 -126 0
-6498 -133 0
6498 -16 -17 -19 39 54 61 94 100 101 116 126 133 0
-6499 16 0
-6499 -19 0
-6499 39 0
-6499 -80 0
-6499 94 0
-6499 -100 0
-6499 101 0
-6499 -116 0
-6499 -126 0
-6499 -133 0
6499 -16 19 -39 80 -94 100 -101 116 126 133 0
-6500 16 0
-6500 -19 0
-6500 39 0
-6500 62 0
-6500 64 0
-6500 94 0
-6500 -100 0
-6500 110 0
-6500 -116 0
-6500 -126 0
-6500 -133 0
6500 -16 19 -39 -62 -64 -94 100 -110 116 126 133 0
-6501 16 0
-6501 -19 0
-6501 39 0
-6501 65 0
-6501 94 0
-6501 -100 0
-6501 110 0
-6501 -116 0
-6501 -126 0
-6501 -133 0
6501 -16 19 -39 -65 -94 100 -110 116 126 133 0
-6502 16 0
-6502 -19 0
-6502 39 0
-6502 66 0
-6502 94 0
-6502 -100 0
-6502 110 0
-6502 -116 0
-6502 -126 0
-6502 -133 0
6502 -16 19 -39 -66 -94 100 -110 116 126 133 0
-6503 16 0
-6503 -19 0
-6503 39 0
-6503 -57 0
-6503 -58 0
-6503 -62 0
-6503 94 0
-6503 -100 0
-6503 110 0
-6503 -116 0
-6503 -126 0
-6503 -133 0
6503 -16 19 -39 57 58 62 -94 100 -110 116 126 133 0
-6504 16 0
-6504 -19 0
-6504 39 0
-6504 -61 0
-6504 -62 0
-6504 94 0
-6504 -100 0
-6504 110 0
-6504 -116 0
-6504 -126 0
-6504 -133 0
6504 -16 19 -39 61 62 -94 100 -110 116 126 133 0
-6505 16 0
-6505 -19 0
-6505 39 0
-6505 -63 0
-6505 94 0
-6505 -100 0
-6505 110 0
-6505 -116 0
-6505 -126 0
-6505 -133 0
6505 -16 19 -39 63 -94 100 -110 116 126 133 0
-6506 16 0
-6506 -19 0
-6506 39 0
-6506 61 0
-6506 -64 0
-6506 94 0
-6506 -100 0
-6506 110 0
-6506 -116 0
-6506 -126 0
-6506 -133 0
6506 -16 19 -39 -61 64 -94 100 -110 116 126 133 0
-6507 16 0
-6507 -19 0
-6507 39 0
-6507 -55 0
-6507 -61 0
-6507 94 0
-6507 -100 0
-6507 110 0
-6507 -116 0
-6507 -126 0
-6507 -133 0
6507 -16 19 -39 55 61 -94 100 -110 116 126 133 0
-6508 16 0
-6508 -19 0
-6508 39 0
-6508 -80 0
-6508 94 0
-6508 -100 0
-6508 110 0
-6508 -116 0
-6508 -126 0
-6508 -133 0
6508 -16 19 -39 80 -94 100 -110 116 126 133 0
-6509 16 0
-6509 -19 0
-6509 39 0
-6509 62 0
-6509 64 0
-6509 -94 0
-6509 -100 0
-6509 -101 0
-6509 -116 0
-6509 -126 0
-6509 -133 0
6509 -16 19 -39 -62 -64 94 100 101 116 126 133 0
-6510 16 0
-6510 -19 0
-6510 39 0
-6510 65 0
-6510 -94 0
-6510 -100 0
-6510 -101 0
-6510 -116 0
-6510 -126 0
-6510 -133 0
6510 -16 19 -39 -65 94 100 101 116 126 133 0
-6511 16 0
-6511 -19 0
-6511 39 0
-6511 66 0
-6511 -94 0
-6511 -100 0
-6511 -101 0
-6511 -116 0
-6511 -126 0
-6511 -133 0
6511 -16 19 -39 -66 94 100 101 116 126 133 0
-6512 16 0
-6512 -19 0
-6512 39 0
-6512 -57 0
-6512 -58 0
-6512 -62 0
-6512 -94 0
-6512 -100 0
-6512 -101 0
-6512 -116 0
-6512 -126 0
-6512 -133 0
6512 -16 19 -39 57 58 62 94 100 101 116 126 133 0
-6513 16 0
-6513 -19 0
-6513 39 0
-6513 -61 0
-6513 -62 0
-6513 -94 0
-6513 -100 0
-6513 -101 0
-6513 -116 0
-6513 -126 0
-6513 -133 0
6513 -16 19 -39 61 62 94 100 101 116 126 133 0
-6514 16 0
-6514 -19 0
-6514 39 0
-6514 -63 0
-6514 -94 0
-6514 -100 0
-6514 -101 0
-6514 -116 0
-6514 -126 0
-6514 -133 0
6514 -16 19 -39 63 94 100 101 116 126 133 0
-6515 16 0
-6515 -19 0
-6515 39 0
-6515 61 0
-6515 -64 0
-6515 -94 0
-6515 -100 0
-6515 -101 0
-6515 -116 0
-6515 -126 0
-6515 -133 0
6515 -16 19 -39 -61 64 94 100 101 116 126 133 0
-6516 16 0
-6516 -19 0
-6516 39 0
-6516 -55 0
-6516 -61 0
-6516 -94 0
-6516 -100 0
-6516 -101 0
-6516 -116 0
-6516 -126 0
-6516 -133 0
6516 -16 19 -39 55 61 94 100 101 116 126 133 0
-6517 16 0
-6517 -19 0
-6517 39 0
-6517 -80 0
-6517 -94 0
-6517 -100 0
-6517 -101 0
-6517 -116 0
-6517 -126 0
-6517 -133 0
6517 -16 19 -39 80 94 100 101 116 126 133 0
-6518 16 0
-6518 -19 0
-6518 39 0
-6518 62 0
-6518 64 0
-6518 -94 0
-6518 -100 0
-6518 -110 0
-6518 -116 0
-6518 -126 0
-6518 -133 0
6518 -16 19 -39 -62 -64 94 100 110 116 126 133 0
-6519 16 0
-6519 -19 0
-6519 39 0
-6519 65 0
-6519 -94 0
-6519 -100 0
-6519 -110 0
-6519 -116 0
-6519 -126 0
-6519 -133 0
6519 -16 19 -39 -65 94 100 110 116 126 133 0
-6520 16 0
-6520 -19 0
-6520 39 0
-6520 66 0
-6520 -94 0
-6520 -100 0
-6520 -110 0
-6520 -116 0
-6520 -126 0
-6520 -133 0
6520 -16 19 -39 -66 94 100 110 116 126 133 0
-6521 16 0
-6521 -19 0
-6521 39 0
-6521 -57 0
-6521 -58 0
-6521 -62 0
-6521 -94 0
-6521 -100 0
-6521 -110 0
-6521 -116 0
-6521 -126 0
-6521 -133 0
6521 -16 19 -39 57 58 62 94 100 110 116 126 133 0
-6522 16 0
-6522 -19 0
-6522 39 0
-6522 -61 0
-6522 -62 0
-6522 -94 0
-6522 -100 0
-6522 -110 0
-6522 -116 0
-6522 -126 0
-6522 -133 0
6522 -16 19 -39 61 62 94 100 110 116 126 133 0
-6523 16 0
-6523 -19 0
-6523 39 0
-6523 -63 0
-6523 -94 0
-6523 -100 0
-6523 -110 0
-6523 -116 0
-6523 -126 0
-6523 -133 0
6523 -16 19 -39 63 94 100 110 116 126 133 0
-6524 16 0
-6524 -19 0
-6524 39 0
-6524 61 0
-6524 -64 0
-6524 -94 0
-6524 -100 0
-6524 -110 0
-6524 -116 0
-6524 -126 0
-6524 -133 0
6524 -16 19 -39 -61 64 94 100 110 116 126 133 0
-6525 16 0
-6525 -19 0
-6525 39 0
-6525 -55 0
-6525 -61 0
-6525 -94 0
-6525 -100 0
-6525 -110 0
-6525 -116 0
-6525 -126 0
-6525 -133 0
6525 -16 19 -39 55 61 94 100 110 116 126 133 0
-6526 16 0
-6526 17 0
-6526 19 0
-6526 -39 0
-6526 -61 0
-6526 -62 0
-6526 -94 0
-6526 -110 0
-6526 -116 0
-6526 -122 0
-6526 -133 0
6526 -16 -17 -19 39 61 62 94 110 116 122 133 0
-6527 16 0
-6527 17 0
-6527 19 0
-6527 -39 0
-6527 -55 0
-6527 -61 0
-6527 -94 0
-6527 -100 0
-6527 -110 0
-6527 -116 0
-6527 -126 0
-6527 -133 0
6527 -16 -17 -19 39 55 61 94 100 110 116 126 133 0
-6528 16 0
-6528 17 0
-6528 19 0
-6528 -39 0
-6528 -61 0
-6528 -62 0
-6528 -94 0
-6528 -100 0
-6528 -110 0
-6528 -116 0
-6528 -126 0
-6528 -133 0
6528 -16 -17 -19 39 61 62 94 100 110 116 126 133 0
-6529 16 0
-6529 17 0
-6529 19 0
-6529 -39 0
-6529 -55 0
-6529 -61 0
-6529 -94 0
-6529 -110 0
-6529 -116 0
-6529 -122 0
-6529 -133 0
6529 -16 -17 -19 39 55 61 94 110 116 122 133 0
-6530 16 0
-6530 17 0
-6530 19 0
-6530 -39 0
-6530 -54 0
-6530 -61 0
-6530 -94 0
-6530 -110 0
-6530 -116 0
-6530 -122 0
-6530 -133 0
6530 -16 -17 -19 39 54 61 94 110 116 122 133 0
-6531 16 0
-6531 17 0
-6531 19 0
-6531 -39 0
-6531 -54 0
-6531 -61 0
-6531 -94 0
-6531 -100 0
-6531 -110 0
-6531 -116 0
-6531 -126 0
-6531 -133 0
6531 -16 -17 -19 39 54 61 94 100 110 116 126 133 0
-6532 16 0
-6532 17 0
-6532 19 0
-6532 -39 0
-6532 -63 0
-6532 -94 0
-6532 -110 0
-6532 -116 0
-6532 -122 0
-6532 -133 0
6532 -16 -17 -19 39 63 94 110 116 122 133 0
-6533 16 0
-6533 17 0
-6533 19 0
-6533 -39 0
-6533 -94 0
-6533 -110 0
-6533 -116 0
-6533 -122 0
-6533 -133 0
-6533 -164 0
6533 -16 -17 -19 39 94 110 116 122 133 164 0
-6534 16 0
-6534 17 0
-6534 19 0
-6534 -39 0
-6534 -94 0
-6534 -100 0
-6534 -110 0
-6534 -116 0
-6534 -126 0
-6534 -133 0
-6534 -164 0
6534 -16 -17 -19 39 94 100 110 116 126 133 164 0
-6535 16 0
-6535 17 0
-6535 19 0
-6535 -39 0
-6535 -63 0
-6535 -94 0
-6535 -100 0
-6535 -110 0
-6535 -116 0
-6535 -126 0
-6535 -133 0
6535 -16 -17 -19 39 63 94 100 110 116 126 133 0
-6536 16 0
-6536 -19 0
-6536 39 0
-6536 -80 0
-6536 -94 0
-6536 -100 0
-6536 -110 0
-6536 -116 0
-6536 -126 0
-6536 -133 0
6536 -16 19 -39 80 94 100 110 116 126 133 0
-6537 16 0
-6537 -19 0
-6537 39 0
-6537 62 0
-6537 64 0
-6537 94 0
-6537 -100 0
-6537 -116 0
-6537 -126 0
-6537 -133 0
-6537 140 0
6537 -16 19 -39 -62 -64 -94 100 116 126 133 -140 0
-6538 16 0
-6538 -19 0
-6538 39 0
-6538 65 0
-6538 94 0
-6538 -100 0
-6538 -116 0
-6538 -126 0
-6538 -133 0
-6538 140 0
6538 -16 19 -39 -65 -94 100 116 126 133 -140 0
-6539 16 0
-6539 -19 0
-6539 39 0
-6539 66 0
-6539 94 0
-6539 -100 0
-6539 -116 0
-6539 -126 0
-6539 -133 0
-6539 140 0
6539 -16 19 -39 -66 -94 100 116 126 133 -140 0
-6540 16 0
-6540 -19 0
-6540 39 0
-6540 -57 0
-6540 -58 0
-6540 -62 0
-6540 94 0
-6540 -100 0
-6540 -116 0
-6540 -126 0
-6540 -133 0
-6540 140 0
6540 -16 19 -39 57 58 62 -94 100 116 126 133 -140 0
-6541 16 0
-6541 -19 0
-6541 39 0
-6541 -61 0
-6541 -62 0
-6541 94 0
-6541 -100 0
-6541 -116 0
-6541 -126 0
-6541 -133 0
-6541 140 0
6541 -16 19 -39 61 62 -94 100 116 126 133 -140 0
-6542 16 0
-6542 -19 0
-6542 39 0
-6542 -63 0
-6542 94 0
-6542 -100 0
-6542 -116 0
-6542 -126 0
-6542 -133 0
-6542 140 0
6542 -16 19 -39 63 -94 100 116 126 133 -140 0
-6543 16 0
-6543 -19 0
-6543 39 0
-6543 61 0
-6543 -64 0
-6543 94 0
-6543 -100 0
-6543 -116 0
-6543 -126 0
-6543 -133 0
-6543 140 0
6543 -16 19 -39 -61 64 -94 100 116 126 133 -140 0
-6544 16 0
-6544 -19 0
-6544 39 0
-6544 -55 0
-6544 -61 0
-6544 94 0
-6544 -100 0
-6544 -116 0
-6544 -126 0
-6544 -133 0
-6544 140 0
6544 -16 19 -39 55 61 -94 100 116 126 133 -140 0
-6545 16 0
-6545 -19 0
-6545 39 0
-6545 -80 0
-6545 -94 0
-6545 -100 0
-6545 -116 0
-6545 -126 0
-6545 -133 0
-6545 -140 0
6545 -16 19 -39 80 94 100 116 126 133 140 0
-6546 16 0
-6546 -19 0
-6546 39 0
-6546 -80 0
-6546 94 0
-6546 -100 0
-6546 -116 0
-6546 -126 0
-6546 -133 0
-6546 140 0
6546 -16 19 -39 80 -94 100 116 126 133 -140 0
-6547 16 0
-6547 -19 0
-6547 39 0
-6547 -80 0
-6547 94 0
-6547 -116 0
-6547 -122 0
-6547 -133 0
-6547 140 0
6547 -16 19 -39 80 -94 116 122 133 -140 0
-6548 16 0
-6548 -19 0
-6548 39 0
-6548 -80 0
-6548 94 0
-6548 -116 0
-6548 -133 0
-6548 134 0
-6548 140 0
6548 -16 19 -39 80 -94 116 133 -134 -140 0
-6549 16 0
-6549 -19 0
-6549 39 0
-6549 -80 0
-6549 -94 0
-6549 -101 0
-6549 -116 0
-6549 -122 0
-6549 -133 0
6549 -16 19 -39 80 94 101 116 122 133 0
-6550 16 0
-6550 -19 0
-6550 39 0
-6550 -80 0
-6550 -94 0
-6550 -110 0
-6550 -116 0
-6550 -122 0
-6550 -133 0
6550 -16 19 -39 80 94 110 116 122 133 0
-6551 16 0
-6551 -19 0
-6551 39 0
-6551 -80 0
-6551 -94 0
-6551 -101 0
-6551 -116 0
-6551 -133 0
-6551 134 0
6551 -16 19 -39 80 94 101 116 133 -134 0
-6552 16 0
-6552 -19 0
-6552 39 0
-6552 -80 0
-6552 -94 0
-6552 -110 0
-6552 -116 0
-6552 -133 0
-6552 134 0
6552 -16 19 -39 80 94 110 116 133 -134 0
-6553 16 0
-6553 -19 0
-6553 39 0
-6553 -80 0
-6553 94 0
-6553 101 0
-6553 -116 0
-6553 -122 0
-6553 -133 0
6553 -16 19 -39 80 -94 -101 116 122 133 0
-6554 16 0
-6554 -19 0
-6554 39 0
-6554 -80 0
-6554 94 0
-6554 110 0
-6554 -116 0
-6554 -122 0
-6554 -133 0
6554 -16 19 -39 80 -94 -110 116 122 133 0
-6555 16 0
-6555 -19 0
-6555 39 0
-6555 -78 0
-6555 94 0
-6555 -116 0
-6555 -122 0
-6555 -133 0
-6555 140 0
6555 -16 19 -39 78 -94 116 122 133 -140 0
-6556 16 0
-6556 17 0
-6556 19 0
-6556 -39 0
-6556 65 0
-6556 95 0
-6556 100 0
-6556 -116 0
-6556 126 0
-6556 -133 0
6556 -16 -17 -19 39 -65 -95 -100 116 -126 133 0
-6557 16 0
-6557 17 0
-6557 19 0
-6557 -39 0
-6557 66 0
-6557 95 0
-6557 100 0
-6557 -116 0
-6557 126 0
-6557 -133 0
6557 -16 -17 -19 39 -66 -95 -100 116 -126 133 0
-6558 16 0
-6558 17 0
-6558 19 0
-6558 -39 0
-6558 -57 0
-6558 -58 0
-6558 -62 0
-6558 95 0
-6558 100 0
-6558 -116 0
-6558 126 0
-6558 -133 0
6558 -16 -17 -19 39 57 58 62 -95 -100 116 -126 133 0
-6559 16 0
-6559 17 0
-6559 19 0
-6559 -39 0
-6559 -61 0
-6559 -62 0
-6559 95 0
-6559 100 0
-6559 -116 0
-6559 126 0
-6559 -133 0
6559 -16 -17 -19 39 61 62 -95 -100 116 -126 133 0
-6560 16 0
-6560 17 0
-6560 19 0
-6560 -39 0
-6560 -63 0
-6560 95 0
-6560 100 0
-6560 -116 0
-6560 126 0
-6560 -133 0
6560 -16 -17 -19 39 63 -95 -100 116 -126 133 0
-6561 16 0
-6561 17 0
-6561 19 0
-6561 -39 0
-6561 61 0
-6561 -64 0
-6561 95 0
-6561 100 0
-6561 -116 0
-6561 126 0
-6561 -133 0
6561 -16 -17 -19 39 -61 64 -95 -100 116 -126 133 0
-6562 16 0
-6562 17 0
-6562 19 0
-6562 -39 0
-6562 -55 0
-6562 -61 0
-6562 95 0
-6562 100 0
-6562 -116 0
-6562 126 0
-6562 -133 0
6562 -16 -17 -19 39 55 61 -95 -100 116 -126 133 0
-6563 16 0
-6563 -19 0
-6563 39 0
-6563 -84 0
-6563 94 0
-6563 -116 0
-6563 -122 0
-6563 -133 0
-6563 140 0
6563 -16 19 -39 84 -94 116 122 133 -140 0
-6564 16 0
-6564 -19 0
-6564 39 0
-6564 -77 0
-6564 94 0
-6564 -116 0
-6564 -122 0
-6564 -133 0
-6564 140 0
6564 -16 19 -39 77 -94 116 122 133 -140 0
-6565 16 0
-6565 -19 0
-6565 39 0
-6565 -81 0
-6565 94 0
-6565 -116 0
-6565 -122 0
-6565 -133 0
-6565 140 0
6565 -16 19 -39 81 -94 116 122 133 -140 0
-6566 16 0
-6566 -19 0
-6566 39 0
-6566 -79 0
-6566 94 0
-6566 -116 0
-6566 -122 0
-6566 -133 0
-6566 140 0
6566 -16 19 -39 79 -94 116 122 133 -140 0
-6567 16 0
-6567 -19 0
-6567 39 0
-6567 -83 0
-6567 94 0
-6567 -116 0
-6567 -122 0
-6567 -133 0
-6567 140 0
6567 -16 19 -39 83 -94 116 122 133 -140 0
-6568 16 0
-6568 -19 0
-6568 39 0
-6568 -56 0
-6568 -71 0
-6568 94 0
-6568 -116 0
-6568 -122 0
-6568 -133 0
-6568 140 0
6568 -16 19 -39 56 71 -94 116 122 133 -140 0
-6569 16 0
-6569 -19 0
-6569 39 0
-6569 -56 0
-6569 -69 0
-6569 94 0
-6569 -116 0
-6569 -122 0
-6569 -133 0
-6569 140 0
6569 -16 19 -39 56 69 -94 116 122 133 -140 0
-6570 16 0
-6570 -19 0
-6570 39 0
-6570 -56 0
-6570 -75 0
-6570 94 0
-6570 -116 0
-6570 -122 0
-6570 -133 0
-6570 140 0
6570 -16 19 -39 56 75 -94 116 122 133 -140 0
-6571 16 0
-6571 -19 0
-6571 39 0
-6571 -56 0
-6571 -68 0
-6571 94 0
-6571 -116 0
-6571 -122 0
-6571 -133 0
-6571 140 0
6571 -16 19 -39 56 68 -94 116 122 133 -140 0
-6572 16 0
-6572 -19 0
-6572 39 0
-6572 -56 0
-6572 -72 0
-6572 94 0
-6572 -116 0
-6572 -122 0
-6572 -133 0
-6572 140 0
6572 -16 19 -39 56 72 -94 116 122 133 -140 0
-6573 16 0
-6573 -19 0
-6573 39 0
-6573 -56 0
-6573 -70 0
-6573 94 0
-6573 -116 0
-6573 -122 0
-6573 -133 0
-6573 140 0
6573 -16 19 -39 56 70 -94 116 122 133 -140 0
-6574 16 0
-6574 -19 0
-6574 39 0
-6574 -56 0
-6574 -74 0
-6574 94 0
-6574 -116 0
-6574 -122 0
-6574 -133 0
-6574 140 0
6574 -16 19 -39 56 74 -94 116 122 133 -140 0
-6575 16 0
-6575 -19 0
-6575 39 0
-6575 -76 0
-6575 94 0
-6575 -116 0
-6575 -122 0
-6575 -133 0
-6575 140 0
6575 -16 19 -39 76 -94 116 122 133 -140 0
-6576 16 0
-6576 -19 0
-6576 39 0
-6576 -56 0
-6576 -67 0
-6576 94 0
-6576 -116 0
-6576 -122 0
-6576 -133 0
-6576 140 0
6576 -16 19 -39 56 67 -94 116 122 133 -140 0
-6577 16 0
-6577 -19 0
-6577 39 0
-6577 -56 0
-6577 -73 0
-6577 94 0
-6577 -116 0
-6577 -122 0
-6577 -133 0
-6577 140 0
6577 -16 19 -39 56 73 -94 116 122 133 -140 0
-6578 16 0
-6578 -19 0
-6578 39 0
-6578 94 0
-6578 -116 0
-6578 -122 0
-6578 -133 0
-6578 140 0
-6578 -164 0
6578 -16 19 -39 -94 116 122 133 -140 164 0
-6579 16 0
-6579 -19 0
-6579 39 0
-6579 -55 0
-6579 -56 0
-6579 94 0
-6579 -116 0
-6579 -122 0
-6579 -133 0
-6579 140 0
6579 -16 19 -39 55 56 -94 116 122 133 -140 0
-6580 16 0
-6580 -19 0
-6580 39 0
-6580 61 0
-6580 -64 0
-6580 94 0
-6580 -116 0
-6580 -122 0
-6580 -133 0
-6580 140 0
6580 -16 19 -39 -61 64 -94 116 122 133 -140 0
-6581 16 0
-6581 -19 0
-6581 39 0
-6581 -55 0
-6581 -61 0
-6581 94 0
-6581 -116 0
-6581 -122 0
-6581 -133 0
-6581 140 0
6581 -16 19 -39 55 61 -94 116 122 133 -140 0
-6582 16 0
-6582 -19 0
-6582 39 0
-6582 -56 0
-6582 -62 0
-6582 94 0
-6582 -116 0
-6582 -122 0
-6582 -133 0
-6582 140 0
6582 -16 19 -39 56 62 -94 116 122 133 -140 0
-6583 16 0
-6583 -19 0
-6583 39 0
-6583 -54 0
-6583 -56 0
-6583 94 0
-6583 -116 0
-6583 -122 0
-6583 -133 0
-6583 140 0
6583 -16 19 -39 54 56 -94 116 122 133 -140 0
-6584 16 0
-6584 -19 0
-6584 39 0
-6584 -54 0
-6584 -61 0
-6584 94 0
-6584 -116 0
-6584 -122 0
-6584 -133 0
-6584 140 0
6584 -16 19 -39 54 61 -94 116 122 133 -140 0
-6585 16 0
-6585 -19 0
-6585 39 0
-6585 -78 0
-6585 94 0
-6585 -100 0
-6585 -116 0
-6585 -126 0
-6585 -133 0
-6585 140 0
6585 -16 19 -39 78 -94 100 116 126 133 -140 0
-6586 16 0
-6586 17 0
-6586 19 0
-6586 -39 0
-6586 -55 0
-6586 -61 0
-6586 -93 0
-6586 -100 0
-6586 -116 0
-6586 -126 0
-6586 -133 0
6586 -16 -17 -19 39 55 61 93 100 116 126 133 0
-6587 16 0
-6587 17 0
-6587 19 0
-6587 -39 0
-6587 -63 0
-6587 -93 0
-6587 -100 0
-6587 -116 0
-6587 -126 0
-6587 -133 0
6587 -16 -17 -19 39 63 93 100 116 126 133 0
-6588 16 0
-6588 17 0
-6588 19 0
-6588 -39 0
-6588 -93 0
-6588 -100 0
-6588 -116 0
-6588 -126 0
-6588 -133 0
-6588 -164 0
6588 -16 -17 -19 39 93 100 116 126 133 164 0
-6589 16 0
-6589 17 0
-6589 19 0
-6589 -39 0
-6589 -54 0
-6589 -61 0
-6589 -93 0
-6589 -100 0
-6589 -116 0
-6589 -126 0
-6589 -133 0
6589 -16 -17 -19 39 54 61 93 100 116 126 133 0
-6590 16 0
-6590 -19 0
-6590 39 0
-6590 -84 0
-6590 94 0
-6590 -100 0
-6590 -116 0
-6590 -126 0
-6590 -133 0
-6590 140 0
6590 -16 19 -39 84 -94 100 116 126 133 -140 0
-6591 16 0
-6591 -19 0
-6591 39 0
-6591 -77 0
-6591 94 0
-6591 -100 0
-6591 -116 0
-6591 -126 0
-6591 -133 0
-6591 140 0
6591 -16 19 -39 77 -94 100 116 126 133 -140 0
-6592 16 0
-6592 -19 0
-6592 39 0
-6592 -81 0
-6592 94 0
-6592 -100 0
-6592 -116 0
-6592 -126 0
-6592 -133 0
-6592 140 0
6592 -16 19 -39 81 -94 100 116 126 133 -140 0
-6593 16 0
-6593 -19 0
-6593 39 0
-6593 -79 0
-6593 94 0
-6593 -100 0
-6593 -116 0
-6593 -126 0
-6593 -133 0
-6593 140 0
6593 -16 19 -39 79 -94 100 116 126 133 -140 0
-6594 16 0
-6594 -19 0
-6594 39 0
-6594 -83 0
-6594 94 0
-6594 -100 0
-6594 -116 0
-6594 -126 0
-6594 -133 0
-6594 140 0
6594 -16 19 -39 83 -94 100 116 126 133 -140 0
-6595 16 0
-6595 -19 0
-6595 39 0
-6595 -76 0
-6595 94 0
-6595 -100 0
-6595 -116 0
-6595 -126 0
-6595 -133 0
-6595 140 0
6595 -16 19 -39 76 -94 100 116 126 133 -140 0
-6596 16 0
-6596 -19 0
-6596 39 0
-6596 -82 0
-6596 94 0
-6596 -100 0
-6596 -116 0
-6596 -126 0
-6596 -133 0
-6596 140 0
6596 -16 19 -39 82 -94 100 116 126 133 -140 0
-6597 16 0
-6597 -19 0
-6597 39 0
-6597 94 0
-6597 -100 0
-6597 -116 0
-6597 -126 0
-6597 -133 0
-6597 140 0
-6597 -164 0
6597 -16 19 -39 -94 100 116 126 133 -140 164 0
-6598 16 0
-6598 -19 0
-6598 39 0
-6598 -56 0
-6598 -62 0
-6598 94 0
-6598 -100 0
-6598 -116 0
-6598 -126 0
-6598 -133 0
-6598 140 0
6598 -16 19 -39 56 62 -94 100 116 126 133 -140 0
-6599 16 0
-6599 -19 0
-6599 39 0
-6599 -56 0
-6599 -62 0
-6599 94 0
-6599 -116 0
-6599 -133 0
-6599 134 0
-6599 140 0
6599 -16 19 -39 56 62 -94 116 133 -134 -140 0
-6600 16 0
-6600 -19 0
-6600 39 0
-6600 -56 0
-6600 -62 0
-6600 94 0
-6600 100 0
-6600 -116 0
-6600 126 0
-6600 -133 0
-6600 140 0
6600 -16 19 -39 56 62 -94 -100 116 -126 133 -140 0
-6601 16 0
-6601 -19 0
-6601 39 0
-6601 -78 0
-6601 94 0
-6601 100 0
-6601 -116 0
-6601 126 0
-6601 -133 0
-6601 140 0
6601 -16 19 -39 78 -94 -100 116 -126 133 -140 0
-6602 16 0
-6602 -19 0
-6602 39 0
-6602 -84 0
-6602 94 0
-6602 100 0
-6602 -116 0
-6602 126 0
-6602 -133 0
-6602 140 0
6602 -16 19 -39 84 -94 -100 116 -126 133 -140 0
-6603 16 0
-6603 -19 0
-6603 39 0
-6603 -77 0
-6603 94 0
-6603 100 0
-6603 -116 0
-6603 126 0
-6603 -133 0
-6603 140 0
6603 -16 19 -39 77 -94 -100 116 -126 133 -140 0
-6604 16 0
-6604 -19 0
-6604 39 0
-6604 -81 0
-6604 94 0
-6604 100 0
-6604 -116 0
-6604 126 0
-6604 -133 0
-6604 140 0
6604 -16 19 -39 81 -94 -100 116 -126 133 -140 0
-6605 16 0
-6605 -19 0
-6605 39 0
-6605 -79 0
-6605 94 0
-6605 100 0
-6605 -116 0
-6605 126 0
-6605 -133 0
-6605 140 0
6605 -16 19 -39 79 -94 -100 116 -126 133 -140 0
-6606 16 0
-6606 -19 0
-6606 39 0
-6606 -83 0
-6606 94 0
-6606 100 0
-6606 -116 0
-6606 126 0
-6606 -133 0
-6606 140 0
6606 -16 19 -39 83 -94 -100 116 -126 133 -140 0
-6607 16 0
-6607 -19 0
-6607 39 0
-6607 -76 0
-6607 94 0
-6607 100 0
-6607 -116 0
-6607 126 0
-6607 -133 0
-6607 140 0
6607 -16 19 -39 76 -94 -100 116 -126 133 -140 0
-6608 16 0
-6608 -19 0
-6608 39 0
-6608 94 0
-6608 100 0
-6608 -116 0
-6608 126 0
-6608 -133 0
-6608 140 0
-6608 -164 0
6608 -16 19 -39 -94 -100 116 -126 133 -140 164 0
-6609 16 0
-6609 -19 0
-6609 39 0
-6609 61 0
-6609 -64 0
-6609 94 0
-6609 100 0
-6609 -116 0
-6609 126 0
-6609 -133 0
-6609 140 0
6609 -16 19 -39 -61 64 -94 -100 116 -126 133 -140 0
-6610 16 0
-6610 -19 0
-6610 39 0
-6610 -78 0
-6610 94 0
-6610 -116 0
-6610 -133 0
-6610 134 0
-6610 140 0
6610 -16 19 -39 78 -94 116 133 -134 -140 0
-6611 16 0
-6611 -19 0
-6611 39 0
-6611 -84 0
-6611 94 0
-6611 -116 0
-6611 -133 0
-6611 134 0
-6611 140 0
6611 -16 19 -39 84 -94 116 133 -134 -140 0
-6612 16 0
-6612 -19 0
-6612 39 0
-6612 -77 0
-6612 94 0
-6612 -116 0
-6612 -133 0
-6612 134 0
-6612 140 0
6612 -16 19 -39 77 -94 116 133 -134 -140 0
-6613 16 0
-6613 -19 0
-6613 39 0
-6613 -81 0
-6613 94 0
-6613 -116 0
-6613 -133 0
-6613 134 0
-6613 140 0
6613 -16 19 -39 81 -94 116 133 -134 -140 0
-6614 16 0
-6614 -19 0
-6614 39 0
-6614 -79 0
-6614 94 0
-6614 -116 0
-6614 -133 0
-6614 134 0
-6614 140 0
6614 -16 19 -39 79 -94 116 133 -134 -140 0
-6615 16 0
-6615 -19 0
-6615 39 0
-6615 -76 0
-6615 94 0
-6615 -116 0
-6615 -133 0
-6615 134 0
-6615 140 0
6615 -16 19 -39 76 -94 116 133 -134 -140 0
-6616 16 0
-6616 -19 0
-6616 39 0
-6616 -82 0
-6616 94 0
-6616 -116 0
-6616 -133 0
-6616 134 0
-6616 140 0
6616 -16 19 -39 82 -94 116 133 -134 -140 0
-6617 16 0
-6617 -19 0
-6617 39 0
-6617 94 0
-6617 -116 0
-6617 -133 0
-6617 134 0
-6617 140 0
-6617 -164 0
6617 -16 19 -39 -94 116 133 -134 -140 164 0
-6618 16 0
-6618 -19 0
-6618 39 0
-6618 -62 0
-6618 -64 0
-6618 94 0
-6618 -116 0
-6618 -133 0
-6618 134 0
-6618 140 0
6618 -16 19 -39 62 64 -94 116 133 -134 -140 0
-6619 16 0
-6619 -19 0
-6619 39 0
-6619 -54 0
-6619 -61 0
-6619 94 0
-6619 -100 0
-6619 -116 0
-6619 -126 0
-6619 -133 0
-6619 140 0
6619 -16 19 -39 54 61 -94 100 116 126 133 -140 0
-6620 16 0
-6620 -19 0
-6620 39 0
-6620 -56 0
-6620 -71 0
-6620 94 0
-6620 -100 0
-6620 -116 0
-6620 -126 0
-6620 -133 0
-6620 140 0
6620 -16 19 -39 56 71 -94 100 116 126 133 -140 0
-6621 16 0
-6621 -19 0
-6621 39 0
-6621 -56 0
-6621 -69 0
-6621 94 0
-6621 -100 0
-6621 -116 0
-6621 -126 0
-6621 -133 0
-6621 140 0
6621 -16 19 -39 56 69 -94 100 116 126 133 -140 0
-6622 16 0
-6622 -19 0
-6622 39 0
-6622 -56 0
-6622 -75 0
-6622 94 0
-6622 -100 0
-6622 -116 0
-6622 -126 0
-6622 -133 0
-6622 140 0
6622 -16 19 -39 56 75 -94 100 116 126 133 -140 0
-6623 16 0
-6623 -19 0
-6623 39 0
-6623 -56 0
-6623 -68 0
-6623 94 0
-6623 -100 0
-6623 -116 0
-6623 -126 0
-6623 -133 0
-6623 140 0
6623 -16 19 -39 56 68 -94 100 116 126 133 -140 0
-6624 16 0
-6624 -19 0
-6624 39 0
-6624 -56 0
-6624 -72 0
-6624 94 0
-6624 -100 0
-6624 -116 0
-6624 -126 0
-6624 -133 0
-6624 140 0
6624 -16 19 -39 56 72 -94 100 116 126 133 -140 0
-6625 16 0
-6625 -19 0
-6625 39 0
-6625 -56 0
-6625 -70 0
-6625 94 0
-6625 -100 0
-6625 -116 0
-6625 -126 0
-6625 -133 0
-6625 140 0
6625 -16 19 -39 56 70 -94 100 116 126 133 -140 0
-6626 16 0
-6626 -19 0
-6626 39 0
-6626 -56 0
-6626 -74 0
-6626 94 0
-6626 -100 0
-6626 -116 0
-6626 -126 0
-6626 -133 0
-6626 140 0
6626 -16 19 -39 56 74 -94 100 116 126 133 -140 0
-6627 16 0
-6627 -19 0
-6627 39 0
-6627 -56 0
-6627 -67 0
-6627 94 0
-6627 -100 0
-6627 -116 0
-6627 -126 0
-6627 -133 0
-6627 140 0
6627 -16 19 -39 56 67 -94 100 116 126 133 -140 0
-6628 16 0
-6628 -19 0
-6628 39 0
-6628 -56 0
-6628 -73 0
-6628 94 0
-6628 -100 0
-6628 -116 0
-6628 -126 0
-6628 -133 0
-6628 140 0
6628 -16 19 -39 56 73 -94 100 116 126 133 -140 0
-6629 16 0
-6629 -19 0
-6629 39 0
-6629 -56 0
-6629 -71 0
-6629 94 0
-6629 100 0
-6629 -116 0
-6629 126 0
-6629 -133 0
-6629 140 0
6629 -16 19 -39 56 71 -94 -100 116 -126 133 -140 0
-6630 16 0
-6630 -19 0
-6630 39 0
-6630 -56 0
-6630 -69 0
-6630 94 0
-6630 100 0
-6630 -116 0
-6630 126 0
-6630 -133 0
-6630 140 0
6630 -16 19 -39 56 69 -94 -100 116 -126 133 -140 0
-6631 16 0
-6631 -19 0
-6631 39 0
-6631 -56 0
-6631 -75 0
-6631 94 0
-6631 100 0
-6631 -116 0
-6631 126 0
-6631 -133 0
-6631 140 0
6631 -16 19 -39 56 75 -94 -100 116 -126 133 -140 0
-6632 16 0
-6632 -19 0
-6632 39 0
-6632 -56 0
-6632 -68 0
-6632 94 0
-6632 100 0
-6632 -116 0
-6632 126 0
-6632 -133 0
-6632 140 0
6632 -16 19 -39 56 68 -94 -100 116 -126 133 -140 0
-6633 16 0
-6633 -19 0
-6633 39 0
-6633 -56 0
-6633 -72 0
-6633 94 0
-6633 100 0
-6633 -116 0
-6633 126 0
-6633 -133 0
-6633 140 0
6633 -16 19 -39 56 72 -94 -100 116 -126 133 -140 0
-6634 16 0
-6634 -19 0
-6634 39 0
-6634 -56 0
-6634 -70 0
-6634 94 0
-6634 100 0
-6634 -116 0
-6634 126 0
-6634 -133 0
-6634 140 0
6634 -16 19 -39 56 70 -94 -100 116 -126 133 -140 0
-6635 16 0
-6635 -19 0
-6635 39 0
-6635 -56 0
-6635 -74 0
-6635 94 0
-6635 100 0
-6635 -116 0
-6635 126 0
-6635 -133 0
-6635 140 0
6635 -16 19 -39 56 74 -94 -100 116 -126 133 -140 0
-6636 16 0
-6636 -19 0
-6636 39 0
-6636 -56 0
-6636 -67 0
-6636 94 0
-6636 100 0
-6636 -116 0
-6636 126 0
-6636 -133 0
-6636 140 0
6636 -16 19 -39 56 67 -94 -100 116 -126 133 -140 0
-6637 16 0
-6637 -19 0
-6637 39 0
-6637 -56 0
-6637 -73 0
-6637 94 0
-6637 100 0
-6637 -116 0
-6637 126 0
-6637 -133 0
-6637 140 0
6637 -16 19 -39 56 73 -94 -100 116 -126 133 -140 0
-6638 16 0
-6638 -19 0
-6638 39 0
-6638 -55 0
-6638 -56 0
-6638 94 0
-6638 100 0
-6638 -116 0
-6638 126 0
-6638 -133 0
-6638 140 0
6638 -16 19 -39 55 56 -94 -100 116 -126 133 -140 0
-6639 16 0
-6639 -19 0
-6639 39 0
-6639 -54 0
-6639 -56 0
-6639 94 0
-6639 100 0
-6639 -116 0
-6639 126 0
-6639 -133 0
-6639 140 0
6639 -16 19 -39 54 56 -94 -100 116 -126 133 -140 0
-6640 16 0
-6640 -19 0
-6640 39 0
-6640 -55 0
-6640 -61 0
-6640 94 0
-6640 100 0
-6640 -116 0
-6640 126 0
-6640 -133 0
-6640 140 0
6640 -16 19 -39 55 61 -94 -100 116 -126 133 -140 0
-6641 16 0
-6641 -19 0
-6641 39 0
-6641 -54 0
-6641 -61 0
-6641 94 0
-6641 100 0
-6641 -116 0
-6641 126 0
-6641 -133 0
-6641 140 0
6641 -16 19 -39 54 61 -94 -100 116 -126 133 -140 0
-6642 16 0
-6642 -19 0
-6642 39 0
-6642 -56 0
-6642 -71 0
-6642 94 0
-6642 -116 0
-6642 -133 0
-6642 134 0
-6642 140 0
6642 -16 19 -39 56 71 -94 116 133 -134 -140 0
-6643 16 0
-6643 -19 0
-6643 39 0
-6643 -56 0
-6643 -69 0
-6643 94 0
-6643 -116 0
-6643 -133 0
-6643 134 0
-6643 140 0
6643 -16 19 -39 56 69 -94 116 133 -134 -140 0
-6644 16 0
-6644 -19 0
-6644 39 0
-6644 -56 0
-6644 -75 0
-6644 94 0
-6644 -116 0
-6644 -133 0
-6644 134 0
-6644 140 0
6644 -16 19 -39 56 75 -94 116 133 -134 -140 0
-6645 16 0
-6645 -19 0
-6645 39 0
-6645 -56 0
-6645 -68 0
-6645 94 0
-6645 -116 0
-6645 -133 0
-6645 134 0
-6645 140 0
6645 -16 19 -39 56 68 -94 116 133 -134 -140 0
-6646 16 0
-6646 -19 0
-6646 39 0
-6646 -56 0
-6646 -72 0
-6646 94 0
-6646 -116 0
-6646 -133 0
-6646 134 0
-6646 140 0
6646 -16 19 -39 56 72 -94 116 133 -134 -140 0
-6647 16 0
-6647 -19 0
-6647 39 0
-6647 -56 0
-6647 -70 0
-6647 94 0
-6647 -116 0
-6647 -133 0
-6647 134 0
-6647 140 0
6647 -16 19 -39 56 70 -94 116 133 -134 -140 0
-6648 16 0
-6648 -19 0
-6648 39 0
-6648 -56 0
-6648 -74 0
-6648 94 0
-6648 -116 0
-6648 -133 0
-6648 134 0
-6648 140 0
6648 -16 19 -39 56 74 -94 116 133 -134 -140 0
-6649 16 0
-6649 -19 0
-6649 39 0
-6649 -56 0
-6649 -67 0
-6649 94 0
-6649 -116 0
-6649 -133 0
-6649 134 0
-6649 140 0
6649 -16 19 -39 56 67 -94 116 133 -134 -140 0
-6650 16 0
-6650 -19 0
-6650 39 0
-6650 -56 0
-6650 -73 0
-6650 94 0
-6650 -116 0
-6650 -133 0
-6650 134 0
-6650 140 0
6650 -16 19 -39 56 73 -94 116 133 -134 -140 0
-6651 16 0
-6651 -19 0
-6651 39 0
-6651 -55 0
-6651 -56 0
-6651 94 0
-6651 -116 0
-6651 -133 0
-6651 134 0
-6651 140 0
6651 -16 19 -39 55 56 -94 116 133 -134 -140 0
-6652 16 0
-6652 -19 0
-6652 39 0
-6652 -54 0
-6652 -56 0
-6652 94 0
-6652 -116 0
-6652 -133 0
-6652 134 0
-6652 140 0
6652 -16 19 -39 54 56 -94 116 133 -134 -140 0
-6653 16 0
-6653 -19 0
-6653 39 0
-6653 61 0
-6653 -64 0
-6653 94 0
-6653 -116 0
-6653 -133 0
-6653 134 0
-6653 140 0
6653 -16 19 -39 -61 64 -94 116 133 -134 -140 0
-6654 16 0
-6654 -19 0
-6654 39 0
-6654 -55 0
-6654 -61 0
-6654 94 0
-6654 -116 0
-6654 -133 0
-6654 134 0
-6654 140 0
6654 -16 19 -39 55 61 -94 116 133 -134 -140 0
-6655 16 0
-6655 -19 0
-6655 39 0
-6655 -54 0
-6655 -61 0
-6655 94 0
-6655 -116 0
-6655 -133 0
-6655 134 0
-6655 140 0
6655 -16 19 -39 54 61 -94 116 133 -134 -140 0
-6656 16 0
-6656 -19 0
-6656 39 0
-6656 -55 0
-6656 -61 0
-6656 -94 0
-6656 -101 0
-6656 -116 0
-6656 -133 0
-6656 134 0
6656 -16 19 -39 55 61 94 101 116 133 -134 0
-6657 16 0
-6657 -19 0
-6657 39 0
-6657 -55 0
-6657 -61 0
-6657 -94 0
-6657 -110 0
-6657 -116 0
-6657 -133 0
-6657 134 0
6657 -16 19 -39 55 61 94 110 116 133 -134 0
-6658 16 0
-6658 -19 0
-6658 39 0
-6658 -55 0
-6658 -61 0
-6658 95 0
-6658 -116 0
-6658 -133 0
-6658 134 0
6658 -16 19 -39 55 61 -95 116 133 -134 0
-6659 16 0
-6659 -19 0
-6659 39 0
-6659 -55 0
-6659 -61 0
-6659 95 0
-6659 -116 0
-6659 -122 0
-6659 -133 0
6659 -16 19 -39 55 61 -95 116 122 133 0
-6660 16 0
-6660 -19 0
-6660 39 0
-6660 -55 0
-6660 -61 0
-6660 95 0
-6660 100 0
-6660 -116 0
-6660 126 0
-6660 -133 0
6660 -16 19 -39 55 61 -95 -100 116 -126 133 0
-6661 16 0
-6661 -19 0
-6661 39 0
-6661 -55 0
-6661 -61 0
-6661 -94 0
-6661 -101 0
-6661 -116 0
-6661 -122 0
-6661 -133 0
6661 -16 19 -39 55 61 94 101 116 122 133 0
-6662 16 0
-6662 -19 0
-6662 39 0
-6662 -55 0
-6662 -61 0
-6662 -94 0
-6662 -110 0
-6662 -116 0
-6662 -122 0
-6662 -133 0
6662 -16 19 -39 55 61 94 110 116 122 133 0
-6663 16 0
-6663 -19 0
-6663 39 0
-6663 -55 0
-6663 -61 0
-6663 -94 0
-6663 -116 0
-6663 -122 0
-6663 -133 0
-6663 -140 0
6663 -16 19 -39 55 61 94 116 122 133 140 0
-6664 16 0
-6664 -19 0
-6664 39 0
-6664 -55 0
-6664 -61 0
-6664 94 0
-6664 101 0
-6664 -116 0
-6664 -122 0
-6664 -133 0
6664 -16 19 -39 55 61 -94 -101 116 122 133 0
-6665 16 0
-6665 -19 0
-6665 39 0
-6665 -55 0
-6665 -61 0
-6665 94 0
-6665 110 0
-6665 -116 0
-6665 -122 0
-6665 -133 0
6665 -16 19 -39 55 61 -94 -110 116 122 133 0
-6666 16 0
-6666 -19 0
-6666 39 0
-6666 -55 0
-6666 -61 0
-6666 94 0
-6666 100 0
-6666 101 0
-6666 -116 0
-6666 126 0
-6666 -133 0
6666 -16 19 -39 55 61 -94 -100 -101 116 -126 133 0
-6667 16 0
-6667 -19 0
-6667 39 0
-6667 -55 0
-6667 -61 0
-6667 94 0
-6667 101 0
-6667 -116 0
-6667 -133 0
-6667 134 0
6667 -16 19 -39 55 61 -94 -101 116 133 -134 0
-6668 16 0
-6668 -19 0
-6668 39 0
-6668 -55 0
-6668 -61 0
-6668 94 0
-6668 110 0
-6668 -116 0
-6668 -133 0
-6668 134 0
6668 -16 19 -39 55 61 -94 -110 116 133 -134 0
-6669 16 0
-6669 -19 0
-6669 39 0
-6669 -55 0
-6669 -61 0
-6669 94 0
-6669 100 0
-6669 110 0
-6669 -116 0
-6669 126 0
-6669 -133 0
6669 -16 19 -39 55 61 -94 -100 -110 116 -126 133 0
-6670 16 0
-6670 -19 0
-6670 39 0
-6670 -55 0
-6670 -61 0
-6670 -94 0
-6670 -100 0
-6670 -116 0
-6670 -126 0
-6670 -133 0
-6670 -140 0
6670 -16 19 -39 55 61 94 100 116 126 133 140 0
-6671 16 0
-6671 -19 0
-6671 39 0
-6671 -55 0
-6671 -61 0
-6671 -94 0
-6671 100 0
-6671 -116 0
-6671 126 0
-6671 -133 0
-6671 -140 0
6671 -16 19 -39 55 61 94 -100 116 -126 133 140 0
-6672 16 0
-6672 -19 0
-6672 39 0
-6672 -55 0
-6672 -61 0
-6672 -94 0
-6672 100 0
-6672 -110 0
-6672 -116 0
-6672 126 0
-6672 -133 0
6672 -16 19 -39 55 61 94 -100 110 116 -126 133 0
-6673 16 0
-6673 -19 0
-6673 39 0
-6673 -55 0
-6673 -61 0
-6673 -94 0
-6673 100 0
-6673 -101 0
-6673 -116 0
-6673 126 0
-6673 -133 0
6673 -16 19 -39 55 61 94 -100 101 116 -126 133 0
-6674 16 0
-6674 -19 0
-6674 39 0
-6674 -55 0
-6674 -61 0
-6674 -94 0
-6674 -116 0
-6674 -133 0
-6674 134 0
-6674 -140 0
6674 -16 19 -39 55 61 94 116 133 -134 140 0
-6675 16 0
-6675 -19 0
-6675 39 0
-6675 -54 0
-6675 -61 0
-6675 -94 0
-6675 -116 0
-6675 -122 0
-6675 -133 0
-6675 -140 0
6675 -16 19 -39 54 61 94 116 122 133 140 0
-6676 16 0
-6676 -19 0
-6676 39 0
-6676 -78 0
-6676 -94 0
-6676 -116 0
-6676 -122 0
-6676 -133 0
-6676 -140 0
6676 -16 19 -39 78 94 116 122 133 140 0
-6677 16 0
-6677 -19 0
-6677 39 0
-6677 -84 0
-6677 -94 0
-6677 -116 0
-6677 -122 0
-6677 -133 0
-6677 -140 0
6677 -16 19 -39 84 94 116 122 133 140 0
-6678 16 0
-6678 -19 0
-6678 39 0
-6678 -77 0
-6678 -94 0
-6678 -116 0
-6678 -122 0
-6678 -133 0
-6678 -140 0
6678 -16 19 -39 77 94 116 122 133 140 0
-6679 16 0
-6679 -19 0
-6679 39 0
-6679 -81 0
-6679 -94 0
-6679 -116 0
-6679 -122 0
-6679 -133 0
-6679 -140 0
6679 -16 19 -39 81 94 116 122 133 140 0
-6680 16 0
-6680 -19 0
-6680 39 0
-6680 -79 0
-6680 -94 0
-6680 -116 0
-6680 -122 0
-6680 -133 0
-6680 -140 0
6680 -16 19 -39 79 94 116 122 133 140 0
-6681 16 0
-6681 -19 0
-6681 39 0
-6681 -83 0
-6681 -94 0
-6681 -116 0
-6681 -122 0
-6681 -133 0
-6681 -140 0
6681 -16 19 -39 83 94 116 122 133 140 0
-6682 16 0
-6682 -19 0
-6682 39 0
-6682 -76 0
-6682 -94 0
-6682 -116 0
-6682 -122 0
-6682 -133 0
-6682 -140 0
6682 -16 19 -39 76 94 116 122 133 140 0
-6683 16 0
-6683 -19 0
-6683 39 0
-6683 -82 0
-6683 -94 0
-6683 -116 0
-6683 -122 0
-6683 -133 0
-6683 -140 0
6683 -16 19 -39 82 94 116 122 133 140 0
-6684 16 0
-6684 -19 0
-6684 39 0
-6684 65 0
-6684 -94 0
-6684 -116 0
-6684 -122 0
-6684 -133 0
-6684 -140 0
6684 -16 19 -39 -65 94 116 122 133 140 0
-6685 16 0
-6685 -19 0
-6685 39 0
-6685 66 0
-6685 -94 0
-6685 -116 0
-6685 -122 0
-6685 -133 0
-6685 -140 0
6685 -16 19 -39 -66 94 116 122 133 140 0
-6686 16 0
-6686 -19 0
-6686 39 0
-6686 -63 0
-6686 -94 0
-6686 -116 0
-6686 -122 0
-6686 -133 0
-6686 -140 0
6686 -16 19 -39 63 94 116 122 133 140 0
-6687 16 0
-6687 -19 0
-6687 39 0
-6687 -94 0
-6687 -116 0
-6687 -122 0
-6687 -133 0
-6687 -140 0
-6687 -164 0
6687 -16 19 -39 94 116 122 133 140 164 0
-6688 16 0
-6688 -19 0
-6688 39 0
-6688 -61 0
-6688 64 0
-6688 -94 0
-6688 -116 0
-6688 -122 0
-6688 -133 0
-6688 -140 0
6688 -16 19 -39 61 -64 94 116 122 133 140 0
-6689 16 0
-6689 -19 0
-6689 39 0
-6689 -56 0
-6689 -71 0
-6689 -94 0
-6689 -116 0
-6689 -122 0
-6689 -133 0
-6689 -140 0
6689 -16 19 -39 56 71 94 116 122 133 140 0
-6690 16 0
-6690 -19 0
-6690 39 0
-6690 -56 0
-6690 -69 0
-6690 -94 0
-6690 -116 0
-6690 -122 0
-6690 -133 0
-6690 -140 0
6690 -16 19 -39 56 69 94 116 122 133 140 0
-6691 16 0
-6691 -19 0
-6691 39 0
-6691 -56 0
-6691 -75 0
-6691 -94 0
-6691 -116 0
-6691 -122 0
-6691 -133 0
-6691 -140 0
6691 -16 19 -39 56 75 94 116 122 133 140 0
-6692 16 0
-6692 -19 0
-6692 39 0
-6692 -56 0
-6692 -68 0
-6692 -94 0
-6692 -116 0
-6692 -122 0
-6692 -133 0
-6692 -140 0
6692 -16 19 -39 56 68 94 116 122 133 140 0
-6693 16 0
-6693 -19 0
-6693 39 0
-6693 -56 0
-6693 -72 0
-6693 -94 0
-6693 -116 0
-6693 -122 0
-6693 -133 0
-6693 -140 0
6693 -16 19 -39 56 72 94 116 122 133 140 0
-6694 16 0
-6694 -19 0
-6694 39 0
-6694 -56 0
-6694 -70 0
-6694 -94 0
-6694 -116 0
-6694 -122 0
-6694 -133 0
-6694 -140 0
6694 -16 19 -39 56 70 94 116 122 133 140 0
-6695 16 0
-6695 -19 0
-6695 39 0
-6695 -56 0
-6695 -74 0
-6695 -94 0
-6695 -116 0
-6695 -122 0
-6695 -133 0
-6695 -140 0
6695 -16 19 -39 56 74 94 116 122 133 140 0
-6696 16 0
-6696 -19 0
-6696 39 0
-6696 -56 0
-6696 -67 0
-6696 -94 0
-6696 -116 0
-6696 -122 0
-6696 -133 0
-6696 -140 0
6696 -16 19 -39 56 67 94 116 122 133 140 0
-6697 16 0
-6697 -19 0
-6697 39 0
-6697 -56 0
-6697 -73 0
-6697 -94 0
-6697 -116 0
-6697 -122 0
-6697 -133 0
-6697 -140 0
6697 -16 19 -39 56 73 94 116 122 133 140 0
-6698 16 0
-6698 -19 0
-6698 39 0
-6698 -56 0
-6698 -62 0
-6698 -94 0
-6698 -116 0
-6698 -122 0
-6698 -133 0
-6698 -140 0
6698 -16 19 -39 56 62 94 116 122 133 140 0
-6699 16 0
-6699 -19 0
-6699 39 0
-6699 61 0
-6699 -64 0
-6699 -94 0
-6699 -116 0
-6699 -122 0
-6699 -133 0
-6699 -140 0
6699 -16 19 -39 -61 64 94 116 122 133 140 0
-6700 16 0
-6700 -19 0
-6700 39 0
-6700 -56 0
-6700 64 0
-6700 -94 0
-6700 -116 0
-6700 -122 0
-6700 -133 0
-6700 -140 0
6700 -16 19 -39 56 -64 94 116 122 133 140 0
-6701 16 0
-6701 -19 0
-6701 39 0
-6701 62 0
-6701 64 0
-6701 -94 0
-6701 -116 0
-6701 -122 0
-6701 -133 0
-6701 -140 0
6701 -16 19 -39 -62 -64 94 116 122 133 140 0
-6702 16 0
-6702 -19 0
-6702 39 0
-6702 -57 0
-6702 -58 0
-6702 -62 0
-6702 -94 0
-6702 -116 0
-6702 -122 0
-6702 -133 0
-6702 -140 0
6702 -16 19 -39 57 58 62 94 116 122 133 140 0
-6703 16 0
-6703 -19 0
-6703 39 0
-6703 -61 0
-6703 -62 0
-6703 -94 0
-6703 -116 0
-6703 -122 0
-6703 -133 0
-6703 -140 0
6703 -16 19 -39 61 62 94 116 122 133 140 0
-6704 16 0
-6704 -19 0
-6704 39 0
-6704 -78 0
-6704 -94 0
-6704 -110 0
-6704 -116 0
-6704 -122 0
-6704 -133 0
6704 -16 19 -39 78 94 110 116 122 133 0
-6705 16 0
-6705 -19 0
-6705 39 0
-6705 -78 0
-6705 -94 0
-6705 -101 0
-6705 -116 0
-6705 -122 0
-6705 -133 0
6705 -16 19 -39 78 94 101 116 122 133 0
-6706 16 0
-6706 -19 0
-6706 39 0
-6706 -78 0
-6706 95 0
-6706 -116 0
-6706 -122 0
-6706 -133 0
6706 -16 19 -39 78 -95 116 122 133 0
-6707 16 0
-6707 -19 0
-6707 39 0
-6707 -84 0
-6707 -94 0
-6707 -110 0
-6707 -116 0
-6707 -122 0
-6707 -133 0
6707 -16 19 -39 84 94 110 116 122 133 0
-6708 16 0
-6708 -19 0
-6708 39 0
-6708 -77 0
-6708 -94 0
-6708 -110 0
-6708 -116 0
-6708 -122 0
-6708 -133 0
6708 -16 19 -39 77 94 110 116 122 133 0
-6709 16 0
-6709 -19 0
-6709 39 0
-6709 -81 0
-6709 -94 0
-6709 -110 0
-6709 -116 0
-6709 -122 0
-6709 -133 0
6709 -16 19 -39 81 94 110 116 122 133 0
-6710 16 0
-6710 -19 0
-6710 39 0
-6710 -79 0
-6710 -94 0
-6710 -110 0
-6710 -116 0
-6710 -122 0
-6710 -133 0
6710 -16 19 -39 79 94 110 116 122 133 0
-6711 16 0
-6711 -19 0
-6711 39 0
-6711 -83 0
-6711 -94 0
-6711 -110 0
-6711 -116 0
-6711 -122 0
-6711 -133 0
6711 -16 19 -39 83 94 110 116 122 133 0
-6712 16 0
-6712 -19 0
-6712 39 0
-6712 -76 0
-6712 -94 0
-6712 -110 0
-6712 -116 0
-6712 -122 0
-6712 -133 0
6712 -16 19 -39 76 94 110 116 122 133 0
-6713 16 0
-6713 -19 0
-6713 39 0
-6713 -54 0
-6713 -61 0
-6713 -94 0
-6713 -110 0
-6713 -116 0
-6713 -122 0
-6713 -133 0
6713 -16 19 -39 54 61 94 110 116 122 133 0
-6714 16 0
-6714 -19 0
-6714 39 0
-6714 -94 0
-6714 -110 0
-6714 -116 0
-6714 -122 0
-6714 -133 0
-6714 -164 0
6714 -16 19 -39 94 110 116 122 133 164 0
-6715 16 0
-6715 -19 0
-6715 39 0
-6715 61 0
-6715 -64 0
-6715 -94 0
-6715 -110 0
-6715 -116 0
-6715 -122 0
-6715 -133 0
6715 -16 19 -39 -61 64 94 110 116 122 133 0
-6716 16 0
-6716 -19 0
-6716 39 0
-6716 -56 0
-6716 -62 0
-6716 -94 0
-6716 -110 0
-6716 -116 0
-6716 -122 0
-6716 -133 0
6716 -16 19 -39 56 62 94 110 116 122 133 0
-6717 16 0
-6717 -19 0
-6717 39 0
-6717 -56 0
-6717 -71 0
-6717 -94 0
-6717 -110 0
-6717 -116 0
-6717 -122 0
-6717 -133 0
6717 -16 19 -39 56 71 94 110 116 122 133 0
-6718 16 0
-6718 -19 0
-6718 39 0
-6718 -56 0
-6718 -69 0
-6718 -94 0
-6718 -110 0
-6718 -116 0
-6718 -122 0
-6718 -133 0
6718 -16 19 -39 56 69 94 110 116 122 133 0
-6719 16 0
-6719 -19 0
-6719 39 0
-6719 -56 0
-6719 -75 0
-6719 -94 0
-6719 -110 0
-6719 -116 0
-6719 -122 0
-6719 -133 0
6719 -16 19 -39 56 75 94 110 116 122 133 0
-6720 16 0
-6720 -19 0
-6720 39 0
-6720 -56 0
-6720 -68 0
-6720 -94 0
-6720 -110 0
-6720 -116 0
-6720 -122 0
-6720 -133 0
6720 -16 19 -39 56 68 94 110 116 122 133 0
-6721 16 0
-6721 -19 0
-6721 39 0
-6721 -56 0
-6721 -72 0
-6721 -94 0
-6721 -110 0
-6721 -116 0
-6721 -122 0
-6721 -133 0
6721 -16 19 -39 56 72 94 110 116 122 133 0
-6722 16 0
-6722 -19 0
-6722 39 0
-6722 -56 0
-6722 -70 0
-6722 -94 0
-6722 -110 0
-6722 -116 0
-6722 -122 0
-6722 -133 0
6722 -16 19 -39 56 70 94 110 116 122 133 0
-6723 16 0
-6723 -19 0
-6723 39 0
-6723 -56 0
-6723 -74 0
-6723 -94 0
-6723 -110 0
-6723 -116 0
-6723 -122 0
-6723 -133 0
6723 -16 19 -39 56 74 94 110 116 122 133 0
-6724 16 0
-6724 -19 0
-6724 39 0
-6724 -56 0
-6724 -67 0
-6724 -94 0
-6724 -110 0
-6724 -116 0
-6724 -122 0
-6724 -133 0
6724 -16 19 -39 56 67 94 110 116 122 133 0
-6725 16 0
-6725 -19 0
-6725 39 0
-6725 -56 0
-6725 -73 0
-6725 -94 0
-6725 -110 0
-6725 -116 0
-6725 -122 0
-6725 -133 0
6725 -16 19 -39 56 73 94 110 116 122 133 0
-6726 16 0
-6726 -19 0
-6726 39 0
-6726 -56 0
-6726 -71 0
-6726 -94 0
-6726 -101 0
-6726 -116 0
-6726 -122 0
-6726 -133 0
6726 -16 19 -39 56 71 94 101 116 122 133 0
-6727 16 0
-6727 -19 0
-6727 39 0
-6727 -56 0
-6727 -71 0
-6727 95 0
-6727 -116 0
-6727 -122 0
-6727 -133 0
6727 -16 19 -39 56 71 -95 116 122 133 0
-6728 16 0
-6728 -19 0
-6728 39 0
-6728 -56 0
-6728 -69 0
-6728 -94 0
-6728 -101 0
-6728 -116 0
-6728 -122 0
-6728 -133 0
6728 -16 19 -39 56 69 94 101 116 122 133 0
-6729 16 0
-6729 -19 0
-6729 39 0
-6729 -56 0
-6729 -75 0
-6729 -94 0
-6729 -101 0
-6729 -116 0
-6729 -122 0
-6729 -133 0
6729 -16 19 -39 56 75 94 101 116 122 133 0
-6730 16 0
-6730 -19 0
-6730 39 0
-6730 -56 0
-6730 -68 0
-6730 -94 0
-6730 -101 0
-6730 -116 0
-6730 -122 0
-6730 -133 0
6730 -16 19 -39 56 68 94 101 116 122 133 0
-6731 16 0
-6731 -19 0
-6731 39 0
-6731 -56 0
-6731 -72 0
-6731 -94 0
-6731 -101 0
-6731 -116 0
-6731 -122 0
-6731 -133 0
6731 -16 19 -39 56 72 94 101 116 122 133 0
-6732 16 0
-6732 -19 0
-6732 39 0
-6732 -56 0
-6732 -70 0
-6732 -94 0
-6732 -101 0
-6732 -116 0
-6732 -122 0
-6732 -133 0
6732 -16 19 -39 56 70 94 101 116 122 133 0
-6733 16 0
-6733 -19 0
-6733 39 0
-6733 -56 0
-6733 -74 0
-6733 -94 0
-6733 -101 0
-6733 -116 0
-6733 -122 0
-6733 -133 0
6733 -16 19 -39 56 74 94 101 116 122 133 0
-6734 16 0
-6734 -19 0
-6734 39 0
-6734 -56 0
-6734 -67 0
-6734 -94 0
-6734 -101 0
-6734 -116 0
-6734 -122 0
-6734 -133 0
6734 -16 19 -39 56 67 94 101 116 122 133 0
-6735 16 0
-6735 -19 0
-6735 39 0
-6735 -56 0
-6735 -73 0
-6735 -94 0
-6735 -101 0
-6735 -116 0
-6735 -122 0
-6735 -133 0
6735 -16 19 -39 56 73 94 101 116 122 133 0
-6736 16 0
-6736 -19 0
-6736 39 0
-6736 -54 0
-6736 -56 0
-6736 -94 0
-6736 -101 0
-6736 -116 0
-6736 -122 0
-6736 -133 0
6736 -16 19 -39 54 56 94 101 116 122 133 0
-6737 16 0
-6737 -19 0
-6737 39 0
-6737 -94 0
-6737 -101 0
-6737 -116 0
-6737 -122 0
-6737 -133 0
-6737 -164 0
6737 -16 19 -39 94 101 116 122 133 164 0
-6738 16 0
-6738 -19 0
-6738 39 0
-6738 -84 0
-6738 -94 0
-6738 -101 0
-6738 -116 0
-6738 -122 0
-6738 -133 0
6738 -16 19 -39 84 94 101 116 122 133 0
-6739 16 0
-6739 -19 0
-6739 39 0
-6739 -77 0
-6739 -94 0
-6739 -101 0
-6739 -116 0
-6739 -122 0
-6739 -133 0
6739 -16 19 -39 77 94 101 116 122 133 0
-6740 16 0
-6740 -19 0
-6740 39 0
-6740 -81 0
-6740 -94 0
-6740 -101 0
-6740 -116 0
-6740 -122 0
-6740 -133 0
6740 -16 19 -39 81 94 101 116 122 133 0
-6741 16 0
-6741 -19 0
-6741 39 0
-6741 -79 0
-6741 -94 0
-6741 -101 0
-6741 -116 0
-6741 -122 0
-6741 -133 0
6741 -16 19 -39 79 94 101 116 122 133 0
-6742 16 0
-6742 -19 0
-6742 39 0
-6742 -83 0
-6742 -94 0
-6742 -101 0
-6742 -116 0
-6742 -122 0
-6742 -133 0
6742 -16 19 -39 83 94 101 116 122 133 0
-6743 16 0
-6743 -19 0
-6743 39 0
-6743 -76 0
-6743 -94 0
-6743 -101 0
-6743 -116 0
-6743 -122 0
-6743 -133 0
6743 -16 19 -39 76 94 101 116 122 133 0
-6744 16 0
-6744 -19 0
-6744 39 0
-6744 61 0
-6744 -64 0
-6744 -94 0
-6744 -101 0
-6744 -116 0
-6744 -122 0
-6744 -133 0
6744 -16 19 -39 -61 64 94 101 116 122 133 0
-6745 16 0
-6745 -19 0
-6745 39 0
-6745 -56 0
-6745 -62 0
-6745 -94 0
-6745 -101 0
-6745 -116 0
-6745 -122 0
-6745 -133 0
6745 -16 19 -39 56 62 94 101 116 122 133 0
-6746 16 0
-6746 -19 0
-6746 39 0
-6746 -54 0
-6746 -57 0
-6746 -58 0
-6746 -94 0
-6746 -101 0
-6746 -116 0
-6746 -122 0
-6746 -133 0
6746 -16 19 -39 54 57 58 94 101 116 122 133 0
-6747 16 0
-6747 -19 0
-6747 39 0
-6747 -54 0
-6747 -61 0
-6747 -94 0
-6747 -101 0
-6747 -116 0
-6747 -122 0
-6747 -133 0
6747 -16 19 -39 54 61 94 101 116 122 133 0
-6748 16 0
-6748 -19 0
-6748 39 0
-6748 -56 0
-6748 -69 0
-6748 95 0
-6748 -116 0
-6748 -122 0
-6748 -133 0
6748 -16 19 -39 56 69 -95 116 122 133 0
-6749 16 0
-6749 -19 0
-6749 39 0
-6749 -56 0
-6749 -75 0
-6749 95 0
-6749 -116 0
-6749 -122 0
-6749 -133 0
6749 -16 19 -39 56 75 -95 116 122 133 0
-6750 16 0
-6750 -19 0
-6750 39 0
-6750 -56 0
-6750 -68 0
-6750 95 0
-6750 -116 0
-6750 -122 0
-6750 -133 0
6750 -16 19 -39 56 68 -95 116 122 133 0
-6751 16 0
-6751 -19 0
-6751 39 0
-6751 -56 0
-6751 -72 0
-6751 95 0
-6751 -116 0
-6751 -122 0
-6751 -133 0
6751 -16 19 -39 56 72 -95 116 122 133 0
-6752 16 0
-6752 -19 0
-6752 39 0
-6752 -56 0
-6752 -70 0
-6752 95 0
-6752 -116 0
-6752 -122 0
-6752 -133 0
6752 -16 19 -39 56 70 -95 116 122 133 0
-6753 16 0
-6753 -19 0
-6753 39 0
-6753 -56 0
-6753 -74 0
-6753 95 0
-6753 -116 0
-6753 -122 0
-6753 -133 0
6753 -16 19 -39 56 74 -95 116 122 133 0
-6754 16 0
-6754 -19 0
-6754 39 0
-6754 -56 0
-6754 -67 0
-6754 95 0
-6754 -116 0
-6754 -122 0
-6754 -133 0
6754 -16 19 -39 56 67 -95 116 122 133 0
-6755 16 0
-6755 -19 0
-6755 39 0
-6755 -56 0
-6755 -73 0
-6755 95 0
-6755 -116 0
-6755 -122 0
-6755 -133 0
6755 -16 19 -39 56 73 -95 116 122 133 0
-6756 16 0
-6756 -19 0
-6756 39 0
-6756 95 0
-6756 -116 0
-6756 -122 0
-6756 -133 0
-6756 -164 0
6756 -16 19 -39 -95 116 122 133 164 0
-6757 16 0
-6757 -19 0
-6757 39 0
-6757 -54 0
-6757 -56 0
-6757 95 0
-6757 -116 0
-6757 -122 0
-6757 -133 0
6757 -16 19 -39 54 56 -95 116 122 133 0
-6758 16 0
-6758 -19 0
-6758 39 0
-6758 -84 0
-6758 95 0
-6758 -116 0
-6758 -122 0
-6758 -133 0
6758 -16 19 -39 84 -95 116 122 133 0
-6759 16 0
-6759 -19 0
-6759 39 0
-6759 -77 0
-6759 95 0
-6759 -116 0
-6759 -122 0
-6759 -133 0
6759 -16 19 -39 77 -95 116 122 133 0
-6760 16 0
-6760 -19 0
-6760 39 0
-6760 -81 0
-6760 95 0
-6760 -116 0
-6760 -122 0
-6760 -133 0
6760 -16 19 -39 81 -95 116 122 133 0
-6761 16 0
-6761 -19 0
-6761 39 0
-6761 -79 0
-6761 95 0
-6761 -116 0
-6761 -122 0
-6761 -133 0
6761 -16 19 -39 79 -95 116 122 133 0
-6762 16 0
-6762 -19 0
-6762 39 0
-6762 -83 0
-6762 95 0
-6762 -116 0
-6762 -122 0
-6762 -133 0
6762 -16 19 -39 83 -95 116 122 133 0
-6763 16 0
-6763 -19 0
-6763 39 0
-6763 -76 0
-6763 95 0
-6763 -116 0
-6763 -122 0
-6763 -133 0
6763 -16 19 -39 76 -95 116 122 133 0
-6764 16 0
-6764 -19 0
-6764 39 0
-6764 -54 0
-6764 -61 0
-6764 95 0
-6764 -116 0
-6764 -122 0
-6764 -133 0
6764 -16 19 -39 54 61 -95 116 122 133 0
-6765 16 0
-6765 -19 0
-6765 39 0
-6765 61 0
-6765 -64 0
-6765 95 0
-6765 -116 0
-6765 -122 0
-6765 -133 0
6765 -16 19 -39 -61 64 -95 116 122 133 0
-6766 16 0
-6766 -19 0
-6766 39 0
-6766 -56 0
-6766 -62 0
-6766 95 0
-6766 -116 0
-6766 -122 0
-6766 -133 0
6766 -16 19 -39 56 62 -95 116 122 133 0
-6767 16 0
-6767 -19 0
-6767 39 0
-6767 -56 0
-6767 -62 0
-6767 94 0
-6767 110 0
-6767 -116 0
-6767 -122 0
-6767 -133 0
6767 -16 19 -39 56 62 -94 -110 116 122 133 0
-6768 16 0
-6768 -19 0
-6768 39 0
-6768 94 0
-6768 110 0
-6768 -116 0
-6768 -122 0
-6768 -133 0
-6768 -164 0
6768 -16 19 -39 -94 -110 116 122 133 164 0
-6769 16 0
-6769 -19 0
-6769 39 0
-6769 -84 0
-6769 94 0
-6769 110 0
-6769 -116 0
-6769 -122 0
-6769 -133 0
6769 -16 19 -39 84 -94 -110 116 122 133 0
-6770 16 0
-6770 -19 0
-6770 39 0
-6770 -77 0
-6770 94 0
-6770 110 0
-6770 -116 0
-6770 -122 0
-6770 -133 0
6770 -16 19 -39 77 -94 -110 116 122 133 0
-6771 16 0
-6771 -19 0
-6771 39 0
-6771 -81 0
-6771 94 0
-6771 110 0
-6771 -116 0
-6771 -122 0
-6771 -133 0
6771 -16 19 -39 81 -94 -110 116 122 133 0
-6772 16 0
-6772 -19 0
-6772 39 0
-6772 -79 0
-6772 94 0
-6772 110 0
-6772 -116 0
-6772 -122 0
-6772 -133 0
6772 -16 19 -39 79 -94 -110 116 122 133 0
-6773 16 0
-6773 -19 0
-6773 39 0
-6773 -83 0
-6773 94 0
-6773 110 0
-6773 -116 0
-6773 -122 0
-6773 -133 0
6773 -16 19 -39 83 -94 -110 116 122 133 0
-6774 16 0
-6774 -19 0
-6774 39 0
-6774 -76 0
-6774 94 0
-6774 110 0
-6774 -116 0
-6774 -122 0
-6774 -133 0
6774 -16 19 -39 76 -94 -110 116 122 133 0
-6775 16 0
-6775 -19 0
-6775 39 0
-6775 -78 0
-6775 94 0
-6775 110 0
-6775 -116 0
-6775 -122 0
-6775 -133 0
6775 -16 19 -39 78 -94 -110 116 122 133 0
-6776 16 0
-6776 -19 0
-6776 39 0
-6776 -84 0
-6776 94 0
-6776 101 0
-6776 -116 0
-6776 -122 0
-6776 -133 0
6776 -16 19 -39 84 -94 -101 116 122 133 0
-6777 16 0
-6777 -19 0
-6777 39 0
-6777 -77 0
-6777 94 0
-6777 101 0
-6777 -116 0
-6777 -122 0
-6777 -133 0
6777 -16 19 -39 77 -94 -101 116 122 133 0
-6778 16 0
-6778 -19 0
-6778 39 0
-6778 -81 0
-6778 94 0
-6778 101 0
-6778 -116 0
-6778 -122 0
-6778 -133 0
6778 -16 19 -39 81 -94 -101 116 122 133 0
-6779 16 0
-6779 -19 0
-6779 39 0
-6779 -79 0
-6779 94 0
-6779 101 0
-6779 -116 0
-6779 -122 0
-6779 -133 0
6779 -16 19 -39 79 -94 -101 116 122 133 0
-6780 16 0
-6780 -19 0
-6780 39 0
-6780 -83 0
-6780 94 0
-6780 101 0
-6780 -116 0
-6780 -122 0
-6780 -133 0
6780 -16 19 -39 83 -94 -101 116 122 133 0
-6781 16 0
-6781 -19 0
-6781 39 0
-6781 -76 0
-6781 94 0
-6781 101 0
-6781 -116 0
-6781 -122 0
-6781 -133 0
6781 -16 19 -39 76 -94 -101 116 122 133 0
-6782 16 0
-6782 -19 0
-6782 39 0
-6782 -78 0
-6782 94 0
-6782 101 0
-6782 -116 0
-6782 -122 0
-6782 -133 0
6782 -16 19 -39 78 -94 -101 116 122 133 0
-6783 16 0
-6783 -19 0
-6783 39 0
-6783 94 0
-6783 101 0
-6783 -116 0
-6783 -122 0
-6783 -133 0
-6783 -164 0
6783 -16 19 -39 -94 -101 116 122 133 164 0
-6784 16 0
-6784 -19 0
-6784 39 0
-6784 -56 0
-6784 -62 0
-6784 94 0
-6784 101 0
-6784 -116 0
-6784 -122 0
-6784 -133 0
6784 -16 19 -39 56 62 -94 -101 116 122 133 0
-6785 16 0
-6785 -19 0
-6785 39 0
-6785 61 0
-6785 -64 0
-6785 94 0
-6785 101 0
-6785 -116 0
-6785 -122 0
-6785 -133 0
6785 -16 19 -39 -61 64 -94 -101 116 122 133 0
-6786 16 0
-6786 -19 0
-6786 39 0
-6786 -54 0
-6786 -56 0
-6786 94 0
-6786 101 0
-6786 -116 0
-6786 -122 0
-6786 -133 0
6786 -16 19 -39 54 56 -94 -101 116 122 133 0
-6787 16 0
-6787 -19 0
-6787 39 0
-6787 -56 0
-6787 -69 0
-6787 94 0
-6787 101 0
-6787 -116 0
-6787 -122 0
-6787 -133 0
6787 -16 19 -39 56 69 -94 -101 116 122 133 0
-6788 16 0
-6788 -19 0
-6788 39 0
-6788 -56 0
-6788 -75 0
-6788 94 0
-6788 101 0
-6788 -116 0
-6788 -122 0
-6788 -133 0
6788 -16 19 -39 56 75 -94 -101 116 122 133 0
-6789 16 0
-6789 -19 0
-6789 39 0
-6789 -56 0
-6789 -68 0
-6789 94 0
-6789 101 0
-6789 -116 0
-6789 -122 0
-6789 -133 0
6789 -16 19 -39 56 68 -94 -101 116 122 133 0
-6790 16 0
-6790 -19 0
-6790 39 0
-6790 -56 0
-6790 -72 0
-6790 94 0
-6790 101 0
-6790 -116 0
-6790 -122 0
-6790 -133 0
6790 -16 19 -39 56 72 -94 -101 116 122 133 0
-6791 16 0
-6791 -19 0
-6791 39 0
-6791 -56 0
-6791 -70 0
-6791 94 0
-6791 101 0
-6791 -116 0
-6791 -122 0
-6791 -133 0
6791 -16 19 -39 56 70 -94 -101 116 122 133 0
-6792 16 0
-6792 -19 0
-6792 39 0
-6792 -56 0
-6792 -74 0
-6792 94 0
-6792 101 0
-6792 -116 0
-6792 -122 0
-6792 -133 0
6792 -16 19 -39 56 74 -94 -101 116 122 133 0
-6793 16 0
-6793 -19 0
-6793 39 0
-6793 -56 0
-6793 -67 0
-6793 94 0
-6793 101 0
-6793 -116 0
-6793 -122 0
-6793 -133 0
6793 -16 19 -39 56 67 -94 -101 116 122 133 0
-6794 16 0
-6794 -19 0
-6794 39 0
-6794 -56 0
-6794 -73 0
-6794 94 0
-6794 101 0
-6794 -116 0
-6794 -122 0
-6794 -133 0
6794 -16 19 -39 56 73 -94 -101 116 122 133 0
-6795 16 0
-6795 -19 0
-6795 39 0
-6795 -56 0
-6795 -71 0
-6795 94 0
-6795 101 0
-6795 -116 0
-6795 -122 0
-6795 -133 0
6795 -16 19 -39 56 71 -94 -101 116 122 133 0
-6796 16 0
-6796 -19 0
-6796 39 0
-6796 -54 0
-6796 -61 0
-6796 94 0
-6796 101 0
-6796 -116 0
-6796 -122 0
-6796 -133 0
6796 -16 19 -39 54 61 -94 -101 116 122 133 0
-6797 16 0
-6797 -19 0
-6797 39 0
-6797 -54 0
-6797 -61 0
-6797 94 0
-6797 110 0
-6797 -116 0
-6797 -122 0
-6797 -133 0
6797 -16 19 -39 54 61 -94 -110 116 122 133 0
-6798 16 0
-6798 -19 0
-6798 39 0
-6798 61 0
-6798 -64 0
-6798 94 0
-6798 110 0
-6798 -116 0
-6798 -122 0
-6798 -133 0
6798 -16 19 -39 -61 64 -94 -110 116 122 133 0
-6799 16 0
-6799 -19 0
-6799 39 0
-6799 -56 0
-6799 -69 0
-6799 94 0
-6799 110 0
-6799 -116 0
-6799 -122 0
-6799 -133 0
6799 -16 19 -39 56 69 -94 -110 116 122 133 0
-6800 16 0
-6800 -19 0
-6800 39 0
-6800 -56 0
-6800 -75 0
-6800 94 0
-6800 110 0
-6800 -116 0
-6800 -122 0
-6800 -133 0
6800 -16 19 -39 56 75 -94 -110 116 122 133 0
-6801 16 0
-6801 -19 0
-6801 39 0
-6801 -56 0
-6801 -68 0
-6801 94 0
-6801 110 0
-6801 -116 0
-6801 -122 0
-6801 -133 0
6801 -16 19 -39 56 68 -94 -110 116 122 133 0
-6802 16 0
-6802 -19 0
-6802 39 0
-6802 -56 0
-6802 -72 0
-6802 94 0
-6802 110 0
-6802 -116 0
-6802 -122 0
-6802 -133 0
6802 -16 19 -39 56 72 -94 -110 116 122 133 0
-6803 16 0
-6803 -19 0
-6803 39 0
-6803 -56 0
-6803 -70 0
-6803 94 0
-6803 110 0
-6803 -116 0
-6803 -122 0
-6803 -133 0
6803 -16 19 -39 56 70 -94 -110 116 122 133 0
-6804 16 0
-6804 -19 0
-6804 39 0
-6804 -56 0
-6804 -74 0
-6804 94 0
-6804 110 0
-6804 -116 0
-6804 -122 0
-6804 -133 0
6804 -16 19 -39 56 74 -94 -110 116 122 133 0
-6805 16 0
-6805 -19 0
-6805 39 0
-6805 -56 0
-6805 -67 0
-6805 94 0
-6805 110 0
-6805 -116 0
-6805 -122 0
-6805 -133 0
6805 -16 19 -39 56 67 -94 -110 116 122 133 0
-6806 16 0
-6806 -19 0
-6806 39 0
-6806 -56 0
-6806 -73 0
-6806 94 0
-6806 110 0
-6806 -116 0
-6806 -122 0
-6806 -133 0
6806 -16 19 -39 56 73 -94 -110 116 122 133 0
-6807 16 0
-6807 -19 0
-6807 39 0
-6807 -56 0
-6807 -71 0
-6807 94 0
-6807 110 0
-6807 -116 0
-6807 -122 0
-6807 -133 0
6807 -16 19 -39 56 71 -94 -110 116 122 133 0
-6808 16 0
-6808 -19 0
-6808 39 0
-6808 -56 0
-6808 -69 0
-6808 94 0
-6808 -100 0
-6808 110 0
-6808 -116 0
-6808 -126 0
-6808 -133 0
6808 -16 19 -39 56 69 -94 100 -110 116 126 133 0
-6809 16 0
-6809 -19 0
-6809 39 0
-6809 -56 0
-6809 -69 0
-6809 94 0
-6809 100 0
-6809 110 0
-6809 -116 0
-6809 126 0
-6809 -133 0
6809 -16 19 -39 56 69 -94 -100 -110 116 -126 133 0
-6810 16 0
-6810 -19 0
-6810 39 0
-6810 -56 0
-6810 -69 0
-6810 94 0
-6810 110 0
-6810 -116 0
-6810 -133 0
-6810 134 0
6810 -16 19 -39 56 69 -94 -110 116 133 -134 0
-6811 16 0
-6811 -19 0
-6811 39 0
-6811 -56 0
-6811 -69 0
-6811 94 0
-6811 101 0
-6811 -116 0
-6811 -133 0
-6811 134 0
6811 -16 19 -39 56 69 -94 -101 116 133 -134 0
-6812 16 0
-6812 -19 0
-6812 39 0
-6812 -56 0
-6812 -69 0
-6812 95 0
-6812 -116 0
-6812 -133 0
-6812 134 0
6812 -16 19 -39 56 69 -95 116 133 -134 0
-6813 16 0
-6813 -19 0
-6813 39 0
-6813 -56 0
-6813 -69 0
-6813 94 0
-6813 100 0
-6813 101 0
-6813 -116 0
-6813 126 0
-6813 -133 0
6813 -16 19 -39 56 69 -94 -100 -101 116 -126 133 0
-6814 16 0
-6814 -19 0
-6814 39 0
-6814 -56 0
-6814 -69 0
-6814 94 0
-6814 -100 0
-6814 101 0
-6814 -116 0
-6814 -126 0
-6814 -133 0
6814 -16 19 -39 56 69 -94 100 -101 116 126 133 0
-6815 16 0
-6815 -19 0
-6815 39 0
-6815 -56 0
-6815 -69 0
-6815 95 0
-6815 -100 0
-6815 -116 0
-6815 -126 0
-6815 -133 0
6815 -16 19 -39 56 69 -95 100 116 126 133 0
-6816 16 0
-6816 -19 0
-6816 39 0
-6816 -56 0
-6816 -69 0
-6816 95 0
-6816 100 0
-6816 -116 0
-6816 126 0
-6816 -133 0
6816 -16 19 -39 56 69 -95 -100 116 -126 133 0
-6817 16 0
-6817 -19 0
-6817 39 0
-6817 -56 0
-6817 -69 0
-6817 -94 0
-6817 100 0
-6817 -101 0
-6817 -116 0
-6817 126 0
-6817 -133 0
6817 -16 19 -39 56 69 94 -100 101 116 -126 133 0
-6818 16 0
-6818 -19 0
-6818 39 0
-6818 -56 0
-6818 -69 0
-6818 -94 0
-6818 100 0
-6818 -110 0
-6818 -116 0
-6818 126 0
-6818 -133 0
6818 -16 19 -39 56 69 94 -100 110 116 -126 133 0
-6819 16 0
-6819 -19 0
-6819 39 0
-6819 -56 0
-6819 -69 0
-6819 -94 0
-6819 100 0
-6819 -116 0
-6819 126 0
-6819 -133 0
-6819 -140 0
6819 -16 19 -39 56 69 94 -100 116 -126 133 140 0
-6820 16 0
-6820 -19 0
-6820 39 0
-6820 -56 0
-6820 -69 0
-6820 -94 0
-6820 -100 0
-6820 -116 0
-6820 -126 0
-6820 -133 0
-6820 -140 0
6820 -16 19 -39 56 69 94 100 116 126 133 140 0
-6821 16 0
-6821 -19 0
-6821 39 0
-6821 -56 0
-6821 -69 0
-6821 -94 0
-6821 -100 0
-6821 -110 0
-6821 -116 0
-6821 -126 0
-6821 -133 0
6821 -16 19 -39 56 69 94 100 110 116 126 133 0
-6822 16 0
-6822 -19 0
-6822 39 0
-6822 -56 0
-6822 -69 0
-6822 -94 0
-6822 -100 0
-6822 -101 0
-6822 -116 0
-6822 -126 0
-6822 -133 0
6822 -16 19 -39 56 69 94 100 101 116 126 133 0
-6823 16 0
-6823 -19 0
-6823 39 0
-6823 -56 0
-6823 -69 0
-6823 -94 0
-6823 -116 0
-6823 -133 0
-6823 134 0
-6823 -140 0
6823 -16 19 -39 56 69 94 116 133 -134 140 0
-6824 16 0
-6824 -19 0
-6824 39 0
-6824 -56 0
-6824 -69 0
-6824 -94 0
-6824 -110 0
-6824 -116 0
-6824 -133 0
-6824 134 0
6824 -16 19 -39 56 69 94 110 116 133 -134 0
-6825 16 0
-6825 -19 0
-6825 39 0
-6825 -56 0
-6825 -69 0
-6825 -94 0
-6825 -101 0
-6825 -116 0
-6825 -133 0
-6825 134 0
6825 -16 19 -39 56 69 94 101 116 133 -134 0
-6826 16 0
-6826 -19 0
-6826 39 0
-6826 -56 0
-6826 -75 0
-6826 -94 0
-6826 -116 0
-6826 -133 0
-6826 134 0
-6826 -140 0
6826 -16 19 -39 56 75 94 116 133 -134 140 0
-6827 16 0
-6827 -19 0
-6827 39 0
-6827 -56 0
-6827 -68 0
-6827 -94 0
-6827 -116 0
-6827 -133 0
-6827 134 0
-6827 -140 0
6827 -16 19 -39 56 68 94 116 133 -134 140 0
-6828 16 0
-6828 -19 0
-6828 39 0
-6828 -56 0
-6828 -72 0
-6828 -94 0
-6828 -116 0
-6828 -133 0
-6828 134 0
-6828 -140 0
6828 -16 19 -39 56 72 94 116 133 -134 140 0
-6829 16 0
-6829 -19 0
-6829 39 0
-6829 -56 0
-6829 -70 0
-6829 -94 0
-6829 -116 0
-6829 -133 0
-6829 134 0
-6829 -140 0
6829 -16 19 -39 56 70 94 116 133 -134 140 0
-6830 16 0
-6830 -19 0
-6830 39 0
-6830 -56 0
-6830 -74 0
-6830 -94 0
-6830 -116 0
-6830 -133 0
-6830 134 0
-6830 -140 0
6830 -16 19 -39 56 74 94 116 133 -134 140 0
-6831 16 0
-6831 -19 0
-6831 39 0
-6831 -56 0
-6831 -67 0
-6831 -94 0
-6831 -116 0
-6831 -133 0
-6831 134 0
-6831 -140 0
6831 -16 19 -39 56 67 94 116 133 -134 140 0
-6832 16 0
-6832 -19 0
-6832 39 0
-6832 -56 0
-6832 -73 0
-6832 -94 0
-6832 -116 0
-6832 -133 0
-6832 134 0
-6832 -140 0
6832 -16 19 -39 56 73 94 116 133 -134 140 0
-6833 16 0
-6833 -19 0
-6833 39 0
-6833 -56 0
-6833 -71 0
-6833 -94 0
-6833 -116 0
-6833 -133 0
-6833 134 0
-6833 -140 0
6833 -16 19 -39 56 71 94 116 133 -134 140 0
-6834 16 0
-6834 -19 0
-6834 39 0
-6834 -54 0
-6834 -56 0
-6834 -94 0
-6834 -116 0
-6834 -133 0
-6834 134 0
-6834 -140 0
6834 -16 19 -39 54 56 94 116 133 -134 140 0
-6835 16 0
-6835 -19 0
-6835 39 0
-6835 65 0
-6835 -94 0
-6835 -116 0
-6835 -133 0
-6835 134 0
-6835 -140 0
6835 -16 19 -39 -65 94 116 133 -134 140 0
-6836 16 0
-6836 -19 0
-6836 39 0
-6836 66 0
-6836 -94 0
-6836 -116 0
-6836 -133 0
-6836 134 0
-6836 -140 0
6836 -16 19 -39 -66 94 116 133 -134 140 0
-6837 16 0
-6837 -19 0
-6837 39 0
-6837 -63 0
-6837 -94 0
-6837 -116 0
-6837 -133 0
-6837 134 0
-6837 -140 0
6837 -16 19 -39 63 94 116 133 -134 140 0
-6838 16 0
-6838 -19 0
-6838 39 0
-6838 -94 0
-6838 -116 0
-6838 -133 0
-6838 134 0
-6838 -140 0
-6838 -164 0
6838 -16 19 -39 94 116 133 -134 140 164 0
-6839 16 0
-6839 -19 0
-6839 39 0
-6839 -56 0
-6839 -62 0
-6839 -94 0
-6839 -116 0
-6839 -133 0
-6839 134 0
-6839 -140 0
6839 -16 19 -39 56 62 94 116 133 -134 140 0
-6840 16 0
-6840 -19 0
-6840 39 0
-6840 -56 0
-6840 64 0
-6840 -94 0
-6840 -116 0
-6840 -133 0
-6840 134 0
-6840 -140 0
6840 -16 19 -39 56 -64 94 116 133 -134 140 0
-6841 16 0
-6841 -19 0
-6841 39 0
-6841 61 0
-6841 -64 0
-6841 -94 0
-6841 -116 0
-6841 -133 0
-6841 134 0
-6841 -140 0
6841 -16 19 -39 -61 64 94 116 133 -134 140 0
-6842 16 0
-6842 -19 0
-6842 39 0
-6842 61 0
-6842 -64 0
-6842 -94 0
-6842 -100 0
-6842 -116 0
-6842 -126 0
-6842 -133 0
-6842 -140 0
6842 -16 19 -39 -61 64 94 100 116 126 133 140 0
-6843 16 0
-6843 -19 0
-6843 39 0
-6843 61 0
-6843 -64 0
-6843 -94 0
-6843 100 0
-6843 -116 0
-6843 126 0
-6843 -133 0
-6843 -140 0
6843 -16 19 -39 -61 64 94 -100 116 -126 133 140 0
-6844 16 0
-6844 -19 0
-6844 39 0
-6844 61 0
-6844 -64 0
-6844 -94 0
-6844 100 0
-6844 -110 0
-6844 -116 0
-6844 126 0
-6844 -133 0
6844 -16 19 -39 -61 64 94 -100 110 116 -126 133 0
-6845 16 0
-6845 -19 0
-6845 39 0
-6845 61 0
-6845 -64 0
-6845 -94 0
-6845 100 0
-6845 -101 0
-6845 -116 0
-6845 126 0
-6845 -133 0
6845 -16 19 -39 -61 64 94 -100 101 116 -126 133 0
-6846 16 0
-6846 -19 0
-6846 39 0
-6846 61 0
-6846 -64 0
-6846 95 0
-6846 100 0
-6846 -116 0
-6846 126 0
-6846 -133 0
6846 -16 19 -39 -61 64 -95 -100 116 -126 133 0
-6847 16 0
-6847 -19 0
-6847 39 0
-6847 -54 0
-6847 -61 0
-6847 -94 0
-6847 -100 0
-6847 -101 0
-6847 -116 0
-6847 -126 0
-6847 -133 0
6847 -16 19 -39 54 61 94 100 101 116 126 133 0
-6848 16 0
-6848 -19 0
-6848 39 0
-6848 -94 0
-6848 -100 0
-6848 -101 0
-6848 -116 0
-6848 -126 0
-6848 -133 0
-6848 -164 0
6848 -16 19 -39 94 100 101 116 126 133 164 0
-6849 16 0
-6849 -19 0
-6849 39 0
-6849 61 0
-6849 -64 0
-6849 -94 0
-6849 -110 0
-6849 -116 0
-6849 -133 0
-6849 134 0
6849 -16 19 -39 -61 64 94 110 116 133 -134 0
-6850 16 0
-6850 -19 0
-6850 39 0
-6850 61 0
-6850 -64 0
-6850 -94 0
-6850 -101 0
-6850 -116 0
-6850 -133 0
-6850 134 0
6850 -16 19 -39 -61 64 94 101 116 133 -134 0
-6851 16 0
-6851 -19 0
-6851 39 0
-6851 61 0
-6851 -64 0
-6851 95 0
-6851 -116 0
-6851 -133 0
-6851 134 0
6851 -16 19 -39 -61 64 -95 116 133 -134 0
-6852 16 0
-6852 -19 0
-6852 39 0
-6852 61 0
-6852 -64 0
-6852 94 0
-6852 101 0
-6852 -116 0
-6852 -133 0
-6852 134 0
6852 -16 19 -39 -61 64 -94 -101 116 133 -134 0
-6853 16 0
-6853 -19 0
-6853 39 0
-6853 61 0
-6853 -64 0
-6853 94 0
-6853 100 0
-6853 101 0
-6853 -116 0
-6853 126 0
-6853 -133 0
6853 -16 19 -39 -61 64 -94 -100 -101 116 -126 133 0
-6854 16 0
-6854 -19 0
-6854 39 0
-6854 61 0
-6854 -64 0
-6854 94 0
-6854 100 0
-6854 110 0
-6854 -116 0
-6854 126 0
-6854 -133 0
6854 -16 19 -39 -61 64 -94 -100 -110 116 -126 133 0
-6855 16 0
-6855 -19 0
-6855 39 0
-6855 61 0
-6855 -64 0
-6855 94 0
-6855 110 0
-6855 -116 0
-6855 -133 0
-6855 134 0
6855 -16 19 -39 -61 64 -94 -110 116 133 -134 0
-6856 16 0
-6856 -19 0
-6856 39 0
-6856 -56 0
-6856 -62 0
-6856 95 0
-6856 100 0
-6856 -116 0
-6856 126 0
-6856 -133 0
6856 -16 19 -39 56 62 -95 -100 116 -126 133 0
-6857 16 0
-6857 -19 0
-6857 39 0
-6857 -77 0
-6857 95 0
-6857 100 0
-6857 -116 0
-6857 126 0
-6857 -133 0
6857 -16 19 -39 77 -95 -100 116 -126 133 0
-6858 16 0
-6858 -19 0
-6858 39 0
-6858 -81 0
-6858 95 0
-6858 100 0
-6858 -116 0
-6858 126 0
-6858 -133 0
6858 -16 19 -39 81 -95 -100 116 -126 133 0
-6859 16 0
-6859 -19 0
-6859 39 0
-6859 -79 0
-6859 95 0
-6859 100 0
-6859 -116 0
-6859 126 0
-6859 -133 0
6859 -16 19 -39 79 -95 -100 116 -126 133 0
-6860 16 0
-6860 -19 0
-6860 39 0
-6860 -83 0
-6860 95 0
-6860 100 0
-6860 -116 0
-6860 126 0
-6860 -133 0
6860 -16 19 -39 83 -95 -100 116 -126 133 0
-6861 16 0
-6861 -19 0
-6861 39 0
-6861 -76 0
-6861 95 0
-6861 100 0
-6861 -116 0
-6861 126 0
-6861 -133 0
6861 -16 19 -39 76 -95 -100 116 -126 133 0
-6862 16 0
-6862 -19 0
-6862 39 0
-6862 -78 0
-6862 95 0
-6862 100 0
-6862 -116 0
-6862 126 0
-6862 -133 0
6862 -16 19 -39 78 -95 -100 116 -126 133 0
-6863 16 0
-6863 -19 0
-6863 39 0
-6863 -84 0
-6863 95 0
-6863 100 0
-6863 -116 0
-6863 126 0
-6863 -133 0
6863 -16 19 -39 84 -95 -100 116 -126 133 0
-6864 16 0
-6864 -19 0
-6864 39 0
-6864 95 0
-6864 100 0
-6864 -116 0
-6864 126 0
-6864 -133 0
-6864 -164 0
6864 -16 19 -39 -95 -100 116 -126 133 164 0
-6865 16 0
-6865 -19 0
-6865 39 0
-6865 -77 0
-6865 94 0
-6865 100 0
-6865 110 0
-6865 -116 0
-6865 126 0
-6865 -133 0
6865 -16 19 -39 77 -94 -100 -110 116 -126 133 0
-6866 16 0
-6866 -19 0
-6866 39 0
-6866 -77 0
-6866 94 0
-6866 100 0
-6866 101 0
-6866 -116 0
-6866 126 0
-6866 -133 0
6866 -16 19 -39 77 -94 -100 -101 116 -126 133 0
-6867 16 0
-6867 -19 0
-6867 39 0
-6867 -77 0
-6867 -94 0
-6867 100 0
-6867 -101 0
-6867 -116 0
-6867 126 0
-6867 -133 0
6867 -16 19 -39 77 94 -100 101 116 -126 133 0
-6868 16 0
-6868 -19 0
-6868 39 0
-6868 -77 0
-6868 -94 0
-6868 100 0
-6868 -110 0
-6868 -116 0
-6868 126 0
-6868 -133 0
6868 -16 19 -39 77 94 -100 110 116 -126 133 0
-6869 16 0
-6869 -19 0
-6869 39 0
-6869 -77 0
-6869 -94 0
-6869 100 0
-6869 -116 0
-6869 126 0
-6869 -133 0
-6869 -140 0
6869 -16 19 -39 77 94 -100 116 -126 133 140 0
-6870 16 0
-6870 -19 0
-6870 39 0
-6870 -81 0
-6870 -94 0
-6870 100 0
-6870 -116 0
-6870 126 0
-6870 -133 0
-6870 -140 0
6870 -16 19 -39 81 94 -100 116 -126 133 140 0
-6871 16 0
-6871 -19 0
-6871 39 0
-6871 -79 0
-6871 -94 0
-6871 100 0
-6871 -116 0
-6871 126 0
-6871 -133 0
-6871 -140 0
6871 -16 19 -39 79 94 -100 116 -126 133 140 0
-6872 16 0
-6872 -19 0
-6872 39 0
-6872 -83 0
-6872 -94 0
-6872 100 0
-6872 -116 0
-6872 126 0
-6872 -133 0
-6872 -140 0
6872 -16 19 -39 83 94 -100 116 -126 133 140 0
-6873 16 0
-6873 -19 0
-6873 39 0
-6873 -76 0
-6873 -94 0
-6873 100 0
-6873 -116 0
-6873 126 0
-6873 -133 0
-6873 -140 0
6873 -16 19 -39 76 94 -100 116 -126 133 140 0
-6874 16 0
-6874 -19 0
-6874 39 0
-6874 -82 0
-6874 -94 0
-6874 100 0
-6874 -116 0
-6874 126 0
-6874 -133 0
-6874 -140 0
6874 -16 19 -39 82 94 -100 116 -126 133 140 0
-6875 16 0
-6875 -19 0
-6875 39 0
-6875 -78 0
-6875 -94 0
-6875 100 0
-6875 -116 0
-6875 126 0
-6875 -133 0
-6875 -140 0
6875 -16 19 -39 78 94 -100 116 -126 133 140 0
-6876 16 0
-6876 -19 0
-6876 39 0
-6876 -84 0
-6876 -94 0
-6876 100 0
-6876 -116 0
-6876 126 0
-6876 -133 0
-6876 -140 0
6876 -16 19 -39 84 94 -100 116 -126 133 140 0
-6877 16 0
-6877 -19 0
-6877 39 0
-6877 -57 0
-6877 -58 0
-6877 -62 0
-6877 -94 0
-6877 100 0
-6877 -116 0
-6877 126 0
-6877 -133 0
-6877 -140 0
6877 -16 19 -39 57 58 62 94 -100 116 -126 133 140 0
-6878 16 0
-6878 -19 0
-6878 39 0
-6878 65 0
-6878 -94 0
-6878 100 0
-6878 -116 0
-6878 126 0
-6878 -133 0
-6878 -140 0
6878 -16 19 -39 -65 94 -100 116 -126 133 140 0
-6879 16 0
-6879 -19 0
-6879 39 0
-6879 66 0
-6879 -94 0
-6879 100 0
-6879 -116 0
-6879 126 0
-6879 -133 0
-6879 -140 0
6879 -16 19 -39 -66 94 -100 116 -126 133 140 0
-6880 16 0
-6880 -19 0
-6880 39 0
-6880 -63 0
-6880 -94 0
-6880 100 0
-6880 -116 0
-6880 126 0
-6880 -133 0
-6880 -140 0
6880 -16 19 -39 63 94 -100 116 -126 133 140 0
-6881 16 0
-6881 -19 0
-6881 39 0
-6881 -56 0
-6881 -62 0
-6881 -94 0
-6881 100 0
-6881 -116 0
-6881 126 0
-6881 -133 0
-6881 -140 0
6881 -16 19 -39 56 62 94 -100 116 -126 133 140 0
-6882 16 0
-6882 -19 0
-6882 39 0
-6882 -94 0
-6882 100 0
-6882 -116 0
-6882 126 0
-6882 -133 0
-6882 -140 0
-6882 -164 0
6882 -16 19 -39 94 -100 116 -126 133 140 164 0
-6883 16 0
-6883 -19 0
-6883 39 0
-6883 -56 0
-6883 64 0
-6883 -94 0
-6883 100 0
-6883 -116 0
-6883 126 0
-6883 -133 0
-6883 -140 0
6883 -16 19 -39 56 -64 94 -100 116 -126 133 140 0
-6884 16 0
-6884 -19 0
-6884 39 0
-6884 62 0
-6884 64 0
-6884 -94 0
-6884 100 0
-6884 -116 0
-6884 126 0
-6884 -133 0
-6884 -140 0
6884 -16 19 -39 -62 -64 94 -100 116 -126 133 140 0
-6885 16 0
-6885 -19 0
-6885 39 0
-6885 -54 0
-6885 -61 0
-6885 -94 0
-6885 100 0
-6885 -116 0
-6885 126 0
-6885 -133 0
-6885 -140 0
6885 -16 19 -39 54 61 94 -100 116 -126 133 140 0
-6886 16 0
-6886 -19 0
-6886 39 0
-6886 -56 0
-6886 -75 0
-6886 -94 0
-6886 100 0
-6886 -116 0
-6886 126 0
-6886 -133 0
-6886 -140 0
6886 -16 19 -39 56 75 94 -100 116 -126 133 140 0
-6887 16 0
-6887 -19 0
-6887 39 0
-6887 -56 0
-6887 -68 0
-6887 -94 0
-6887 100 0
-6887 -116 0
-6887 126 0
-6887 -133 0
-6887 -140 0
6887 -16 19 -39 56 68 94 -100 116 -126 133 140 0
-6888 16 0
-6888 -19 0
-6888 39 0
-6888 -56 0
-6888 -72 0
-6888 -94 0
-6888 100 0
-6888 -116 0
-6888 126 0
-6888 -133 0
-6888 -140 0
6888 -16 19 -39 56 72 94 -100 116 -126 133 140 0
-6889 16 0
-6889 -19 0
-6889 39 0
-6889 -56 0
-6889 -70 0
-6889 -94 0
-6889 100 0
-6889 -116 0
-6889 126 0
-6889 -133 0
-6889 -140 0
6889 -16 19 -39 56 70 94 -100 116 -126 133 140 0
-6890 16 0
-6890 -19 0
-6890 39 0
-6890 -56 0
-6890 -74 0
-6890 -94 0
-6890 100 0
-6890 -116 0
-6890 126 0
-6890 -133 0
-6890 -140 0
6890 -16 19 -39 56 74 94 -100 116 -126 133 140 0
-6891 16 0
-6891 -19 0
-6891 39 0
-6891 -56 0
-6891 -67 0
-6891 -94 0
-6891 100 0
-6891 -116 0
-6891 126 0
-6891 -133 0
-6891 -140 0
6891 -16 19 -39 56 67 94 -100 116 -126 133 140 0
-6892 16 0
-6892 -19 0
-6892 39 0
-6892 -56 0
-6892 -73 0
-6892 -94 0
-6892 100 0
-6892 -116 0
-6892 126 0
-6892 -133 0
-6892 -140 0
6892 -16 19 -39 56 73 94 -100 116 -126 133 140 0
-6893 16 0
-6893 -19 0
-6893 39 0
-6893 -56 0
-6893 -71 0
-6893 -94 0
-6893 100 0
-6893 -116 0
-6893 126 0
-6893 -133 0
-6893 -140 0
6893 -16 19 -39 56 71 94 -100 116 -126 133 140 0
-6894 16 0
-6894 -19 0
-6894 39 0
-6894 -61 0
-6894 -62 0
-6894 -94 0
-6894 100 0
-6894 -116 0
-6894 126 0
-6894 -133 0
-6894 -140 0
6894 -16 19 -39 61 62 94 -100 116 -126 133 140 0
-6895 16 0
-6895 -19 0
-6895 39 0
-6895 -54 0
-6895 -61 0
-6895 -94 0
-6895 100 0
-6895 -110 0
-6895 -116 0
-6895 126 0
-6895 -133 0
6895 -16 19 -39 54 61 94 -100 110 116 -126 133 0
-6896 16 0
-6896 -19 0
-6896 39 0
-6896 -81 0
-6896 -94 0
-6896 100 0
-6896 -110 0
-6896 -116 0
-6896 126 0
-6896 -133 0
6896 -16 19 -39 81 94 -100 110 116 -126 133 0
-6897 16 0
-6897 -19 0
-6897 39 0
-6897 -79 0
-6897 -94 0
-6897 100 0
-6897 -110 0
-6897 -116 0
-6897 126 0
-6897 -133 0
6897 -16 19 -39 79 94 -100 110 116 -126 133 0
-6898 16 0
-6898 -19 0
-6898 39 0
-6898 -83 0
-6898 -94 0
-6898 100 0
-6898 -110 0
-6898 -116 0
-6898 126 0
-6898 -133 0
6898 -16 19 -39 83 94 -100 110 116 -126 133 0
-6899 16 0
-6899 -19 0
-6899 39 0
-6899 -76 0
-6899 -94 0
-6899 100 0
-6899 -110 0
-6899 -116 0
-6899 126 0
-6899 -133 0
6899 -16 19 -39 76 94 -100 110 116 -126 133 0
-6900 16 0
-6900 -19 0
-6900 39 0
-6900 -78 0
-6900 -94 0
-6900 100 0
-6900 -110 0
-6900 -116 0
-6900 126 0
-6900 -133 0
6900 -16 19 -39 78 94 -100 110 116 -126 133 0
-6901 16 0
-6901 -19 0
-6901 39 0
-6901 -84 0
-6901 -94 0
-6901 100 0
-6901 -110 0
-6901 -116 0
-6901 126 0
-6901 -133 0
6901 -16 19 -39 84 94 -100 110 116 -126 133 0
-6902 16 0
-6902 -19 0
-6902 39 0
-6902 -56 0
-6902 -75 0
-6902 -94 0
-6902 100 0
-6902 -110 0
-6902 -116 0
-6902 126 0
-6902 -133 0
6902 -16 19 -39 56 75 94 -100 110 116 -126 133 0
-6903 16 0
-6903 -19 0
-6903 39 0
-6903 -56 0
-6903 -68 0
-6903 -94 0
-6903 100 0
-6903 -110 0
-6903 -116 0
-6903 126 0
-6903 -133 0
6903 -16 19 -39 56 68 94 -100 110 116 -126 133 0
-6904 16 0
-6904 -19 0
-6904 39 0
-6904 -56 0
-6904 -72 0
-6904 -94 0
-6904 100 0
-6904 -110 0
-6904 -116 0
-6904 126 0
-6904 -133 0
6904 -16 19 -39 56 72 94 -100 110 116 -126 133 0
-6905 16 0
-6905 -19 0
-6905 39 0
-6905 -56 0
-6905 -70 0
-6905 -94 0
-6905 100 0
-6905 -110 0
-6905 -116 0
-6905 126 0
-6905 -133 0
6905 -16 19 -39 56 70 94 -100 110 116 -126 133 0
-6906 16 0
-6906 -19 0
-6906 39 0
-6906 -56 0
-6906 -74 0
-6906 -94 0
-6906 100 0
-6906 -110 0
-6906 -116 0
-6906 126 0
-6906 -133 0
6906 -16 19 -39 56 74 94 -100 110 116 -126 133 0
-6907 16 0
-6907 -19 0
-6907 39 0
-6907 -56 0
-6907 -67 0
-6907 -94 0
-6907 100 0
-6907 -110 0
-6907 -116 0
-6907 126 0
-6907 -133 0
6907 -16 19 -39 56 67 94 -100 110 116 -126 133 0
-6908 16 0
-6908 -19 0
-6908 39 0
-6908 -56 0
-6908 -73 0
-6908 -94 0
-6908 100 0
-6908 -110 0
-6908 -116 0
-6908 126 0
-6908 -133 0
6908 -16 19 -39 56 73 94 -100 110 116 -126 133 0
-6909 16 0
-6909 -19 0
-6909 39 0
-6909 -56 0
-6909 -71 0
-6909 -94 0
-6909 100 0
-6909 -110 0
-6909 -116 0
-6909 126 0
-6909 -133 0
6909 -16 19 -39 56 71 94 -100 110 116 -126 133 0
-6910 16 0
-6910 -19 0
-6910 39 0
-6910 -94 0
-6910 100 0
-6910 -110 0
-6910 -116 0
-6910 126 0
-6910 -133 0
-6910 -164 0
6910 -16 19 -39 94 -100 110 116 -126 133 164 0
-6911 16 0
-6911 -19 0
-6911 39 0
-6911 -56 0
-6911 -62 0
-6911 -94 0
-6911 100 0
-6911 -110 0
-6911 -116 0
-6911 126 0
-6911 -133 0
6911 -16 19 -39 56 62 94 -100 110 116 -126 133 0
-6912 16 0
-6912 -19 0
-6912 39 0
-6912 -54 0
-6912 -57 0
-6912 -58 0
-6912 -94 0
-6912 100 0
-6912 -101 0
-6912 -116 0
-6912 126 0
-6912 -133 0
6912 -16 19 -39 54 57 58 94 -100 101 116 -126 133 0
-6913 16 0
-6913 -19 0
-6913 39 0
-6913 -54 0
-6913 -57 0
-6913 -58 0
-6913 95 0
-6913 100 0
-6913 -116 0
-6913 126 0
-6913 -133 0
6913 -16 19 -39 54 57 58 -95 -100 116 -126 133 0
-6914 16 0
-6914 -19 0
-6914 39 0
-6914 -54 0
-6914 -61 0
-6914 -94 0
-6914 100 0
-6914 -101 0
-6914 -116 0
-6914 126 0
-6914 -133 0
6914 -16 19 -39 54 61 94 -100 101 116 -126 133 0
-6915 16 0
-6915 -19 0
-6915 39 0
-6915 -54 0
-6915 -56 0
-6915 -94 0
-6915 100 0
-6915 -101 0
-6915 -116 0
-6915 126 0
-6915 -133 0
6915 -16 19 -39 54 56 94 -100 101 116 -126 133 0
-6916 16 0
-6916 -19 0
-6916 39 0
-6916 -94 0
-6916 100 0
-6916 -101 0
-6916 -116 0
-6916 126 0
-6916 -133 0
-6916 -164 0
6916 -16 19 -39 94 -100 101 116 -126 133 164 0
-6917 16 0
-6917 -19 0
-6917 39 0
-6917 -81 0
-6917 -94 0
-6917 100 0
-6917 -101 0
-6917 -116 0
-6917 126 0
-6917 -133 0
6917 -16 19 -39 81 94 -100 101 116 -126 133 0
-6918 16 0
-6918 -19 0
-6918 39 0
-6918 -79 0
-6918 -94 0
-6918 100 0
-6918 -101 0
-6918 -116 0
-6918 126 0
-6918 -133 0
6918 -16 19 -39 79 94 -100 101 116 -126 133 0
-6919 16 0
-6919 -19 0
-6919 39 0
-6919 -83 0
-6919 -94 0
-6919 100 0
-6919 -101 0
-6919 -116 0
-6919 126 0
-6919 -133 0
6919 -16 19 -39 83 94 -100 101 116 -126 133 0
-6920 16 0
-6920 -19 0
-6920 39 0
-6920 -76 0
-6920 -94 0
-6920 100 0
-6920 -101 0
-6920 -116 0
-6920 126 0
-6920 -133 0
6920 -16 19 -39 76 94 -100 101 116 -126 133 0
-6921 16 0
-6921 -19 0
-6921 39 0
-6921 -78 0
-6921 -94 0
-6921 100 0
-6921 -101 0
-6921 -116 0
-6921 126 0
-6921 -133 0
6921 -16 19 -39 78 94 -100 101 116 -126 133 0
-6922 16 0
-6922 -19 0
-6922 39 0
-6922 -84 0
-6922 -94 0
-6922 100 0
-6922 -101 0
-6922 -116 0
-6922 126 0
-6922 -133 0
6922 -16 19 -39 84 94 -100 101 116 -126 133 0
-6923 16 0
-6923 -19 0
-6923 39 0
-6923 -54 0
-6923 -61 0
-6923 95 0
-6923 100 0
-6923 -116 0
-6923 126 0
-6923 -133 0
6923 -16 19 -39 54 61 -95 -100 116 -126 133 0
-6924 16 0
-6924 -19 0
-6924 39 0
-6924 -56 0
-6924 -75 0
-6924 95 0
-6924 100 0
-6924 -116 0
-6924 126 0
-6924 -133 0
6924 -16 19 -39 56 75 -95 -100 116 -126 133 0
-6925 16 0
-6925 -19 0
-6925 39 0
-6925 -56 0
-6925 -68 0
-6925 95 0
-6925 100 0
-6925 -116 0
-6925 126 0
-6925 -133 0
6925 -16 19 -39 56 68 -95 -100 116 -126 133 0
-6926 16 0
-6926 -19 0
-6926 39 0
-6926 -56 0
-6926 -72 0
-6926 95 0
-6926 100 0
-6926 -116 0
-6926 126 0
-6926 -133 0
6926 -16 19 -39 56 72 -95 -100 116 -126 133 0
-6927 16 0
-6927 -19 0
-6927 39 0
-6927 -56 0
-6927 -70 0
-6927 95 0
-6927 100 0
-6927 -116 0
-6927 126 0
-6927 -133 0
6927 -16 19 -39 56 70 -95 -100 116 -126 133 0
-6928 16 0
-6928 -19 0
-6928 39 0
-6928 -56 0
-6928 -74 0
-6928 95 0
-6928 100 0
-6928 -116 0
-6928 126 0
-6928 -133 0
6928 -16 19 -39 56 74 -95 -100 116 -126 133 0
-6929 16 0
-6929 -19 0
-6929 39 0
-6929 -56 0
-6929 -67 0
-6929 95 0
-6929 100 0
-6929 -116 0
-6929 126 0
-6929 -133 0
6929 -16 19 -39 56 67 -95 -100 116 -126 133 0
-6930 16 0
-6930 -19 0
-6930 39 0
-6930 -56 0
-6930 -73 0
-6930 95 0
-6930 100 0
-6930 -116 0
-6930 126 0
-6930 -133 0
6930 -16 19 -39 56 73 -95 -100 116 -126 133 0
-6931 16 0
-6931 -19 0
-6931 39 0
-6931 -56 0
-6931 -71 0
-6931 95 0
-6931 100 0
-6931 -116 0
-6931 126 0
-6931 -133 0
6931 -16 19 -39 56 71 -95 -100 116 -126 133 0
-6932 16 0
-6932 -19 0
-6932 39 0
-6932 -56 0
-6932 -75 0
-6932 -94 0
-6932 100 0
-6932 -101 0
-6932 -116 0
-6932 126 0
-6932 -133 0
6932 -16 19 -39 56 75 94 -100 101 116 -126 133 0
-6933 16 0
-6933 -19 0
-6933 39 0
-6933 -56 0
-6933 -75 0
-6933 94 0
-6933 100 0
-6933 110 0
-6933 -116 0
-6933 126 0
-6933 -133 0
6933 -16 19 -39 56 75 -94 -100 -110 116 -126 133 0
-6934 16 0
-6934 -19 0
-6934 39 0
-6934 -56 0
-6934 -75 0
-6934 94 0
-6934 100 0
-6934 101 0
-6934 -116 0
-6934 126 0
-6934 -133 0
6934 -16 19 -39 56 75 -94 -100 -101 116 -126 133 0
-6935 16 0
-6935 -19 0
-6935 39 0
-6935 -56 0
-6935 -68 0
-6935 94 0
-6935 100 0
-6935 101 0
-6935 -116 0
-6935 126 0
-6935 -133 0
6935 -16 19 -39 56 68 -94 -100 -101 116 -126 133 0
-6936 16 0
-6936 -19 0
-6936 39 0
-6936 -56 0
-6936 -72 0
-6936 94 0
-6936 100 0
-6936 101 0
-6936 -116 0
-6936 126 0
-6936 -133 0
6936 -16 19 -39 56 72 -94 -100 -101 116 -126 133 0
-6937 16 0
-6937 -19 0
-6937 39 0
-6937 -56 0
-6937 -70 0
-6937 94 0
-6937 100 0
-6937 101 0
-6937 -116 0
-6937 126 0
-6937 -133 0
6937 -16 19 -39 56 70 -94 -100 -101 116 -126 133 0
-6938 16 0
-6938 -19 0
-6938 39 0
-6938 -56 0
-6938 -74 0
-6938 94 0
-6938 100 0
-6938 101 0
-6938 -116 0
-6938 126 0
-6938 -133 0
6938 -16 19 -39 56 74 -94 -100 -101 116 -126 133 0
-6939 16 0
-6939 -19 0
-6939 39 0
-6939 -56 0
-6939 -67 0
-6939 94 0
-6939 100 0
-6939 101 0
-6939 -116 0
-6939 126 0
-6939 -133 0
6939 -16 19 -39 56 67 -94 -100 -101 116 -126 133 0
-6940 16 0
-6940 -19 0
-6940 39 0
-6940 -56 0
-6940 -73 0
-6940 94 0
-6940 100 0
-6940 101 0
-6940 -116 0
-6940 126 0
-6940 -133 0
6940 -16 19 -39 56 73 -94 -100 -101 116 -126 133 0
-6941 16 0
-6941 -19 0
-6941 39 0
-6941 -56 0
-6941 -71 0
-6941 94 0
-6941 100 0
-6941 101 0
-6941 -116 0
-6941 126 0
-6941 -133 0
6941 -16 19 -39 56 71 -94 -100 -101 116 -126 133 0
-6942 16 0
-6942 -19 0
-6942 39 0
-6942 -81 0
-6942 94 0
-6942 100 0
-6942 101 0
-6942 -116 0
-6942 126 0
-6942 -133 0
6942 -16 19 -39 81 -94 -100 -101 116 -126 133 0
-6943 16 0
-6943 -19 0
-6943 39 0
-6943 -79 0
-6943 94 0
-6943 100 0
-6943 101 0
-6943 -116 0
-6943 126 0
-6943 -133 0
6943 -16 19 -39 79 -94 -100 -101 116 -126 133 0
-6944 16 0
-6944 -19 0
-6944 39 0
-6944 -83 0
-6944 94 0
-6944 100 0
-6944 101 0
-6944 -116 0
-6944 126 0
-6944 -133 0
6944 -16 19 -39 83 -94 -100 -101 116 -126 133 0
-6945 16 0
-6945 -19 0
-6945 39 0
-6945 -76 0
-6945 94 0
-6945 100 0
-6945 101 0
-6945 -116 0
-6945 126 0
-6945 -133 0
6945 -16 19 -39 76 -94 -100 -101 116 -126 133 0
-6946 16 0
-6946 -19 0
-6946 39 0
-6946 -78 0
-6946 94 0
-6946 100 0
-6946 101 0
-6946 -116 0
-6946 126 0
-6946 -133 0
6946 -16 19 -39 78 -94 -100 -101 116 -126 133 0
-6947 16 0
-6947 -19 0
-6947 39 0
-6947 -84 0
-6947 94 0
-6947 100 0
-6947 101 0
-6947 -116 0
-6947 126 0
-6947 -133 0
6947 -16 19 -39 84 -94 -100 -101 116 -126 133 0
-6948 16 0
-6948 -19 0
-6948 39 0
-6948 94 0
-6948 100 0
-6948 101 0
-6948 -116 0
-6948 126 0
-6948 -133 0
-6948 -164 0
6948 -16 19 -39 -94 -100 -101 116 -126 133 164 0
-6949 16 0
-6949 -19 0
-6949 39 0
-6949 -56 0
-6949 -62 0
-6949 94 0
-6949 100 0
-6949 101 0
-6949 -116 0
-6949 126 0
-6949 -133 0
6949 -16 19 -39 56 62 -94 -100 -101 116 -126 133 0
-6950 16 0
-6950 -19 0
-6950 39 0
-6950 -54 0
-6950 -56 0
-6950 94 0
-6950 100 0
-6950 101 0
-6950 -116 0
-6950 126 0
-6950 -133 0
6950 -16 19 -39 54 56 -94 -100 -101 116 -126 133 0
-6951 16 0
-6951 -19 0
-6951 39 0
-6951 -54 0
-6951 -57 0
-6951 -58 0
-6951 94 0
-6951 100 0
-6951 101 0
-6951 -116 0
-6951 126 0
-6951 -133 0
6951 -16 19 -39 54 57 58 -94 -100 -101 116 -126 133 0
-6952 16 0
-6952 -19 0
-6952 39 0
-6952 -54 0
-6952 -61 0
-6952 94 0
-6952 100 0
-6952 101 0
-6952 -116 0
-6952 126 0
-6952 -133 0
6952 -16 19 -39 54 61 -94 -100 -101 116 -126 133 0
-6953 16 0
-6953 -19 0
-6953 39 0
-6953 94 0
-6953 100 0
-6953 110 0
-6953 -116 0
-6953 126 0
-6953 -133 0
-6953 -164 0
6953 -16 19 -39 -94 -100 -110 116 -126 133 164 0
-6954 16 0
-6954 -19 0
-6954 39 0
-6954 -54 0
-6954 -61 0
-6954 94 0
-6954 100 0
-6954 110 0
-6954 -116 0
-6954 126 0
-6954 -133 0
6954 -16 19 -39 54 61 -94 -100 -110 116 -126 133 0
-6955 16 0
-6955 -19 0
-6955 39 0
-6955 -81 0
-6955 94 0
-6955 100 0
-6955 110 0
-6955 -116 0
-6955 126 0
-6955 -133 0
6955 -16 19 -39 81 -94 -100 -110 116 -126 133 0
-6956 16 0
-6956 -19 0
-6956 39 0
-6956 -79 0
-6956 94 0
-6956 100 0
-6956 110 0
-6956 -116 0
-6956 126 0
-6956 -133 0
6956 -16 19 -39 79 -94 -100 -110 116 -126 133 0
-6957 16 0
-6957 -19 0
-6957 39 0
-6957 -83 0
-6957 94 0
-6957 100 0
-6957 110 0
-6957 -116 0
-6957 126 0
-6957 -133 0
6957 -16 19 -39 83 -94 -100 -110 116 -126 133 0
-6958 16 0
-6958 -19 0
-6958 39 0
-6958 -76 0
-6958 94 0
-6958 100 0
-6958 110 0
-6958 -116 0
-6958 126 0
-6958 -133 0
6958 -16 19 -39 76 -94 -100 -110 116 -126 133 0
-6959 16 0
-6959 -19 0
-6959 39 0
-6959 -78 0
-6959 94 0
-6959 100 0
-6959 110 0
-6959 -116 0
-6959 126 0
-6959 -133 0
6959 -16 19 -39 78 -94 -100 -110 116 -126 133 0
-6960 16 0
-6960 -19 0
-6960 39 0
-6960 -84 0
-6960 94 0
-6960 100 0
-6960 110 0
-6960 -116 0
-6960 126 0
-6960 -133 0
6960 -16 19 -39 84 -94 -100 -110 116 -126 133 0
-6961 16 0
-6961 -19 0
-6961 39 0
-6961 -56 0
-6961 -68 0
-6961 94 0
-6961 100 0
-6961 110 0
-6961 -116 0
-6961 126 0
-6961 -133 0
6961 -16 19 -39 56 68 -94 -100 -110 116 -126 133 0
-6962 16 0
-6962 -19 0
-6962 39 0
-6962 -56 0
-6962 -72 0
-6962 94 0
-6962 100 0
-6962 110 0
-6962 -116 0
-6962 126 0
-6962 -133 0
6962 -16 19 -39 56 72 -94 -100 -110 116 -126 133 0
-6963 16 0
-6963 -19 0
-6963 39 0
-6963 -56 0
-6963 -70 0
-6963 94 0
-6963 100 0
-6963 110 0
-6963 -116 0
-6963 126 0
-6963 -133 0
6963 -16 19 -39 56 70 -94 -100 -110 116 -126 133 0
-6964 16 0
-6964 -19 0
-6964 39 0
-6964 -56 0
-6964 -74 0
-6964 94 0
-6964 100 0
-6964 110 0
-6964 -116 0
-6964 126 0
-6964 -133 0
6964 -16 19 -39 56 74 -94 -100 -110 116 -126 133 0
-6965 16 0
-6965 -19 0
-6965 39 0
-6965 -56 0
-6965 -67 0
-6965 94 0
-6965 100 0
-6965 110 0
-6965 -116 0
-6965 126 0
-6965 -133 0
6965 -16 19 -39 56 67 -94 -100 -110 116 -126 133 0
-6966 16 0
-6966 -19 0
-6966 39 0
-6966 -56 0
-6966 -73 0
-6966 94 0
-6966 100 0
-6966 110 0
-6966 -116 0
-6966 126 0
-6966 -133 0
6966 -16 19 -39 56 73 -94 -100 -110 116 -126 133 0
-6967 16 0
-6967 -19 0
-6967 39 0
-6967 -56 0
-6967 -71 0
-6967 94 0
-6967 100 0
-6967 110 0
-6967 -116 0
-6967 126 0
-6967 -133 0
6967 -16 19 -39 56 71 -94 -100 -110 116 -126 133 0
-6968 16 0
-6968 -19 0
-6968 39 0
-6968 -56 0
-6968 -62 0
-6968 94 0
-6968 100 0
-6968 110 0
-6968 -116 0
-6968 126 0
-6968 -133 0
6968 -16 19 -39 56 62 -94 -100 -110 116 -126 133 0
-6969 16 0
-6969 -19 0
-6969 39 0
-6969 -56 0
-6969 -62 0
-6969 -94 0
-6969 100 0
-6969 -101 0
-6969 -116 0
-6969 126 0
-6969 -133 0
6969 -16 19 -39 56 62 94 -100 101 116 -126 133 0
-6970 16 0
-6970 -19 0
-6970 39 0
-6970 -56 0
-6970 -68 0
-6970 -94 0
-6970 100 0
-6970 -101 0
-6970 -116 0
-6970 126 0
-6970 -133 0
6970 -16 19 -39 56 68 94 -100 101 116 -126 133 0
-6971 16 0
-6971 -19 0
-6971 39 0
-6971 -56 0
-6971 -72 0
-6971 -94 0
-6971 100 0
-6971 -101 0
-6971 -116 0
-6971 126 0
-6971 -133 0
6971 -16 19 -39 56 72 94 -100 101 116 -126 133 0
-6972 16 0
-6972 -19 0
-6972 39 0
-6972 -56 0
-6972 -70 0
-6972 -94 0
-6972 100 0
-6972 -101 0
-6972 -116 0
-6972 126 0
-6972 -133 0
6972 -16 19 -39 56 70 94 -100 101 116 -126 133 0
-6973 16 0
-6973 -19 0
-6973 39 0
-6973 -56 0
-6973 -74 0
-6973 -94 0
-6973 100 0
-6973 -101 0
-6973 -116 0
-6973 126 0
-6973 -133 0
6973 -16 19 -39 56 74 94 -100 101 116 -126 133 0
-6974 16 0
-6974 -19 0
-6974 39 0
-6974 -56 0
-6974 -67 0
-6974 -94 0
-6974 100 0
-6974 -101 0
-6974 -116 0
-6974 126 0
-6974 -133 0
6974 -16 19 -39 56 67 94 -100 101 116 -126 133 0
-6975 16 0
-6975 -19 0
-6975 39 0
-6975 -56 0
-6975 -73 0
-6975 -94 0
-6975 100 0
-6975 -101 0
-6975 -116 0
-6975 126 0
-6975 -133 0
6975 -16 19 -39 56 73 94 -100 101 116 -126 133 0
-6976 16 0
-6976 -19 0
-6976 39 0
-6976 -56 0
-6976 -71 0
-6976 -94 0
-6976 100 0
-6976 -101 0
-6976 -116 0
-6976 126 0
-6976 -133 0
6976 -16 19 -39 56 71 94 -100 101 116 -126 133 0
-6977 16 0
-6977 -19 0
-6977 39 0
-6977 -54 0
-6977 -56 0
-6977 95 0
-6977 -116 0
-6977 -133 0
-6977 134 0
6977 -16 19 -39 54 56 -95 116 133 -134 0
-6978 16 0
-6978 -19 0
-6978 39 0
-6978 -54 0
-6978 -56 0
-6978 -94 0
-6978 -110 0
-6978 -116 0
-6978 -133 0
-6978 134 0
6978 -16 19 -39 54 56 94 110 116 133 -134 0
-6979 16 0
-6979 -19 0
-6979 39 0
-6979 -81 0
-6979 -94 0
-6979 -116 0
-6979 -133 0
-6979 134 0
-6979 -140 0
6979 -16 19 -39 81 94 116 133 -134 140 0
-6980 16 0
-6980 -19 0
-6980 39 0
-6980 -79 0
-6980 -94 0
-6980 -116 0
-6980 -133 0
-6980 134 0
-6980 -140 0
6980 -16 19 -39 79 94 116 133 -134 140 0
-6981 16 0
-6981 -19 0
-6981 39 0
-6981 -83 0
-6981 -94 0
-6981 -116 0
-6981 -133 0
-6981 134 0
-6981 -140 0
6981 -16 19 -39 83 94 116 133 -134 140 0
-6982 16 0
-6982 -19 0
-6982 39 0
-6982 -76 0
-6982 -94 0
-6982 -116 0
-6982 -133 0
-6982 134 0
-6982 -140 0
6982 -16 19 -39 76 94 116 133 -134 140 0
-6983 16 0
-6983 -19 0
-6983 39 0
-6983 -82 0
-6983 -94 0
-6983 -116 0
-6983 -133 0
-6983 134 0
-6983 -140 0
6983 -16 19 -39 82 94 116 133 -134 140 0
-6984 16 0
-6984 -19 0
-6984 39 0
-6984 -78 0
-6984 -94 0
-6984 -116 0
-6984 -133 0
-6984 134 0
-6984 -140 0
6984 -16 19 -39 78 94 116 133 -134 140 0
-6985 16 0
-6985 -19 0
-6985 39 0
-6985 -84 0
-6985 -94 0
-6985 -116 0
-6985 -133 0
-6985 134 0
-6985 -140 0
6985 -16 19 -39 84 94 116 133 -134 140 0
-6986 16 0
-6986 -19 0
-6986 39 0
-6986 -77 0
-6986 -94 0
-6986 -116 0
-6986 -133 0
-6986 134 0
-6986 -140 0
6986 -16 19 -39 77 94 116 133 -134 140 0
-6987 16 0
-6987 -19 0
-6987 39 0
-6987 -56 0
-6987 -68 0
-6987 -94 0
-6987 -100 0
-6987 -116 0
-6987 -126 0
-6987 -133 0
-6987 -140 0
6987 -16 19 -39 56 68 94 100 116 126 133 140 0
-6988 16 0
-6988 -19 0
-6988 39 0
-6988 -56 0
-6988 -72 0
-6988 -94 0
-6988 -100 0
-6988 -116 0
-6988 -126 0
-6988 -133 0
-6988 -140 0
6988 -16 19 -39 56 72 94 100 116 126 133 140 0
-6989 16 0
-6989 -19 0
-6989 39 0
-6989 -56 0
-6989 -70 0
-6989 -94 0
-6989 -100 0
-6989 -116 0
-6989 -126 0
-6989 -133 0
-6989 -140 0
6989 -16 19 -39 56 70 94 100 116 126 133 140 0
-6990 16 0
-6990 -19 0
-6990 39 0
-6990 -56 0
-6990 -74 0
-6990 -94 0
-6990 -100 0
-6990 -116 0
-6990 -126 0
-6990 -133 0
-6990 -140 0
6990 -16 19 -39 56 74 94 100 116 126 133 140 0
-6991 16 0
-6991 -19 0
-6991 39 0
-6991 -56 0
-6991 -67 0
-6991 -94 0
-6991 -100 0
-6991 -116 0
-6991 -126 0
-6991 -133 0
-6991 -140 0
6991 -16 19 -39 56 67 94 100 116 126 133 140 0
-6992 16 0
-6992 -19 0
-6992 39 0
-6992 -56 0
-6992 -73 0
-6992 -94 0
-6992 -100 0
-6992 -116 0
-6992 -126 0
-6992 -133 0
-6992 -140 0
6992 -16 19 -39 56 73 94 100 116 126 133 140 0
-6993 16 0
-6993 -19 0
-6993 39 0
-6993 -56 0
-6993 -71 0
-6993 -94 0
-6993 -100 0
-6993 -116 0
-6993 -126 0
-6993 -133 0
-6993 -140 0
6993 -16 19 -39 56 71 94 100 116 126 133 140 0
-6994 16 0
-6994 -19 0
-6994 39 0
-6994 -56 0
-6994 -75 0
-6994 -94 0
-6994 -100 0
-6994 -116 0
-6994 -126 0
-6994 -133 0
-6994 -140 0
6994 -16 19 -39 56 75 94 100 116 126 133 140 0
-6995 16 0
-6995 -19 0
-6995 39 0
-6995 -81 0
-6995 -94 0
-6995 -100 0
-6995 -116 0
-6995 -126 0
-6995 -133 0
-6995 -140 0
6995 -16 19 -39 81 94 100 116 126 133 140 0
-6996 16 0
-6996 -19 0
-6996 39 0
-6996 -79 0
-6996 -94 0
-6996 -100 0
-6996 -116 0
-6996 -126 0
-6996 -133 0
-6996 -140 0
6996 -16 19 -39 79 94 100 116 126 133 140 0
-6997 16 0
-6997 -19 0
-6997 39 0
-6997 -83 0
-6997 -94 0
-6997 -100 0
-6997 -116 0
-6997 -126 0
-6997 -133 0
-6997 -140 0
6997 -16 19 -39 83 94 100 116 126 133 140 0
-6998 16 0
-6998 -19 0
-6998 39 0
-6998 -76 0
-6998 -94 0
-6998 -100 0
-6998 -116 0
-6998 -126 0
-6998 -133 0
-6998 -140 0
6998 -16 19 -39 76 94 100 116 126 133 140 0
-6999 16 0
-6999 -19 0
-6999 39 0
-6999 -82 0
-6999 -94 0
-6999 -100 0
-6999 -116 0
-6999 -126 0
-6999 -133 0
-6999 -140 0
6999 -16 19 -39 82 94 100 116 126 133 140 0
-7000 16 0
-7000 -19 0
-7000 39 0
-7000 -78 0
-7000 -94 0
-7000 -100 0
-7000 -116 0
-7000 -126 0
-7000 -133 0
-7000 -140 0
7000 -16 19 -39 78 94 100 116 126 133 140 0
-7001 16 0
-7001 -19 0
-7001 39 0
-7001 -84 0
-7001 -94 0
-7001 -100 0
-7001 -116 0
-7001 -126 0
-7001 -133 0
-7001 -140 0
7001 -16 19 -39 84 94 100 116 126 133 140 0
-7002 16 0
-7002 -19 0
-7002 39 0
-7002 -77 0
-7002 -94 0
-7002 -100 0
-7002 -116 0
-7002 -126 0
-7002 -133 0
-7002 -140 0
7002 -16 19 -39 77 94 100 116 126 133 140 0
-7003 16 0
-7003 -19 0
-7003 39 0
-7003 65 0
-7003 -94 0
-7003 -100 0
-7003 -116 0
-7003 -126 0
-7003 -133 0
-7003 -140 0
7003 -16 19 -39 -65 94 100 116 126 133 140 0
-7004 16 0
-7004 -19 0
-7004 39 0
-7004 66 0
-7004 -94 0
-7004 -100 0
-7004 -116 0
-7004 -126 0
-7004 -133 0
-7004 -140 0
7004 -16 19 -39 -66 94 100 116 126 133 140 0
-7005 16 0
-7005 -19 0
-7005 39 0
-7005 -63 0
-7005 -94 0
-7005 -100 0
-7005 -116 0
-7005 -126 0
-7005 -133 0
-7005 -140 0
7005 -16 19 -39 63 94 100 116 126 133 140 0
-7006 16 0
-7006 -19 0
-7006 39 0
-7006 -94 0
-7006 -100 0
-7006 -116 0
-7006 -126 0
-7006 -133 0
-7006 -140 0
-7006 -164 0
7006 -16 19 -39 94 100 116 126 133 140 164 0
-7007 16 0
-7007 -19 0
-7007 39 0
-7007 -56 0
-7007 64 0
-7007 -94 0
-7007 -100 0
-7007 -116 0
-7007 -126 0
-7007 -133 0
-7007 -140 0
7007 -16 19 -39 56 -64 94 100 116 126 133 140 0
-7008 16 0
-7008 -19 0
-7008 39 0
-7008 -56 0
-7008 -62 0
-7008 -94 0
-7008 -100 0
-7008 -116 0
-7008 -126 0
-7008 -133 0
-7008 -140 0
7008 -16 19 -39 56 62 94 100 116 126 133 140 0
-7009 16 0
-7009 -19 0
-7009 39 0
-7009 -56 0
-7009 -68 0
-7009 -94 0
-7009 -100 0
-7009 -110 0
-7009 -116 0
-7009 -126 0
-7009 -133 0
7009 -16 19 -39 56 68 94 100 110 116 126 133 0
-7010 16 0
-7010 -19 0
-7010 39 0
-7010 -56 0
-7010 -68 0
-7010 95 0
-7010 -100 0
-7010 -116 0
-7010 -126 0
-7010 -133 0
7010 -16 19 -39 56 68 -95 100 116 126 133 0
-7011 16 0
-7011 -19 0
-7011 39 0
-7011 -56 0
-7011 -68 0
-7011 -94 0
-7011 -100 0
-7011 -101 0
-7011 -116 0
-7011 -126 0
-7011 -133 0
7011 -16 19 -39 56 68 94 100 101 116 126 133 0
-7012 16 0
-7012 -19 0
-7012 39 0
-7012 -56 0
-7012 -72 0
-7012 -94 0
-7012 -100 0
-7012 -110 0
-7012 -116 0
-7012 -126 0
-7012 -133 0
7012 -16 19 -39 56 72 94 100 110 116 126 133 0
-7013 16 0
-7013 -19 0
-7013 39 0
-7013 -56 0
-7013 -70 0
-7013 -94 0
-7013 -100 0
-7013 -110 0
-7013 -116 0
-7013 -126 0
-7013 -133 0
7013 -16 19 -39 56 70 94 100 110 116 126 133 0
-7014 16 0
-7014 -19 0
-7014 39 0
-7014 -56 0
-7014 -74 0
-7014 -94 0
-7014 -100 0
-7014 -110 0
-7014 -116 0
-7014 -126 0
-7014 -133 0
7014 -16 19 -39 56 74 94 100 110 116 126 133 0
-7015 16 0
-7015 -19 0
-7015 39 0
-7015 -56 0
-7015 -67 0
-7015 -94 0
-7015 -100 0
-7015 -110 0
-7015 -116 0
-7015 -126 0
-7015 -133 0
7015 -16 19 -39 56 67 94 100 110 116 126 133 0
-7016 16 0
-7016 -19 0
-7016 39 0
-7016 -56 0
-7016 -73 0
-7016 -94 0
-7016 -100 0
-7016 -110 0
-7016 -116 0
-7016 -126 0
-7016 -133 0
7016 -16 19 -39 56 73 94 100 110 116 126 133 0
-7017 16 0
-7017 -19 0
-7017 39 0
-7017 -56 0
-7017 -71 0
-7017 -94 0
-7017 -100 0
-7017 -110 0
-7017 -116 0
-7017 -126 0
-7017 -133 0
7017 -16 19 -39 56 71 94 100 110 116 126 133 0
-7018 16 0
-7018 -19 0
-7018 39 0
-7018 -56 0
-7018 -75 0
-7018 -94 0
-7018 -100 0
-7018 -110 0
-7018 -116 0
-7018 -126 0
-7018 -133 0
7018 -16 19 -39 56 75 94 100 110 116 126 133 0
-7019 16 0
-7019 -19 0
-7019 39 0
-7019 -81 0
-7019 -94 0
-7019 -100 0
-7019 -110 0
-7019 -116 0
-7019 -126 0
-7019 -133 0
7019 -16 19 -39 81 94 100 110 116 126 133 0
-7020 16 0
-7020 -19 0
-7020 39 0
-7020 -79 0
-7020 -94 0
-7020 -100 0
-7020 -110 0
-7020 -116 0
-7020 -126 0
-7020 -133 0
7020 -16 19 -39 79 94 100 110 116 126 133 0
-7021 16 0
-7021 -19 0
-7021 39 0
-7021 -83 0
-7021 -94 0
-7021 -100 0
-7021 -110 0
-7021 -116 0
-7021 -126 0
-7021 -133 0
7021 -16 19 -39 83 94 100 110 116 126 133 0
-7022 16 0
-7022 -19 0
-7022 39 0
-7022 -76 0
-7022 -94 0
-7022 -100 0
-7022 -110 0
-7022 -116 0
-7022 -126 0
-7022 -133 0
7022 -16 19 -39 76 94 100 110 116 126 133 0
-7023 16 0
-7023 -19 0
-7023 39 0
-7023 -82 0
-7023 -94 0
-7023 -100 0
-7023 -110 0
-7023 -116 0
-7023 -126 0
-7023 -133 0
7023 -16 19 -39 82 94 100 110 116 126 133 0
-7024 16 0
-7024 -19 0
-7024 39 0
-7024 -78 0
-7024 -94 0
-7024 -100 0
-7024 -110 0
-7024 -116 0
-7024 -126 0
-7024 -133 0
7024 -16 19 -39 78 94 100 110 116 126 133 0
-7025 16 0
-7025 -19 0
-7025 39 0
-7025 -84 0
-7025 -94 0
-7025 -100 0
-7025 -110 0
-7025 -116 0
-7025 -126 0
-7025 -133 0
7025 -16 19 -39 84 94 100 110 116 126 133 0
-7026 16 0
-7026 -19 0
-7026 39 0
-7026 -77 0
-7026 -94 0
-7026 -100 0
-7026 -110 0
-7026 -116 0
-7026 -126 0
-7026 -133 0
7026 -16 19 -39 77 94 100 110 116 126 133 0
-7027 16 0
-7027 -19 0
-7027 39 0
-7027 -94 0
-7027 -100 0
-7027 -110 0
-7027 -116 0
-7027 -126 0
-7027 -133 0
-7027 -164 0
7027 -16 19 -39 94 100 110 116 126 133 164 0
-7028 16 0
-7028 -19 0
-7028 39 0
-7028 -56 0
-7028 -62 0
-7028 -94 0
-7028 -100 0
-7028 -110 0
-7028 -116 0
-7028 -126 0
-7028 -133 0
7028 -16 19 -39 56 62 94 100 110 116 126 133 0
-7029 16 0
-7029 -19 0
-7029 39 0
-7029 -54 0
-7029 -56 0
-7029 -94 0
-7029 -100 0
-7029 -110 0
-7029 -116 0
-7029 -126 0
-7029 -133 0
7029 -16 19 -39 54 56 94 100 110 116 126 133 0
-7030 16 0
-7030 -19 0
-7030 39 0
-7030 -54 0
-7030 -57 0
-7030 -58 0
-7030 -94 0
-7030 -100 0
-7030 -110 0
-7030 -116 0
-7030 -126 0
-7030 -133 0
7030 -16 19 -39 54 57 58 94 100 110 116 126 133 0
-7031 16 0
-7031 -19 0
-7031 39 0
-7031 -54 0
-7031 -61 0
-7031 -94 0
-7031 -100 0
-7031 -110 0
-7031 -116 0
-7031 -126 0
-7031 -133 0
7031 -16 19 -39 54 61 94 100 110 116 126 133 0
-7032 16 0
-7032 -19 0
-7032 39 0
-7032 95 0
-7032 -100 0
-7032 -116 0
-7032 -126 0
-7032 -133 0
-7032 -164 0
7032 -16 19 -39 -95 100 116 126 133 164 0
-7033 16 0
-7033 -19 0
-7033 39 0
-7033 -54 0
-7033 -61 0
-7033 95 0
-7033 -100 0
-7033 -116 0
-7033 -126 0
-7033 -133 0
7033 -16 19 -39 54 61 -95 100 116 126 133 0
-7034 16 0
-7034 -19 0
-7034 39 0
-7034 -56 0
-7034 -62 0
-7034 95 0
-7034 -100 0
-7034 -116 0
-7034 -126 0
-7034 -133 0
7034 -16 19 -39 56 62 -95 100 116 126 133 0
-7035 16 0
-7035 -19 0
-7035 39 0
-7035 -81 0
-7035 95 0
-7035 -100 0
-7035 -116 0
-7035 -126 0
-7035 -133 0
7035 -16 19 -39 81 -95 100 116 126 133 0
-7036 16 0
-7036 -19 0
-7036 39 0
-7036 -79 0
-7036 95 0
-7036 -100 0
-7036 -116 0
-7036 -126 0
-7036 -133 0
7036 -16 19 -39 79 -95 100 116 126 133 0
-7037 16 0
-7037 -19 0
-7037 39 0
-7037 -83 0
-7037 95 0
-7037 -100 0
-7037 -116 0
-7037 -126 0
-7037 -133 0
7037 -16 19 -39 83 -95 100 116 126 133 0
-7038 16 0
-7038 -19 0
-7038 39 0
-7038 -76 0
-7038 95 0
-7038 -100 0
-7038 -116 0
-7038 -126 0
-7038 -133 0
7038 -16 19 -39 76 -95 100 116 126 133 0
-7039 16 0
-7039 -19 0
-7039 39 0
-7039 -82 0
-7039 95 0
-7039 -100 0
-7039 -116 0
-7039 -126 0
-7039 -133 0
7039 -16 19 -39 82 -95 100 116 126 133 0
-7040 16 0
-7040 -19 0
-7040 39 0
-7040 -78 0
-7040 95 0
-7040 -100 0
-7040 -116 0
-7040 -126 0
-7040 -133 0
7040 -16 19 -39 78 -95 100 116 126 133 0
-7041 16 0
-7041 -19 0
-7041 39 0
-7041 -84 0
-7041 95 0
-7041 -100 0
-7041 -116 0
-7041 -126 0
-7041 -133 0
7041 -16 19 -39 84 -95 100 116 126 133 0
-7042 16 0
-7042 -19 0
-7042 39 0
-7042 -77 0
-7042 95 0
-7042 -100 0
-7042 -116 0
-7042 -126 0
-7042 -133 0
7042 -16 19 -39 77 -95 100 116 126 133 0
-7043 16 0
-7043 -19 0
-7043 39 0
-7043 -56 0
-7043 -72 0
-7043 95 0
-7043 -100 0
-7043 -116 0
-7043 -126 0
-7043 -133 0
7043 -16 19 -39 56 72 -95 100 116 126 133 0
-7044 16 0
-7044 -19 0
-7044 39 0
-7044 -56 0
-7044 -70 0
-7044 95 0
-7044 -100 0
-7044 -116 0
-7044 -126 0
-7044 -133 0
7044 -16 19 -39 56 70 -95 100 116 126 133 0
-7045 16 0
-7045 -19 0
-7045 39 0
-7045 -56 0
-7045 -74 0
-7045 95 0
-7045 -100 0
-7045 -116 0
-7045 -126 0
-7045 -133 0
7045 -16 19 -39 56 74 -95 100 116 126 133 0
-7046 16 0
-7046 -19 0
-7046 39 0
-7046 -56 0
-7046 -67 0
-7046 95 0
-7046 -100 0
-7046 -116 0
-7046 -126 0
-7046 -133 0
7046 -16 19 -39 56 67 -95 100 116 126 133 0
-7047 16 0
-7047 -19 0
-7047 39 0
-7047 -56 0
-7047 -73 0
-7047 95 0
-7047 -100 0
-7047 -116 0
-7047 -126 0
-7047 -133 0
7047 -16 19 -39 56 73 -95 100 116 126 133 0
-7048 16 0
-7048 -19 0
-7048 39 0
-7048 -56 0
-7048 -71 0
-7048 95 0
-7048 -100 0
-7048 -116 0
-7048 -126 0
-7048 -133 0
7048 -16 19 -39 56 71 -95 100 116 126 133 0
-7049 16 0
-7049 -19 0
-7049 39 0
-7049 -56 0
-7049 -75 0
-7049 95 0
-7049 -100 0
-7049 -116 0
-7049 -126 0
-7049 -133 0
7049 -16 19 -39 56 75 -95 100 116 126 133 0
-7050 16 0
-7050 -19 0
-7050 39 0
-7050 -56 0
-7050 -72 0
-7050 -94 0
-7050 -100 0
-7050 -101 0
-7050 -116 0
-7050 -126 0
-7050 -133 0
7050 -16 19 -39 56 72 94 100 101 116 126 133 0
-7051 16 0
-7051 -19 0
-7051 39 0
-7051 -56 0
-7051 -70 0
-7051 -94 0
-7051 -100 0
-7051 -101 0
-7051 -116 0
-7051 -126 0
-7051 -133 0
7051 -16 19 -39 56 70 94 100 101 116 126 133 0
-7052 16 0
-7052 -19 0
-7052 39 0
-7052 -56 0
-7052 -74 0
-7052 -94 0
-7052 -100 0
-7052 -101 0
-7052 -116 0
-7052 -126 0
-7052 -133 0
7052 -16 19 -39 56 74 94 100 101 116 126 133 0
-7053 16 0
-7053 -19 0
-7053 39 0
-7053 -56 0
-7053 -67 0
-7053 -94 0
-7053 -100 0
-7053 -101 0
-7053 -116 0
-7053 -126 0
-7053 -133 0
7053 -16 19 -39 56 67 94 100 101 116 126 133 0
-7054 16 0
-7054 -19 0
-7054 39 0
-7054 -56 0
-7054 -73 0
-7054 -94 0
-7054 -100 0
-7054 -101 0
-7054 -116 0
-7054 -126 0
-7054 -133 0
7054 -16 19 -39 56 73 94 100 101 116 126 133 0
-7055 16 0
-7055 -19 0
-7055 39 0
-7055 -56 0
-7055 -71 0
-7055 -94 0
-7055 -100 0
-7055 -101 0
-7055 -116 0
-7055 -126 0
-7055 -133 0
7055 -16 19 -39 56 71 94 100 101 116 126 133 0
-7056 16 0
-7056 -19 0
-7056 39 0
-7056 -56 0
-7056 -75 0
-7056 -94 0
-7056 -100 0
-7056 -101 0
-7056 -116 0
-7056 -126 0
-7056 -133 0
7056 -16 19 -39 56 75 94 100 101 116 126 133 0
-7057 16 0
-7057 -19 0
-7057 39 0
-7057 -81 0
-7057 -94 0
-7057 -100 0
-7057 -101 0
-7057 -116 0
-7057 -126 0
-7057 -133 0
7057 -16 19 -39 81 94 100 101 116 126 133 0
-7058 16 0
-7058 -19 0
-7058 39 0
-7058 -79 0
-7058 -94 0
-7058 -100 0
-7058 -101 0
-7058 -116 0
-7058 -126 0
-7058 -133 0
7058 -16 19 -39 79 94 100 101 116 126 133 0
-7059 16 0
-7059 -19 0
-7059 39 0
-7059 -83 0
-7059 -94 0
-7059 -100 0
-7059 -101 0
-7059 -116 0
-7059 -126 0
-7059 -133 0
7059 -16 19 -39 83 94 100 101 116 126 133 0
-7060 16 0
-7060 -19 0
-7060 39 0
-7060 -76 0
-7060 -94 0
-7060 -100 0
-7060 -101 0
-7060 -116 0
-7060 -126 0
-7060 -133 0
7060 -16 19 -39 76 94 100 101 116 126 133 0
-7061 16 0
-7061 -19 0
-7061 39 0
-7061 -82 0
-7061 -94 0
-7061 -100 0
-7061 -101 0
-7061 -116 0
-7061 -126 0
-7061 -133 0
7061 -16 19 -39 82 94 100 101 116 126 133 0
-7062 16 0
-7062 -19 0
-7062 39 0
-7062 -78 0
-7062 -94 0
-7062 -100 0
-7062 -101 0
-7062 -116 0
-7062 -126 0
-7062 -133 0
7062 -16 19 -39 78 94 100 101 116 126 133 0
-7063 16 0
-7063 -19 0
-7063 39 0
-7063 -84 0
-7063 -94 0
-7063 -100 0
-7063 -101 0
-7063 -116 0
-7063 -126 0
-7063 -133 0
7063 -16 19 -39 84 94 100 101 116 126 133 0
-7064 16 0
-7064 -19 0
-7064 39 0
-7064 -77 0
-7064 -94 0
-7064 -100 0
-7064 -101 0
-7064 -116 0
-7064 -126 0
-7064 -133 0
7064 -16 19 -39 77 94 100 101 116 126 133 0
-7065 16 0
-7065 -19 0
-7065 39 0
-7065 -56 0
-7065 -62 0
-7065 -94 0
-7065 -100 0
-7065 -101 0
-7065 -116 0
-7065 -126 0
-7065 -133 0
7065 -16 19 -39 56 62 94 100 101 116 126 133 0
-7066 16 0
-7066 -19 0
-7066 39 0
-7066 -94 0
-7066 -110 0
-7066 -116 0
-7066 -133 0
-7066 134 0
-7066 -164 0
7066 -16 19 -39 94 110 116 133 -134 164 0
-7067 16 0
-7067 -19 0
-7067 39 0
-7067 -56 0
-7067 -62 0
-7067 -94 0
-7067 -110 0
-7067 -116 0
-7067 -133 0
-7067 134 0
7067 -16 19 -39 56 62 94 110 116 133 -134 0
-7068 16 0
-7068 -19 0
-7068 39 0
-7068 -81 0
-7068 -94 0
-7068 -110 0
-7068 -116 0
-7068 -133 0
-7068 134 0
7068 -16 19 -39 81 94 110 116 133 -134 0
-7069 16 0
-7069 -19 0
-7069 39 0
-7069 -79 0
-7069 -94 0
-7069 -110 0
-7069 -116 0
-7069 -133 0
-7069 134 0
7069 -16 19 -39 79 94 110 116 133 -134 0
-7070 16 0
-7070 -19 0
-7070 39 0
-7070 -76 0
-7070 -94 0
-7070 -110 0
-7070 -116 0
-7070 -133 0
-7070 134 0
7070 -16 19 -39 76 94 110 116 133 -134 0
-7071 16 0
-7071 -19 0
-7071 39 0
-7071 -82 0
-7071 -94 0
-7071 -110 0
-7071 -116 0
-7071 -133 0
-7071 134 0
7071 -16 19 -39 82 94 110 116 133 -134 0
-7072 16 0
-7072 -19 0
-7072 39 0
-7072 -78 0
-7072 -94 0
-7072 -110 0
-7072 -116 0
-7072 -133 0
-7072 134 0
7072 -16 19 -39 78 94 110 116 133 -134 0
-7073 16 0
-7073 -19 0
-7073 39 0
-7073 -84 0
-7073 -94 0
-7073 -110 0
-7073 -116 0
-7073 -133 0
-7073 134 0
7073 -16 19 -39 84 94 110 116 133 -134 0
-7074 16 0
-7074 -19 0
-7074 39 0
-7074 -77 0
-7074 -94 0
-7074 -110 0
-7074 -116 0
-7074 -133 0
-7074 134 0
7074 -16 19 -39 77 94 110 116 133 -134 0
-7075 16 0
-7075 -19 0
-7075 39 0
-7075 -54 0
-7075 -61 0
-7075 -94 0
-7075 -110 0
-7075 -116 0
-7075 -133 0
-7075 134 0
7075 -16 19 -39 54 61 94 110 116 133 -134 0
-7076 16 0
-7076 -19 0
-7076 39 0
-7076 -56 0
-7076 -70 0
-7076 -94 0
-7076 -110 0
-7076 -116 0
-7076 -133 0
-7076 134 0
7076 -16 19 -39 56 70 94 110 116 133 -134 0
-7077 16 0
-7077 -19 0
-7077 39 0
-7077 -56 0
-7077 -74 0
-7077 -94 0
-7077 -110 0
-7077 -116 0
-7077 -133 0
-7077 134 0
7077 -16 19 -39 56 74 94 110 116 133 -134 0
-7078 16 0
-7078 -19 0
-7078 39 0
-7078 -56 0
-7078 -67 0
-7078 -94 0
-7078 -110 0
-7078 -116 0
-7078 -133 0
-7078 134 0
7078 -16 19 -39 56 67 94 110 116 133 -134 0
-7079 16 0
-7079 -19 0
-7079 39 0
-7079 -56 0
-7079 -73 0
-7079 -94 0
-7079 -110 0
-7079 -116 0
-7079 -133 0
-7079 134 0
7079 -16 19 -39 56 73 94 110 116 133 -134 0
-7080 16 0
-7080 -19 0
-7080 39 0
-7080 -56 0
-7080 -71 0
-7080 -94 0
-7080 -110 0
-7080 -116 0
-7080 -133 0
-7080 134 0
7080 -16 19 -39 56 71 94 110 116 133 -134 0
-7081 16 0
-7081 -19 0
-7081 39 0
-7081 -56 0
-7081 -75 0
-7081 -94 0
-7081 -110 0
-7081 -116 0
-7081 -133 0
-7081 134 0
7081 -16 19 -39 56 75 94 110 116 133 -134 0
-7082 16 0
-7082 -19 0
-7082 39 0
-7082 -56 0
-7082 -68 0
-7082 -94 0
-7082 -110 0
-7082 -116 0
-7082 -133 0
-7082 134 0
7082 -16 19 -39 56 68 94 110 116 133 -134 0
-7083 16 0
-7083 -19 0
-7083 39 0
-7083 -56 0
-7083 -72 0
-7083 -94 0
-7083 -110 0
-7083 -116 0
-7083 -133 0
-7083 134 0
7083 -16 19 -39 56 72 94 110 116 133 -134 0
-7084 16 0
-7084 -19 0
-7084 39 0
-7084 -79 0
-7084 -94 0
-7084 -101 0
-7084 -116 0
-7084 -133 0
-7084 134 0
7084 -16 19 -39 79 94 101 116 133 -134 0
-7085 16 0
-7085 -19 0
-7085 39 0
-7085 -76 0
-7085 -94 0
-7085 -101 0
-7085 -116 0
-7085 -133 0
-7085 134 0
7085 -16 19 -39 76 94 101 116 133 -134 0
-7086 16 0
-7086 -19 0
-7086 39 0
-7086 -82 0
-7086 -94 0
-7086 -101 0
-7086 -116 0
-7086 -133 0
-7086 134 0
7086 -16 19 -39 82 94 101 116 133 -134 0
-7087 16 0
-7087 -19 0
-7087 39 0
-7087 -78 0
-7087 -94 0
-7087 -101 0
-7087 -116 0
-7087 -133 0
-7087 134 0
7087 -16 19 -39 78 94 101 116 133 -134 0
-7088 16 0
-7088 -19 0
-7088 39 0
-7088 -84 0
-7088 -94 0
-7088 -101 0
-7088 -116 0
-7088 -133 0
-7088 134 0
7088 -16 19 -39 84 94 101 116 133 -134 0
-7089 16 0
-7089 -19 0
-7089 39 0
-7089 -77 0
-7089 -94 0
-7089 -101 0
-7089 -116 0
-7089 -133 0
-7089 134 0
7089 -16 19 -39 77 94 101 116 133 -134 0
-7090 16 0
-7090 -19 0
-7090 39 0
-7090 -81 0
-7090 -94 0
-7090 -101 0
-7090 -116 0
-7090 -133 0
-7090 134 0
7090 -16 19 -39 81 94 101 116 133 -134 0
-7091 16 0
-7091 -19 0
-7091 39 0
-7091 -79 0
-7091 95 0
-7091 -116 0
-7091 -133 0
-7091 134 0
7091 -16 19 -39 79 -95 116 133 -134 0
-7092 16 0
-7092 -19 0
-7092 39 0
-7092 -76 0
-7092 95 0
-7092 -116 0
-7092 -133 0
-7092 134 0
7092 -16 19 -39 76 -95 116 133 -134 0
-7093 16 0
-7093 -19 0
-7093 39 0
-7093 -82 0
-7093 95 0
-7093 -116 0
-7093 -133 0
-7093 134 0
7093 -16 19 -39 82 -95 116 133 -134 0
-7094 16 0
-7094 -19 0
-7094 39 0
-7094 -78 0
-7094 95 0
-7094 -116 0
-7094 -133 0
-7094 134 0
7094 -16 19 -39 78 -95 116 133 -134 0
-7095 16 0
-7095 -19 0
-7095 39 0
-7095 -84 0
-7095 95 0
-7095 -116 0
-7095 -133 0
-7095 134 0
7095 -16 19 -39 84 -95 116 133 -134 0
-7096 16 0
-7096 -19 0
-7096 39 0
-7096 -77 0
-7096 95 0
-7096 -116 0
-7096 -133 0
-7096 134 0
7096 -16 19 -39 77 -95 116 133 -134 0
-7097 16 0
-7097 -19 0
-7097 39 0
-7097 -54 0
-7097 -61 0
-7097 95 0
-7097 -116 0
-7097 -133 0
-7097 134 0
7097 -16 19 -39 54 61 -95 116 133 -134 0
-7098 16 0
-7098 -19 0
-7098 39 0
-7098 95 0
-7098 -116 0
-7098 -133 0
-7098 134 0
-7098 -164 0
7098 -16 19 -39 -95 116 133 -134 164 0
-7099 16 0
-7099 -19 0
-7099 39 0
-7099 -81 0
-7099 95 0
-7099 -116 0
-7099 -133 0
-7099 134 0
7099 -16 19 -39 81 -95 116 133 -134 0
-7100 16 0
-7100 -19 0
-7100 39 0
-7100 -56 0
-7100 -62 0
-7100 95 0
-7100 -116 0
-7100 -133 0
-7100 134 0
7100 -16 19 -39 56 62 -95 116 133 -134 0
-7101 16 0
-7101 -19 0
-7101 39 0
-7101 -56 0
-7101 -70 0
-7101 95 0
-7101 -116 0
-7101 -133 0
-7101 134 0
7101 -16 19 -39 56 70 -95 116 133 -134 0
-7102 16 0
-7102 -19 0
-7102 39 0
-7102 -56 0
-7102 -74 0
-7102 95 0
-7102 -116 0
-7102 -133 0
-7102 134 0
7102 -16 19 -39 56 74 -95 116 133 -134 0
-7103 16 0
-7103 -19 0
-7103 39 0
-7103 -56 0
-7103 -67 0
-7103 95 0
-7103 -116 0
-7103 -133 0
-7103 134 0
7103 -16 19 -39 56 67 -95 116 133 -134 0
-7104 16 0
-7104 -19 0
-7104 39 0
-7104 -56 0
-7104 -73 0
-7104 95 0
-7104 -116 0
-7104 -133 0
-7104 134 0
7104 -16 19 -39 56 73 -95 116 133 -134 0
-7105 16 0
-7105 -19 0
-7105 39 0
-7105 -56 0
-7105 -71 0
-7105 95 0
-7105 -116 0
-7105 -133 0
-7105 134 0
7105 -16 19 -39 56 71 -95 116 133 -134 0
-7106 16 0
-7106 -19 0
-7106 39 0
-7106 -56 0
-7106 -75 0
-7106 95 0
-7106 -116 0
-7106 -133 0
-7106 134 0
7106 -16 19 -39 56 75 -95 116 133 -134 0
-7107 16 0
-7107 -19 0
-7107 39 0
-7107 -56 0
-7107 -68 0
-7107 95 0
-7107 -116 0
-7107 -133 0
-7107 134 0
7107 -16 19 -39 56 68 -95 116 133 -134 0
-7108 16 0
-7108 -19 0
-7108 39 0
-7108 -56 0
-7108 -72 0
-7108 95 0
-7108 -116 0
-7108 -133 0
-7108 134 0
7108 -16 19 -39 56 72 -95 116 133 -134 0
-7109 16 0
-7109 -19 0
-7109 39 0
-7109 -56 0
-7109 -70 0
-7109 -94 0
-7109 -101 0
-7109 -116 0
-7109 -133 0
-7109 134 0
7109 -16 19 -39 56 70 94 101 116 133 -134 0
-7110 16 0
-7110 -19 0
-7110 39 0
-7110 -56 0
-7110 -70 0
-7110 94 0
-7110 110 0
-7110 -116 0
-7110 -133 0
-7110 134 0
7110 -16 19 -39 56 70 -94 -110 116 133 -134 0
-7111 16 0
-7111 -19 0
-7111 39 0
-7111 -56 0
-7111 -70 0
-7111 94 0
-7111 101 0
-7111 -116 0
-7111 -133 0
-7111 134 0
7111 -16 19 -39 56 70 -94 -101 116 133 -134 0
-7112 16 0
-7112 -19 0
-7112 39 0
-7112 -54 0
-7112 -56 0
-7112 -94 0
-7112 -101 0
-7112 -116 0
-7112 -133 0
-7112 134 0
7112 -16 19 -39 54 56 94 101 116 133 -134 0
-7113 16 0
-7113 -19 0
-7113 39 0
-7113 -94 0
-7113 -101 0
-7113 -116 0
-7113 -133 0
-7113 134 0
-7113 -164 0
7113 -16 19 -39 94 101 116 133 -134 164 0
-7114 16 0
-7114 -19 0
-7114 39 0
-7114 -56 0
-7114 -62 0
-7114 -94 0
-7114 -101 0
-7114 -116 0
-7114 -133 0
-7114 134 0
7114 -16 19 -39 56 62 94 101 116 133 -134 0
-7115 16 0
-7115 -19 0
-7115 39 0
-7115 -56 0
-7115 -74 0
-7115 -94 0
-7115 -101 0
-7115 -116 0
-7115 -133 0
-7115 134 0
7115 -16 19 -39 56 74 94 101 116 133 -134 0
-7116 16 0
-7116 -19 0
-7116 39 0
-7116 -56 0
-7116 -67 0
-7116 -94 0
-7116 -101 0
-7116 -116 0
-7116 -133 0
-7116 134 0
7116 -16 19 -39 56 67 94 101 116 133 -134 0
-7117 16 0
-7117 -19 0
-7117 39 0
-7117 -56 0
-7117 -73 0
-7117 -94 0
-7117 -101 0
-7117 -116 0
-7117 -133 0
-7117 134 0
7117 -16 19 -39 56 73 94 101 116 133 -134 0
-7118 16 0
-7118 -19 0
-7118 39 0
-7118 -56 0
-7118 -71 0
-7118 -94 0
-7118 -101 0
-7118 -116 0
-7118 -133 0
-7118 134 0
7118 -16 19 -39 56 71 94 101 116 133 -134 0
-7119 16 0
-7119 -19 0
-7119 39 0
-7119 -56 0
-7119 -75 0
-7119 -94 0
-7119 -101 0
-7119 -116 0
-7119 -133 0
-7119 134 0
7119 -16 19 -39 56 75 94 101 116 133 -134 0
-7120 16 0
-7120 -19 0
-7120 39 0
-7120 -56 0
-7120 -68 0
-7120 -94 0
-7120 -101 0
-7120 -116 0
-7120 -133 0
-7120 134 0
7120 -16 19 -39 56 68 94 101 116 133 -134 0
-7121 16 0
-7121 -19 0
-7121 39 0
-7121 -56 0
-7121 -72 0
-7121 -94 0
-7121 -101 0
-7121 -116 0
-7121 -133 0
-7121 134 0
7121 -16 19 -39 56 72 94 101 116 133 -134 0
-7122 16 0
-7122 -19 0
-7122 39 0
-7122 -54 0
-7122 -57 0
-7122 -58 0
-7122 -94 0
-7122 -101 0
-7122 -116 0
-7122 -133 0
-7122 134 0
7122 -16 19 -39 54 57 58 94 101 116 133 -134 0
-7123 16 0
-7123 -19 0
-7123 39 0
-7123 -54 0
-7123 -61 0
-7123 -94 0
-7123 -101 0
-7123 -116 0
-7123 -133 0
-7123 134 0
7123 -16 19 -39 54 61 94 101 116 133 -134 0
-7124 16 0
-7124 -19 0
-7124 39 0
-7124 -54 0
-7124 -57 0
-7124 -58 0
-7124 -94 0
-7124 -116 0
-7124 -133 0
-7124 134 0
-7124 -140 0
7124 -16 19 -39 54 57 58 94 116 133 -134 140 0
-7125 16 0
-7125 -19 0
-7125 39 0
-7125 -54 0
-7125 -61 0
-7125 -94 0
-7125 -116 0
-7125 -133 0
-7125 134 0
-7125 -140 0
7125 -16 19 -39 54 61 94 116 133 -134 140 0
-7126 16 0
-7126 -19 0
-7126 39 0
-7126 -57 0
-7126 -58 0
-7126 -62 0
-7126 -94 0
-7126 -116 0
-7126 -133 0
-7126 134 0
-7126 -140 0
7126 -16 19 -39 57 58 62 94 116 133 -134 140 0
-7127 16 0
-7127 -19 0
-7127 39 0
-7127 -61 0
-7127 -62 0
-7127 -94 0
-7127 -116 0
-7127 -133 0
-7127 134 0
-7127 -140 0
7127 -16 19 -39 61 62 94 116 133 -134 140 0
-7128 16 0
-7128 -19 0
-7128 39 0
-7128 -57 0
-7128 -58 0
-7128 64 0
-7128 -94 0
-7128 -116 0
-7128 -133 0
-7128 134 0
-7128 -140 0
7128 -16 19 -39 57 58 -64 94 116 133 -134 140 0
-7129 16 0
-7129 -19 0
-7129 39 0
-7129 62 0
-7129 64 0
-7129 -94 0
-7129 -116 0
-7129 -133 0
-7129 134 0
-7129 -140 0
7129 -16 19 -39 -62 -64 94 116 133 -134 140 0
-7130 16 0
-7130 -19 0
-7130 39 0
-7130 -54 0
-7130 -61 0
-7130 94 0
-7130 101 0
-7130 -116 0
-7130 -133 0
-7130 134 0
7130 -16 19 -39 54 61 -94 -101 116 133 -134 0
-7131 16 0
-7131 -19 0
-7131 39 0
-7131 -54 0
-7131 -61 0
-7131 94 0
-7131 110 0
-7131 -116 0
-7131 -133 0
-7131 134 0
7131 -16 19 -39 54 61 -94 -110 116 133 -134 0
-7132 16 0
-7132 -19 0
-7132 39 0
-7132 -56 0
-7132 -74 0
-7132 94 0
-7132 110 0
-7132 -116 0
-7132 -133 0
-7132 134 0
7132 -16 19 -39 56 74 -94 -110 116 133 -134 0
-7133 16 0
-7133 -19 0
-7133 39 0
-7133 -56 0
-7133 -67 0
-7133 94 0
-7133 110 0
-7133 -116 0
-7133 -133 0
-7133 134 0
7133 -16 19 -39 56 67 -94 -110 116 133 -134 0
-7134 16 0
-7134 -19 0
-7134 39 0
-7134 -56 0
-7134 -73 0
-7134 94 0
-7134 110 0
-7134 -116 0
-7134 -133 0
-7134 134 0
7134 -16 19 -39 56 73 -94 -110 116 133 -134 0
-7135 16 0
-7135 -19 0
-7135 39 0
-7135 -56 0
-7135 -71 0
-7135 94 0
-7135 110 0
-7135 -116 0
-7135 -133 0
-7135 134 0
7135 -16 19 -39 56 71 -94 -110 116 133 -134 0
-7136 16 0
-7136 -19 0
-7136 39 0
-7136 -56 0
-7136 -75 0
-7136 94 0
-7136 110 0
-7136 -116 0
-7136 -133 0
-7136 134 0
7136 -16 19 -39 56 75 -94 -110 116 133 -134 0
-7137 16 0
-7137 -19 0
-7137 39 0
-7137 -56 0
-7137 -68 0
-7137 94 0
-7137 110 0
-7137 -116 0
-7137 -133 0
-7137 134 0
7137 -16 19 -39 56 68 -94 -110 116 133 -134 0
-7138 16 0
-7138 -19 0
-7138 39 0
-7138 -56 0
-7138 -72 0
-7138 94 0
-7138 110 0
-7138 -116 0
-7138 -133 0
-7138 134 0
7138 -16 19 -39 56 72 -94 -110 116 133 -134 0
-7139 16 0
-7139 -19 0
-7139 39 0
-7139 -76 0
-7139 94 0
-7139 110 0
-7139 -116 0
-7139 -133 0
-7139 134 0
7139 -16 19 -39 76 -94 -110 116 133 -134 0
-7140 16 0
-7140 -19 0
-7140 39 0
-7140 94 0
-7140 110 0
-7140 -116 0
-7140 -133 0
-7140 134 0
-7140 -164 0
7140 -16 19 -39 -94 -110 116 133 -134 164 0
-7141 16 0
-7141 -19 0
-7141 39 0
-7141 -56 0
-7141 -62 0
-7141 94 0
-7141 110 0
-7141 -116 0
-7141 -133 0
-7141 134 0
7141 -16 19 -39 56 62 -94 -110 116 133 -134 0
-7142 16 0
-7142 -19 0
-7142 39 0
-7142 -82 0
-7142 94 0
-7142 110 0
-7142 -116 0
-7142 -133 0
-7142 134 0
7142 -16 19 -39 82 -94 -110 116 133 -134 0
-7143 16 0
-7143 -19 0
-7143 39 0
-7143 -78 0
-7143 94 0
-7143 110 0
-7143 -116 0
-7143 -133 0
-7143 134 0
7143 -16 19 -39 78 -94 -110 116 133 -134 0
-7144 16 0
-7144 -19 0
-7144 39 0
-7144 -84 0
-7144 94 0
-7144 110 0
-7144 -116 0
-7144 -133 0
-7144 134 0
7144 -16 19 -39 84 -94 -110 116 133 -134 0
-7145 16 0
-7145 -19 0
-7145 39 0
-7145 -77 0
-7145 94 0
-7145 110 0
-7145 -116 0
-7145 -133 0
-7145 134 0
7145 -16 19 -39 77 -94 -110 116 133 -134 0
-7146 16 0
-7146 -19 0
-7146 39 0
-7146 -81 0
-7146 94 0
-7146 110 0
-7146 -116 0
-7146 -133 0
-7146 134 0
7146 -16 19 -39 81 -94 -110 116 133 -134 0
-7147 16 0
-7147 -19 0
-7147 39 0
-7147 -79 0
-7147 94 0
-7147 110 0
-7147 -116 0
-7147 -133 0
-7147 134 0
7147 -16 19 -39 79 -94 -110 116 133 -134 0
-7148 16 0
-7148 -19 0
-7148 39 0
-7148 -56 0
-7148 -74 0
-7148 94 0
-7148 101 0
-7148 -116 0
-7148 -133 0
-7148 134 0
7148 -16 19 -39 56 74 -94 -101 116 133 -134 0
-7149 16 0
-7149 -19 0
-7149 39 0
-7149 -56 0
-7149 -67 0
-7149 94 0
-7149 101 0
-7149 -116 0
-7149 -133 0
-7149 134 0
7149 -16 19 -39 56 67 -94 -101 116 133 -134 0
-7150 16 0
-7150 -19 0
-7150 39 0
-7150 -56 0
-7150 -73 0
-7150 94 0
-7150 101 0
-7150 -116 0
-7150 -133 0
-7150 134 0
7150 -16 19 -39 56 73 -94 -101 116 133 -134 0
-7151 16 0
-7151 -19 0
-7151 39 0
-7151 -56 0
-7151 -71 0
-7151 94 0
-7151 101 0
-7151 -116 0
-7151 -133 0
-7151 134 0
7151 -16 19 -39 56 71 -94 -101 116 133 -134 0
-7152 16 0
-7152 -19 0
-7152 39 0
-7152 -56 0
-7152 -75 0
-7152 94 0
-7152 101 0
-7152 -116 0
-7152 -133 0
-7152 134 0
7152 -16 19 -39 56 75 -94 -101 116 133 -134 0
-7153 16 0
-7153 -19 0
-7153 39 0
-7153 -56 0
-7153 -68 0
-7153 94 0
-7153 101 0
-7153 -116 0
-7153 -133 0
-7153 134 0
7153 -16 19 -39 56 68 -94 -101 116 133 -134 0
-7154 16 0
-7154 -19 0
-7154 39 0
-7154 -56 0
-7154 -72 0
-7154 94 0
-7154 101 0
-7154 -116 0
-7154 -133 0
-7154 134 0
7154 -16 19 -39 56 72 -94 -101 116 133 -134 0
-7155 16 0
-7155 -19 0
-7155 39 0
-7155 -76 0
-7155 94 0
-7155 101 0
-7155 -116 0
-7155 -133 0
-7155 134 0
7155 -16 19 -39 76 -94 -101 116 133 -134 0
-7156 16 0
-7156 -19 0
-7156 39 0
-7156 94 0
-7156 101 0
-7156 -116 0
-7156 -133 0
-7156 134 0
-7156 -164 0
7156 -16 19 -39 -94 -101 116 133 -134 164 0
-7157 16 0
-7157 -19 0
-7157 39 0
-7157 -56 0
-7157 -62 0
-7157 94 0
-7157 101 0
-7157 -116 0
-7157 -133 0
-7157 134 0
7157 -16 19 -39 56 62 -94 -101 116 133 -134 0
-7158 16 0
-7158 -19 0
-7158 39 0
-7158 -82 0
-7158 94 0
-7158 101 0
-7158 -116 0
-7158 -133 0
-7158 134 0
7158 -16 19 -39 82 -94 -101 116 133 -134 0
-7159 16 0
-7159 -19 0
-7159 39 0
-7159 -78 0
-7159 94 0
-7159 101 0
-7159 -116 0
-7159 -133 0
-7159 134 0
7159 -16 19 -39 78 -94 -101 116 133 -134 0
-7160 16 0
-7160 -19 0
-7160 39 0
-7160 -84 0
-7160 94 0
-7160 101 0
-7160 -116 0
-7160 -133 0
-7160 134 0
7160 -16 19 -39 84 -94 -101 116 133 -134 0
-7161 16 0
-7161 -19 0
-7161 39 0
-7161 -77 0
-7161 94 0
-7161 101 0
-7161 -116 0
-7161 -133 0
-7161 134 0
7161 -16 19 -39 77 -94 -101 116 133 -134 0
-7162 16 0
-7162 -19 0
-7162 39 0
-7162 -81 0
-7162 94 0
-7162 101 0
-7162 -116 0
-7162 -133 0
-7162 134 0
7162 -16 19 -39 81 -94 -101 116 133 -134 0
-7163 16 0
-7163 -19 0
-7163 39 0
-7163 -79 0
-7163 94 0
-7163 101 0
-7163 -116 0
-7163 -133 0
-7163 134 0
7163 -16 19 -39 79 -94 -101 116 133 -134 0
-7164 16 0
-7164 -19 0
-7164 39 0
-7164 -56 0
-7164 -74 0
-7164 94 0
-7164 -100 0
-7164 101 0
-7164 -116 0
-7164 -126 0
-7164 -133 0
7164 -16 19 -39 56 74 -94 100 -101 116 126 133 0
-7165 16 0
-7165 -19 0
-7165 39 0
-7165 -56 0
-7165 -67 0
-7165 94 0
-7165 -100 0
-7165 101 0
-7165 -116 0
-7165 -126 0
-7165 -133 0
7165 -16 19 -39 56 67 -94 100 -101 116 126 133 0
-7166 16 0
-7166 -19 0
-7166 39 0
-7166 -56 0
-7166 -73 0
-7166 94 0
-7166 -100 0
-7166 101 0
-7166 -116 0
-7166 -126 0
-7166 -133 0
7166 -16 19 -39 56 73 -94 100 -101 116 126 133 0
-7167 16 0
-7167 -19 0
-7167 39 0
-7167 -56 0
-7167 -71 0
-7167 94 0
-7167 -100 0
-7167 101 0
-7167 -116 0
-7167 -126 0
-7167 -133 0
7167 -16 19 -39 56 71 -94 100 -101 116 126 133 0
-7168 16 0
-7168 -19 0
-7168 39 0
-7168 -56 0
-7168 -75 0
-7168 94 0
-7168 -100 0
-7168 101 0
-7168 -116 0
-7168 -126 0
-7168 -133 0
7168 -16 19 -39 56 75 -94 100 -101 116 126 133 0
-7169 16 0
-7169 -19 0
-7169 39 0
-7169 -56 0
-7169 -68 0
-7169 94 0
-7169 -100 0
-7169 101 0
-7169 -116 0
-7169 -126 0
-7169 -133 0
7169 -16 19 -39 56 68 -94 100 -101 116 126 133 0
-7170 16 0
-7170 -19 0
-7170 39 0
-7170 -56 0
-7170 -72 0
-7170 94 0
-7170 -100 0
-7170 101 0
-7170 -116 0
-7170 -126 0
-7170 -133 0
7170 -16 19 -39 56 72 -94 100 -101 116 126 133 0
-7171 16 0
-7171 -19 0
-7171 39 0
-7171 -56 0
-7171 -70 0
-7171 94 0
-7171 -100 0
-7171 101 0
-7171 -116 0
-7171 -126 0
-7171 -133 0
7171 -16 19 -39 56 70 -94 100 -101 116 126 133 0
-7172 16 0
-7172 -19 0
-7172 39 0
-7172 -83 0
-7172 94 0
-7172 -100 0
-7172 101 0
-7172 -116 0
-7172 -126 0
-7172 -133 0
7172 -16 19 -39 83 -94 100 -101 116 126 133 0
-7173 16 0
-7173 -19 0
-7173 39 0
-7173 -83 0
-7173 94 0
-7173 -100 0
-7173 110 0
-7173 -116 0
-7173 -126 0
-7173 -133 0
7173 -16 19 -39 83 -94 100 -110 116 126 133 0
-7174 16 0
-7174 -19 0
-7174 39 0
-7174 -76 0
-7174 94 0
-7174 -100 0
-7174 110 0
-7174 -116 0
-7174 -126 0
-7174 -133 0
7174 -16 19 -39 76 -94 100 -110 116 126 133 0
-7175 16 0
-7175 -19 0
-7175 39 0
-7175 -76 0
-7175 94 0
-7175 -100 0
-7175 101 0
-7175 -116 0
-7175 -126 0
-7175 -133 0
7175 -16 19 -39 76 -94 100 -101 116 126 133 0
-7176 16 0
-7176 -19 0
-7176 39 0
-7176 -82 0
-7176 94 0
-7176 -100 0
-7176 101 0
-7176 -116 0
-7176 -126 0
-7176 -133 0
7176 -16 19 -39 82 -94 100 -101 116 126 133 0
-7177 16 0
-7177 -19 0
-7177 39 0
-7177 -82 0
-7177 94 0
-7177 -100 0
-7177 110 0
-7177 -116 0
-7177 -126 0
-7177 -133 0
7177 -16 19 -39 82 -94 100 -110 116 126 133 0
-7178 16 0
-7178 -19 0
-7178 39 0
-7178 -78 0
-7178 94 0
-7178 -100 0
-7178 110 0
-7178 -116 0
-7178 -126 0
-7178 -133 0
7178 -16 19 -39 78 -94 100 -110 116 126 133 0
-7179 16 0
-7179 -19 0
-7179 39 0
-7179 -84 0
-7179 94 0
-7179 -100 0
-7179 110 0
-7179 -116 0
-7179 -126 0
-7179 -133 0
7179 -16 19 -39 84 -94 100 -110 116 126 133 0
-7180 16 0
-7180 -19 0
-7180 39 0
-7180 -77 0
-7180 94 0
-7180 -100 0
-7180 110 0
-7180 -116 0
-7180 -126 0
-7180 -133 0
7180 -16 19 -39 77 -94 100 -110 116 126 133 0
-7181 16 0
-7181 -19 0
-7181 39 0
-7181 -81 0
-7181 94 0
-7181 -100 0
-7181 110 0
-7181 -116 0
-7181 -126 0
-7181 -133 0
7181 -16 19 -39 81 -94 100 -110 116 126 133 0
-7182 16 0
-7182 -19 0
-7182 39 0
-7182 -79 0
-7182 94 0
-7182 -100 0
-7182 110 0
-7182 -116 0
-7182 -126 0
-7182 -133 0
7182 -16 19 -39 79 -94 100 -110 116 126 133 0
-7183 16 0
-7183 -19 0
-7183 39 0
-7183 -56 0
-7183 -74 0
-7183 94 0
-7183 -100 0
-7183 110 0
-7183 -116 0
-7183 -126 0
-7183 -133 0
7183 -16 19 -39 56 74 -94 100 -110 116 126 133 0
-7184 16 0
-7184 -19 0
-7184 39 0
-7184 -56 0
-7184 -67 0
-7184 94 0
-7184 -100 0
-7184 110 0
-7184 -116 0
-7184 -126 0
-7184 -133 0
7184 -16 19 -39 56 67 -94 100 -110 116 126 133 0
-7185 16 0
-7185 -19 0
-7185 39 0
-7185 -56 0
-7185 -73 0
-7185 94 0
-7185 -100 0
-7185 110 0
-7185 -116 0
-7185 -126 0
-7185 -133 0
7185 -16 19 -39 56 73 -94 100 -110 116 126 133 0
-7186 16 0
-7186 -19 0
-7186 39 0
-7186 -56 0
-7186 -71 0
-7186 94 0
-7186 -100 0
-7186 110 0
-7186 -116 0
-7186 -126 0
-7186 -133 0
7186 -16 19 -39 56 71 -94 100 -110 116 126 133 0
-7187 16 0
-7187 -19 0
-7187 39 0
-7187 -56 0
-7187 -75 0
-7187 94 0
-7187 -100 0
-7187 110 0
-7187 -116 0
-7187 -126 0
-7187 -133 0
7187 -16 19 -39 56 75 -94 100 -110 116 126 133 0
-7188 16 0
-7188 -19 0
-7188 39 0
-7188 -56 0
-7188 -68 0
-7188 94 0
-7188 -100 0
-7188 110 0
-7188 -116 0
-7188 -126 0
-7188 -133 0
7188 -16 19 -39 56 68 -94 100 -110 116 126 133 0
-7189 16 0
-7189 -19 0
-7189 39 0
-7189 -56 0
-7189 -72 0
-7189 94 0
-7189 -100 0
-7189 110 0
-7189 -116 0
-7189 -126 0
-7189 -133 0
7189 -16 19 -39 56 72 -94 100 -110 116 126 133 0
-7190 16 0
-7190 -19 0
-7190 39 0
-7190 -56 0
-7190 -70 0
-7190 94 0
-7190 -100 0
-7190 110 0
-7190 -116 0
-7190 -126 0
-7190 -133 0
7190 -16 19 -39 56 70 -94 100 -110 116 126 133 0
-7191 16 0
-7191 -17 0
-7191 39 0
-7191 -56 0
-7191 -70 0
-7191 -94 0
-7191 -100 0
-7191 -116 0
-7191 -126 0
-7191 -133 0
-7191 -140 0
7191 -16 17 -39 56 70 94 100 116 126 133 140 0
-7192 16 0
-7192 -17 0
-7192 39 0
-7192 -55 0
-7192 -61 0
-7192 -93 0
-7192 -100 0
-7192 -116 0
-7192 -126 0
-7192 -133 0
7192 -16 17 -39 55 61 93 100 116 126 133 0
-7193 16 0
-7193 -17 0
-7193 39 0
-7193 -61 0
-7193 -62 0
-7193 -93 0
-7193 -100 0
-7193 -116 0
-7193 -126 0
-7193 -133 0
7193 -16 17 -39 61 62 93 100 116 126 133 0
-7194 16 0
-7194 -17 0
-7194 39 0
-7194 -93 0
-7194 -100 0
-7194 -116 0
-7194 -126 0
-7194 -133 0
-7194 -164 0
7194 -16 17 -39 93 100 116 126 133 164 0
-7195 16 0
-7195 -17 0
-7195 39 0
-7195 -63 0
-7195 -93 0
-7195 -100 0
-7195 -116 0
-7195 -126 0
-7195 -133 0
7195 -16 17 -39 63 93 100 116 126 133 0
-7196 16 0
-7196 -17 0
-7196 39 0
-7196 -54 0
-7196 -61 0
-7196 -93 0
-7196 -100 0
-7196 -116 0
-7196 -126 0
-7196 -133 0
7196 -16 17 -39 54 61 93 100 116 126 133 0
-7197 16 0
-7197 -17 0
-7197 39 0
-7197 -80 0
-7197 -94 0
-7197 -100 0
-7197 -116 0
-7197 -126 0
-7197 -133 0
-7197 -140 0
7197 -16 17 -39 80 94 100 116 126 133 140 0
-7198 16 0
-7198 -17 0
-7198 39 0
-7198 -78 0
-7198 -94 0
-7198 -100 0
-7198 -116 0
-7198 -126 0
-7198 -133 0
-7198 -140 0
7198 -16 17 -39 78 94 100 116 126 133 140 0
-7199 16 0
-7199 -17 0
-7199 39 0
-7199 -84 0
-7199 -94 0
-7199 -100 0
-7199 -116 0
-7199 -126 0
-7199 -133 0
-7199 -140 0
7199 -16 17 -39 84 94 100 116 126 133 140 0
-7200 16 0
-7200 -17 0
-7200 39 0
-7200 -77 0
-7200 -94 0
-7200 -100 0
-7200 -116 0
-7200 -126 0
-7200 -133 0
-7200 -140 0
7200 -16 17 -39 77 94 100 116 126 133 140 0
-7201 16 0
-7201 -17 0
-7201 39 0
-7201 -81 0
-7201 -94 0
-7201 -100 0
-7201 -116 0
-7201 -126 0
-7201 -133 0
-7201 -140 0
7201 -16 17 -39 81 94 100 116 126 133 140 0
-7202 16 0
-7202 -17 0
-7202 39 0
-7202 -79 0
-7202 -94 0
-7202 -100 0
-7202 -116 0
-7202 -126 0
-7202 -133 0
-7202 -140 0
7202 -16 17 -39 79 94 100 116 126 133 140 0
-7203 16 0
-7203 -17 0
-7203 39 0
-7203 -55 0
-7203 -56 0
-7203 -94 0
-7203 -100 0
-7203 -116 0
-7203 -126 0
-7203 -133 0
-7203 -140 0
7203 -16 17 -39 55 56 94 100 116 126 133 140 0
-7204 16 0
-7204 -17 0
-7204 39 0
-7204 -54 0
-7204 -56 0
-7204 -94 0
-7204 -100 0
-7204 -116 0
-7204 -126 0
-7204 -133 0
-7204 -140 0
7204 -16 17 -39 54 56 94 100 116 126 133 140 0
-7205 16 0
-7205 -17 0
-7205 39 0
-7205 -94 0
-7205 -100 0
-7205 -116 0
-7205 -126 0
-7205 -133 0
-7205 -140 0
-7205 -164 0
7205 -16 17 -39 94 100 116 126 133 140 164 0
-7206 16 0
-7206 -17 0
-7206 39 0
-7206 65 0
-7206 -94 0
-7206 -100 0
-7206 -116 0
-7206 -126 0
-7206 -133 0
-7206 -140 0
7206 -16 17 -39 -65 94 100 116 126 133 140 0
-7207 16 0
-7207 -17 0
-7207 39 0
-7207 66 0
-7207 -94 0
-7207 -100 0
-7207 -116 0
-7207 -126 0
-7207 -133 0
-7207 -140 0
7207 -16 17 -39 -66 94 100 116 126 133 140 0
-7208 16 0
-7208 -17 0
-7208 39 0
-7208 -63 0
-7208 -94 0
-7208 -100 0
-7208 -116 0
-7208 -126 0
-7208 -133 0
-7208 -140 0
7208 -16 17 -39 63 94 100 116 126 133 140 0
-7209 16 0
-7209 -17 0
-7209 39 0
-7209 -56 0
-7209 -62 0
-7209 -94 0
-7209 -100 0
-7209 -116 0
-7209 -126 0
-7209 -133 0
-7209 -140 0
7209 -16 17 -39 56 62 94 100 116 126 133 140 0
-7210 16 0
-7210 -17 0
-7210 39 0
-7210 -56 0
-7210 64 0
-7210 -94 0
-7210 -100 0
-7210 -116 0
-7210 -126 0
-7210 -133 0
-7210 -140 0
7210 -16 17 -39 56 -64 94 100 116 126 133 140 0
-7211 16 0
-7211 -17 0
-7211 39 0
-7211 61 0
-7211 -64 0
-7211 -94 0
-7211 -100 0
-7211 -116 0
-7211 -126 0
-7211 -133 0
-7211 -140 0
7211 -16 17 -39 -61 64 94 100 116 126 133 140 0
-7212 16 0
-7212 -17 0
-7212 39 0
-7212 -83 0
-7212 -94 0
-7212 -100 0
-7212 -116 0
-7212 -126 0
-7212 -133 0
-7212 -140 0
7212 -16 17 -39 83 94 100 116 126 133 140 0
-7213 16 0
-7213 -17 0
-7213 39 0
-7213 -76 0
-7213 -94 0
-7213 -100 0
-7213 -116 0
-7213 -126 0
-7213 -133 0
-7213 -140 0
7213 -16 17 -39 76 94 100 116 126 133 140 0
-7214 16 0
-7214 -17 0
-7214 39 0
-7214 -82 0
-7214 -94 0
-7214 -100 0
-7214 -116 0
-7214 -126 0
-7214 -133 0
-7214 -140 0
7214 -16 17 -39 82 94 100 116 126 133 140 0
-7215 16 0
-7215 -17 0
-7215 39 0
-7215 -56 0
-7215 -67 0
-7215 -94 0
-7215 -100 0
-7215 -116 0
-7215 -126 0
-7215 -133 0
-7215 -140 0
7215 -16 17 -39 56 67 94 100 116 126 133 140 0
-7216 16 0
-7216 -17 0
-7216 39 0
-7216 -56 0
-7216 -73 0
-7216 -94 0
-7216 -100 0
-7216 -116 0
-7216 -126 0
-7216 -133 0
-7216 -140 0
7216 -16 17 -39 56 73 94 100 116 126 133 140 0
-7217 16 0
-7217 -17 0
-7217 39 0
-7217 -56 0
-7217 -71 0
-7217 -94 0
-7217 -100 0
-7217 -116 0
-7217 -126 0
-7217 -133 0
-7217 -140 0
7217 -16 17 -39 56 71 94 100 116 126 133 140 0
-7218 16 0
-7218 -17 0
-7218 39 0
-7218 -56 0
-7218 -69 0
-7218 -94 0
-7218 -100 0
-7218 -116 0
-7218 -126 0
-7218 -133 0
-7218 -140 0
7218 -16 17 -39 56 69 94 100 116 126 133 140 0
-7219 16 0
-7219 -17 0
-7219 39 0
-7219 -56 0
-7219 -75 0
-7219 -94 0
-7219 -100 0
-7219 -116 0
-7219 -126 0
-7219 -133 0
-7219 -140 0
7219 -16 17 -39 56 75 94 100 116 126 133 140 0
-7220 16 0
-7220 -17 0
-7220 39 0
-7220 -56 0
-7220 -68 0
-7220 -94 0
-7220 -100 0
-7220 -116 0
-7220 -126 0
-7220 -133 0
-7220 -140 0
7220 -16 17 -39 56 68 94 100 116 126 133 140 0
-7221 16 0
-7221 -17 0
-7221 39 0
-7221 -56 0
-7221 -72 0
-7221 -94 0
-7221 -100 0
-7221 -116 0
-7221 -126 0
-7221 -133 0
-7221 -140 0
7221 -16 17 -39 56 72 94 100 116 126 133 140 0
-7222 16 0
-7222 -17 0
-7222 39 0
-7222 -55 0
-7222 -56 0
-7222 -94 0
-7222 -100 0
-7222 -110 0
-7222 -116 0
-7222 -126 0
-7222 -133 0
7222 -16 17 -39 55 56 94 100 110 116 126 133 0
-7223 16 0
-7223 -17 0
-7223 39 0
-7223 -55 0
-7223 -56 0
-7223 -94 0
-7223 -100 0
-7223 -101 0
-7223 -116 0
-7223 -126 0
-7223 -133 0
7223 -16 17 -39 55 56 94 100 101 116 126 133 0
-7224 16 0
-7224 -17 0
-7224 39 0
-7224 -55 0
-7224 -61 0
-7224 -94 0
-7224 -100 0
-7224 -101 0
-7224 -116 0
-7224 -126 0
-7224 -133 0
7224 -16 17 -39 55 61 94 100 101 116 126 133 0
-7225 16 0
-7225 -17 0
-7225 39 0
-7225 -55 0
-7225 -56 0
-7225 95 0
-7225 -100 0
-7225 -116 0
-7225 -126 0
-7225 -133 0
7225 -16 17 -39 55 56 -95 100 116 126 133 0
-7226 16 0
-7226 -17 0
-7226 39 0
-7226 -54 0
-7226 -56 0
-7226 -94 0
-7226 -100 0
-7226 -110 0
-7226 -116 0
-7226 -126 0
-7226 -133 0
7226 -16 17 -39 54 56 94 100 110 116 126 133 0
-7227 16 0
-7227 -17 0
-7227 39 0
-7227 -94 0
-7227 -100 0
-7227 -110 0
-7227 -116 0
-7227 -126 0
-7227 -133 0
-7227 -164 0
7227 -16 17 -39 94 100 110 116 126 133 164 0
-7228 16 0
-7228 -17 0
-7228 39 0
-7228 65 0
-7228 -94 0
-7228 -100 0
-7228 -110 0
-7228 -116 0
-7228 -126 0
-7228 -133 0
7228 -16 17 -39 -65 94 100 110 116 126 133 0
-7229 16 0
-7229 -17 0
-7229 39 0
-7229 66 0
-7229 -94 0
-7229 -100 0
-7229 -110 0
-7229 -116 0
-7229 -126 0
-7229 -133 0
7229 -16 17 -39 -66 94 100 110 116 126 133 0
-7230 16 0
-7230 -17 0
-7230 39 0
-7230 -63 0
-7230 -94 0
-7230 -100 0
-7230 -110 0
-7230 -116 0
-7230 -126 0
-7230 -133 0
7230 -16 17 -39 63 94 100 110 116 126 133 0
-7231 16 0
-7231 -17 0
-7231 39 0
-7231 -56 0
-7231 -62 0
-7231 -94 0
-7231 -100 0
-7231 -110 0
-7231 -116 0
-7231 -126 0
-7231 -133 0
7231 -16 17 -39 56 62 94 100 110 116 126 133 0
-7232 16 0
-7232 -17 0
-7232 39 0
-7232 -56 0
-7232 64 0
-7232 -94 0
-7232 -100 0
-7232 -110 0
-7232 -116 0
-7232 -126 0
-7232 -133 0
7232 -16 17 -39 56 -64 94 100 110 116 126 133 0
-7233 16 0
-7233 -17 0
-7233 39 0
-7233 -56 0
-7233 -70 0
-7233 -94 0
-7233 -100 0
-7233 -110 0
-7233 -116 0
-7233 -126 0
-7233 -133 0
7233 -16 17 -39 56 70 94 100 110 116 126 133 0
-7234 16 0
-7234 -17 0
-7234 39 0
-7234 -80 0
-7234 -94 0
-7234 -100 0
-7234 -110 0
-7234 -116 0
-7234 -126 0
-7234 -133 0
7234 -16 17 -39 80 94 100 110 116 126 133 0
-7235 16 0
-7235 -17 0
-7235 39 0
-7235 -78 0
-7235 -94 0
-7235 -100 0
-7235 -110 0
-7235 -116 0
-7235 -126 0
-7235 -133 0
7235 -16 17 -39 78 94 100 110 116 126 133 0
-7236 16 0
-7236 -17 0
-7236 39 0
-7236 -84 0
-7236 -94 0
-7236 -100 0
-7236 -110 0
-7236 -116 0
-7236 -126 0
-7236 -133 0
7236 -16 17 -39 84 94 100 110 116 126 133 0
-7237 16 0
-7237 -17 0
-7237 39 0
-7237 -77 0
-7237 -94 0
-7237 -100 0
-7237 -110 0
-7237 -116 0
-7237 -126 0
-7237 -133 0
7237 -16 17 -39 77 94 100 110 116 126 133 0
-7238 16 0
-7238 -17 0
-7238 39 0
-7238 -81 0
-7238 -94 0
-7238 -100 0
-7238 -110 0
-7238 -116 0
-7238 -126 0
-7238 -133 0
7238 -16 17 -39 81 94 100 110 116 126 133 0
-7239 16 0
-7239 -17 0
-7239 39 0
-7239 -79 0
-7239 -94 0
-7239 -100 0
-7239 -110 0
-7239 -116 0
-7239 -126 0
-7239 -133 0
7239 -16 17 -39 79 94 100 110 116 126 133 0
-7240 16 0
-7240 -17 0
-7240 39 0
-7240 -83 0
-7240 -94 0
-7240 -100 0
-7240 -110 0
-7240 -116 0
-7240 -126 0
-7240 -133 0
7240 -16 17 -39 83 94 100 110 116 126 133 0
-7241 16 0
-7241 -17 0
-7241 39 0
-7241 -76 0
-7241 -94 0
-7241 -100 0
-7241 -110 0
-7241 -116 0
-7241 -126 0
-7241 -133 0
7241 -16 17 -39 76 94 100 110 116 126 133 0
-7242 16 0
-7242 -17 0
-7242 39 0
-7242 -82 0
-7242 -94 0
-7242 -100 0
-7242 -110 0
-7242 -116 0
-7242 -126 0
-7242 -133 0
7242 -16 17 -39 82 94 100 110 116 126 133 0
-7243 16 0
-7243 -17 0
-7243 39 0
-7243 -56 0
-7243 -67 0
-7243 -94 0
-7243 -100 0
-7243 -110 0
-7243 -116 0
-7243 -126 0
-7243 -133 0
7243 -16 17 -39 56 67 94 100 110 116 126 133 0
-7244 16 0
-7244 -17 0
-7244 39 0
-7244 -56 0
-7244 -73 0
-7244 -94 0
-7244 -100 0
-7244 -110 0
-7244 -116 0
-7244 -126 0
-7244 -133 0
7244 -16 17 -39 56 73 94 100 110 116 126 133 0
-7245 16 0
-7245 -17 0
-7245 39 0
-7245 -56 0
-7245 -71 0
-7245 -94 0
-7245 -100 0
-7245 -110 0
-7245 -116 0
-7245 -126 0
-7245 -133 0
7245 -16 17 -39 56 71 94 100 110 116 126 133 0
-7246 16 0
-7246 -17 0
-7246 39 0
-7246 -56 0
-7246 -69 0
-7246 -94 0
-7246 -100 0
-7246 -110 0
-7246 -116 0
-7246 -126 0
-7246 -133 0
7246 -16 17 -39 56 69 94 100 110 116 126 133 0
-7247 16 0
-7247 -17 0
-7247 39 0
-7247 -56 0
-7247 -75 0
-7247 -94 0
-7247 -100 0
-7247 -110 0
-7247 -116 0
-7247 -126 0
-7247 -133 0
7247 -16 17 -39 56 75 94 100 110 116 126 133 0
-7248 16 0
-7248 -17 0
-7248 39 0
-7248 -56 0
-7248 -68 0
-7248 -94 0
-7248 -100 0
-7248 -110 0
-7248 -116 0
-7248 -126 0
-7248 -133 0
7248 -16 17 -39 56 68 94 100 110 116 126 133 0
-7249 16 0
-7249 -17 0
-7249 39 0
-7249 -56 0
-7249 -72 0
-7249 -94 0
-7249 -100 0
-7249 -110 0
-7249 -116 0
-7249 -126 0
-7249 -133 0
7249 -16 17 -39 56 72 94 100 110 116 126 133 0
-7250 16 0
-7250 -17 0
-7250 39 0
-7250 65 0
-7250 -93 0
-7250 -100 0
-7250 -116 0
-7250 -126 0
-7250 -133 0
7250 -16 17 -39 -65 93 100 116 126 133 0
-7251 16 0
-7251 -17 0
-7251 39 0
-7251 65 0
-7251 -94 0
-7251 -100 0
-7251 -101 0
-7251 -116 0
-7251 -126 0
-7251 -133 0
7251 -16 17 -39 -65 94 100 101 116 126 133 0
-7252 16 0
-7252 -17 0
-7252 39 0
-7252 65 0
-7252 95 0
-7252 -100 0
-7252 -116 0
-7252 -126 0
-7252 -133 0
7252 -16 17 -39 -65 -95 100 116 126 133 0
-7253 16 0
-7253 -17 0
-7253 39 0
-7253 -54 0
-7253 -56 0
-7253 -94 0
-7253 -100 0
-7253 -101 0
-7253 -116 0
-7253 -126 0
-7253 -133 0
7253 -16 17 -39 54 56 94 100 101 116 126 133 0
-7254 16 0
-7254 -17 0
-7254 39 0
-7254 -54 0
-7254 -61 0
-7254 -94 0
-7254 -100 0
-7254 -101 0
-7254 -116 0
-7254 -126 0
-7254 -133 0
7254 -16 17 -39 54 61 94 100 101 116 126 133 0
-7255 16 0
-7255 -17 0
-7255 39 0
-7255 -54 0
-7255 -61 0
-7255 95 0
-7255 -100 0
-7255 -116 0
-7255 -126 0
-7255 -133 0
7255 -16 17 -39 54 61 -95 100 116 126 133 0
-7256 16 0
-7256 -17 0
-7256 39 0
-7256 -54 0
-7256 -61 0
-7256 -94 0
-7256 -100 0
-7256 -116 0
-7256 -126 0
-7256 -133 0
-7256 -140 0
7256 -16 17 -39 54 61 94 100 116 126 133 140 0
-7257 16 0
-7257 -17 0
-7257 39 0
-7257 -54 0
-7257 -61 0
-7257 -94 0
-7257 -100 0
-7257 -110 0
-7257 -116 0
-7257 -126 0
-7257 -133 0
7257 -16 17 -39 54 61 94 100 110 116 126 133 0
-7258 16 0
-7258 -17 0
-7258 39 0
-7258 -54 0
-7258 -61 0
-7258 94 0
-7258 -100 0
-7258 101 0
-7258 -116 0
-7258 -126 0
-7258 -133 0
7258 -16 17 -39 54 61 -94 100 -101 116 126 133 0
-7259 16 0
-7259 -17 0
-7259 39 0
-7259 -54 0
-7259 -61 0
-7259 94 0
-7259 -100 0
-7259 110 0
-7259 -116 0
-7259 -126 0
-7259 -133 0
7259 -16 17 -39 54 61 -94 100 -110 116 126 133 0
-7260 16 0
-7260 -17 0
-7260 39 0
-7260 -54 0
-7260 -61 0
-7260 94 0
-7260 -100 0
-7260 -116 0
-7260 -126 0
-7260 -133 0
-7260 140 0
7260 -16 17 -39 54 61 -94 100 116 126 133 -140 0
-7261 16 0
-7261 -17 0
-7261 39 0
-7261 94 0
-7261 -100 0
-7261 101 0
-7261 -116 0
-7261 -126 0
-7261 -133 0
-7261 -164 0
7261 -16 17 -39 -94 100 -101 116 126 133 164 0
-7262 16 0
-7262 -17 0
-7262 39 0
-7262 66 0
-7262 94 0
-7262 -100 0
-7262 101 0
-7262 -116 0
-7262 -126 0
-7262 -133 0
7262 -16 17 -39 -66 -94 100 -101 116 126 133 0
-7263 16 0
-7263 -17 0
-7263 39 0
-7263 -63 0
-7263 94 0
-7263 -100 0
-7263 101 0
-7263 -116 0
-7263 -126 0
-7263 -133 0
7263 -16 17 -39 63 -94 100 -101 116 126 133 0
-7264 16 0
-7264 -17 0
-7264 39 0
-7264 -61 0
-7264 -62 0
-7264 94 0
-7264 -100 0
-7264 101 0
-7264 -116 0
-7264 -126 0
-7264 -133 0
7264 -16 17 -39 61 62 -94 100 -101 116 126 133 0
-7265 16 0
-7265 -17 0
-7265 39 0
-7265 -61 0
-7265 64 0
-7265 94 0
-7265 -100 0
-7265 101 0
-7265 -116 0
-7265 -126 0
-7265 -133 0
7265 -16 17 -39 61 -64 -94 100 -101 116 126 133 0
-7266 16 0
-7266 -17 0
-7266 39 0
-7266 -80 0
-7266 94 0
-7266 -100 0
-7266 101 0
-7266 -116 0
-7266 -126 0
-7266 -133 0
7266 -16 17 -39 80 -94 100 -101 116 126 133 0
-7267 16 0
-7267 -17 0
-7267 39 0
-7267 -78 0
-7267 94 0
-7267 -100 0
-7267 101 0
-7267 -116 0
-7267 -126 0
-7267 -133 0
7267 -16 17 -39 78 -94 100 -101 116 126 133 0
-7268 16 0
-7268 -17 0
-7268 39 0
-7268 -84 0
-7268 94 0
-7268 -100 0
-7268 101 0
-7268 -116 0
-7268 -126 0
-7268 -133 0
7268 -16 17 -39 84 -94 100 -101 116 126 133 0
-7269 16 0
-7269 -17 0
-7269 39 0
-7269 -77 0
-7269 94 0
-7269 -100 0
-7269 101 0
-7269 -116 0
-7269 -126 0
-7269 -133 0
7269 -16 17 -39 77 -94 100 -101 116 126 133 0
-7270 16 0
-7270 -17 0
-7270 39 0
-7270 -81 0
-7270 94 0
-7270 -100 0
-7270 101 0
-7270 -116 0
-7270 -126 0
-7270 -133 0
7270 -16 17 -39 81 -94 100 -101 116 126 133 0
-7271 16 0
-7271 -17 0
-7271 39 0
-7271 -79 0
-7271 94 0
-7271 -100 0
-7271 101 0
-7271 -116 0
-7271 -126 0
-7271 -133 0
7271 -16 17 -39 79 -94 100 -101 116 126 133 0
-7272 16 0
-7272 -17 0
-7272 39 0
-7272 -83 0
-7272 94 0
-7272 -100 0
-7272 101 0
-7272 -116 0
-7272 -126 0
-7272 -133 0
7272 -16 17 -39 83 -94 100 -101 116 126 133 0
-7273 16 0
-7273 -17 0
-7273 39 0
-7273 -76 0
-7273 94 0
-7273 -100 0
-7273 101 0
-7273 -116 0
-7273 -126 0
-7273 -133 0
7273 -16 17 -39 76 -94 100 -101 116 126 133 0
-7274 16 0
-7274 -17 0
-7274 39 0
-7274 -82 0
-7274 94 0
-7274 -100 0
-7274 101 0
-7274 -116 0
-7274 -126 0
-7274 -133 0
7274 -16 17 -39 82 -94 100 -101 116 126 133 0
-7275 16 0
-7275 -17 0
-7275 39 0
-7275 -56 0
-7275 -70 0
-7275 94 0
-7275 -100 0
-7275 101 0
-7275 -116 0
-7275 -126 0
-7275 -133 0
7275 -16 17 -39 56 70 -94 100 -101 116 126 133 0
-7276 16 0
-7276 -17 0
-7276 39 0
-7276 -56 0
-7276 -67 0
-7276 94 0
-7276 -100 0
-7276 101 0
-7276 -116 0
-7276 -126 0
-7276 -133 0
7276 -16 17 -39 56 67 -94 100 -101 116 126 133 0
-7277 16 0
-7277 -17 0
-7277 39 0
-7277 -56 0
-7277 -73 0
-7277 94 0
-7277 -100 0
-7277 101 0
-7277 -116 0
-7277 -126 0
-7277 -133 0
7277 -16 17 -39 56 73 -94 100 -101 116 126 133 0
-7278 16 0
-7278 -17 0
-7278 39 0
-7278 -56 0
-7278 -71 0
-7278 94 0
-7278 -100 0
-7278 101 0
-7278 -116 0
-7278 -126 0
-7278 -133 0
7278 -16 17 -39 56 71 -94 100 -101 116 126 133 0
-7279 16 0
-7279 -17 0
-7279 39 0
-7279 -56 0
-7279 -69 0
-7279 94 0
-7279 -100 0
-7279 101 0
-7279 -116 0
-7279 -126 0
-7279 -133 0
7279 -16 17 -39 56 69 -94 100 -101 116 126 133 0
-7280 16 0
-7280 -17 0
-7280 39 0
-7280 -56 0
-7280 -75 0
-7280 94 0
-7280 -100 0
-7280 101 0
-7280 -116 0
-7280 -126 0
-7280 -133 0
7280 -16 17 -39 56 75 -94 100 -101 116 126 133 0
-7281 16 0
-7281 -17 0
-7281 39 0
-7281 -56 0
-7281 -68 0
-7281 94 0
-7281 -100 0
-7281 101 0
-7281 -116 0
-7281 -126 0
-7281 -133 0
7281 -16 17 -39 56 68 -94 100 -101 116 126 133 0
-7282 16 0
-7282 -17 0
-7282 39 0
-7282 -56 0
-7282 -72 0
-7282 94 0
-7282 -100 0
-7282 101 0
-7282 -116 0
-7282 -126 0
-7282 -133 0
7282 -16 17 -39 56 72 -94 100 -101 116 126 133 0
-7283 16 0
-7283 -17 0
-7283 39 0
-7283 -55 0
-7283 -56 0
-7283 94 0
-7283 -100 0
-7283 101 0
-7283 -116 0
-7283 -126 0
-7283 -133 0
7283 -16 17 -39 55 56 -94 100 -101 116 126 133 0
-7284 16 0
-7284 -17 0
-7284 39 0
-7284 65 0
-7284 94 0
-7284 -100 0
-7284 101 0
-7284 -116 0
-7284 -126 0
-7284 -133 0
7284 -16 17 -39 -65 -94 100 -101 116 126 133 0
-7285 16 0
-7285 -17 0
-7285 39 0
-7285 61 0
-7285 -64 0
-7285 94 0
-7285 -100 0
-7285 101 0
-7285 -116 0
-7285 -126 0
-7285 -133 0
7285 -16 17 -39 -61 64 -94 100 -101 116 126 133 0
-7286 16 0
-7286 -17 0
-7286 39 0
-7286 -56 0
-7286 64 0
-7286 94 0
-7286 -100 0
-7286 101 0
-7286 -116 0
-7286 -126 0
-7286 -133 0
7286 -16 17 -39 56 -64 -94 100 -101 116 126 133 0
-7287 16 0
-7287 -17 0
-7287 39 0
-7287 62 0
-7287 64 0
-7287 94 0
-7287 -100 0
-7287 101 0
-7287 -116 0
-7287 -126 0
-7287 -133 0
7287 -16 17 -39 -62 -64 -94 100 -101 116 126 133 0
-7288 16 0
-7288 -17 0
-7288 39 0
-7288 -57 0
-7288 -58 0
-7288 -62 0
-7288 94 0
-7288 -100 0
-7288 101 0
-7288 -116 0
-7288 -126 0
-7288 -133 0
7288 -16 17 -39 57 58 62 -94 100 -101 116 126 133 0
-7289 16 0
-7289 -17 0
-7289 39 0
-7289 -55 0
-7289 -57 0
-7289 -58 0
-7289 94 0
-7289 -100 0
-7289 101 0
-7289 -116 0
-7289 -126 0
-7289 -133 0
7289 -16 17 -39 55 57 58 -94 100 -101 116 126 133 0
-7290 16 0
-7290 -17 0
-7290 39 0
-7290 -55 0
-7290 -61 0
-7290 94 0
-7290 -100 0
-7290 101 0
-7290 -116 0
-7290 -126 0
-7290 -133 0
7290 -16 17 -39 55 61 -94 100 -101 116 126 133 0
-7291 16 0
-7291 -17 0
-7291 39 0
-7291 -55 0
-7291 -61 0
-7291 95 0
-7291 -100 0
-7291 -116 0
-7291 -126 0
-7291 -133 0
7291 -16 17 -39 55 61 -95 100 116 126 133 0
-7292 16 0
-7292 -17 0
-7292 39 0
-7292 -55 0
-7292 -61 0
-7292 94 0
-7292 -100 0
-7292 -116 0
-7292 -126 0
-7292 -133 0
-7292 140 0
7292 -16 17 -39 55 61 -94 100 116 126 133 -140 0
-7293 16 0
-7293 -17 0
-7293 39 0
-7293 -55 0
-7293 -61 0
-7293 94 0
-7293 -100 0
-7293 110 0
-7293 -116 0
-7293 -126 0
-7293 -133 0
7293 -16 17 -39 55 61 -94 100 -110 116 126 133 0
-7294 16 0
-7294 -17 0
-7294 39 0
-7294 -80 0
-7294 95 0
-7294 -100 0
-7294 -116 0
-7294 -126 0
-7294 -133 0
7294 -16 17 -39 80 -95 100 116 126 133 0
-7295 16 0
-7295 -17 0
-7295 39 0
-7295 -78 0
-7295 95 0
-7295 -100 0
-7295 -116 0
-7295 -126 0
-7295 -133 0
7295 -16 17 -39 78 -95 100 116 126 133 0
-7296 16 0
-7296 -17 0
-7296 39 0
-7296 -84 0
-7296 95 0
-7296 -100 0
-7296 -116 0
-7296 -126 0
-7296 -133 0
7296 -16 17 -39 84 -95 100 116 126 133 0
-7297 16 0
-7297 -17 0
-7297 39 0
-7297 -77 0
-7297 95 0
-7297 -100 0
-7297 -116 0
-7297 -126 0
-7297 -133 0
7297 -16 17 -39 77 -95 100 116 126 133 0
-7298 16 0
-7298 -17 0
-7298 39 0
-7298 -81 0
-7298 95 0
-7298 -100 0
-7298 -116 0
-7298 -126 0
-7298 -133 0
7298 -16 17 -39 81 -95 100 116 126 133 0
-7299 16 0
-7299 -17 0
-7299 39 0
-7299 -79 0
-7299 95 0
-7299 -100 0
-7299 -116 0
-7299 -126 0
-7299 -133 0
7299 -16 17 -39 79 -95 100 116 126 133 0
-7300 16 0
-7300 -17 0
-7300 39 0
-7300 -83 0
-7300 95 0
-7300 -100 0
-7300 -116 0
-7300 -126 0
-7300 -133 0
7300 -16 17 -39 83 -95 100 116 126 133 0
-7301 16 0
-7301 -17 0
-7301 39 0
-7301 -76 0
-7301 95 0
-7301 -100 0
-7301 -116 0
-7301 -126 0
-7301 -133 0
7301 -16 17 -39 76 -95 100 116 126 133 0
-7302 16 0
-7302 -17 0
-7302 39 0
-7302 -82 0
-7302 95 0
-7302 -100 0
-7302 -116 0
-7302 -126 0
-7302 -133 0
7302 -16 17 -39 82 -95 100 116 126 133 0
-7303 16 0
-7303 -17 0
-7303 39 0
-7303 -56 0
-7303 -70 0
-7303 95 0
-7303 -100 0
-7303 -116 0
-7303 -126 0
-7303 -133 0
7303 -16 17 -39 56 70 -95 100 116 126 133 0
-7304 16 0
-7304 -17 0
-7304 39 0
-7304 -56 0
-7304 -67 0
-7304 95 0
-7304 -100 0
-7304 -116 0
-7304 -126 0
-7304 -133 0
7304 -16 17 -39 56 67 -95 100 116 126 133 0
-7305 16 0
-7305 -17 0
-7305 39 0
-7305 -56 0
-7305 -73 0
-7305 95 0
-7305 -100 0
-7305 -116 0
-7305 -126 0
-7305 -133 0
7305 -16 17 -39 56 73 -95 100 116 126 133 0
-7306 16 0
-7306 -17 0
-7306 39 0
-7306 -56 0
-7306 -71 0
-7306 95 0
-7306 -100 0
-7306 -116 0
-7306 -126 0
-7306 -133 0
7306 -16 17 -39 56 71 -95 100 116 126 133 0
-7307 16 0
-7307 -17 0
-7307 39 0
-7307 -56 0
-7307 -69 0
-7307 95 0
-7307 -100 0
-7307 -116 0
-7307 -126 0
-7307 -133 0
7307 -16 17 -39 56 69 -95 100 116 126 133 0
-7308 16 0
-7308 -17 0
-7308 39 0
-7308 -56 0
-7308 -75 0
-7308 95 0
-7308 -100 0
-7308 -116 0
-7308 -126 0
-7308 -133 0
7308 -16 17 -39 56 75 -95 100 116 126 133 0
-7309 16 0
-7309 -17 0
-7309 39 0
-7309 -56 0
-7309 -68 0
-7309 95 0
-7309 -100 0
-7309 -116 0
-7309 -126 0
-7309 -133 0
7309 -16 17 -39 56 68 -95 100 116 126 133 0
-7310 16 0
-7310 -17 0
-7310 39 0
-7310 -56 0
-7310 -72 0
-7310 95 0
-7310 -100 0
-7310 -116 0
-7310 -126 0
-7310 -133 0
7310 -16 17 -39 56 72 -95 100 116 126 133 0
-7311 16 0
-7311 -17 0
-7311 39 0
-7311 95 0
-7311 -100 0
-7311 -116 0
-7311 -126 0
-7311 -133 0
-7311 -164 0
7311 -16 17 -39 -95 100 116 126 133 164 0
-7312 16 0
-7312 -17 0
-7312 39 0
-7312 66 0
-7312 95 0
-7312 -100 0
-7312 -116 0
-7312 -126 0
-7312 -133 0
7312 -16 17 -39 -66 -95 100 116 126 133 0
-7313 16 0
-7313 -17 0
-7313 39 0
-7313 -63 0
-7313 95 0
-7313 -100 0
-7313 -116 0
-7313 -126 0
-7313 -133 0
7313 -16 17 -39 63 -95 100 116 126 133 0
-7314 16 0
-7314 -17 0
-7314 39 0
-7314 -56 0
-7314 -62 0
-7314 95 0
-7314 -100 0
-7314 -116 0
-7314 -126 0
-7314 -133 0
7314 -16 17 -39 56 62 -95 100 116 126 133 0
-7315 16 0
-7315 -17 0
-7315 39 0
-7315 -56 0
-7315 64 0
-7315 95 0
-7315 -100 0
-7315 -116 0
-7315 -126 0
-7315 -133 0
7315 -16 17 -39 56 -64 -95 100 116 126 133 0
-7316 16 0
-7316 -17 0
-7316 39 0
-7316 61 0
-7316 -64 0
-7316 95 0
-7316 -100 0
-7316 -116 0
-7316 -126 0
-7316 -133 0
7316 -16 17 -39 -61 64 -95 100 116 126 133 0
-7317 16 0
-7317 -17 0
-7317 39 0
-7317 62 0
-7317 64 0
-7317 95 0
-7317 -100 0
-7317 -116 0
-7317 -126 0
-7317 -133 0
7317 -16 17 -39 -62 -64 -95 100 116 126 133 0
-7318 16 0
-7318 -17 0
-7318 39 0
-7318 -57 0
-7318 -58 0
-7318 -62 0
-7318 95 0
-7318 -100 0
-7318 -116 0
-7318 -126 0
-7318 -133 0
7318 -16 17 -39 57 58 62 -95 100 116 126 133 0
-7319 16 0
-7319 -17 0
-7319 39 0
-7319 -61 0
-7319 -62 0
-7319 95 0
-7319 -100 0
-7319 -116 0
-7319 -126 0
-7319 -133 0
7319 -16 17 -39 61 62 -95 100 116 126 133 0
-7320 16 0
-7320 -17 0
-7320 39 0
-7320 -80 0
-7320 94 0
-7320 -100 0
-7320 -116 0
-7320 -126 0
-7320 -133 0
-7320 140 0
7320 -16 17 -39 80 -94 100 116 126 133 -140 0
-7321 16 0
-7321 -17 0
-7321 39 0
-7321 -80 0
-7321 94 0
-7321 -100 0
-7321 110 0
-7321 -116 0
-7321 -126 0
-7321 -133 0
7321 -16 17 -39 80 -94 100 -110 116 126 133 0
-7322 16 0
-7322 -17 0
-7322 39 0
-7322 -80 0
-7322 -93 0
-7322 -100 0
-7322 -116 0
-7322 -126 0
-7322 -133 0
7322 -16 17 -39 80 93 100 116 126 133 0
-7323 16 0
-7323 -17 0
-7323 39 0
-7323 -80 0
-7323 -94 0
-7323 -100 0
-7323 -101 0
-7323 -116 0
-7323 -126 0
-7323 -133 0
7323 -16 17 -39 80 94 100 101 116 126 133 0
-7324 16 0
-7324 -17 0
-7324 39 0
-7324 -78 0
-7324 -94 0
-7324 -100 0
-7324 -101 0
-7324 -116 0
-7324 -126 0
-7324 -133 0
7324 -16 17 -39 78 94 100 101 116 126 133 0
-7325 16 0
-7325 -17 0
-7325 39 0
-7325 -84 0
-7325 -94 0
-7325 -100 0
-7325 -101 0
-7325 -116 0
-7325 -126 0
-7325 -133 0
7325 -16 17 -39 84 94 100 101 116 126 133 0
-7326 16 0
-7326 -17 0
-7326 39 0
-7326 -77 0
-7326 -94 0
-7326 -100 0
-7326 -101 0
-7326 -116 0
-7326 -126 0
-7326 -133 0
7326 -16 17 -39 77 94 100 101 116 126 133 0
-7327 16 0
-7327 -17 0
-7327 39 0
-7327 -81 0
-7327 -94 0
-7327 -100 0
-7327 -101 0
-7327 -116 0
-7327 -126 0
-7327 -133 0
7327 -16 17 -39 81 94 100 101 116 126 133 0
-7328 16 0
-7328 -17 0
-7328 39 0
-7328 -79 0
-7328 -94 0
-7328 -100 0
-7328 -101 0
-7328 -116 0
-7328 -126 0
-7328 -133 0
7328 -16 17 -39 79 94 100 101 116 126 133 0
-7329 16 0
-7329 -17 0
-7329 39 0
-7329 -83 0
-7329 -94 0
-7329 -100 0
-7329 -101 0
-7329 -116 0
-7329 -126 0
-7329 -133 0
7329 -16 17 -39 83 94 100 101 116 126 133 0
-7330 16 0
-7330 -17 0
-7330 39 0
-7330 -76 0
-7330 -94 0
-7330 -100 0
-7330 -101 0
-7330 -116 0
-7330 -126 0
-7330 -133 0
7330 -16 17 -39 76 94 100 101 116 126 133 0
-7331 16 0
-7331 -17 0
-7331 39 0
-7331 -82 0
-7331 -94 0
-7331 -100 0
-7331 -101 0
-7331 -116 0
-7331 -126 0
-7331 -133 0
7331 -16 17 -39 82 94 100 101 116 126 133 0
-7332 16 0
-7332 -17 0
-7332 39 0
-7332 -94 0
-7332 -100 0
-7332 -101 0
-7332 -116 0
-7332 -126 0
-7332 -133 0
-7332 -164 0
7332 -16 17 -39 94 100 101 116 126 133 164 0
-7333 16 0
-7333 -17 0
-7333 39 0
-7333 66 0
-7333 -94 0
-7333 -100 0
-7333 -101 0
-7333 -116 0
-7333 -126 0
-7333 -133 0
7333 -16 17 -39 -66 94 100 101 116 126 133 0
-7334 16 0
-7334 -17 0
-7334 39 0
-7334 -63 0
-7334 -94 0
-7334 -100 0
-7334 -101 0
-7334 -116 0
-7334 -126 0
-7334 -133 0
7334 -16 17 -39 63 94 100 101 116 126 133 0
-7335 16 0
-7335 -17 0
-7335 39 0
-7335 -61 0
-7335 -62 0
-7335 -94 0
-7335 -100 0
-7335 -101 0
-7335 -116 0
-7335 -126 0
-7335 -133 0
7335 -16 17 -39 61 62 94 100 101 116 126 133 0
-7336 16 0
-7336 -17 0
-7336 39 0
-7336 -61 0
-7336 64 0
-7336 -94 0
-7336 -100 0
-7336 -101 0
-7336 -116 0
-7336 -126 0
-7336 -133 0
7336 -16 17 -39 61 -64 94 100 101 116 126 133 0
-7337 16 0
-7337 -17 0
-7337 39 0
-7337 61 0
-7337 -64 0
-7337 -94 0
-7337 -100 0
-7337 -101 0
-7337 -116 0
-7337 -126 0
-7337 -133 0
7337 -16 17 -39 -61 64 94 100 101 116 126 133 0
-7338 16 0
-7338 -17 0
-7338 39 0
-7338 62 0
-7338 64 0
-7338 -94 0
-7338 -100 0
-7338 -101 0
-7338 -116 0
-7338 -126 0
-7338 -133 0
7338 -16 17 -39 -62 -64 94 100 101 116 126 133 0
-7339 16 0
-7339 -17 0
-7339 39 0
-7339 -57 0
-7339 -58 0
-7339 -62 0
-7339 -94 0
-7339 -100 0
-7339 -101 0
-7339 -116 0
-7339 -126 0
-7339 -133 0
7339 -16 17 -39 57 58 62 94 100 101 116 126 133 0
-7340 16 0
-7340 -17 0
-7340 39 0
-7340 -56 0
-7340 -62 0
-7340 -94 0
-7340 -100 0
-7340 -101 0
-7340 -116 0
-7340 -126 0
-7340 -133 0
7340 -16 17 -39 56 62 94 100 101 116 126 133 0
-7341 16 0
-7341 -17 0
-7341 39 0
-7341 -56 0
-7341 -70 0
-7341 -94 0
-7341 -100 0
-7341 -101 0
-7341 -116 0
-7341 -126 0
-7341 -133 0
7341 -16 17 -39 56 70 94 100 101 116 126 133 0
-7342 16 0
-7342 -17 0
-7342 39 0
-7342 -56 0
-7342 -67 0
-7342 -94 0
-7342 -100 0
-7342 -101 0
-7342 -116 0
-7342 -126 0
-7342 -133 0
7342 -16 17 -39 56 67 94 100 101 116 126 133 0
-7343 16 0
-7343 -17 0
-7343 39 0
-7343 -56 0
-7343 -73 0
-7343 -94 0
-7343 -100 0
-7343 -101 0
-7343 -116 0
-7343 -126 0
-7343 -133 0
7343 -16 17 -39 56 73 94 100 101 116 126 133 0
-7344 16 0
-7344 -17 0
-7344 39 0
-7344 -56 0
-7344 -71 0
-7344 -94 0
-7344 -100 0
-7344 -101 0
-7344 -116 0
-7344 -126 0
-7344 -133 0
7344 -16 17 -39 56 71 94 100 101 116 126 133 0
-7345 16 0
-7345 -17 0
-7345 39 0
-7345 -56 0
-7345 -69 0
-7345 -94 0
-7345 -100 0
-7345 -101 0
-7345 -116 0
-7345 -126 0
-7345 -133 0
7345 -16 17 -39 56 69 94 100 101 116 126 133 0
-7346 16 0
-7346 -17 0
-7346 39 0
-7346 -56 0
-7346 -75 0
-7346 -94 0
-7346 -100 0
-7346 -101 0
-7346 -116 0
-7346 -126 0
-7346 -133 0
7346 -16 17 -39 56 75 94 100 101 116 126 133 0
-7347 16 0
-7347 -17 0
-7347 39 0
-7347 -56 0
-7347 -68 0
-7347 -94 0
-7347 -100 0
-7347 -101 0
-7347 -116 0
-7347 -126 0
-7347 -133 0
7347 -16 17 -39 56 68 94 100 101 116 126 133 0
-7348 16 0
-7348 -17 0
-7348 39 0
-7348 -56 0
-7348 -72 0
-7348 -94 0
-7348 -100 0
-7348 -101 0
-7348 -116 0
-7348 -126 0
-7348 -133 0
7348 -16 17 -39 56 72 94 100 101 116 126 133 0
-7349 16 0
-7349 -17 0
-7349 39 0
-7349 -56 0
-7349 -70 0
-7349 -93 0
-7349 -100 0
-7349 -116 0
-7349 -126 0
-7349 -133 0
7349 -16 17 -39 56 70 93 100 116 126 133 0
-7350 16 0
-7350 -17 0
-7350 39 0
-7350 -56 0
-7350 -67 0
-7350 -93 0
-7350 -100 0
-7350 -116 0
-7350 -126 0
-7350 -133 0
7350 -16 17 -39 56 67 93 100 116 126 133 0
-7351 16 0
-7351 -17 0
-7351 39 0
-7351 -56 0
-7351 -73 0
-7351 -93 0
-7351 -100 0
-7351 -116 0
-7351 -126 0
-7351 -133 0
7351 -16 17 -39 56 73 93 100 116 126 133 0
-7352 16 0
-7352 -17 0
-7352 39 0
-7352 -56 0
-7352 -71 0
-7352 -93 0
-7352 -100 0
-7352 -116 0
-7352 -126 0
-7352 -133 0
7352 -16 17 -39 56 71 93 100 116 126 133 0
-7353 16 0
-7353 -17 0
-7353 39 0
-7353 -56 0
-7353 -69 0
-7353 -93 0
-7353 -100 0
-7353 -116 0
-7353 -126 0
-7353 -133 0
7353 -16 17 -39 56 69 93 100 116 126 133 0
-7354 16 0
-7354 -17 0
-7354 39 0
-7354 -56 0
-7354 -75 0
-7354 -93 0
-7354 -100 0
-7354 -116 0
-7354 -126 0
-7354 -133 0
7354 -16 17 -39 56 75 93 100 116 126 133 0
-7355 16 0
-7355 -17 0
-7355 39 0
-7355 -56 0
-7355 -68 0
-7355 -93 0
-7355 -100 0
-7355 -116 0
-7355 -126 0
-7355 -133 0
7355 -16 17 -39 56 68 93 100 116 126 133 0
-7356 16 0
-7356 -17 0
-7356 39 0
-7356 -56 0
-7356 -72 0
-7356 -93 0
-7356 -100 0
-7356 -116 0
-7356 -126 0
-7356 -133 0
7356 -16 17 -39 56 72 93 100 116 126 133 0
-7357 16 0
-7357 -17 0
-7357 39 0
-7357 -78 0
-7357 -93 0
-7357 -100 0
-7357 -116 0
-7357 -126 0
-7357 -133 0
7357 -16 17 -39 78 93 100 116 126 133 0
-7358 16 0
-7358 -17 0
-7358 39 0
-7358 -84 0
-7358 -93 0
-7358 -100 0
-7358 -116 0
-7358 -126 0
-7358 -133 0
7358 -16 17 -39 84 93 100 116 126 133 0
-7359 16 0
-7359 -17 0
-7359 39 0
-7359 -77 0
-7359 -93 0
-7359 -100 0
-7359 -116 0
-7359 -126 0
-7359 -133 0
7359 -16 17 -39 77 93 100 116 126 133 0
-7360 16 0
-7360 -17 0
-7360 39 0
-7360 -81 0
-7360 -93 0
-7360 -100 0
-7360 -116 0
-7360 -126 0
-7360 -133 0
7360 -16 17 -39 81 93 100 116 126 133 0
-7361 16 0
-7361 -17 0
-7361 39 0
-7361 -79 0
-7361 -93 0
-7361 -100 0
-7361 -116 0
-7361 -126 0
-7361 -133 0
7361 -16 17 -39 79 93 100 116 126 133 0
-7362 16 0
-7362 -17 0
-7362 39 0
-7362 -83 0
-7362 -93 0
-7362 -100 0
-7362 -116 0
-7362 -126 0
-7362 -133 0
7362 -16 17 -39 83 93 100 116 126 133 0
-7363 16 0
-7363 -17 0
-7363 39 0
-7363 -76 0
-7363 -93 0
-7363 -100 0
-7363 -116 0
-7363 -126 0
-7363 -133 0
7363 -16 17 -39 76 93 100 116 126 133 0
-7364 16 0
-7364 -17 0
-7364 39 0
-7364 -82 0
-7364 -93 0
-7364 -100 0
-7364 -116 0
-7364 -126 0
-7364 -133 0
7364 -16 17 -39 82 93 100 116 126 133 0
-7365 16 0
-7365 -17 0
-7365 39 0
-7365 66 0
-7365 -93 0
-7365 -100 0
-7365 -116 0
-7365 -126 0
-7365 -133 0
7365 -16 17 -39 -66 93 100 116 126 133 0
-7366 16 0
-7366 -17 0
-7366 39 0
-7366 -57 0
-7366 -58 0
-7366 64 0
-7366 -93 0
-7366 -100 0
-7366 -116 0
-7366 -126 0
-7366 -133 0
7366 -16 17 -39 57 58 -64 93 100 116 126 133 0
-7367 16 0
-7367 -17 0
-7367 39 0
-7367 -56 0
-7367 64 0
-7367 -93 0
-7367 -100 0
-7367 -116 0
-7367 -126 0
-7367 -133 0
7367 -16 17 -39 56 -64 93 100 116 126 133 0
-7368 16 0
-7368 -17 0
-7368 39 0
-7368 -55 0
-7368 -61 0
-7368 -94 0
-7368 -100 0
-7368 -116 0
-7368 -126 0
-7368 -133 0
-7368 -140 0
7368 -16 17 -39 55 61 94 100 116 126 133 140 0
-7369 16 0
-7369 -17 0
-7369 39 0
-7369 -61 0
-7369 -62 0
-7369 -94 0
-7369 -100 0
-7369 -116 0
-7369 -126 0
-7369 -133 0
-7369 -140 0
7369 -16 17 -39 61 62 94 100 116 126 133 140 0
-7370 16 0
-7370 -17 0
-7370 39 0
-7370 -61 0
-7370 64 0
-7370 -94 0
-7370 -100 0
-7370 -116 0
-7370 -126 0
-7370 -133 0
-7370 -140 0
7370 -16 17 -39 61 -64 94 100 116 126 133 140 0
-7371 16 0
-7371 -17 0
-7371 39 0
-7371 62 0
-7371 64 0
-7371 -94 0
-7371 -100 0
-7371 -116 0
-7371 -126 0
-7371 -133 0
-7371 -140 0
7371 -16 17 -39 -62 -64 94 100 116 126 133 140 0
-7372 16 0
-7372 -17 0
-7372 39 0
-7372 -57 0
-7372 -58 0
-7372 -62 0
-7372 -94 0
-7372 -100 0
-7372 -116 0
-7372 -126 0
-7372 -133 0
-7372 -140 0
7372 -16 17 -39 57 58 62 94 100 116 126 133 140 0
-7373 16 0
-7373 -17 0
-7373 39 0
-7373 -57 0
-7373 -58 0
-7373 -62 0
-7373 -94 0
-7373 -100 0
-7373 -110 0
-7373 -116 0
-7373 -126 0
-7373 -133 0
7373 -16 17 -39 57 58 62 94 100 110 116 126 133 0
-7374 16 0
-7374 -17 0
-7374 39 0
-7374 -57 0
-7374 -58 0
-7374 64 0
-7374 -94 0
-7374 -100 0
-7374 -110 0
-7374 -116 0
-7374 -126 0
-7374 -133 0
7374 -16 17 -39 57 58 -64 94 100 110 116 126 133 0
-7375 16 0
-7375 -17 0
-7375 39 0
-7375 62 0
-7375 64 0
-7375 -93 0
-7375 -100 0
-7375 -116 0
-7375 -126 0
-7375 -133 0
7375 -16 17 -39 -62 -64 93 100 116 126 133 0
-7376 16 0
-7376 -17 0
-7376 39 0
-7376 -61 0
-7376 -62 0
-7376 -94 0
-7376 -100 0
-7376 -110 0
-7376 -116 0
-7376 -126 0
-7376 -133 0
7376 -16 17 -39 61 62 94 100 110 116 126 133 0
-7377 16 0
-7377 -17 0
-7377 39 0
-7377 -61 0
-7377 -62 0
-7377 94 0
-7377 -100 0
-7377 -116 0
-7377 -126 0
-7377 -133 0
-7377 140 0
7377 -16 17 -39 61 62 -94 100 116 126 133 -140 0
-7378 16 0
-7378 -17 0
-7378 39 0
-7378 -61 0
-7378 -62 0
-7378 94 0
-7378 -100 0
-7378 110 0
-7378 -116 0
-7378 -126 0
-7378 -133 0
7378 -16 17 -39 61 62 -94 100 -110 116 126 133 0
-7379 16 0
-7379 -17 0
-7379 39 0
-7379 -61 0
-7379 64 0
-7379 94 0
-7379 -100 0
-7379 -116 0
-7379 -126 0
-7379 -133 0
-7379 140 0
7379 -16 17 -39 61 -64 -94 100 116 126 133 -140 0
-7380 16 0
-7380 -17 0
-7380 39 0
-7380 -61 0
-7380 64 0
-7380 94 0
-7380 -100 0
-7380 110 0
-7380 -116 0
-7380 -126 0
-7380 -133 0
7380 -16 17 -39 61 -64 -94 100 -110 116 126 133 0
-7381 16 0
-7381 -17 0
-7381 39 0
-7381 -61 0
-7381 64 0
-7381 -94 0
-7381 -100 0
-7381 -110 0
-7381 -116 0
-7381 -126 0
-7381 -133 0
7381 -16 17 -39 61 -64 94 100 110 116 126 133 0
-7382 16 0
-7382 -17 0
-7382 39 0
-7382 62 0
-7382 64 0
-7382 -94 0
-7382 -100 0
-7382 -110 0
-7382 -116 0
-7382 -126 0
-7382 -133 0
7382 -16 17 -39 -62 -64 94 100 110 116 126 133 0
-7383 16 0
-7383 -17 0
-7383 39 0
-7383 62 0
-7383 64 0
-7383 94 0
-7383 -100 0
-7383 -116 0
-7383 -126 0
-7383 -133 0
-7383 140 0
7383 -16 17 -39 -62 -64 -94 100 116 126 133 -140 0
-7384 16 0
-7384 -17 0
-7384 39 0
-7384 -78 0
-7384 94 0
-7384 -100 0
-7384 -116 0
-7384 -126 0
-7384 -133 0
-7384 140 0
7384 -16 17 -39 78 -94 100 116 126 133 -140 0
-7385 16 0
-7385 -17 0
-7385 39 0
-7385 -84 0
-7385 94 0
-7385 -100 0
-7385 -116 0
-7385 -126 0
-7385 -133 0
-7385 140 0
7385 -16 17 -39 84 -94 100 116 126 133 -140 0
-7386 16 0
-7386 -17 0
-7386 39 0
-7386 -77 0
-7386 94 0
-7386 -100 0
-7386 -116 0
-7386 -126 0
-7386 -133 0
-7386 140 0
7386 -16 17 -39 77 -94 100 116 126 133 -140 0
-7387 16 0
-7387 -17 0
-7387 39 0
-7387 -81 0
-7387 94 0
-7387 -100 0
-7387 -116 0
-7387 -126 0
-7387 -133 0
-7387 140 0
7387 -16 17 -39 81 -94 100 116 126 133 -140 0
-7388 16 0
-7388 -17 0
-7388 39 0
-7388 -79 0
-7388 94 0
-7388 -100 0
-7388 -116 0
-7388 -126 0
-7388 -133 0
-7388 140 0
7388 -16 17 -39 79 -94 100 116 126 133 -140 0
-7389 16 0
-7389 -17 0
-7389 39 0
-7389 -83 0
-7389 94 0
-7389 -100 0
-7389 -116 0
-7389 -126 0
-7389 -133 0
-7389 140 0
7389 -16 17 -39 83 -94 100 116 126 133 -140 0
-7390 16 0
-7390 -17 0
-7390 39 0
-7390 -76 0
-7390 94 0
-7390 -100 0
-7390 -116 0
-7390 -126 0
-7390 -133 0
-7390 140 0
7390 -16 17 -39 76 -94 100 116 126 133 -140 0
-7391 16 0
-7391 -17 0
-7391 39 0
-7391 -82 0
-7391 94 0
-7391 -100 0
-7391 -116 0
-7391 -126 0
-7391 -133 0
-7391 140 0
7391 -16 17 -39 82 -94 100 116 126 133 -140 0
-7392 16 0
-7392 -17 0
-7392 39 0
-7392 -56 0
-7392 -62 0
-7392 94 0
-7392 -100 0
-7392 -116 0
-7392 -126 0
-7392 -133 0
-7392 140 0
7392 -16 17 -39 56 62 -94 100 116 126 133 -140 0
-7393 16 0
-7393 -17 0
-7393 39 0
-7393 94 0
-7393 -100 0
-7393 -116 0
-7393 -126 0
-7393 -133 0
-7393 140 0
-7393 -164 0
7393 -16 17 -39 -94 100 116 126 133 -140 164 0
-7394 16 0
-7394 -17 0
-7394 39 0
-7394 66 0
-7394 94 0
-7394 -100 0
-7394 -116 0
-7394 -126 0
-7394 -133 0
-7394 140 0
7394 -16 17 -39 -66 -94 100 116 126 133 -140 0
-7395 16 0
-7395 -17 0
-7395 39 0
-7395 -63 0
-7395 94 0
-7395 -100 0
-7395 -116 0
-7395 -126 0
-7395 -133 0
-7395 140 0
7395 -16 17 -39 63 -94 100 116 126 133 -140 0
-7396 16 0
-7396 -17 0
-7396 39 0
-7396 65 0
-7396 94 0
-7396 -100 0
-7396 -116 0
-7396 -126 0
-7396 -133 0
-7396 140 0
7396 -16 17 -39 -65 -94 100 116 126 133 -140 0
-7397 16 0
-7397 -17 0
-7397 39 0
-7397 -57 0
-7397 -58 0
-7397 -62 0
-7397 94 0
-7397 -100 0
-7397 -116 0
-7397 -126 0
-7397 -133 0
-7397 140 0
7397 -16 17 -39 57 58 62 -94 100 116 126 133 -140 0
-7398 16 0
-7398 -17 0
-7398 39 0
-7398 -57 0
-7398 -58 0
-7398 -62 0
-7398 94 0
-7398 -100 0
-7398 110 0
-7398 -116 0
-7398 -126 0
-7398 -133 0
7398 -16 17 -39 57 58 62 -94 100 -110 116 126 133 0
-7399 16 0
-7399 -17 0
-7399 39 0
-7399 -78 0
-7399 94 0
-7399 -100 0
-7399 110 0
-7399 -116 0
-7399 -126 0
-7399 -133 0
7399 -16 17 -39 78 -94 100 -110 116 126 133 0
-7400 16 0
-7400 -17 0
-7400 39 0
-7400 -84 0
-7400 94 0
-7400 -100 0
-7400 110 0
-7400 -116 0
-7400 -126 0
-7400 -133 0
7400 -16 17 -39 84 -94 100 -110 116 126 133 0
-7401 16 0
-7401 -17 0
-7401 39 0
-7401 -77 0
-7401 94 0
-7401 -100 0
-7401 110 0
-7401 -116 0
-7401 -126 0
-7401 -133 0
7401 -16 17 -39 77 -94 100 -110 116 126 133 0
-7402 16 0
-7402 -17 0
-7402 39 0
-7402 -81 0
-7402 94 0
-7402 -100 0
-7402 110 0
-7402 -116 0
-7402 -126 0
-7402 -133 0
7402 -16 17 -39 81 -94 100 -110 116 126 133 0
-7403 16 0
-7403 -17 0
-7403 39 0
-7403 -79 0
-7403 94 0
-7403 -100 0
-7403 110 0
-7403 -116 0
-7403 -126 0
-7403 -133 0
7403 -16 17 -39 79 -94 100 -110 116 126 133 0
-7404 16 0
-7404 -17 0
-7404 39 0
-7404 -83 0
-7404 94 0
-7404 -100 0
-7404 110 0
-7404 -116 0
-7404 -126 0
-7404 -133 0
7404 -16 17 -39 83 -94 100 -110 116 126 133 0
-7405 16 0
-7405 -17 0
-7405 39 0
-7405 -76 0
-7405 94 0
-7405 -100 0
-7405 110 0
-7405 -116 0
-7405 -126 0
-7405 -133 0
7405 -16 17 -39 76 -94 100 -110 116 126 133 0
-7406 16 0
-7406 -17 0
-7406 39 0
-7406 -82 0
-7406 94 0
-7406 -100 0
-7406 110 0
-7406 -116 0
-7406 -126 0
-7406 -133 0
7406 -16 17 -39 82 -94 100 -110 116 126 133 0
-7407 16 0
-7407 -17 0
-7407 39 0
-7407 -56 0
-7407 -62 0
-7407 94 0
-7407 -100 0
-7407 110 0
-7407 -116 0
-7407 -126 0
-7407 -133 0
7407 -16 17 -39 56 62 -94 100 -110 116 126 133 0
-7408 16 0
-7408 -17 0
-7408 39 0
-7408 94 0
-7408 -100 0
-7408 110 0
-7408 -116 0
-7408 -126 0
-7408 -133 0
-7408 -164 0
7408 -16 17 -39 -94 100 -110 116 126 133 164 0
-7409 16 0
-7409 -17 0
-7409 39 0
-7409 66 0
-7409 94 0
-7409 -100 0
-7409 110 0
-7409 -116 0
-7409 -126 0
-7409 -133 0
7409 -16 17 -39 -66 -94 100 -110 116 126 133 0
-7410 16 0
-7410 -17 0
-7410 39 0
-7410 -63 0
-7410 94 0
-7410 -100 0
-7410 110 0
-7410 -116 0
-7410 -126 0
-7410 -133 0
7410 -16 17 -39 63 -94 100 -110 116 126 133 0
-7411 16 0
-7411 -17 0
-7411 39 0
-7411 65 0
-7411 94 0
-7411 -100 0
-7411 110 0
-7411 -116 0
-7411 -126 0
-7411 -133 0
7411 -16 17 -39 -65 -94 100 -110 116 126 133 0
-7412 16 0
-7412 -17 0
-7412 39 0
-7412 -57 0
-7412 -58 0
-7412 64 0
-7412 94 0
-7412 -100 0
-7412 110 0
-7412 -116 0
-7412 -126 0
-7412 -133 0
7412 -16 17 -39 57 58 -64 -94 100 -110 116 126 133 0
-7413 16 0
-7413 -17 0
-7413 39 0
-7413 62 0
-7413 64 0
-7413 94 0
-7413 -100 0
-7413 110 0
-7413 -116 0
-7413 -126 0
-7413 -133 0
7413 -16 17 -39 -62 -64 -94 100 -110 116 126 133 0
-7414 16 0
-7414 -17 0
-7414 39 0
-7414 -56 0
-7414 -70 0
-7414 94 0
-7414 -100 0
-7414 -116 0
-7414 -126 0
-7414 -133 0
-7414 140 0
7414 -16 17 -39 56 70 -94 100 116 126 133 -140 0
-7415 16 0
-7415 -17 0
-7415 39 0
-7415 -56 0
-7415 -70 0
-7415 94 0
-7415 -100 0
-7415 110 0
-7415 -116 0
-7415 -126 0
-7415 -133 0
7415 -16 17 -39 56 70 -94 100 -110 116 126 133 0
-7416 16 0
-7416 -17 0
-7416 39 0
-7416 -56 0
-7416 -74 0
-7416 94 0
-7416 -100 0
-7416 -116 0
-7416 -126 0
-7416 -133 0
-7416 140 0
7416 -16 17 -39 56 74 -94 100 116 126 133 -140 0
-7417 16 0
-7417 -17 0
-7417 39 0
-7417 -56 0
-7417 -67 0
-7417 94 0
-7417 -100 0
-7417 -116 0
-7417 -126 0
-7417 -133 0
-7417 140 0
7417 -16 17 -39 56 67 -94 100 116 126 133 -140 0
-7418 16 0
-7418 -17 0
-7418 39 0
-7418 -56 0
-7418 -73 0
-7418 94 0
-7418 -100 0
-7418 -116 0
-7418 -126 0
-7418 -133 0
-7418 140 0
7418 -16 17 -39 56 73 -94 100 116 126 133 -140 0
-7419 16 0
-7419 -17 0
-7419 39 0
-7419 -56 0
-7419 -71 0
-7419 94 0
-7419 -100 0
-7419 -116 0
-7419 -126 0
-7419 -133 0
-7419 140 0
7419 -16 17 -39 56 71 -94 100 116 126 133 -140 0
-7420 16 0
-7420 -17 0
-7420 39 0
-7420 -56 0
-7420 -69 0
-7420 94 0
-7420 -100 0
-7420 -116 0
-7420 -126 0
-7420 -133 0
-7420 140 0
7420 -16 17 -39 56 69 -94 100 116 126 133 -140 0
-7421 16 0
-7421 -17 0
-7421 39 0
-7421 -56 0
-7421 -75 0
-7421 94 0
-7421 -100 0
-7421 -116 0
-7421 -126 0
-7421 -133 0
-7421 140 0
7421 -16 17 -39 56 75 -94 100 116 126 133 -140 0
-7422 16 0
-7422 -17 0
-7422 39 0
-7422 -56 0
-7422 -68 0
-7422 94 0
-7422 -100 0
-7422 -116 0
-7422 -126 0
-7422 -133 0
-7422 140 0
7422 -16 17 -39 56 68 -94 100 116 126 133 -140 0
-7423 16 0
-7423 -17 0
-7423 39 0
-7423 -56 0
-7423 -72 0
-7423 94 0
-7423 -100 0
-7423 -116 0
-7423 -126 0
-7423 -133 0
-7423 140 0
7423 -16 17 -39 56 72 -94 100 116 126 133 -140 0
-7424 16 0
-7424 -17 0
-7424 39 0
-7424 61 0
-7424 -64 0
-7424 94 0
-7424 -100 0
-7424 -116 0
-7424 -126 0
-7424 -133 0
-7424 140 0
7424 -16 17 -39 -61 64 -94 100 116 126 133 -140 0
-7425 16 0
-7425 -17 0
-7425 39 0
-7425 -56 0
-7425 -67 0
-7425 94 0
-7425 -100 0
-7425 110 0
-7425 -116 0
-7425 -126 0
-7425 -133 0
7425 -16 17 -39 56 67 -94 100 -110 116 126 133 0
-7426 16 0
-7426 -17 0
-7426 39 0
-7426 -56 0
-7426 -73 0
-7426 94 0
-7426 -100 0
-7426 110 0
-7426 -116 0
-7426 -126 0
-7426 -133 0
7426 -16 17 -39 56 73 -94 100 -110 116 126 133 0
-7427 16 0
-7427 -17 0
-7427 39 0
-7427 -56 0
-7427 -71 0
-7427 94 0
-7427 -100 0
-7427 110 0
-7427 -116 0
-7427 -126 0
-7427 -133 0
7427 -16 17 -39 56 71 -94 100 -110 116 126 133 0
-7428 16 0
-7428 -17 0
-7428 39 0
-7428 -56 0
-7428 -69 0
-7428 94 0
-7428 -100 0
-7428 110 0
-7428 -116 0
-7428 -126 0
-7428 -133 0
7428 -16 17 -39 56 69 -94 100 -110 116 126 133 0
-7429 16 0
-7429 -17 0
-7429 39 0
-7429 -56 0
-7429 -75 0
-7429 94 0
-7429 -100 0
-7429 110 0
-7429 -116 0
-7429 -126 0
-7429 -133 0
7429 -16 17 -39 56 75 -94 100 -110 116 126 133 0
-7430 16 0
-7430 -17 0
-7430 39 0
-7430 -56 0
-7430 -68 0
-7430 94 0
-7430 -100 0
-7430 110 0
-7430 -116 0
-7430 -126 0
-7430 -133 0
7430 -16 17 -39 56 68 -94 100 -110 116 126 133 0
-7431 16 0
-7431 -17 0
-7431 39 0
-7431 -56 0
-7431 -72 0
-7431 94 0
-7431 -100 0
-7431 110 0
-7431 -116 0
-7431 -126 0
-7431 -133 0
7431 -16 17 -39 56 72 -94 100 -110 116 126 133 0
-7432 16 0
-7432 -17 0
-7432 39 0
-7432 61 0
-7432 -64 0
-7432 94 0
-7432 -100 0
-7432 110 0
-7432 -116 0
-7432 -126 0
-7432 -133 0
7432 -16 17 -39 -61 64 -94 100 -110 116 126 133 0
-7433 16 0
-7433 -17 0
-7433 39 0
-7433 61 0
-7433 -64 0
-7433 -93 0
-7433 -100 0
-7433 -116 0
-7433 -126 0
-7433 -133 0
7433 -16 17 -39 -61 64 93 100 116 126 133 0
-7434 16 0
-7434 -17 0
-7434 39 0
-7434 -55 0
-7434 -61 0
-7434 -94 0
-7434 -100 0
-7434 -110 0
-7434 -116 0
-7434 -126 0
-7434 -133 0
7434 -16 17 -39 55 61 94 100 110 116 126 133 0
-7435 16 0
-7435 -17 0
-7435 39 0
-7435 61 0
-7435 -64 0
-7435 -94 0
-7435 -100 0
-7435 -110 0
-7435 -116 0
-7435 -126 0
-7435 -133 0
7435 -16 17 -39 -61 64 94 100 110 116 126 133 0
-7436 16 0
-7436 -17 0
-7436 39 0
-7436 -56 0
-7436 -74 0
-7436 -93 0
-7436 100 0
-7436 -116 0
-7436 126 0
-7436 -133 0
7436 -16 17 -39 56 74 93 -100 116 -126 133 0
-7437 16 0
-7437 -17 0
-7437 39 0
-7437 -56 0
-7437 -74 0
-7437 -94 0
-7437 100 0
-7437 -101 0
-7437 -116 0
-7437 126 0
-7437 -133 0
7437 -16 17 -39 56 74 94 -100 101 116 -126 133 0
-7438 16 0
-7438 -17 0
-7438 39 0
-7438 -56 0
-7438 -74 0
-7438 95 0
-7438 100 0
-7438 -116 0
-7438 126 0
-7438 -133 0
7438 -16 17 -39 56 74 -95 -100 116 -126 133 0
-7439 16 0
-7439 -17 0
-7439 39 0
-7439 -56 0
-7439 -74 0
-7439 -94 0
-7439 100 0
-7439 -110 0
-7439 -116 0
-7439 126 0
-7439 -133 0
7439 -16 17 -39 56 74 94 -100 110 116 -126 133 0
-7440 16 0
-7440 -17 0
-7440 39 0
-7440 -56 0
-7440 -74 0
-7440 94 0
-7440 100 0
-7440 101 0
-7440 -116 0
-7440 126 0
-7440 -133 0
7440 -16 17 -39 56 74 -94 -100 -101 116 -126 133 0
-7441 16 0
-7441 -17 0
-7441 39 0
-7441 -56 0
-7441 -74 0
-7441 94 0
-7441 100 0
-7441 110 0
-7441 -116 0
-7441 126 0
-7441 -133 0
7441 -16 17 -39 56 74 -94 -100 -110 116 -126 133 0
-7442 16 0
-7442 -17 0
-7442 39 0
-7442 -56 0
-7442 -74 0
-7442 -94 0
-7442 100 0
-7442 -116 0
-7442 126 0
-7442 -133 0
-7442 -140 0
7442 -16 17 -39 56 74 94 -100 116 -126 133 140 0
-7443 16 0
-7443 -17 0
-7443 39 0
-7443 -57 0
-7443 -58 0
-7443 -62 0
-7443 -94 0
-7443 -101 0
-7443 -116 0
-7443 -122 0
-7443 -133 0
7443 -16 17 -39 57 58 62 94 101 116 122 133 0
-7444 16 0
-7444 -17 0
-7444 39 0
-7444 -55 0
-7444 -57 0
-7444 -58 0
-7444 -94 0
-7444 -101 0
-7444 -116 0
-7444 -122 0
-7444 -133 0
7444 -16 17 -39 55 57 58 94 101 116 122 133 0
-7445 16 0
-7445 -17 0
-7445 39 0
-7445 -63 0
-7445 -94 0
-7445 -101 0
-7445 -116 0
-7445 -122 0
-7445 -133 0
7445 -16 17 -39 63 94 101 116 122 133 0
-7446 16 0
-7446 -17 0
-7446 39 0
-7446 -94 0
-7446 -101 0
-7446 -116 0
-7446 -122 0
-7446 -133 0
-7446 -164 0
7446 -16 17 -39 94 101 116 122 133 164 0
-7447 16 0
-7447 -17 0
-7447 39 0
-7447 -54 0
-7447 -57 0
-7447 -58 0
-7447 -94 0
-7447 -101 0
-7447 -116 0
-7447 -122 0
-7447 -133 0
7447 -16 17 -39 54 57 58 94 101 116 122 133 0
-7448 16 0
-7448 17 0
-7448 19 0
-7448 -39 0
-7448 61 0
-7448 -64 0
-7448 95 0
-7448 -100 0
-7448 -116 0
-7448 -126 0
-7448 -133 0
7448 -16 -17 -19 39 -61 64 -95 100 116 126 133 0
-7449 16 0
-7449 -17 0
-7449 39 0
-7449 -57 0
-7449 -58 0
-7449 -62 0
-7449 -93 0
-7449 -116 0
-7449 -122 0
-7449 -133 0
7449 -16 17 -39 57 58 62 93 116 122 133 0
-7450 16 0
-7450 -17 0
-7450 39 0
-7450 -55 0
-7450 -57 0
-7450 -58 0
-7450 -93 0
-7450 -116 0
-7450 -122 0
-7450 -133 0
7450 -16 17 -39 55 57 58 93 116 122 133 0
-7451 16 0
-7451 -17 0
-7451 39 0
-7451 -93 0
-7451 -116 0
-7451 -122 0
-7451 -133 0
-7451 -164 0
7451 -16 17 -39 93 116 122 133 164 0
-7452 16 0
-7452 -17 0
-7452 39 0
-7452 -54 0
-7452 -57 0
-7452 -58 0
-7452 -93 0
-7452 -116 0
-7452 -122 0
-7452 -133 0
7452 -16 17 -39 54 57 58 93 116 122 133 0
-7453 16 0
-7453 -17 0
-7453 39 0
-7453 -63 0
-7453 -93 0
-7453 -116 0
-7453 -122 0
-7453 -133 0
7453 -16 17 -39 63 93 116 122 133 0
-7454 16 0
-7454 17 0
-7454 19 0
-7454 -39 0
-7454 61 0
-7454 -64 0
-7454 -94 0
-7454 -100 0
-7454 -101 0
-7454 -116 0
-7454 -126 0
-7454 -133 0
7454 -16 -17 -19 39 -61 64 94 100 101 116 126 133 0
-7455 16 0
-7455 17 0
-7455 19 0
-7455 -39 0
-7455 61 0
-7455 -64 0
-7455 -94 0
-7455 -100 0
-7455 -116 0
-7455 -126 0
-7455 -133 0
-7455 -140 0
7455 -16 -17 -19 39 -61 64 94 100 116 126 133 140 0
-7456 16 0
-7456 17 0
-7456 19 0
-7456 -39 0
-7456 61 0
-7456 -64 0
-7456 -94 0
-7456 -100 0
-7456 -110 0
-7456 -116 0
-7456 -126 0
-7456 -133 0
7456 -16 -17 -19 39 -61 64 94 100 110 116 126 133 0
-7457 16 0
-7457 17 0
-7457 19 0
-7457 -39 0
-7457 61 0
-7457 -64 0
-7457 94 0
-7457 -100 0
-7457 101 0
-7457 -116 0
-7457 -126 0
-7457 -133 0
7457 -16 -17 -19 39 -61 64 -94 100 -101 116 126 133 0
-7458 16 0
-7458 17 0
-7458 19 0
-7458 -39 0
-7458 61 0
-7458 -64 0
-7458 94 0
-7458 -100 0
-7458 110 0
-7458 -116 0
-7458 -126 0
-7458 -133 0
7458 -16 -17 -19 39 -61 64 -94 100 -110 116 126 133 0
-7459 16 0
-7459 17 0
-7459 19 0
-7459 -39 0
-7459 61 0
-7459 -64 0
-7459 94 0
-7459 -100 0
-7459 -116 0
-7459 -126 0
-7459 -133 0
-7459 140 0
7459 -16 -17 -19 39 -61 64 -94 100 116 126 133 -140 0
-7460 16 0
-7460 17 0
-7460 19 0
-7460 -39 0
-7460 61 0
-7460 -64 0
-7460 -93 0
-7460 -100 0
-7460 -116 0
-7460 -126 0
-7460 -133 0
7460 -16 -17 -19 39 -61 64 93 100 116 126 133 0
-7461 16 0
-7461 17 0
-7461 19 0
-7461 -39 0
-7461 61 0
-7461 -64 0
-7461 -93 0
-7461 -116 0
-7461 -122 0
-7461 -133 0
7461 -16 -17 -19 39 -61 64 93 116 122 133 0
-7462 16 0
-7462 17 0
-7462 19 0
-7462 -39 0
-7462 61 0
-7462 -64 0
-7462 -93 0
-7462 -116 0
-7462 -133 0
-7462 134 0
7462 -16 -17 -19 39 -61 64 93 116 133 -134 0
-7463 16 0
-7463 17 0
-7463 19 0
-7463 -39 0
-7463 61 0
-7463 -64 0
-7463 95 0
-7463 -116 0
-7463 -122 0
-7463 -133 0
7463 -16 -17 -19 39 -61 64 -95 116 122 133 0
-7464 16 0
-7464 17 0
-7464 19 0
-7464 -39 0
-7464 61 0
-7464 -64 0
-7464 94 0
-7464 101 0
-7464 -116 0
-7464 -122 0
-7464 -133 0
7464 -16 -17 -19 39 -61 64 -94 -101 116 122 133 0
-7465 16 0
-7465 17 0
-7465 19 0
-7465 -39 0
-7465 61 0
-7465 -64 0
-7465 94 0
-7465 -116 0
-7465 -122 0
-7465 -133 0
-7465 140 0
7465 -16 -17 -19 39 -61 64 -94 116 122 133 -140 0
-7466 16 0
-7466 17 0
-7466 19 0
-7466 -39 0
-7466 61 0
-7466 -64 0
-7466 94 0
-7466 110 0
-7466 -116 0
-7466 -122 0
-7466 -133 0
7466 -16 -17 -19 39 -61 64 -94 -110 116 122 133 0
-7467 16 0
-7467 17 0
-7467 19 0
-7467 -39 0
-7467 61 0
-7467 -64 0
-7467 -94 0
-7467 -101 0
-7467 -116 0
-7467 -122 0
-7467 -133 0
7467 -16 -17 -19 39 -61 64 94 101 116 122 133 0
-7468 16 0
-7468 17 0
-7468 19 0
-7468 -39 0
-7468 61 0
-7468 -64 0
-7468 -94 0
-7468 -110 0
-7468 -116 0
-7468 -122 0
-7468 -133 0
7468 -16 -17 -19 39 -61 64 94 110 116 122 133 0
-7469 16 0
-7469 17 0
-7469 19 0
-7469 -39 0
-7469 61 0
-7469 -64 0
-7469 -94 0
-7469 -116 0
-7469 -122 0
-7469 -133 0
-7469 -140 0
7469 -16 -17 -19 39 -61 64 94 116 122 133 140 0
-7470 16 0
-7470 17 0
-7470 19 0
-7470 -39 0
-7470 61 0
-7470 -64 0
-7470 95 0
-7470 -116 0
-7470 -133 0
-7470 134 0
7470 -16 -17 -19 39 -61 64 -95 116 133 -134 0
-7471 16 0
-7471 17 0
-7471 19 0
-7471 -39 0
-7471 61 0
-7471 -64 0
-7471 -94 0
-7471 -101 0
-7471 -116 0
-7471 -133 0
-7471 134 0
7471 -16 -17 -19 39 -61 64 94 101 116 133 -134 0
-7472 16 0
-7472 17 0
-7472 19 0
-7472 -39 0
-7472 61 0
-7472 -64 0
-7472 -94 0
-7472 -116 0
-7472 -133 0
-7472 134 0
-7472 -140 0
7472 -16 -17 -19 39 -61 64 94 116 133 -134 140 0
-7473 16 0
-7473 17 0
-7473 19 0
-7473 -39 0
-7473 61 0
-7473 -64 0
-7473 -94 0
-7473 -110 0
-7473 -116 0
-7473 -133 0
-7473 134 0
7473 -16 -17 -19 39 -61 64 94 110 116 133 -134 0
-7474 16 0
-7474 17 0
-7474 19 0
-7474 -39 0
-7474 61 0
-7474 -64 0
-7474 94 0
-7474 101 0
-7474 -116 0
-7474 -133 0
-7474 134 0
7474 -16 -17 -19 39 -61 64 -94 -101 116 133 -134 0
-7475 16 0
-7475 17 0
-7475 19 0
-7475 -39 0
-7475 61 0
-7475 -64 0
-7475 94 0
-7475 110 0
-7475 -116 0
-7475 -133 0
-7475 134 0
7475 -16 -17 -19 39 -61 64 -94 -110 116 133 -134 0
-7476 16 0
-7476 17 0
-7476 19 0
-7476 -39 0
-7476 61 0
-7476 -64 0
-7476 94 0
-7476 -116 0
-7476 -133 0
-7476 134 0
-7476 140 0
7476 -16 -17 -19 39 -61 64 -94 116 133 -134 -140 0
-7477 16 0
-7477 -17 0
-7477 39 0
-7477 61 0
-7477 -64 0
-7477 94 0
-7477 101 0
-7477 -116 0
-7477 -133 0
-7477 134 0
7477 -16 17 -39 -61 64 -94 -101 116 133 -134 0
-7478 16 0
-7478 -17 0
-7478 39 0
-7478 61 0
-7478 -64 0
-7478 94 0
-7478 -116 0
-7478 -133 0
-7478 134 0
-7478 140 0
7478 -16 17 -39 -61 64 -94 116 133 -134 -140 0
-7479 16 0
-7479 -17 0
-7479 39 0
-7479 61 0
-7479 -64 0
-7479 94 0
-7479 110 0
-7479 -116 0
-7479 -133 0
-7479 134 0
7479 -16 17 -39 -61 64 -94 -110 116 133 -134 0
-7480 16 0
-7480 -17 0
-7480 39 0
-7480 61 0
-7480 -64 0
-7480 -94 0
-7480 -101 0
-7480 -116 0
-7480 -133 0
-7480 134 0
7480 -16 17 -39 -61 64 94 101 116 133 -134 0
-7481 16 0
-7481 -17 0
-7481 39 0
-7481 61 0
-7481 -64 0
-7481 -94 0
-7481 -110 0
-7481 -116 0
-7481 -133 0
-7481 134 0
7481 -16 17 -39 -61 64 94 110 116 133 -134 0
-7482 16 0
-7482 -17 0
-7482 39 0
-7482 61 0
-7482 -64 0
-7482 -94 0
-7482 -116 0
-7482 -133 0
-7482 134 0
-7482 -140 0
7482 -16 17 -39 -61 64 94 116 133 -134 140 0
-7483 16 0
-7483 -17 0
-7483 39 0
-7483 61 0
-7483 -64 0
-7483 -93 0
-7483 -116 0
-7483 -133 0
-7483 134 0
7483 -16 17 -39 -61 64 93 116 133 -134 0
-7484 16 0
-7484 -17 0
-7484 39 0
-7484 61 0
-7484 -64 0
-7484 95 0
-7484 -116 0
-7484 -133 0
-7484 134 0
7484 -16 17 -39 -61 64 -95 116 133 -134 0
-7485 16 0
-7485 -17 0
-7485 39 0
-7485 61 0
-7485 -64 0
-7485 -94 0
-7485 100 0
-7485 -101 0
-7485 -116 0
-7485 126 0
-7485 -133 0
7485 -16 17 -39 -61 64 94 -100 101 116 -126 133 0
-7486 16 0
-7486 -17 0
-7486 39 0
-7486 61 0
-7486 -64 0
-7486 -94 0
-7486 -101 0
-7486 -116 0
-7486 -122 0
-7486 -133 0
7486 -16 17 -39 -61 64 94 101 116 122 133 0
-7487 16 0
-7487 -17 0
-7487 39 0
-7487 61 0
-7487 -64 0
-7487 -94 0
-7487 -116 0
-7487 -122 0
-7487 -133 0
-7487 -140 0
7487 -16 17 -39 -61 64 94 116 122 133 140 0
-7488 16 0
-7488 -17 0
-7488 39 0
-7488 61 0
-7488 -64 0
-7488 -94 0
-7488 -110 0
-7488 -116 0
-7488 -122 0
-7488 -133 0
7488 -16 17 -39 -61 64 94 110 116 122 133 0
-7489 16 0
-7489 -17 0
-7489 39 0
-7489 61 0
-7489 -64 0
-7489 -93 0
-7489 -116 0
-7489 -122 0
-7489 -133 0
7489 -16 17 -39 -61 64 93 116 122 133 0
-7490 16 0
-7490 -17 0
-7490 39 0
-7490 -55 0
-7490 -57 0
-7490 -58 0
-7490 -94 0
-7490 -110 0
-7490 -116 0
-7490 -122 0
-7490 -133 0
7490 -16 17 -39 55 57 58 94 110 116 122 133 0
-7491 16 0
-7491 -17 0
-7491 39 0
-7491 61 0
-7491 -64 0
-7491 95 0
-7491 -116 0
-7491 -122 0
-7491 -133 0
7491 -16 17 -39 -61 64 -95 116 122 133 0
-7492 16 0
-7492 -17 0
-7492 39 0
-7492 61 0
-7492 -64 0
-7492 -94 0
-7492 100 0
-7492 -116 0
-7492 126 0
-7492 -133 0
-7492 -140 0
7492 -16 17 -39 -61 64 94 -100 116 -126 133 140 0
-7493 16 0
-7493 -17 0
-7493 39 0
-7493 61 0
-7493 -64 0
-7493 -94 0
-7493 100 0
-7493 -110 0
-7493 -116 0
-7493 126 0
-7493 -133 0
7493 -16 17 -39 -61 64 94 -100 110 116 -126 133 0
-7494 16 0
-7494 -17 0
-7494 39 0
-7494 61 0
-7494 -64 0
-7494 -93 0
-7494 100 0
-7494 -116 0
-7494 126 0
-7494 -133 0
7494 -16 17 -39 -61 64 93 -100 116 -126 133 0
-7495 16 0
-7495 -17 0
-7495 39 0
-7495 -57 0
-7495 -58 0
-7495 -62 0
-7495 -94 0
-7495 -110 0
-7495 -116 0
-7495 -122 0
-7495 -133 0
7495 -16 17 -39 57 58 62 94 110 116 122 133 0
-7496 16 0
-7496 -17 0
-7496 39 0
-7496 61 0
-7496 -64 0
-7496 95 0
-7496 100 0
-7496 -116 0
-7496 126 0
-7496 -133 0
7496 -16 17 -39 -61 64 -95 -100 116 -126 133 0
-7497 16 0
-7497 -17 0
-7497 39 0
-7497 61 0
-7497 -64 0
-7497 94 0
-7497 100 0
-7497 101 0
-7497 -116 0
-7497 126 0
-7497 -133 0
7497 -16 17 -39 -61 64 -94 -100 -101 116 -126 133 0
-7498 16 0
-7498 -17 0
-7498 39 0
-7498 61 0
-7498 -64 0
-7498 94 0
-7498 101 0
-7498 -116 0
-7498 -122 0
-7498 -133 0
7498 -16 17 -39 -61 64 -94 -101 116 122 133 0
-7499 16 0
-7499 -17 0
-7499 39 0
-7499 61 0
-7499 -64 0
-7499 94 0
-7499 110 0
-7499 -116 0
-7499 -122 0
-7499 -133 0
7499 -16 17 -39 -61 64 -94 -110 116 122 133 0
-7500 16 0
-7500 -17 0
-7500 39 0
-7500 61 0
-7500 -64 0
-7500 94 0
-7500 -116 0
-7500 -122 0
-7500 -133 0
-7500 140 0
7500 -16 17 -39 -61 64 -94 116 122 133 -140 0
-7501 16 0
-7501 -17 0
-7501 39 0
-7501 61 0
-7501 -64 0
-7501 94 0
-7501 100 0
-7501 -116 0
-7501 126 0
-7501 -133 0
-7501 140 0
7501 -16 17 -39 -61 64 -94 -100 116 -126 133 -140 0
-7502 16 0
-7502 -17 0
-7502 39 0
-7502 61 0
-7502 -64 0
-7502 94 0
-7502 100 0
-7502 110 0
-7502 -116 0
-7502 126 0
-7502 -133 0
7502 -16 17 -39 -61 64 -94 -100 -110 116 -126 133 0
-7503 16 0
-7503 17 0
-7503 19 0
-7503 -39 0
-7503 61 0
-7503 -64 0
-7503 94 0
-7503 100 0
-7503 -116 0
-7503 126 0
-7503 -133 0
-7503 140 0
7503 -16 -17 -19 39 -61 64 -94 -100 116 -126 133 -140 0
-7504 16 0
-7504 17 0
-7504 19 0
-7504 -39 0
-7504 61 0
-7504 -64 0
-7504 94 0
-7504 100 0
-7504 110 0
-7504 -116 0
-7504 126 0
-7504 -133 0
7504 -16 -17 -19 39 -61 64 -94 -100 -110 116 -126 133 0
-7505 16 0
-7505 17 0
-7505 19 0
-7505 -39 0
-7505 61 0
-7505 -64 0
-7505 -93 0
-7505 100 0
-7505 -116 0
-7505 126 0
-7505 -133 0
7505 -16 -17 -19 39 -61 64 93 -100 116 -126 133 0
-7506 16 0
-7506 17 0
-7506 19 0
-7506 -39 0
-7506 61 0
-7506 -64 0
-7506 94 0
-7506 100 0
-7506 101 0
-7506 -116 0
-7506 126 0
-7506 -133 0
7506 -16 -17 -19 39 -61 64 -94 -100 -101 116 -126 133 0
-7507 16 0
-7507 17 0
-7507 19 0
-7507 -39 0
-7507 61 0
-7507 -64 0
-7507 -94 0
-7507 100 0
-7507 -101 0
-7507 -116 0
-7507 126 0
-7507 -133 0
7507 -16 -17 -19 39 -61 64 94 -100 101 116 -126 133 0
-7508 16 0
-7508 17 0
-7508 19 0
-7508 -39 0
-7508 61 0
-7508 -64 0
-7508 -94 0
-7508 100 0
-7508 -110 0
-7508 -116 0
-7508 126 0
-7508 -133 0
7508 -16 -17 -19 39 -61 64 94 -100 110 116 -126 133 0
-7509 16 0
-7509 17 0
-7509 19 0
-7509 -39 0
-7509 61 0
-7509 -64 0
-7509 -94 0
-7509 100 0
-7509 -116 0
-7509 126 0
-7509 -133 0
-7509 -140 0
7509 -16 -17 -19 39 -61 64 94 -100 116 -126 133 140 0
-7510 16 0
-7510 17 0
-7510 19 0
-7510 -39 0
-7510 62 0
-7510 64 0
-7510 -94 0
-7510 100 0
-7510 -116 0
-7510 126 0
-7510 -133 0
-7510 -140 0
7510 -16 -17 -19 39 -62 -64 94 -100 116 -126 133 140 0
-7511 16 0
-7511 -17 0
-7511 39 0
-7511 -94 0
-7511 -110 0
-7511 -116 0
-7511 -122 0
-7511 -133 0
-7511 -164 0
7511 -16 17 -39 94 110 116 122 133 164 0
-7512 16 0
-7512 17 0
-7512 19 0
-7512 -39 0
-7512 -57 0
-7512 -58 0
-7512 -62 0
-7512 -94 0
-7512 100 0
-7512 -116 0
-7512 126 0
-7512 -133 0
-7512 -140 0
7512 -16 -17 -19 39 57 58 62 94 -100 116 -126 133 140 0
-7513 16 0
-7513 -17 0
-7513 39 0
-7513 -61 0
-7513 -62 0
-7513 -94 0
-7513 -101 0
-7513 -116 0
-7513 -122 0
-7513 -133 0
7513 -16 17 -39 61 62 94 101 116 122 133 0
-7514 16 0
-7514 -17 0
-7514 39 0
-7514 -61 0
-7514 -62 0
-7514 -93 0
-7514 -116 0
-7514 -122 0
-7514 -133 0
7514 -16 17 -39 61 62 93 116 122 133 0
-7515 16 0
-7515 17 0
-7515 19 0
-7515 -39 0
-7515 -80 0
-7515 -94 0
-7515 100 0
-7515 -116 0
-7515 126 0
-7515 -133 0
-7515 -140 0
7515 -16 -17 -19 39 80 94 -100 116 -126 133 140 0
-7516 16 0
-7516 17 0
-7516 19 0
-7516 -39 0
-7516 -78 0
-7516 -94 0
-7516 100 0
-7516 -116 0
-7516 126 0
-7516 -133 0
-7516 -140 0
7516 -16 -17 -19 39 78 94 -100 116 -126 133 140 0
-7517 16 0
-7517 -17 0
-7517 39 0
-7517 -55 0
-7517 -61 0
-7517 -93 0
-7517 -116 0
-7517 -122 0
-7517 -133 0
7517 -16 17 -39 55 61 93 116 122 133 0
-7518 16 0
-7518 -17 0
-7518 39 0
-7518 -55 0
-7518 -61 0
-7518 -94 0
-7518 -101 0
-7518 -116 0
-7518 -122 0
-7518 -133 0
7518 -16 17 -39 55 61 94 101 116 122 133 0
-7519 16 0
-7519 -17 0
-7519 39 0
-7519 -54 0
-7519 -61 0
-7519 -93 0
-7519 -116 0
-7519 -122 0
-7519 -133 0
7519 -16 17 -39 54 61 93 116 122 133 0
-7520 16 0
-7520 -17 0
-7520 39 0
-7520 -54 0
-7520 -61 0
-7520 -94 0
-7520 -101 0
-7520 -116 0
-7520 -122 0
-7520 -133 0
7520 -16 17 -39 54 61 94 101 116 122 133 0
-7521 16 0
-7521 17 0
-7521 19 0
-7521 -39 0
-7521 -84 0
-7521 -94 0
-7521 100 0
-7521 -116 0
-7521 126 0
-7521 -133 0
-7521 -140 0
7521 -16 -17 -19 39 84 94 -100 116 -126 133 140 0
-7522 16 0
-7522 17 0
-7522 19 0
-7522 -39 0
-7522 -77 0
-7522 -94 0
-7522 100 0
-7522 -116 0
-7522 126 0
-7522 -133 0
-7522 -140 0
7522 -16 -17 -19 39 77 94 -100 116 -126 133 140 0
-7523 16 0
-7523 17 0
-7523 19 0
-7523 -39 0
-7523 -81 0
-7523 -94 0
-7523 100 0
-7523 -116 0
-7523 126 0
-7523 -133 0
-7523 -140 0
7523 -16 -17 -19 39 81 94 -100 116 -126 133 140 0
-7524 16 0
-7524 17 0
-7524 19 0
-7524 -39 0
-7524 -79 0
-7524 -94 0
-7524 100 0
-7524 -116 0
-7524 126 0
-7524 -133 0
-7524 -140 0
7524 -16 -17 -19 39 79 94 -100 116 -126 133 140 0
-7525 16 0
-7525 17 0
-7525 19 0
-7525 -39 0
-7525 -83 0
-7525 -94 0
-7525 100 0
-7525 -116 0
-7525 126 0
-7525 -133 0
-7525 -140 0
7525 -16 -17 -19 39 83 94 -100 116 -126 133 140 0
-7526 16 0
-7526 17 0
-7526 19 0
-7526 -39 0
-7526 -76 0
-7526 -94 0
-7526 100 0
-7526 -116 0
-7526 126 0
-7526 -133 0
-7526 -140 0
7526 -16 -17 -19 39 76 94 -100 116 -126 133 140 0
-7527 16 0
-7527 17 0
-7527 19 0
-7527 -39 0
-7527 -82 0
-7527 -94 0
-7527 100 0
-7527 -116 0
-7527 126 0
-7527 -133 0
-7527 -140 0
7527 -16 -17 -19 39 82 94 -100 116 -126 133 140 0
-7528 16 0
-7528 17 0
-7528 19 0
-7528 -39 0
-7528 -56 0
-7528 -62 0
-7528 -94 0
-7528 100 0
-7528 -116 0
-7528 126 0
-7528 -133 0
-7528 -140 0
7528 -16 -17 -19 39 56 62 94 -100 116 -126 133 140 0
-7529 16 0
-7529 17 0
-7529 19 0
-7529 -39 0
-7529 -63 0
-7529 -94 0
-7529 100 0
-7529 -116 0
-7529 126 0
-7529 -133 0
-7529 -140 0
7529 -16 -17 -19 39 63 94 -100 116 -126 133 140 0
-7530 16 0
-7530 17 0
-7530 19 0
-7530 -39 0
-7530 -94 0
-7530 100 0
-7530 -116 0
-7530 126 0
-7530 -133 0
-7530 -140 0
-7530 -164 0
7530 -16 -17 -19 39 94 -100 116 -126 133 140 164 0
-7531 16 0
-7531 17 0
-7531 19 0
-7531 -39 0
-7531 66 0
-7531 -94 0
-7531 100 0
-7531 -116 0
-7531 126 0
-7531 -133 0
-7531 -140 0
7531 -16 -17 -19 39 -66 94 -100 116 -126 133 140 0
-7532 16 0
-7532 17 0
-7532 19 0
-7532 -39 0
-7532 65 0
-7532 -94 0
-7532 100 0
-7532 -116 0
-7532 126 0
-7532 -133 0
-7532 -140 0
7532 -16 -17 -19 39 -65 94 -100 116 -126 133 140 0
-7533 16 0
-7533 17 0
-7533 19 0
-7533 -39 0
-7533 -57 0
-7533 -58 0
-7533 -62 0
-7533 -94 0
-7533 100 0
-7533 -110 0
-7533 -116 0
-7533 126 0
-7533 -133 0
7533 -16 -17 -19 39 57 58 62 94 -100 110 116 -126 133 0
-7534 16 0
-7534 17 0
-7534 19 0
-7534 -39 0
-7534 -57 0
-7534 -58 0
-7534 -62 0
-7534 -93 0
-7534 100 0
-7534 -116 0
-7534 126 0
-7534 -133 0
7534 -16 -17 -19 39 57 58 62 93 -100 116 -126 133 0
-7535 16 0
-7535 17 0
-7535 19 0
-7535 -39 0
-7535 -57 0
-7535 -58 0
-7535 -62 0
-7535 -94 0
-7535 100 0
-7535 -101 0
-7535 -116 0
-7535 126 0
-7535 -133 0
7535 -16 -17 -19 39 57 58 62 94 -100 101 116 -126 133 0
-7536 16 0
-7536 17 0
-7536 19 0
-7536 -39 0
-7536 -80 0
-7536 -94 0
-7536 100 0
-7536 -110 0
-7536 -116 0
-7536 126 0
-7536 -133 0
7536 -16 -17 -19 39 80 94 -100 110 116 -126 133 0
-7537 16 0
-7537 -17 0
-7537 39 0
-7537 -54 0
-7537 -57 0
-7537 -58 0
-7537 -94 0
-7537 -110 0
-7537 -116 0
-7537 -122 0
-7537 -133 0
7537 -16 17 -39 54 57 58 94 110 116 122 133 0
-7538 16 0
-7538 17 0
-7538 19 0
-7538 -39 0
-7538 -78 0
-7538 -94 0
-7538 100 0
-7538 -110 0
-7538 -116 0
-7538 126 0
-7538 -133 0
7538 -16 -17 -19 39 78 94 -100 110 116 -126 133 0
-7539 16 0
-7539 17 0
-7539 19 0
-7539 -39 0
-7539 -84 0
-7539 -94 0
-7539 100 0
-7539 -110 0
-7539 -116 0
-7539 126 0
-7539 -133 0
7539 -16 -17 -19 39 84 94 -100 110 116 -126 133 0
-7540 16 0
-7540 17 0
-7540 19 0
-7540 -39 0
-7540 -77 0
-7540 -94 0
-7540 100 0
-7540 -110 0
-7540 -116 0
-7540 126 0
-7540 -133 0
7540 -16 -17 -19 39 77 94 -100 110 116 -126 133 0
-7541 16 0
-7541 17 0
-7541 19 0
-7541 -39 0
-7541 -81 0
-7541 -94 0
-7541 100 0
-7541 -110 0
-7541 -116 0
-7541 126 0
-7541 -133 0
7541 -16 -17 -19 39 81 94 -100 110 116 -126 133 0
-7542 16 0
-7542 17 0
-7542 19 0
-7542 -39 0
-7542 -79 0
-7542 -94 0
-7542 100 0
-7542 -110 0
-7542 -116 0
-7542 126 0
-7542 -133 0
7542 -16 -17 -19 39 79 94 -100 110 116 -126 133 0
-7543 16 0
-7543 17 0
-7543 19 0
-7543 -39 0
-7543 -83 0
-7543 -94 0
-7543 100 0
-7543 -110 0
-7543 -116 0
-7543 126 0
-7543 -133 0
7543 -16 -17 -19 39 83 94 -100 110 116 -126 133 0
-7544 16 0
-7544 17 0
-7544 19 0
-7544 -39 0
-7544 -76 0
-7544 -94 0
-7544 100 0
-7544 -110 0
-7544 -116 0
-7544 126 0
-7544 -133 0
7544 -16 -17 -19 39 76 94 -100 110 116 -126 133 0
-7545 16 0
-7545 17 0
-7545 19 0
-7545 -39 0
-7545 -82 0
-7545 -94 0
-7545 100 0
-7545 -110 0
-7545 -116 0
-7545 126 0
-7545 -133 0
7545 -16 -17 -19 39 82 94 -100 110 116 -126 133 0
-7546 16 0
-7546 17 0
-7546 19 0
-7546 -39 0
-7546 -80 0
-7546 95 0
-7546 100 0
-7546 -116 0
-7546 126 0
-7546 -133 0
7546 -16 -17 -19 39 80 -95 -100 116 -126 133 0
-7547 16 0
-7547 17 0
-7547 19 0
-7547 -39 0
-7547 62 0
-7547 64 0
-7547 94 0
-7547 100 0
-7547 101 0
-7547 -116 0
-7547 126 0
-7547 -133 0
7547 -16 -17 -19 39 -62 -64 -94 -100 -101 116 -126 133 0
-7548 16 0
-7548 17 0
-7548 19 0
-7548 -39 0
-7548 65 0
-7548 94 0
-7548 100 0
-7548 101 0
-7548 -116 0
-7548 126 0
-7548 -133 0
7548 -16 -17 -19 39 -65 -94 -100 -101 116 -126 133 0
-7549 16 0
-7549 17 0
-7549 19 0
-7549 -39 0
-7549 66 0
-7549 94 0
-7549 100 0
-7549 101 0
-7549 -116 0
-7549 126 0
-7549 -133 0
7549 -16 -17 -19 39 -66 -94 -100 -101 116 -126 133 0
-7550 16 0
-7550 17 0
-7550 19 0
-7550 -39 0
-7550 -57 0
-7550 -58 0
-7550 -62 0
-7550 94 0
-7550 100 0
-7550 101 0
-7550 -116 0
-7550 126 0
-7550 -133 0
7550 -16 -17 -19 39 57 58 62 -94 -100 -101 116 -126 133 0
-7551 16 0
-7551 17 0
-7551 19 0
-7551 -39 0
-7551 -61 0
-7551 -62 0
-7551 94 0
-7551 100 0
-7551 101 0
-7551 -116 0
-7551 126 0
-7551 -133 0
7551 -16 -17 -19 39 61 62 -94 -100 -101 116 -126 133 0
-7552 16 0
-7552 17 0
-7552 19 0
-7552 -39 0
-7552 -63 0
-7552 94 0
-7552 100 0
-7552 101 0
-7552 -116 0
-7552 126 0
-7552 -133 0
7552 -16 -17 -19 39 63 -94 -100 -101 116 -126 133 0
-7553 16 0
-7553 17 0
-7553 19 0
-7553 -39 0
-7553 -55 0
-7553 -61 0
-7553 94 0
-7553 100 0
-7553 101 0
-7553 -116 0
-7553 126 0
-7553 -133 0
7553 -16 -17 -19 39 55 61 -94 -100 -101 116 -126 133 0
-7554 16 0
-7554 17 0
-7554 19 0
-7554 -39 0
-7554 -80 0
-7554 -93 0
-7554 100 0
-7554 -116 0
-7554 126 0
-7554 -133 0
7554 -16 -17 -19 39 80 93 -100 116 -126 133 0
-7555 16 0
-7555 17 0
-7555 19 0
-7555 -39 0
-7555 -80 0
-7555 -94 0
-7555 100 0
-7555 -101 0
-7555 -116 0
-7555 126 0
-7555 -133 0
7555 -16 -17 -19 39 80 94 -100 101 116 -126 133 0
-7556 16 0
-7556 17 0
-7556 19 0
-7556 -39 0
-7556 95 0
-7556 100 0
-7556 -116 0
-7556 126 0
-7556 -133 0
-7556 -164 0
7556 -16 -17 -19 39 -95 -100 116 -126 133 164 0
-7557 16 0
-7557 17 0
-7557 19 0
-7557 -39 0
-7557 -54 0
-7557 -61 0
-7557 95 0
-7557 100 0
-7557 -116 0
-7557 126 0
-7557 -133 0
7557 -16 -17 -19 39 54 61 -95 -100 116 -126 133 0
-7558 16 0
-7558 17 0
-7558 19 0
-7558 -39 0
-7558 -78 0
-7558 95 0
-7558 100 0
-7558 -116 0
-7558 126 0
-7558 -133 0
7558 -16 -17 -19 39 78 -95 -100 116 -126 133 0
-7559 16 0
-7559 17 0
-7559 19 0
-7559 -39 0
-7559 -84 0
-7559 95 0
-7559 100 0
-7559 -116 0
-7559 126 0
-7559 -133 0
7559 -16 -17 -19 39 84 -95 -100 116 -126 133 0
-7560 16 0
-7560 17 0
-7560 19 0
-7560 -39 0
-7560 -77 0
-7560 95 0
-7560 100 0
-7560 -116 0
-7560 126 0
-7560 -133 0
7560 -16 -17 -19 39 77 -95 -100 116 -126 133 0
-7561 16 0
-7561 17 0
-7561 19 0
-7561 -39 0
-7561 -81 0
-7561 95 0
-7561 100 0
-7561 -116 0
-7561 126 0
-7561 -133 0
7561 -16 -17 -19 39 81 -95 -100 116 -126 133 0
-7562 16 0
-7562 17 0
-7562 19 0
-7562 -39 0
-7562 -79 0
-7562 95 0
-7562 100 0
-7562 -116 0
-7562 126 0
-7562 -133 0
7562 -16 -17 -19 39 79 -95 -100 116 -126 133 0
-7563 16 0
-7563 17 0
-7563 19 0
-7563 -39 0
-7563 -83 0
-7563 95 0
-7563 100 0
-7563 -116 0
-7563 126 0
-7563 -133 0
7563 -16 -17 -19 39 83 -95 -100 116 -126 133 0
-7564 16 0
-7564 17 0
-7564 19 0
-7564 -39 0
-7564 -76 0
-7564 95 0
-7564 100 0
-7564 -116 0
-7564 126 0
-7564 -133 0
7564 -16 -17 -19 39 76 -95 -100 116 -126 133 0
-7565 16 0
-7565 17 0
-7565 19 0
-7565 -39 0
-7565 -82 0
-7565 95 0
-7565 100 0
-7565 -116 0
-7565 126 0
-7565 -133 0
7565 -16 -17 -19 39 82 -95 -100 116 -126 133 0
-7566 16 0
-7566 17 0
-7566 19 0
-7566 -39 0
-7566 -56 0
-7566 -74 0
-7566 95 0
-7566 100 0
-7566 -116 0
-7566 126 0
-7566 -133 0
7566 -16 -17 -19 39 56 74 -95 -100 116 -126 133 0
-7567 16 0
-7567 17 0
-7567 19 0
-7567 -39 0
-7567 -56 0
-7567 -67 0
-7567 95 0
-7567 100 0
-7567 -116 0
-7567 126 0
-7567 -133 0
7567 -16 -17 -19 39 56 67 -95 -100 116 -126 133 0
-7568 16 0
-7568 17 0
-7568 19 0
-7568 -39 0
-7568 -56 0
-7568 -73 0
-7568 95 0
-7568 100 0
-7568 -116 0
-7568 126 0
-7568 -133 0
7568 -16 -17 -19 39 56 73 -95 -100 116 -126 133 0
-7569 16 0
-7569 17 0
-7569 19 0
-7569 -39 0
-7569 -56 0
-7569 -71 0
-7569 95 0
-7569 100 0
-7569 -116 0
-7569 126 0
-7569 -133 0
7569 -16 -17 -19 39 56 71 -95 -100 116 -126 133 0
-7570 16 0
-7570 17 0
-7570 19 0
-7570 -39 0
-7570 -56 0
-7570 -69 0
-7570 95 0
-7570 100 0
-7570 -116 0
-7570 126 0
-7570 -133 0
7570 -16 -17 -19 39 56 69 -95 -100 116 -126 133 0
-7571 16 0
-7571 17 0
-7571 19 0
-7571 -39 0
-7571 -56 0
-7571 -75 0
-7571 95 0
-7571 100 0
-7571 -116 0
-7571 126 0
-7571 -133 0
7571 -16 -17 -19 39 56 75 -95 -100 116 -126 133 0
-7572 16 0
-7572 17 0
-7572 19 0
-7572 -39 0
-7572 -56 0
-7572 -68 0
-7572 95 0
-7572 100 0
-7572 -116 0
-7572 126 0
-7572 -133 0
7572 -16 -17 -19 39 56 68 -95 -100 116 -126 133 0
-7573 16 0
-7573 17 0
-7573 19 0
-7573 -39 0
-7573 -56 0
-7573 -72 0
-7573 95 0
-7573 100 0
-7573 -116 0
-7573 126 0
-7573 -133 0
7573 -16 -17 -19 39 56 72 -95 -100 116 -126 133 0
-7574 16 0
-7574 17 0
-7574 19 0
-7574 -39 0
-7574 -56 0
-7574 -70 0
-7574 95 0
-7574 100 0
-7574 -116 0
-7574 126 0
-7574 -133 0
7574 -16 -17 -19 39 56 70 -95 -100 116 -126 133 0
-7575 16 0
-7575 17 0
-7575 19 0
-7575 -39 0
-7575 -56 0
-7575 -62 0
-7575 95 0
-7575 100 0
-7575 -116 0
-7575 126 0
-7575 -133 0
7575 -16 -17 -19 39 56 62 -95 -100 116 -126 133 0
-7576 16 0
-7576 17 0
-7576 19 0
-7576 -39 0
-7576 -56 0
-7576 -74 0
-7576 94 0
-7576 100 0
-7576 101 0
-7576 -116 0
-7576 126 0
-7576 -133 0
7576 -16 -17 -19 39 56 74 -94 -100 -101 116 -126 133 0
-7577 16 0
-7577 17 0
-7577 19 0
-7577 -39 0
-7577 -56 0
-7577 -74 0
-7577 94 0
-7577 100 0
-7577 110 0
-7577 -116 0
-7577 126 0
-7577 -133 0
7577 -16 -17 -19 39 56 74 -94 -100 -110 116 -126 133 0
-7578 16 0
-7578 17 0
-7578 19 0
-7578 -39 0
-7578 -56 0
-7578 -74 0
-7578 94 0
-7578 100 0
-7578 -116 0
-7578 126 0
-7578 -133 0
-7578 140 0
7578 -16 -17 -19 39 56 74 -94 -100 116 -126 133 -140 0
-7579 16 0
-7579 17 0
-7579 19 0
-7579 -39 0
-7579 -56 0
-7579 -74 0
-7579 -93 0
-7579 100 0
-7579 -116 0
-7579 126 0
-7579 -133 0
7579 -16 -17 -19 39 56 74 93 -100 116 -126 133 0
-7580 16 0
-7580 17 0
-7580 19 0
-7580 -39 0
-7580 -56 0
-7580 -74 0
-7580 -94 0
-7580 100 0
-7580 -101 0
-7580 -116 0
-7580 126 0
-7580 -133 0
7580 -16 -17 -19 39 56 74 94 -100 101 116 -126 133 0
-7581 16 0
-7581 17 0
-7581 19 0
-7581 -39 0
-7581 -56 0
-7581 -74 0
-7581 -94 0
-7581 100 0
-7581 -110 0
-7581 -116 0
-7581 126 0
-7581 -133 0
7581 -16 -17 -19 39 56 74 94 -100 110 116 -126 133 0
-7582 16 0
-7582 17 0
-7582 19 0
-7582 -39 0
-7582 -56 0
-7582 -74 0
-7582 -94 0
-7582 100 0
-7582 -116 0
-7582 126 0
-7582 -133 0
-7582 -140 0
7582 -16 -17 -19 39 56 74 94 -100 116 -126 133 140 0
-7583 16 0
-7583 17 0
-7583 19 0
-7583 -39 0
-7583 -56 0
-7583 -67 0
-7583 -93 0
-7583 100 0
-7583 -116 0
-7583 126 0
-7583 -133 0
7583 -16 -17 -19 39 56 67 93 -100 116 -126 133 0
-7584 16 0
-7584 17 0
-7584 19 0
-7584 -39 0
-7584 -56 0
-7584 -73 0
-7584 -93 0
-7584 100 0
-7584 -116 0
-7584 126 0
-7584 -133 0
7584 -16 -17 -19 39 56 73 93 -100 116 -126 133 0
-7585 16 0
-7585 17 0
-7585 19 0
-7585 -39 0
-7585 -56 0
-7585 -71 0
-7585 -93 0
-7585 100 0
-7585 -116 0
-7585 126 0
-7585 -133 0
7585 -16 -17 -19 39 56 71 93 -100 116 -126 133 0
-7586 16 0
-7586 17 0
-7586 19 0
-7586 -39 0
-7586 -56 0
-7586 -69 0
-7586 -93 0
-7586 100 0
-7586 -116 0
-7586 126 0
-7586 -133 0
7586 -16 -17 -19 39 56 69 93 -100 116 -126 133 0
-7587 16 0
-7587 17 0
-7587 19 0
-7587 -39 0
-7587 -56 0
-7587 -75 0
-7587 -93 0
-7587 100 0
-7587 -116 0
-7587 126 0
-7587 -133 0
7587 -16 -17 -19 39 56 75 93 -100 116 -126 133 0
-7588 16 0
-7588 17 0
-7588 19 0
-7588 -39 0
-7588 -56 0
-7588 -68 0
-7588 -93 0
-7588 100 0
-7588 -116 0
-7588 126 0
-7588 -133 0
7588 -16 -17 -19 39 56 68 93 -100 116 -126 133 0
-7589 16 0
-7589 17 0
-7589 19 0
-7589 -39 0
-7589 -56 0
-7589 -72 0
-7589 -93 0
-7589 100 0
-7589 -116 0
-7589 126 0
-7589 -133 0
7589 -16 -17 -19 39 56 72 93 -100 116 -126 133 0
-7590 16 0
-7590 17 0
-7590 19 0
-7590 -39 0
-7590 -56 0
-7590 -70 0
-7590 -93 0
-7590 100 0
-7590 -116 0
-7590 126 0
-7590 -133 0
7590 -16 -17 -19 39 56 70 93 -100 116 -126 133 0
-7591 16 0
-7591 17 0
-7591 19 0
-7591 -39 0
-7591 -78 0
-7591 -93 0
-7591 100 0
-7591 -116 0
-7591 126 0
-7591 -133 0
7591 -16 -17 -19 39 78 93 -100 116 -126 133 0
-7592 16 0
-7592 17 0
-7592 19 0
-7592 -39 0
-7592 -84 0
-7592 -93 0
-7592 100 0
-7592 -116 0
-7592 126 0
-7592 -133 0
7592 -16 -17 -19 39 84 93 -100 116 -126 133 0
-7593 16 0
-7593 17 0
-7593 19 0
-7593 -39 0
-7593 -77 0
-7593 -93 0
-7593 100 0
-7593 -116 0
-7593 126 0
-7593 -133 0
7593 -16 -17 -19 39 77 93 -100 116 -126 133 0
-7594 16 0
-7594 17 0
-7594 19 0
-7594 -39 0
-7594 -81 0
-7594 -93 0
-7594 100 0
-7594 -116 0
-7594 126 0
-7594 -133 0
7594 -16 -17 -19 39 81 93 -100 116 -126 133 0
-7595 16 0
-7595 17 0
-7595 19 0
-7595 -39 0
-7595 -79 0
-7595 -93 0
-7595 100 0
-7595 -116 0
-7595 126 0
-7595 -133 0
7595 -16 -17 -19 39 79 93 -100 116 -126 133 0
-7596 16 0
-7596 17 0
-7596 19 0
-7596 -39 0
-7596 -83 0
-7596 -93 0
-7596 100 0
-7596 -116 0
-7596 126 0
-7596 -133 0
7596 -16 -17 -19 39 83 93 -100 116 -126 133 0
-7597 16 0
-7597 17 0
-7597 19 0
-7597 -39 0
-7597 -76 0
-7597 -93 0
-7597 100 0
-7597 -116 0
-7597 126 0
-7597 -133 0
7597 -16 -17 -19 39 76 93 -100 116 -126 133 0
-7598 16 0
-7598 17 0
-7598 19 0
-7598 -39 0
-7598 -82 0
-7598 -93 0
-7598 100 0
-7598 -116 0
-7598 126 0
-7598 -133 0
7598 -16 -17 -19 39 82 93 -100 116 -126 133 0
-7599 16 0
-7599 17 0
-7599 19 0
-7599 -39 0
-7599 -55 0
-7599 -56 0
-7599 -93 0
-7599 100 0
-7599 -116 0
-7599 126 0
-7599 -133 0
7599 -16 -17 -19 39 55 56 93 -100 116 -126 133 0
-7600 16 0
-7600 17 0
-7600 19 0
-7600 -39 0
-7600 -54 0
-7600 -56 0
-7600 -93 0
-7600 100 0
-7600 -116 0
-7600 126 0
-7600 -133 0
7600 -16 -17 -19 39 54 56 93 -100 116 -126 133 0
-7601 16 0
-7601 17 0
-7601 19 0
-7601 -39 0
-7601 -63 0
-7601 -93 0
-7601 100 0
-7601 -116 0
-7601 126 0
-7601 -133 0
7601 -16 -17 -19 39 63 93 -100 116 -126 133 0
-7602 16 0
-7602 17 0
-7602 19 0
-7602 -39 0
-7602 -56 0
-7602 -62 0
-7602 -93 0
-7602 100 0
-7602 -116 0
-7602 126 0
-7602 -133 0
7602 -16 -17 -19 39 56 62 93 -100 116 -126 133 0
-7603 16 0
-7603 17 0
-7603 19 0
-7603 -39 0
-7603 -93 0
-7603 100 0
-7603 -116 0
-7603 126 0
-7603 -133 0
-7603 -164 0
7603 -16 -17 -19 39 93 -100 116 -126 133 164 0
-7604 16 0
-7604 17 0
-7604 19 0
-7604 -39 0
-7604 66 0
-7604 -93 0
-7604 100 0
-7604 -116 0
-7604 126 0
-7604 -133 0
7604 -16 -17 -19 39 -66 93 -100 116 -126 133 0
-7605 16 0
-7605 17 0
-7605 19 0
-7605 -39 0
-7605 65 0
-7605 -93 0
-7605 100 0
-7605 -116 0
-7605 126 0
-7605 -133 0
7605 -16 -17 -19 39 -65 93 -100 116 -126 133 0
-7606 16 0
-7606 17 0
-7606 19 0
-7606 -39 0
-7606 -56 0
-7606 64 0
-7606 -93 0
-7606 100 0
-7606 -116 0
-7606 126 0
-7606 -133 0
7606 -16 -17 -19 39 56 -64 93 -100 116 -126 133 0
-7607 16 0
-7607 17 0
-7607 19 0
-7607 -39 0
-7607 -55 0
-7607 -56 0
-7607 -94 0
-7607 100 0
-7607 -101 0
-7607 -116 0
-7607 126 0
-7607 -133 0
7607 -16 -17 -19 39 55 56 94 -100 101 116 -126 133 0
-7608 16 0
-7608 17 0
-7608 19 0
-7608 -39 0
-7608 -55 0
-7608 -56 0
-7608 -94 0
-7608 100 0
-7608 -116 0
-7608 126 0
-7608 -133 0
-7608 -140 0
7608 -16 -17 -19 39 55 56 94 -100 116 -126 133 140 0
-7609 16 0
-7609 17 0
-7609 19 0
-7609 -39 0
-7609 -55 0
-7609 -56 0
-7609 -94 0
-7609 100 0
-7609 -110 0
-7609 -116 0
-7609 126 0
-7609 -133 0
7609 -16 -17 -19 39 55 56 94 -100 110 116 -126 133 0
-7610 16 0
-7610 17 0
-7610 19 0
-7610 -39 0
-7610 -55 0
-7610 -56 0
-7610 94 0
-7610 100 0
-7610 110 0
-7610 -116 0
-7610 126 0
-7610 -133 0
7610 -16 -17 -19 39 55 56 -94 -100 -110 116 -126 133 0
-7611 16 0
-7611 17 0
-7611 19 0
-7611 -39 0
-7611 -55 0
-7611 -56 0
-7611 94 0
-7611 100 0
-7611 -116 0
-7611 126 0
-7611 -133 0
-7611 140 0
7611 -16 -17 -19 39 55 56 -94 -100 116 -126 133 -140 0
-7612 16 0
-7612 17 0
-7612 19 0
-7612 -39 0
-7612 -55 0
-7612 -56 0
-7612 94 0
-7612 100 0
-7612 101 0
-7612 -116 0
-7612 126 0
-7612 -133 0
7612 -16 -17 -19 39 55 56 -94 -100 -101 116 -126 133 0
-7613 16 0
-7613 17 0
-7613 19 0
-7613 -39 0
-7613 -56 0
-7613 -62 0
-7613 94 0
-7613 100 0
-7613 101 0
-7613 -116 0
-7613 126 0
-7613 -133 0
7613 -16 -17 -19 39 56 62 -94 -100 -101 116 -126 133 0
-7614 16 0
-7614 17 0
-7614 19 0
-7614 -39 0
-7614 -54 0
-7614 -56 0
-7614 94 0
-7614 100 0
-7614 101 0
-7614 -116 0
-7614 126 0
-7614 -133 0
7614 -16 -17 -19 39 54 56 -94 -100 -101 116 -126 133 0
-7615 16 0
-7615 17 0
-7615 19 0
-7615 -39 0
-7615 94 0
-7615 100 0
-7615 101 0
-7615 -116 0
-7615 126 0
-7615 -133 0
-7615 -164 0
7615 -16 -17 -19 39 -94 -100 -101 116 -126 133 164 0
-7616 16 0
-7616 17 0
-7616 19 0
-7616 -39 0
-7616 -56 0
-7616 -67 0
-7616 94 0
-7616 100 0
-7616 101 0
-7616 -116 0
-7616 126 0
-7616 -133 0
7616 -16 -17 -19 39 56 67 -94 -100 -101 116 -126 133 0
-7617 16 0
-7617 17 0
-7617 19 0
-7617 -39 0
-7617 -56 0
-7617 -73 0
-7617 94 0
-7617 100 0
-7617 101 0
-7617 -116 0
-7617 126 0
-7617 -133 0
7617 -16 -17 -19 39 56 73 -94 -100 -101 116 -126 133 0
-7618 16 0
-7618 17 0
-7618 19 0
-7618 -39 0
-7618 -56 0
-7618 -71 0
-7618 94 0
-7618 100 0
-7618 101 0
-7618 -116 0
-7618 126 0
-7618 -133 0
7618 -16 -17 -19 39 56 71 -94 -100 -101 116 -126 133 0
-7619 16 0
-7619 17 0
-7619 19 0
-7619 -39 0
-7619 -56 0
-7619 -69 0
-7619 94 0
-7619 100 0
-7619 101 0
-7619 -116 0
-7619 126 0
-7619 -133 0
7619 -16 -17 -19 39 56 69 -94 -100 -101 116 -126 133 0
-7620 16 0
-7620 17 0
-7620 19 0
-7620 -39 0
-7620 -56 0
-7620 -75 0
-7620 94 0
-7620 100 0
-7620 101 0
-7620 -116 0
-7620 126 0
-7620 -133 0
7620 -16 -17 -19 39 56 75 -94 -100 -101 116 -126 133 0
-7621 16 0
-7621 17 0
-7621 19 0
-7621 -39 0
-7621 -56 0
-7621 -68 0
-7621 94 0
-7621 100 0
-7621 101 0
-7621 -116 0
-7621 126 0
-7621 -133 0
7621 -16 -17 -19 39 56 68 -94 -100 -101 116 -126 133 0
-7622 16 0
-7622 17 0
-7622 19 0
-7622 -39 0
-7622 -56 0
-7622 -72 0
-7622 94 0
-7622 100 0
-7622 101 0
-7622 -116 0
-7622 126 0
-7622 -133 0
7622 -16 -17 -19 39 56 72 -94 -100 -101 116 -126 133 0
-7623 16 0
-7623 17 0
-7623 19 0
-7623 -39 0
-7623 -56 0
-7623 -70 0
-7623 94 0
-7623 100 0
-7623 101 0
-7623 -116 0
-7623 126 0
-7623 -133 0
7623 -16 -17 -19 39 56 70 -94 -100 -101 116 -126 133 0
-7624 16 0
-7624 17 0
-7624 19 0
-7624 -39 0
-7624 -78 0
-7624 94 0
-7624 100 0
-7624 101 0
-7624 -116 0
-7624 126 0
-7624 -133 0
7624 -16 -17 -19 39 78 -94 -100 -101 116 -126 133 0
-7625 16 0
-7625 17 0
-7625 19 0
-7625 -39 0
-7625 65 0
-7625 95 0
-7625 -116 0
-7625 -133 0
-7625 134 0
7625 -16 -17 -19 39 -65 -95 116 133 -134 0
-7626 16 0
-7626 17 0
-7626 19 0
-7626 -39 0
-7626 66 0
-7626 95 0
-7626 -116 0
-7626 -133 0
-7626 134 0
7626 -16 -17 -19 39 -66 -95 116 133 -134 0
-7627 16 0
-7627 17 0
-7627 19 0
-7627 -39 0
-7627 -57 0
-7627 -58 0
-7627 -62 0
-7627 95 0
-7627 -116 0
-7627 -133 0
-7627 134 0
7627 -16 -17 -19 39 57 58 62 -95 116 133 -134 0
-7628 16 0
-7628 17 0
-7628 19 0
-7628 -39 0
-7628 -61 0
-7628 -62 0
-7628 95 0
-7628 -116 0
-7628 -133 0
-7628 134 0
7628 -16 -17 -19 39 61 62 -95 116 133 -134 0
-7629 16 0
-7629 17 0
-7629 19 0
-7629 -39 0
-7629 -63 0
-7629 95 0
-7629 -116 0
-7629 -133 0
-7629 134 0
7629 -16 -17 -19 39 63 -95 116 133 -134 0
-7630 16 0
-7630 17 0
-7630 19 0
-7630 -39 0
-7630 -55 0
-7630 -61 0
-7630 95 0
-7630 -116 0
-7630 -133 0
-7630 134 0
7630 -16 -17 -19 39 55 61 -95 116 133 -134 0
-7631 16 0
-7631 17 0
-7631 19 0
-7631 -39 0
-7631 -84 0
-7631 94 0
-7631 100 0
-7631 101 0
-7631 -116 0
-7631 126 0
-7631 -133 0
7631 -16 -17 -19 39 84 -94 -100 -101 116 -126 133 0
-7632 16 0
-7632 17 0
-7632 19 0
-7632 -39 0
-7632 -77 0
-7632 94 0
-7632 100 0
-7632 101 0
-7632 -116 0
-7632 126 0
-7632 -133 0
7632 -16 -17 -19 39 77 -94 -100 -101 116 -126 133 0
-7633 16 0
-7633 17 0
-7633 19 0
-7633 -39 0
-7633 -81 0
-7633 94 0
-7633 100 0
-7633 101 0
-7633 -116 0
-7633 126 0
-7633 -133 0
7633 -16 -17 -19 39 81 -94 -100 -101 116 -126 133 0
-7634 16 0
-7634 17 0
-7634 19 0
-7634 -39 0
-7634 -79 0
-7634 94 0
-7634 100 0
-7634 101 0
-7634 -116 0
-7634 126 0
-7634 -133 0
7634 -16 -17 -19 39 79 -94 -100 -101 116 -126 133 0
-7635 16 0
-7635 17 0
-7635 19 0
-7635 -39 0
-7635 -83 0
-7635 94 0
-7635 100 0
-7635 101 0
-7635 -116 0
-7635 126 0
-7635 -133 0
7635 -16 -17 -19 39 83 -94 -100 -101 116 -126 133 0
-7636 16 0
-7636 17 0
-7636 19 0
-7636 -39 0
-7636 -76 0
-7636 94 0
-7636 100 0
-7636 101 0
-7636 -116 0
-7636 126 0
-7636 -133 0
7636 -16 -17 -19 39 76 -94 -100 -101 116 -126 133 0
-7637 16 0
-7637 17 0
-7637 19 0
-7637 -39 0
-7637 -82 0
-7637 94 0
-7637 100 0
-7637 101 0
-7637 -116 0
-7637 126 0
-7637 -133 0
7637 -16 -17 -19 39 82 -94 -100 -101 116 -126 133 0
-7638 16 0
-7638 17 0
-7638 19 0
-7638 -39 0
-7638 -80 0
-7638 94 0
-7638 100 0
-7638 101 0
-7638 -116 0
-7638 126 0
-7638 -133 0
7638 -16 -17 -19 39 80 -94 -100 -101 116 -126 133 0
-7639 16 0
-7639 17 0
-7639 19 0
-7639 -39 0
-7639 -54 0
-7639 -56 0
-7639 94 0
-7639 100 0
-7639 -116 0
-7639 126 0
-7639 -133 0
-7639 140 0
7639 -16 -17 -19 39 54 56 -94 -100 116 -126 133 -140 0
-7640 16 0
-7640 17 0
-7640 19 0
-7640 -39 0
-7640 -54 0
-7640 -56 0
-7640 94 0
-7640 100 0
-7640 110 0
-7640 -116 0
-7640 126 0
-7640 -133 0
7640 -16 -17 -19 39 54 56 -94 -100 -110 116 -126 133 0
-7641 16 0
-7641 17 0
-7641 19 0
-7641 -39 0
-7641 -63 0
-7641 94 0
-7641 100 0
-7641 -116 0
-7641 126 0
-7641 -133 0
-7641 140 0
7641 -16 -17 -19 39 63 -94 -100 116 -126 133 -140 0
-7642 16 0
-7642 17 0
-7642 19 0
-7642 -39 0
-7642 -56 0
-7642 -62 0
-7642 94 0
-7642 100 0
-7642 -116 0
-7642 126 0
-7642 -133 0
-7642 140 0
7642 -16 -17 -19 39 56 62 -94 -100 116 -126 133 -140 0
-7643 16 0
-7643 17 0
-7643 19 0
-7643 -39 0
-7643 94 0
-7643 100 0
-7643 -116 0
-7643 126 0
-7643 -133 0
-7643 140 0
-7643 -164 0
7643 -16 -17 -19 39 -94 -100 116 -126 133 -140 164 0
-7644 16 0
-7644 17 0
-7644 19 0
-7644 -39 0
-7644 66 0
-7644 94 0
-7644 100 0
-7644 -116 0
-7644 126 0
-7644 -133 0
-7644 140 0
7644 -16 -17 -19 39 -66 -94 -100 116 -126 133 -140 0
-7645 16 0
-7645 17 0
-7645 19 0
-7645 -39 0
-7645 65 0
-7645 94 0
-7645 100 0
-7645 -116 0
-7645 126 0
-7645 -133 0
-7645 140 0
7645 -16 -17 -19 39 -65 -94 -100 116 -126 133 -140 0
-7646 16 0
-7646 17 0
-7646 19 0
-7646 -39 0
-7646 -56 0
-7646 64 0
-7646 94 0
-7646 100 0
-7646 -116 0
-7646 126 0
-7646 -133 0
-7646 140 0
7646 -16 -17 -19 39 56 -64 -94 -100 116 -126 133 -140 0
-7647 16 0
-7647 17 0
-7647 19 0
-7647 -39 0
-7647 -56 0
-7647 -67 0
-7647 94 0
-7647 100 0
-7647 -116 0
-7647 126 0
-7647 -133 0
-7647 140 0
7647 -16 -17 -19 39 56 67 -94 -100 116 -126 133 -140 0
-7648 16 0
-7648 17 0
-7648 19 0
-7648 -39 0
-7648 -56 0
-7648 -73 0
-7648 94 0
-7648 100 0
-7648 -116 0
-7648 126 0
-7648 -133 0
-7648 140 0
7648 -16 -17 -19 39 56 73 -94 -100 116 -126 133 -140 0
-7649 16 0
-7649 17 0
-7649 19 0
-7649 -39 0
-7649 -56 0
-7649 -71 0
-7649 94 0
-7649 100 0
-7649 -116 0
-7649 126 0
-7649 -133 0
-7649 140 0
7649 -16 -17 -19 39 56 71 -94 -100 116 -126 133 -140 0
-7650 16 0
-7650 17 0
-7650 19 0
-7650 -39 0
-7650 -56 0
-7650 -69 0
-7650 94 0
-7650 100 0
-7650 -116 0
-7650 126 0
-7650 -133 0
-7650 140 0
7650 -16 -17 -19 39 56 69 -94 -100 116 -126 133 -140 0
-7651 16 0
-7651 17 0
-7651 19 0
-7651 -39 0
-7651 -56 0
-7651 -75 0
-7651 94 0
-7651 100 0
-7651 -116 0
-7651 126 0
-7651 -133 0
-7651 140 0
7651 -16 -17 -19 39 56 75 -94 -100 116 -126 133 -140 0
-7652 16 0
-7652 17 0
-7652 19 0
-7652 -39 0
-7652 -56 0
-7652 -68 0
-7652 94 0
-7652 100 0
-7652 -116 0
-7652 126 0
-7652 -133 0
-7652 140 0
7652 -16 -17 -19 39 56 68 -94 -100 116 -126 133 -140 0
-7653 16 0
-7653 17 0
-7653 19 0
-7653 -39 0
-7653 -56 0
-7653 -72 0
-7653 94 0
-7653 100 0
-7653 -116 0
-7653 126 0
-7653 -133 0
-7653 140 0
7653 -16 -17 -19 39 56 72 -94 -100 116 -126 133 -140 0
-7654 16 0
-7654 17 0
-7654 19 0
-7654 -39 0
-7654 -56 0
-7654 -70 0
-7654 94 0
-7654 100 0
-7654 -116 0
-7654 126 0
-7654 -133 0
-7654 140 0
7654 -16 -17 -19 39 56 70 -94 -100 116 -126 133 -140 0
-7655 16 0
-7655 17 0
-7655 19 0
-7655 -39 0
-7655 -78 0
-7655 94 0
-7655 100 0
-7655 -116 0
-7655 126 0
-7655 -133 0
-7655 140 0
7655 -16 -17 -19 39 78 -94 -100 116 -126 133 -140 0
-7656 16 0
-7656 17 0
-7656 19 0
-7656 -39 0
-7656 -84 0
-7656 94 0
-7656 100 0
-7656 -116 0
-7656 126 0
-7656 -133 0
-7656 140 0
7656 -16 -17 -19 39 84 -94 -100 116 -126 133 -140 0
-7657 16 0
-7657 17 0
-7657 19 0
-7657 -39 0
-7657 -77 0
-7657 94 0
-7657 100 0
-7657 -116 0
-7657 126 0
-7657 -133 0
-7657 140 0
7657 -16 -17 -19 39 77 -94 -100 116 -126 133 -140 0
-7658 16 0
-7658 17 0
-7658 19 0
-7658 -39 0
-7658 -81 0
-7658 94 0
-7658 100 0
-7658 -116 0
-7658 126 0
-7658 -133 0
-7658 140 0
7658 -16 -17 -19 39 81 -94 -100 116 -126 133 -140 0
-7659 16 0
-7659 17 0
-7659 19 0
-7659 -39 0
-7659 -79 0
-7659 94 0
-7659 100 0
-7659 -116 0
-7659 126 0
-7659 -133 0
-7659 140 0
7659 -16 -17 -19 39 79 -94 -100 116 -126 133 -140 0
-7660 16 0
-7660 17 0
-7660 19 0
-7660 -39 0
-7660 -83 0
-7660 94 0
-7660 100 0
-7660 -116 0
-7660 126 0
-7660 -133 0
-7660 140 0
7660 -16 -17 -19 39 83 -94 -100 116 -126 133 -140 0
-7661 16 0
-7661 17 0
-7661 19 0
-7661 -39 0
-7661 -76 0
-7661 94 0
-7661 100 0
-7661 -116 0
-7661 126 0
-7661 -133 0
-7661 140 0
7661 -16 -17 -19 39 76 -94 -100 116 -126 133 -140 0
-7662 16 0
-7662 17 0
-7662 19 0
-7662 -39 0
-7662 -82 0
-7662 94 0
-7662 100 0
-7662 -116 0
-7662 126 0
-7662 -133 0
-7662 140 0
7662 -16 -17 -19 39 82 -94 -100 116 -126 133 -140 0
-7663 16 0
-7663 17 0
-7663 19 0
-7663 -39 0
-7663 -80 0
-7663 94 0
-7663 100 0
-7663 -116 0
-7663 126 0
-7663 -133 0
-7663 140 0
7663 -16 -17 -19 39 80 -94 -100 116 -126 133 -140 0
-7664 16 0
-7664 17 0
-7664 19 0
-7664 -39 0
-7664 -56 0
-7664 -67 0
-7664 94 0
-7664 100 0
-7664 110 0
-7664 -116 0
-7664 126 0
-7664 -133 0
7664 -16 -17 -19 39 56 67 -94 -100 -110 116 -126 133 0
-7665 16 0
-7665 17 0
-7665 19 0
-7665 -39 0
-7665 -56 0
-7665 -73 0
-7665 94 0
-7665 100 0
-7665 110 0
-7665 -116 0
-7665 126 0
-7665 -133 0
7665 -16 -17 -19 39 56 73 -94 -100 -110 116 -126 133 0
-7666 16 0
-7666 17 0
-7666 19 0
-7666 -39 0
-7666 -56 0
-7666 -71 0
-7666 94 0
-7666 100 0
-7666 110 0
-7666 -116 0
-7666 126 0
-7666 -133 0
7666 -16 -17 -19 39 56 71 -94 -100 -110 116 -126 133 0
-7667 16 0
-7667 17 0
-7667 19 0
-7667 -39 0
-7667 -56 0
-7667 -69 0
-7667 94 0
-7667 100 0
-7667 110 0
-7667 -116 0
-7667 126 0
-7667 -133 0
7667 -16 -17 -19 39 56 69 -94 -100 -110 116 -126 133 0
-7668 16 0
-7668 17 0
-7668 19 0
-7668 -39 0
-7668 -56 0
-7668 -75 0
-7668 94 0
-7668 100 0
-7668 110 0
-7668 -116 0
-7668 126 0
-7668 -133 0
7668 -16 -17 -19 39 56 75 -94 -100 -110 116 -126 133 0
-7669 16 0
-7669 17 0
-7669 19 0
-7669 -39 0
-7669 -56 0
-7669 -68 0
-7669 94 0
-7669 100 0
-7669 110 0
-7669 -116 0
-7669 126 0
-7669 -133 0
7669 -16 -17 -19 39 56 68 -94 -100 -110 116 -126 133 0
-7670 16 0
-7670 17 0
-7670 19 0
-7670 -39 0
-7670 -56 0
-7670 -72 0
-7670 94 0
-7670 100 0
-7670 110 0
-7670 -116 0
-7670 126 0
-7670 -133 0
7670 -16 -17 -19 39 56 72 -94 -100 -110 116 -126 133 0
-7671 16 0
-7671 17 0
-7671 19 0
-7671 -39 0
-7671 -56 0
-7671 -70 0
-7671 94 0
-7671 100 0
-7671 110 0
-7671 -116 0
-7671 126 0
-7671 -133 0
7671 -16 -17 -19 39 56 70 -94 -100 -110 116 -126 133 0
-7672 16 0
-7672 17 0
-7672 19 0
-7672 -39 0
-7672 -78 0
-7672 94 0
-7672 100 0
-7672 110 0
-7672 -116 0
-7672 126 0
-7672 -133 0
7672 -16 -17 -19 39 78 -94 -100 -110 116 -126 133 0
-7673 16 0
-7673 17 0
-7673 19 0
-7673 -39 0
-7673 -84 0
-7673 94 0
-7673 100 0
-7673 110 0
-7673 -116 0
-7673 126 0
-7673 -133 0
7673 -16 -17 -19 39 84 -94 -100 -110 116 -126 133 0
-7674 16 0
-7674 17 0
-7674 19 0
-7674 -39 0
-7674 -77 0
-7674 94 0
-7674 100 0
-7674 110 0
-7674 -116 0
-7674 126 0
-7674 -133 0
7674 -16 -17 -19 39 77 -94 -100 -110 116 -126 133 0
-7675 16 0
-7675 17 0
-7675 19 0
-7675 -39 0
-7675 -81 0
-7675 94 0
-7675 100 0
-7675 110 0
-7675 -116 0
-7675 126 0
-7675 -133 0
7675 -16 -17 -19 39 81 -94 -100 -110 116 -126 133 0
-7676 16 0
-7676 17 0
-7676 19 0
-7676 -39 0
-7676 -79 0
-7676 94 0
-7676 100 0
-7676 110 0
-7676 -116 0
-7676 126 0
-7676 -133 0
7676 -16 -17 -19 39 79 -94 -100 -110 116 -126 133 0
-7677 16 0
-7677 17 0
-7677 19 0
-7677 -39 0
-7677 -83 0
-7677 94 0
-7677 100 0
-7677 110 0
-7677 -116 0
-7677 126 0
-7677 -133 0
7677 -16 -17 -19 39 83 -94 -100 -110 116 -126 133 0
-7678 16 0
-7678 17 0
-7678 19 0
-7678 -39 0
-7678 -76 0
-7678 94 0
-7678 100 0
-7678 110 0
-7678 -116 0
-7678 126 0
-7678 -133 0
7678 -16 -17 -19 39 76 -94 -100 -110 116 -126 133 0
-7679 16 0
-7679 17 0
-7679 19 0
-7679 -39 0
-7679 -82 0
-7679 94 0
-7679 100 0
-7679 110 0
-7679 -116 0
-7679 126 0
-7679 -133 0
7679 -16 -17 -19 39 82 -94 -100 -110 116 -126 133 0
-7680 16 0
-7680 17 0
-7680 19 0
-7680 -39 0
-7680 -80 0
-7680 94 0
-7680 100 0
-7680 110 0
-7680 -116 0
-7680 126 0
-7680 -133 0
7680 -16 -17 -19 39 80 -94 -100 -110 116 -126 133 0
-7681 16 0
-7681 17 0
-7681 19 0
-7681 -39 0
-7681 -63 0
-7681 94 0
-7681 100 0
-7681 110 0
-7681 -116 0
-7681 126 0
-7681 -133 0
7681 -16 -17 -19 39 63 -94 -100 -110 116 -126 133 0
-7682 16 0
-7682 17 0
-7682 19 0
-7682 -39 0
-7682 -56 0
-7682 -62 0
-7682 94 0
-7682 100 0
-7682 110 0
-7682 -116 0
-7682 126 0
-7682 -133 0
7682 -16 -17 -19 39 56 62 -94 -100 -110 116 -126 133 0
-7683 16 0
-7683 17 0
-7683 19 0
-7683 -39 0
-7683 94 0
-7683 100 0
-7683 110 0
-7683 -116 0
-7683 126 0
-7683 -133 0
-7683 -164 0
7683 -16 -17 -19 39 -94 -100 -110 116 -126 133 164 0
-7684 16 0
-7684 17 0
-7684 19 0
-7684 -39 0
-7684 66 0
-7684 94 0
-7684 100 0
-7684 110 0
-7684 -116 0
-7684 126 0
-7684 -133 0
7684 -16 -17 -19 39 -66 -94 -100 -110 116 -126 133 0
-7685 16 0
-7685 17 0
-7685 19 0
-7685 -39 0
-7685 65 0
-7685 94 0
-7685 100 0
-7685 110 0
-7685 -116 0
-7685 126 0
-7685 -133 0
7685 -16 -17 -19 39 -65 -94 -100 -110 116 -126 133 0
-7686 16 0
-7686 17 0
-7686 19 0
-7686 -39 0
-7686 -56 0
-7686 64 0
-7686 94 0
-7686 100 0
-7686 110 0
-7686 -116 0
-7686 126 0
-7686 -133 0
7686 -16 -17 -19 39 56 -64 -94 -100 -110 116 -126 133 0
-7687 16 0
-7687 17 0
-7687 19 0
-7687 -39 0
-7687 -61 0
-7687 -62 0
-7687 94 0
-7687 100 0
-7687 110 0
-7687 -116 0
-7687 126 0
-7687 -133 0
7687 -16 -17 -19 39 61 62 -94 -100 -110 116 -126 133 0
-7688 16 0
-7688 17 0
-7688 19 0
-7688 -39 0
-7688 -61 0
-7688 64 0
-7688 94 0
-7688 100 0
-7688 110 0
-7688 -116 0
-7688 126 0
-7688 -133 0
7688 -16 -17 -19 39 61 -64 -94 -100 -110 116 -126 133 0
-7689 16 0
-7689 17 0
-7689 19 0
-7689 -39 0
-7689 62 0
-7689 64 0
-7689 94 0
-7689 100 0
-7689 110 0
-7689 -116 0
-7689 126 0
-7689 -133 0
7689 -16 -17 -19 39 -62 -64 -94 -100 -110 116 -126 133 0
-7690 16 0
-7690 17 0
-7690 19 0
-7690 -39 0
-7690 -57 0
-7690 -58 0
-7690 -62 0
-7690 94 0
-7690 100 0
-7690 110 0
-7690 -116 0
-7690 126 0
-7690 -133 0
7690 -16 -17 -19 39 57 58 62 -94 -100 -110 116 -126 133 0
-7691 16 0
-7691 17 0
-7691 19 0
-7691 -39 0
-7691 -55 0
-7691 -57 0
-7691 -58 0
-7691 94 0
-7691 100 0
-7691 110 0
-7691 -116 0
-7691 126 0
-7691 -133 0
7691 -16 -17 -19 39 55 57 58 -94 -100 -110 116 -126 133 0
-7692 16 0
-7692 17 0
-7692 19 0
-7692 -39 0
-7692 -55 0
-7692 -61 0
-7692 94 0
-7692 100 0
-7692 110 0
-7692 -116 0
-7692 126 0
-7692 -133 0
7692 -16 -17 -19 39 55 61 -94 -100 -110 116 -126 133 0
-7693 16 0
-7693 17 0
-7693 19 0
-7693 -39 0
-7693 -54 0
-7693 -61 0
-7693 94 0
-7693 100 0
-7693 110 0
-7693 -116 0
-7693 126 0
-7693 -133 0
7693 -16 -17 -19 39 54 61 -94 -100 -110 116 -126 133 0
-7694 16 0
-7694 17 0
-7694 19 0
-7694 -39 0
-7694 -61 0
-7694 -62 0
-7694 -93 0
-7694 100 0
-7694 -116 0
-7694 126 0
-7694 -133 0
7694 -16 -17 -19 39 61 62 93 -100 116 -126 133 0
-7695 16 0
-7695 17 0
-7695 19 0
-7695 -39 0
-7695 -61 0
-7695 64 0
-7695 -93 0
-7695 100 0
-7695 -116 0
-7695 126 0
-7695 -133 0
7695 -16 -17 -19 39 61 -64 93 -100 116 -126 133 0
-7696 16 0
-7696 17 0
-7696 19 0
-7696 -39 0
-7696 -61 0
-7696 -62 0
-7696 94 0
-7696 100 0
-7696 -116 0
-7696 126 0
-7696 -133 0
-7696 140 0
7696 -16 -17 -19 39 61 62 -94 -100 116 -126 133 -140 0
-7697 16 0
-7697 17 0
-7697 19 0
-7697 -39 0
-7697 -61 0
-7697 -62 0
-7697 -94 0
-7697 100 0
-7697 -101 0
-7697 -116 0
-7697 126 0
-7697 -133 0
7697 -16 -17 -19 39 61 62 94 -100 101 116 -126 133 0
-7698 16 0
-7698 17 0
-7698 19 0
-7698 -39 0
-7698 -61 0
-7698 -62 0
-7698 -94 0
-7698 100 0
-7698 -110 0
-7698 -116 0
-7698 126 0
-7698 -133 0
7698 -16 -17 -19 39 61 62 94 -100 110 116 -126 133 0
-7699 16 0
-7699 17 0
-7699 19 0
-7699 -39 0
-7699 -61 0
-7699 -62 0
-7699 -94 0
-7699 100 0
-7699 -116 0
-7699 126 0
-7699 -133 0
-7699 -140 0
7699 -16 -17 -19 39 61 62 94 -100 116 -126 133 140 0
-7700 16 0
-7700 17 0
-7700 19 0
-7700 -39 0
-7700 -63 0
-7700 -94 0
-7700 100 0
-7700 -110 0
-7700 -116 0
-7700 126 0
-7700 -133 0
7700 -16 -17 -19 39 63 94 -100 110 116 -126 133 0
-7701 16 0
-7701 17 0
-7701 19 0
-7701 -39 0
-7701 -63 0
-7701 -94 0
-7701 100 0
-7701 -101 0
-7701 -116 0
-7701 126 0
-7701 -133 0
7701 -16 -17 -19 39 63 94 -100 101 116 -126 133 0
-7702 16 0
-7702 17 0
-7702 19 0
-7702 -39 0
-7702 -94 0
-7702 100 0
-7702 -110 0
-7702 -116 0
-7702 126 0
-7702 -133 0
-7702 -164 0
7702 -16 -17 -19 39 94 -100 110 116 -126 133 164 0
-7703 16 0
-7703 17 0
-7703 19 0
-7703 -39 0
-7703 66 0
-7703 -94 0
-7703 100 0
-7703 -110 0
-7703 -116 0
-7703 126 0
-7703 -133 0
7703 -16 -17 -19 39 -66 94 -100 110 116 -126 133 0
-7704 16 0
-7704 17 0
-7704 19 0
-7704 -39 0
-7704 65 0
-7704 -94 0
-7704 100 0
-7704 -110 0
-7704 -116 0
-7704 126 0
-7704 -133 0
7704 -16 -17 -19 39 -65 94 -100 110 116 -126 133 0
-7705 16 0
-7705 17 0
-7705 19 0
-7705 -39 0
-7705 -61 0
-7705 64 0
-7705 -94 0
-7705 100 0
-7705 -110 0
-7705 -116 0
-7705 126 0
-7705 -133 0
7705 -16 -17 -19 39 61 -64 94 -100 110 116 -126 133 0
-7706 16 0
-7706 17 0
-7706 19 0
-7706 -39 0
-7706 -56 0
-7706 -67 0
-7706 -94 0
-7706 100 0
-7706 -110 0
-7706 -116 0
-7706 126 0
-7706 -133 0
7706 -16 -17 -19 39 56 67 94 -100 110 116 -126 133 0
-7707 16 0
-7707 17 0
-7707 19 0
-7707 -39 0
-7707 -56 0
-7707 -73 0
-7707 -94 0
-7707 100 0
-7707 -110 0
-7707 -116 0
-7707 126 0
-7707 -133 0
7707 -16 -17 -19 39 56 73 94 -100 110 116 -126 133 0
-7708 16 0
-7708 17 0
-7708 19 0
-7708 -39 0
-7708 -56 0
-7708 -71 0
-7708 -94 0
-7708 100 0
-7708 -110 0
-7708 -116 0
-7708 126 0
-7708 -133 0
7708 -16 -17 -19 39 56 71 94 -100 110 116 -126 133 0
-7709 16 0
-7709 17 0
-7709 19 0
-7709 -39 0
-7709 -56 0
-7709 -69 0
-7709 -94 0
-7709 100 0
-7709 -110 0
-7709 -116 0
-7709 126 0
-7709 -133 0
7709 -16 -17 -19 39 56 69 94 -100 110 116 -126 133 0
-7710 16 0
-7710 17 0
-7710 19 0
-7710 -39 0
-7710 -56 0
-7710 -75 0
-7710 -94 0
-7710 100 0
-7710 -110 0
-7710 -116 0
-7710 126 0
-7710 -133 0
7710 -16 -17 -19 39 56 75 94 -100 110 116 -126 133 0
-7711 16 0
-7711 17 0
-7711 19 0
-7711 -39 0
-7711 -56 0
-7711 -68 0
-7711 -94 0
-7711 100 0
-7711 -110 0
-7711 -116 0
-7711 126 0
-7711 -133 0
7711 -16 -17 -19 39 56 68 94 -100 110 116 -126 133 0
-7712 16 0
-7712 17 0
-7712 19 0
-7712 -39 0
-7712 -56 0
-7712 -72 0
-7712 -94 0
-7712 100 0
-7712 -110 0
-7712 -116 0
-7712 126 0
-7712 -133 0
7712 -16 -17 -19 39 56 72 94 -100 110 116 -126 133 0
-7713 16 0
-7713 17 0
-7713 19 0
-7713 -39 0
-7713 -56 0
-7713 -70 0
-7713 -94 0
-7713 100 0
-7713 -110 0
-7713 -116 0
-7713 126 0
-7713 -133 0
7713 -16 -17 -19 39 56 70 94 -100 110 116 -126 133 0
-7714 16 0
-7714 17 0
-7714 19 0
-7714 -39 0
-7714 -55 0
-7714 -61 0
-7714 -94 0
-7714 100 0
-7714 -110 0
-7714 -116 0
-7714 126 0
-7714 -133 0
7714 -16 -17 -19 39 55 61 94 -100 110 116 -126 133 0
-7715 16 0
-7715 17 0
-7715 19 0
-7715 -39 0
-7715 -54 0
-7715 -61 0
-7715 -94 0
-7715 100 0
-7715 -110 0
-7715 -116 0
-7715 126 0
-7715 -133 0
7715 -16 -17 -19 39 54 61 94 -100 110 116 -126 133 0
-7716 16 0
-7716 17 0
-7716 19 0
-7716 -39 0
-7716 62 0
-7716 64 0
-7716 -94 0
-7716 100 0
-7716 -110 0
-7716 -116 0
-7716 126 0
-7716 -133 0
7716 -16 -17 -19 39 -62 -64 94 -100 110 116 -126 133 0
-7717 16 0
-7717 17 0
-7717 19 0
-7717 -39 0
-7717 -56 0
-7717 -62 0
-7717 -94 0
-7717 100 0
-7717 -110 0
-7717 -116 0
-7717 126 0
-7717 -133 0
7717 -16 -17 -19 39 56 62 94 -100 110 116 -126 133 0
-7718 16 0
-7718 17 0
-7718 19 0
-7718 -39 0
-7718 -56 0
-7718 -62 0
-7718 -94 0
-7718 100 0
-7718 -101 0
-7718 -116 0
-7718 126 0
-7718 -133 0
7718 -16 -17 -19 39 56 62 94 -100 101 116 -126 133 0
-7719 16 0
-7719 17 0
-7719 19 0
-7719 -39 0
-7719 -78 0
-7719 -94 0
-7719 100 0
-7719 -101 0
-7719 -116 0
-7719 126 0
-7719 -133 0
7719 -16 -17 -19 39 78 94 -100 101 116 -126 133 0
-7720 16 0
-7720 17 0
-7720 19 0
-7720 -39 0
-7720 -54 0
-7720 -57 0
-7720 -58 0
-7720 94 0
-7720 100 0
-7720 101 0
-7720 -116 0
-7720 126 0
-7720 -133 0
7720 -16 -17 -19 39 54 57 58 -94 -100 -101 116 -126 133 0
-7721 16 0
-7721 17 0
-7721 19 0
-7721 -39 0
-7721 -54 0
-7721 -61 0
-7721 94 0
-7721 100 0
-7721 101 0
-7721 -116 0
-7721 126 0
-7721 -133 0
7721 -16 -17 -19 39 54 61 -94 -100 -101 116 -126 133 0
-7722 16 0
-7722 17 0
-7722 19 0
-7722 -39 0
-7722 -61 0
-7722 64 0
-7722 94 0
-7722 100 0
-7722 -116 0
-7722 126 0
-7722 -133 0
-7722 140 0
7722 -16 -17 -19 39 61 -64 -94 -100 116 -126 133 -140 0
-7723 16 0
-7723 17 0
-7723 19 0
-7723 -39 0
-7723 62 0
-7723 64 0
-7723 94 0
-7723 100 0
-7723 -116 0
-7723 126 0
-7723 -133 0
-7723 140 0
7723 -16 -17 -19 39 -62 -64 -94 -100 116 -126 133 -140 0
-7724 16 0
-7724 17 0
-7724 19 0
-7724 -39 0
-7724 -57 0
-7724 -58 0
-7724 -62 0
-7724 94 0
-7724 100 0
-7724 -116 0
-7724 126 0
-7724 -133 0
-7724 140 0
7724 -16 -17 -19 39 57 58 62 -94 -100 116 -126 133 -140 0
-7725 16 0
-7725 17 0
-7725 19 0
-7725 -39 0
-7725 -57 0
-7725 -58 0
-7725 64 0
-7725 -93 0
-7725 100 0
-7725 -116 0
-7725 126 0
-7725 -133 0
7725 -16 -17 -19 39 57 58 -64 93 -100 116 -126 133 0
-7726 16 0
-7726 17 0
-7726 19 0
-7726 -39 0
-7726 -57 0
-7726 -58 0
-7726 64 0
-7726 -94 0
-7726 100 0
-7726 -101 0
-7726 -116 0
-7726 126 0
-7726 -133 0
7726 -16 -17 -19 39 57 58 -64 94 -100 101 116 -126 133 0
-7727 16 0
-7727 17 0
-7727 19 0
-7727 -39 0
-7727 62 0
-7727 64 0
-7727 -94 0
-7727 100 0
-7727 -101 0
-7727 -116 0
-7727 126 0
-7727 -133 0
7727 -16 -17 -19 39 -62 -64 94 -100 101 116 -126 133 0
-7728 16 0
-7728 17 0
-7728 19 0
-7728 -39 0
-7728 62 0
-7728 64 0
-7728 -93 0
-7728 100 0
-7728 -116 0
-7728 126 0
-7728 -133 0
7728 -16 -17 -19 39 -62 -64 93 -100 116 -126 133 0
-7729 16 0
-7729 17 0
-7729 19 0
-7729 -39 0
-7729 -84 0
-7729 -94 0
-7729 100 0
-7729 -101 0
-7729 -116 0
-7729 126 0
-7729 -133 0
7729 -16 -17 -19 39 84 94 -100 101 116 -126 133 0
-7730 16 0
-7730 17 0
-7730 19 0
-7730 -39 0
-7730 -77 0
-7730 -94 0
-7730 100 0
-7730 -101 0
-7730 -116 0
-7730 126 0
-7730 -133 0
7730 -16 -17 -19 39 77 94 -100 101 116 -126 133 0
-7731 16 0
-7731 17 0
-7731 19 0
-7731 -39 0
-7731 -81 0
-7731 -94 0
-7731 100 0
-7731 -101 0
-7731 -116 0
-7731 126 0
-7731 -133 0
7731 -16 -17 -19 39 81 94 -100 101 116 -126 133 0
-7732 16 0
-7732 17 0
-7732 19 0
-7732 -39 0
-7732 -79 0
-7732 -94 0
-7732 100 0
-7732 -101 0
-7732 -116 0
-7732 126 0
-7732 -133 0
7732 -16 -17 -19 39 79 94 -100 101 116 -126 133 0
-7733 16 0
-7733 17 0
-7733 19 0
-7733 -39 0
-7733 -83 0
-7733 -94 0
-7733 100 0
-7733 -101 0
-7733 -116 0
-7733 126 0
-7733 -133 0
7733 -16 -17 -19 39 83 94 -100 101 116 -126 133 0
-7734 16 0
-7734 17 0
-7734 19 0
-7734 -39 0
-7734 -76 0
-7734 -94 0
-7734 100 0
-7734 -101 0
-7734 -116 0
-7734 126 0
-7734 -133 0
7734 -16 -17 -19 39 76 94 -100 101 116 -126 133 0
-7735 16 0
-7735 17 0
-7735 19 0
-7735 -39 0
-7735 -82 0
-7735 -94 0
-7735 100 0
-7735 -101 0
-7735 -116 0
-7735 126 0
-7735 -133 0
7735 -16 -17 -19 39 82 94 -100 101 116 -126 133 0
-7736 16 0
-7736 17 0
-7736 19 0
-7736 -39 0
-7736 -54 0
-7736 -61 0
-7736 -94 0
-7736 100 0
-7736 -101 0
-7736 -116 0
-7736 126 0
-7736 -133 0
7736 -16 -17 -19 39 54 61 94 -100 101 116 -126 133 0
-7737 16 0
-7737 17 0
-7737 19 0
-7737 -39 0
-7737 -55 0
-7737 -61 0
-7737 -94 0
-7737 100 0
-7737 -101 0
-7737 -116 0
-7737 126 0
-7737 -133 0
7737 -16 -17 -19 39 55 61 94 -100 101 116 -126 133 0
-7738 16 0
-7738 17 0
-7738 19 0
-7738 -39 0
-7738 -56 0
-7738 -67 0
-7738 -94 0
-7738 100 0
-7738 -101 0
-7738 -116 0
-7738 126 0
-7738 -133 0
7738 -16 -17 -19 39 56 67 94 -100 101 116 -126 133 0
-7739 16 0
-7739 17 0
-7739 19 0
-7739 -39 0
-7739 -56 0
-7739 -73 0
-7739 -94 0
-7739 100 0
-7739 -101 0
-7739 -116 0
-7739 126 0
-7739 -133 0
7739 -16 -17 -19 39 56 73 94 -100 101 116 -126 133 0
-7740 16 0
-7740 17 0
-7740 19 0
-7740 -39 0
-7740 -56 0
-7740 -71 0
-7740 -94 0
-7740 100 0
-7740 -101 0
-7740 -116 0
-7740 126 0
-7740 -133 0
7740 -16 -17 -19 39 56 71 94 -100 101 116 -126 133 0
-7741 16 0
-7741 17 0
-7741 19 0
-7741 -39 0
-7741 -56 0
-7741 -69 0
-7741 -94 0
-7741 100 0
-7741 -101 0
-7741 -116 0
-7741 126 0
-7741 -133 0
7741 -16 -17 -19 39 56 69 94 -100 101 116 -126 133 0
-7742 16 0
-7742 17 0
-7742 19 0
-7742 -39 0
-7742 -56 0
-7742 -75 0
-7742 -94 0
-7742 100 0
-7742 -101 0
-7742 -116 0
-7742 126 0
-7742 -133 0
7742 -16 -17 -19 39 56 75 94 -100 101 116 -126 133 0
-7743 16 0
-7743 17 0
-7743 19 0
-7743 -39 0
-7743 -56 0
-7743 -68 0
-7743 -94 0
-7743 100 0
-7743 -101 0
-7743 -116 0
-7743 126 0
-7743 -133 0
7743 -16 -17 -19 39 56 68 94 -100 101 116 -126 133 0
-7744 16 0
-7744 17 0
-7744 19 0
-7744 -39 0
-7744 -56 0
-7744 -72 0
-7744 -94 0
-7744 100 0
-7744 -101 0
-7744 -116 0
-7744 126 0
-7744 -133 0
7744 -16 -17 -19 39 56 72 94 -100 101 116 -126 133 0
-7745 16 0
-7745 17 0
-7745 19 0
-7745 -39 0
-7745 -56 0
-7745 -70 0
-7745 -94 0
-7745 100 0
-7745 -101 0
-7745 -116 0
-7745 126 0
-7745 -133 0
7745 -16 -17 -19 39 56 70 94 -100 101 116 -126 133 0
-7746 16 0
-7746 17 0
-7746 19 0
-7746 -39 0
-7746 -94 0
-7746 100 0
-7746 -101 0
-7746 -116 0
-7746 126 0
-7746 -133 0
-7746 -164 0
7746 -16 -17 -19 39 94 -100 101 116 -126 133 164 0
-7747 16 0
-7747 17 0
-7747 19 0
-7747 -39 0
-7747 66 0
-7747 -94 0
-7747 100 0
-7747 -101 0
-7747 -116 0
-7747 126 0
-7747 -133 0
7747 -16 -17 -19 39 -66 94 -100 101 116 -126 133 0
-7748 16 0
-7748 17 0
-7748 19 0
-7748 -39 0
-7748 65 0
-7748 -94 0
-7748 100 0
-7748 -101 0
-7748 -116 0
-7748 126 0
-7748 -133 0
7748 -16 -17 -19 39 -65 94 -100 101 116 -126 133 0
-7749 16 0
-7749 17 0
-7749 19 0
-7749 -39 0
-7749 -54 0
-7749 -61 0
-7749 -93 0
-7749 100 0
-7749 -116 0
-7749 126 0
-7749 -133 0
7749 -16 -17 -19 39 54 61 93 -100 116 -126 133 0
-7750 16 0
-7750 17 0
-7750 19 0
-7750 -39 0
-7750 -55 0
-7750 -61 0
-7750 -93 0
-7750 100 0
-7750 -116 0
-7750 126 0
-7750 -133 0
7750 -16 -17 -19 39 55 61 93 -100 116 -126 133 0
-7751 16 0
-7751 17 0
-7751 19 0
-7751 -39 0
-7751 -54 0
-7751 -61 0
-7751 -94 0
-7751 100 0
-7751 -116 0
-7751 126 0
-7751 -133 0
-7751 -140 0
7751 -16 -17 -19 39 54 61 94 -100 116 -126 133 140 0
-7752 16 0
-7752 17 0
-7752 19 0
-7752 -39 0
-7752 -55 0
-7752 -61 0
-7752 -94 0
-7752 100 0
-7752 -116 0
-7752 126 0
-7752 -133 0
-7752 -140 0
7752 -16 -17 -19 39 55 61 94 -100 116 -126 133 140 0
-7753 16 0
-7753 17 0
-7753 19 0
-7753 -39 0
-7753 -56 0
-7753 -67 0
-7753 -94 0
-7753 100 0
-7753 -116 0
-7753 126 0
-7753 -133 0
-7753 -140 0
7753 -16 -17 -19 39 56 67 94 -100 116 -126 133 140 0
-7754 16 0
-7754 17 0
-7754 19 0
-7754 -39 0
-7754 -56 0
-7754 -73 0
-7754 -94 0
-7754 100 0
-7754 -116 0
-7754 126 0
-7754 -133 0
-7754 -140 0
7754 -16 -17 -19 39 56 73 94 -100 116 -126 133 140 0
-7755 16 0
-7755 17 0
-7755 19 0
-7755 -39 0
-7755 -56 0
-7755 -71 0
-7755 -94 0
-7755 100 0
-7755 -116 0
-7755 126 0
-7755 -133 0
-7755 -140 0
7755 -16 -17 -19 39 56 71 94 -100 116 -126 133 140 0
-7756 16 0
-7756 17 0
-7756 19 0
-7756 -39 0
-7756 -56 0
-7756 -69 0
-7756 -94 0
-7756 100 0
-7756 -116 0
-7756 126 0
-7756 -133 0
-7756 -140 0
7756 -16 -17 -19 39 56 69 94 -100 116 -126 133 140 0
-7757 16 0
-7757 17 0
-7757 19 0
-7757 -39 0
-7757 -56 0
-7757 -75 0
-7757 -94 0
-7757 100 0
-7757 -116 0
-7757 126 0
-7757 -133 0
-7757 -140 0
7757 -16 -17 -19 39 56 75 94 -100 116 -126 133 140 0
-7758 16 0
-7758 17 0
-7758 19 0
-7758 -39 0
-7758 -56 0
-7758 -68 0
-7758 -94 0
-7758 100 0
-7758 -116 0
-7758 126 0
-7758 -133 0
-7758 -140 0
7758 -16 -17 -19 39 56 68 94 -100 116 -126 133 140 0
-7759 16 0
-7759 17 0
-7759 19 0
-7759 -39 0
-7759 -56 0
-7759 -72 0
-7759 -94 0
-7759 100 0
-7759 -116 0
-7759 126 0
-7759 -133 0
-7759 -140 0
7759 -16 -17 -19 39 56 72 94 -100 116 -126 133 140 0
-7760 16 0
-7760 17 0
-7760 19 0
-7760 -39 0
-7760 -56 0
-7760 -70 0
-7760 -94 0
-7760 100 0
-7760 -116 0
-7760 126 0
-7760 -133 0
-7760 -140 0
7760 -16 -17 -19 39 56 70 94 -100 116 -126 133 140 0
-7761 16 0
-7761 17 0
-7761 19 0
-7761 -39 0
-7761 -54 0
-7761 -61 0
-7761 94 0
-7761 100 0
-7761 -116 0
-7761 126 0
-7761 -133 0
-7761 140 0
7761 -16 -17 -19 39 54 61 -94 -100 116 -126 133 -140 0
-7762 16 0
-7762 17 0
-7762 19 0
-7762 -39 0
-7762 -55 0
-7762 -61 0
-7762 94 0
-7762 100 0
-7762 -116 0
-7762 126 0
-7762 -133 0
-7762 140 0
7762 -16 -17 -19 39 55 61 -94 -100 116 -126 133 -140 0
-7763 16 0
-7763 17 0
-7763 19 0
-7763 -39 0
-7763 -57 0
-7763 -58 0
-7763 -62 0
-7763 94 0
-7763 -116 0
-7763 -133 0
-7763 134 0
-7763 140 0
7763 -16 -17 -19 39 57 58 62 -94 116 133 -134 -140 0
-7764 16 0
-7764 17 0
-7764 19 0
-7764 -39 0
-7764 -57 0
-7764 -58 0
-7764 -62 0
-7764 94 0
-7764 -116 0
-7764 -122 0
-7764 -133 0
-7764 140 0
7764 -16 -17 -19 39 57 58 62 -94 116 122 133 -140 0
-7765 16 0
-7765 17 0
-7765 19 0
-7765 -39 0
-7765 94 0
-7765 -116 0
-7765 -133 0
-7765 134 0
-7765 140 0
-7765 -164 0
7765 -16 -17 -19 39 -94 116 133 -134 -140 164 0
-7766 16 0
-7766 17 0
-7766 19 0
-7766 -39 0
-7766 66 0
-7766 94 0
-7766 -116 0
-7766 -133 0
-7766 134 0
-7766 140 0
7766 -16 -17 -19 39 -66 -94 116 133 -134 -140 0
-7767 16 0
-7767 17 0
-7767 19 0
-7767 -39 0
-7767 65 0
-7767 94 0
-7767 -116 0
-7767 -133 0
-7767 134 0
-7767 140 0
7767 -16 -17 -19 39 -65 -94 116 133 -134 -140 0
-7768 16 0
-7768 17 0
-7768 19 0
-7768 -39 0
-7768 -63 0
-7768 94 0
-7768 -116 0
-7768 -133 0
-7768 134 0
-7768 140 0
7768 -16 -17 -19 39 63 -94 116 133 -134 -140 0
-7769 16 0
-7769 17 0
-7769 19 0
-7769 -39 0
-7769 -84 0
-7769 94 0
-7769 -116 0
-7769 -133 0
-7769 134 0
-7769 140 0
7769 -16 -17 -19 39 84 -94 116 133 -134 -140 0
-7770 16 0
-7770 17 0
-7770 19 0
-7770 -39 0
-7770 -77 0
-7770 94 0
-7770 -116 0
-7770 -133 0
-7770 134 0
-7770 140 0
7770 -16 -17 -19 39 77 -94 116 133 -134 -140 0
-7771 16 0
-7771 17 0
-7771 19 0
-7771 -39 0
-7771 -81 0
-7771 94 0
-7771 -116 0
-7771 -133 0
-7771 134 0
-7771 140 0
7771 -16 -17 -19 39 81 -94 116 133 -134 -140 0
-7772 16 0
-7772 17 0
-7772 19 0
-7772 -39 0
-7772 -79 0
-7772 94 0
-7772 -116 0
-7772 -133 0
-7772 134 0
-7772 140 0
7772 -16 -17 -19 39 79 -94 116 133 -134 -140 0
-7773 16 0
-7773 17 0
-7773 19 0
-7773 -39 0
-7773 -83 0
-7773 94 0
-7773 -116 0
-7773 -133 0
-7773 134 0
-7773 140 0
7773 -16 -17 -19 39 83 -94 116 133 -134 -140 0
-7774 16 0
-7774 17 0
-7774 19 0
-7774 -39 0
-7774 -76 0
-7774 94 0
-7774 -116 0
-7774 -133 0
-7774 134 0
-7774 140 0
7774 -16 -17 -19 39 76 -94 116 133 -134 -140 0
-7775 16 0
-7775 17 0
-7775 19 0
-7775 -39 0
-7775 -82 0
-7775 94 0
-7775 -116 0
-7775 -133 0
-7775 134 0
-7775 140 0
7775 -16 -17 -19 39 82 -94 116 133 -134 -140 0
-7776 16 0
-7776 17 0
-7776 19 0
-7776 -39 0
-7776 -78 0
-7776 94 0
-7776 -116 0
-7776 -133 0
-7776 134 0
-7776 140 0
7776 -16 -17 -19 39 78 -94 116 133 -134 -140 0
-7777 16 0
-7777 17 0
-7777 19 0
-7777 -39 0
-7777 -80 0
-7777 94 0
-7777 -116 0
-7777 -133 0
-7777 134 0
-7777 140 0
7777 -16 -17 -19 39 80 -94 116 133 -134 -140 0
-7778 16 0
-7778 17 0
-7778 19 0
-7778 -39 0
-7778 -56 0
-7778 -62 0
-7778 94 0
-7778 -116 0
-7778 -133 0
-7778 134 0
-7778 140 0
7778 -16 -17 -19 39 56 62 -94 116 133 -134 -140 0
-7779 16 0
-7779 17 0
-7779 19 0
-7779 -39 0
-7779 -61 0
-7779 -62 0
-7779 94 0
-7779 -116 0
-7779 -133 0
-7779 134 0
-7779 140 0
7779 -16 -17 -19 39 61 62 -94 116 133 -134 -140 0
-7780 16 0
-7780 17 0
-7780 19 0
-7780 -39 0
-7780 94 0
-7780 -116 0
-7780 -122 0
-7780 -133 0
-7780 140 0
-7780 -164 0
7780 -16 -17 -19 39 -94 116 122 133 -140 164 0
-7781 16 0
-7781 17 0
-7781 19 0
-7781 -39 0
-7781 66 0
-7781 94 0
-7781 -116 0
-7781 -122 0
-7781 -133 0
-7781 140 0
7781 -16 -17 -19 39 -66 -94 116 122 133 -140 0
-7782 16 0
-7782 17 0
-7782 19 0
-7782 -39 0
-7782 65 0
-7782 94 0
-7782 -116 0
-7782 -122 0
-7782 -133 0
-7782 140 0
7782 -16 -17 -19 39 -65 -94 116 122 133 -140 0
-7783 16 0
-7783 17 0
-7783 19 0
-7783 -39 0
-7783 -63 0
-7783 94 0
-7783 -116 0
-7783 -122 0
-7783 -133 0
-7783 140 0
7783 -16 -17 -19 39 63 -94 116 122 133 -140 0
-7784 16 0
-7784 17 0
-7784 19 0
-7784 -39 0
-7784 -84 0
-7784 94 0
-7784 -116 0
-7784 -122 0
-7784 -133 0
-7784 140 0
7784 -16 -17 -19 39 84 -94 116 122 133 -140 0
-7785 16 0
-7785 17 0
-7785 19 0
-7785 -39 0
-7785 -77 0
-7785 94 0
-7785 -116 0
-7785 -122 0
-7785 -133 0
-7785 140 0
7785 -16 -17 -19 39 77 -94 116 122 133 -140 0
-7786 16 0
-7786 17 0
-7786 19 0
-7786 -39 0
-7786 -81 0
-7786 94 0
-7786 -116 0
-7786 -122 0
-7786 -133 0
-7786 140 0
7786 -16 -17 -19 39 81 -94 116 122 133 -140 0
-7787 16 0
-7787 17 0
-7787 19 0
-7787 -39 0
-7787 -79 0
-7787 94 0
-7787 -116 0
-7787 -122 0
-7787 -133 0
-7787 140 0
7787 -16 -17 -19 39 79 -94 116 122 133 -140 0
-7788 16 0
-7788 17 0
-7788 19 0
-7788 -39 0
-7788 -83 0
-7788 94 0
-7788 -116 0
-7788 -122 0
-7788 -133 0
-7788 140 0
7788 -16 -17 -19 39 83 -94 116 122 133 -140 0
-7789 16 0
-7789 17 0
-7789 19 0
-7789 -39 0
-7789 -76 0
-7789 94 0
-7789 -116 0
-7789 -122 0
-7789 -133 0
-7789 140 0
7789 -16 -17 -19 39 76 -94 116 122 133 -140 0
-7790 16 0
-7790 17 0
-7790 19 0
-7790 -39 0
-7790 -82 0
-7790 94 0
-7790 -116 0
-7790 -122 0
-7790 -133 0
-7790 140 0
7790 -16 -17 -19 39 82 -94 116 122 133 -140 0
-7791 16 0
-7791 17 0
-7791 19 0
-7791 -39 0
-7791 -78 0
-7791 94 0
-7791 -116 0
-7791 -122 0
-7791 -133 0
-7791 140 0
7791 -16 -17 -19 39 78 -94 116 122 133 -140 0
-7792 16 0
-7792 17 0
-7792 19 0
-7792 -39 0
-7792 -80 0
-7792 94 0
-7792 -116 0
-7792 -122 0
-7792 -133 0
-7792 140 0
7792 -16 -17 -19 39 80 -94 116 122 133 -140 0
-7793 16 0
-7793 17 0
-7793 19 0
-7793 -39 0
-7793 -56 0
-7793 -62 0
-7793 94 0
-7793 -116 0
-7793 -122 0
-7793 -133 0
-7793 140 0
7793 -16 -17 -19 39 56 62 -94 116 122 133 -140 0
-7794 16 0
-7794 17 0
-7794 19 0
-7794 -39 0
-7794 -61 0
-7794 -62 0
-7794 94 0
-7794 -116 0
-7794 -122 0
-7794 -133 0
-7794 140 0
7794 -16 -17 -19 39 61 62 -94 116 122 133 -140 0
-7795 16 0
-7795 17 0
-7795 19 0
-7795 -39 0
-7795 62 0
-7795 64 0
-7795 94 0
-7795 -116 0
-7795 -122 0
-7795 -133 0
-7795 140 0
7795 -16 -17 -19 39 -62 -64 -94 116 122 133 -140 0
-7796 16 0
-7796 17 0
-7796 19 0
-7796 -39 0
-7796 -54 0
-7796 -61 0
-7796 94 0
-7796 -116 0
-7796 -122 0
-7796 -133 0
-7796 140 0
7796 -16 -17 -19 39 54 61 -94 116 122 133 -140 0
-7797 16 0
-7797 17 0
-7797 19 0
-7797 -39 0
-7797 -55 0
-7797 -61 0
-7797 94 0
-7797 -116 0
-7797 -122 0
-7797 -133 0
-7797 140 0
7797 -16 -17 -19 39 55 61 -94 116 122 133 -140 0
-7798 16 0
-7798 17 0
-7798 19 0
-7798 -39 0
-7798 -56 0
-7798 -67 0
-7798 94 0
-7798 -116 0
-7798 -122 0
-7798 -133 0
-7798 140 0
7798 -16 -17 -19 39 56 67 -94 116 122 133 -140 0
-7799 16 0
-7799 17 0
-7799 19 0
-7799 -39 0
-7799 -56 0
-7799 -73 0
-7799 94 0
-7799 -116 0
-7799 -122 0
-7799 -133 0
-7799 140 0
7799 -16 -17 -19 39 56 73 -94 116 122 133 -140 0
-7800 16 0
-7800 17 0
-7800 19 0
-7800 -39 0
-7800 -56 0
-7800 -71 0
-7800 94 0
-7800 -116 0
-7800 -122 0
-7800 -133 0
-7800 140 0
7800 -16 -17 -19 39 56 71 -94 116 122 133 -140 0
-7801 16 0
-7801 17 0
-7801 19 0
-7801 -39 0
-7801 -56 0
-7801 -69 0
-7801 94 0
-7801 -116 0
-7801 -122 0
-7801 -133 0
-7801 140 0
7801 -16 -17 -19 39 56 69 -94 116 122 133 -140 0
-7802 16 0
-7802 17 0
-7802 19 0
-7802 -39 0
-7802 -56 0
-7802 -75 0
-7802 94 0
-7802 -116 0
-7802 -122 0
-7802 -133 0
-7802 140 0
7802 -16 -17 -19 39 56 75 -94 116 122 133 -140 0
-7803 16 0
-7803 17 0
-7803 19 0
-7803 -39 0
-7803 -56 0
-7803 -68 0
-7803 94 0
-7803 -116 0
-7803 -122 0
-7803 -133 0
-7803 140 0
7803 -16 -17 -19 39 56 68 -94 116 122 133 -140 0
-7804 16 0
-7804 17 0
-7804 19 0
-7804 -39 0
-7804 -56 0
-7804 -72 0
-7804 94 0
-7804 -116 0
-7804 -122 0
-7804 -133 0
-7804 140 0
7804 -16 -17 -19 39 56 72 -94 116 122 133 -140 0
-7805 16 0
-7805 17 0
-7805 19 0
-7805 -39 0
-7805 -56 0
-7805 -70 0
-7805 94 0
-7805 -116 0
-7805 -122 0
-7805 -133 0
-7805 140 0
7805 -16 -17 -19 39 56 70 -94 116 122 133 -140 0
-7806 16 0
-7806 17 0
-7806 19 0
-7806 -39 0
-7806 -56 0
-7806 -74 0
-7806 94 0
-7806 -116 0
-7806 -122 0
-7806 -133 0
-7806 140 0
7806 -16 -17 -19 39 56 74 -94 116 122 133 -140 0
-7807 16 0
-7807 17 0
-7807 19 0
-7807 -39 0
-7807 -56 0
-7807 -67 0
-7807 94 0
-7807 -116 0
-7807 -133 0
-7807 134 0
-7807 140 0
7807 -16 -17 -19 39 56 67 -94 116 133 -134 -140 0
-7808 16 0
-7808 17 0
-7808 19 0
-7808 -39 0
-7808 -56 0
-7808 -67 0
-7808 94 0
-7808 -100 0
-7808 -116 0
-7808 -126 0
-7808 -133 0
-7808 140 0
7808 -16 -17 -19 39 56 67 -94 100 116 126 133 -140 0
-7809 16 0
-7809 17 0
-7809 19 0
-7809 -39 0
-7809 62 0
-7809 64 0
-7809 94 0
-7809 101 0
-7809 -116 0
-7809 -133 0
-7809 134 0
7809 -16 -17 -19 39 -62 -64 -94 -101 116 133 -134 0
-7810 16 0
-7810 17 0
-7810 19 0
-7810 -39 0
-7810 62 0
-7810 64 0
-7810 94 0
-7810 101 0
-7810 -116 0
-7810 -122 0
-7810 -133 0
7810 -16 -17 -19 39 -62 -64 -94 -101 116 122 133 0
-7811 16 0
-7811 17 0
-7811 19 0
-7811 -39 0
-7811 62 0
-7811 64 0
-7811 94 0
-7811 110 0
-7811 -116 0
-7811 -133 0
-7811 134 0
7811 -16 -17 -19 39 -62 -64 -94 -110 116 133 -134 0
-7812 16 0
-7812 17 0
-7812 19 0
-7812 -39 0
-7812 62 0
-7812 64 0
-7812 94 0
-7812 110 0
-7812 -116 0
-7812 -122 0
-7812 -133 0
7812 -16 -17 -19 39 -62 -64 -94 -110 116 122 133 0
-7813 16 0
-7813 17 0
-7813 19 0
-7813 -39 0
-7813 -56 0
-7813 -73 0
-7813 94 0
-7813 -100 0
-7813 -116 0
-7813 -126 0
-7813 -133 0
-7813 140 0
7813 -16 -17 -19 39 56 73 -94 100 116 126 133 -140 0
-7814 16 0
-7814 17 0
-7814 19 0
-7814 -39 0
-7814 -56 0
-7814 -71 0
-7814 94 0
-7814 -100 0
-7814 -116 0
-7814 -126 0
-7814 -133 0
-7814 140 0
7814 -16 -17 -19 39 56 71 -94 100 116 126 133 -140 0
-7815 16 0
-7815 17 0
-7815 19 0
-7815 -39 0
-7815 -56 0
-7815 -69 0
-7815 94 0
-7815 -100 0
-7815 -116 0
-7815 -126 0
-7815 -133 0
-7815 140 0
7815 -16 -17 -19 39 56 69 -94 100 116 126 133 -140 0
-7816 16 0
-7816 17 0
-7816 19 0
-7816 -39 0
-7816 -56 0
-7816 -75 0
-7816 94 0
-7816 -100 0
-7816 -116 0
-7816 -126 0
-7816 -133 0
-7816 140 0
7816 -16 -17 -19 39 56 75 -94 100 116 126 133 -140 0
-7817 16 0
-7817 17 0
-7817 19 0
-7817 -39 0
-7817 -56 0
-7817 -68 0
-7817 94 0
-7817 -100 0
-7817 -116 0
-7817 -126 0
-7817 -133 0
-7817 140 0
7817 -16 -17 -19 39 56 68 -94 100 116 126 133 -140 0
-7818 16 0
-7818 17 0
-7818 19 0
-7818 -39 0
-7818 -56 0
-7818 -72 0
-7818 94 0
-7818 -100 0
-7818 -116 0
-7818 -126 0
-7818 -133 0
-7818 140 0
7818 -16 -17 -19 39 56 72 -94 100 116 126 133 -140 0
-7819 16 0
-7819 17 0
-7819 19 0
-7819 -39 0
-7819 -56 0
-7819 -70 0
-7819 94 0
-7819 -100 0
-7819 -116 0
-7819 -126 0
-7819 -133 0
-7819 140 0
7819 -16 -17 -19 39 56 70 -94 100 116 126 133 -140 0
-7820 16 0
-7820 17 0
-7820 19 0
-7820 -39 0
-7820 -56 0
-7820 -74 0
-7820 94 0
-7820 -100 0
-7820 -116 0
-7820 -126 0
-7820 -133 0
-7820 140 0
7820 -16 -17 -19 39 56 74 -94 100 116 126 133 -140 0
-7821 16 0
-7821 17 0
-7821 19 0
-7821 -39 0
-7821 -54 0
-7821 -56 0
-7821 94 0
-7821 -100 0
-7821 -116 0
-7821 -126 0
-7821 -133 0
-7821 140 0
7821 -16 -17 -19 39 54 56 -94 100 116 126 133 -140 0
-7822 16 0
-7822 17 0
-7822 19 0
-7822 -39 0
-7822 -55 0
-7822 -56 0
-7822 94 0
-7822 -100 0
-7822 -116 0
-7822 -126 0
-7822 -133 0
-7822 140 0
7822 -16 -17 -19 39 55 56 -94 100 116 126 133 -140 0
-7823 16 0
-7823 17 0
-7823 19 0
-7823 -39 0
-7823 -56 0
-7823 64 0
-7823 94 0
-7823 -100 0
-7823 -116 0
-7823 -126 0
-7823 -133 0
-7823 140 0
7823 -16 -17 -19 39 56 -64 -94 100 116 126 133 -140 0
-7824 16 0
-7824 17 0
-7824 19 0
-7824 -39 0
-7824 -84 0
-7824 94 0
-7824 -100 0
-7824 -116 0
-7824 -126 0
-7824 -133 0
-7824 140 0
7824 -16 -17 -19 39 84 -94 100 116 126 133 -140 0
-7825 16 0
-7825 17 0
-7825 19 0
-7825 -39 0
-7825 -77 0
-7825 94 0
-7825 -100 0
-7825 -116 0
-7825 -126 0
-7825 -133 0
-7825 140 0
7825 -16 -17 -19 39 77 -94 100 116 126 133 -140 0
-7826 16 0
-7826 17 0
-7826 19 0
-7826 -39 0
-7826 -81 0
-7826 94 0
-7826 -100 0
-7826 -116 0
-7826 -126 0
-7826 -133 0
-7826 140 0
7826 -16 -17 -19 39 81 -94 100 116 126 133 -140 0
-7827 16 0
-7827 17 0
-7827 19 0
-7827 -39 0
-7827 -79 0
-7827 94 0
-7827 -100 0
-7827 -116 0
-7827 -126 0
-7827 -133 0
-7827 140 0
7827 -16 -17 -19 39 79 -94 100 116 126 133 -140 0
-7828 16 0
-7828 17 0
-7828 19 0
-7828 -39 0
-7828 -83 0
-7828 94 0
-7828 -100 0
-7828 -116 0
-7828 -126 0
-7828 -133 0
-7828 140 0
7828 -16 -17 -19 39 83 -94 100 116 126 133 -140 0
-7829 16 0
-7829 17 0
-7829 19 0
-7829 -39 0
-7829 -76 0
-7829 94 0
-7829 -100 0
-7829 -116 0
-7829 -126 0
-7829 -133 0
-7829 140 0
7829 -16 -17 -19 39 76 -94 100 116 126 133 -140 0
-7830 16 0
-7830 17 0
-7830 19 0
-7830 -39 0
-7830 -82 0
-7830 94 0
-7830 -100 0
-7830 -116 0
-7830 -126 0
-7830 -133 0
-7830 140 0
7830 -16 -17 -19 39 82 -94 100 116 126 133 -140 0
-7831 16 0
-7831 17 0
-7831 19 0
-7831 -39 0
-7831 -78 0
-7831 94 0
-7831 -100 0
-7831 -116 0
-7831 -126 0
-7831 -133 0
-7831 140 0
7831 -16 -17 -19 39 78 -94 100 116 126 133 -140 0
-7832 16 0
-7832 17 0
-7832 19 0
-7832 -39 0
-7832 -80 0
-7832 94 0
-7832 -100 0
-7832 -116 0
-7832 -126 0
-7832 -133 0
-7832 140 0
7832 -16 -17 -19 39 80 -94 100 116 126 133 -140 0
-7833 16 0
-7833 17 0
-7833 19 0
-7833 -39 0
-7833 94 0
-7833 -100 0
-7833 -116 0
-7833 -126 0
-7833 -133 0
-7833 140 0
-7833 -164 0
7833 -16 -17 -19 39 -94 100 116 126 133 -140 164 0
-7834 16 0
-7834 17 0
-7834 19 0
-7834 -39 0
-7834 66 0
-7834 94 0
-7834 -100 0
-7834 -116 0
-7834 -126 0
-7834 -133 0
-7834 140 0
7834 -16 -17 -19 39 -66 -94 100 116 126 133 -140 0
-7835 16 0
-7835 17 0
-7835 19 0
-7835 -39 0
-7835 65 0
-7835 94 0
-7835 -100 0
-7835 -116 0
-7835 -126 0
-7835 -133 0
-7835 140 0
7835 -16 -17 -19 39 -65 -94 100 116 126 133 -140 0
-7836 16 0
-7836 17 0
-7836 19 0
-7836 -39 0
-7836 -63 0
-7836 94 0
-7836 -100 0
-7836 -116 0
-7836 -126 0
-7836 -133 0
-7836 140 0
7836 -16 -17 -19 39 63 -94 100 116 126 133 -140 0
-7837 16 0
-7837 17 0
-7837 19 0
-7837 -39 0
-7837 -54 0
-7837 -61 0
-7837 94 0
-7837 -100 0
-7837 -116 0
-7837 -126 0
-7837 -133 0
-7837 140 0
7837 -16 -17 -19 39 54 61 -94 100 116 126 133 -140 0
-7838 16 0
-7838 17 0
-7838 19 0
-7838 -39 0
-7838 -55 0
-7838 -61 0
-7838 94 0
-7838 -100 0
-7838 -116 0
-7838 -126 0
-7838 -133 0
-7838 140 0
7838 -16 -17 -19 39 55 61 -94 100 116 126 133 -140 0
-7839 16 0
-7839 17 0
-7839 19 0
-7839 -39 0
-7839 -61 0
-7839 64 0
-7839 94 0
-7839 -100 0
-7839 -116 0
-7839 -126 0
-7839 -133 0
-7839 140 0
7839 -16 -17 -19 39 61 -64 -94 100 116 126 133 -140 0
-7840 16 0
-7840 17 0
-7840 19 0
-7840 -39 0
-7840 62 0
-7840 64 0
-7840 94 0
-7840 -100 0
-7840 -116 0
-7840 -126 0
-7840 -133 0
-7840 140 0
7840 -16 -17 -19 39 -62 -64 -94 100 116 126 133 -140 0
-7841 16 0
-7841 17 0
-7841 19 0
-7841 -39 0
-7841 -57 0
-7841 -58 0
-7841 -62 0
-7841 94 0
-7841 -100 0
-7841 -116 0
-7841 -126 0
-7841 -133 0
-7841 140 0
7841 -16 -17 -19 39 57 58 62 -94 100 116 126 133 -140 0
-7842 16 0
-7842 17 0
-7842 19 0
-7842 -39 0
-7842 -61 0
-7842 -62 0
-7842 94 0
-7842 -100 0
-7842 -116 0
-7842 -126 0
-7842 -133 0
-7842 140 0
7842 -16 -17 -19 39 61 62 -94 100 116 126 133 -140 0
-7843 16 0
-7843 17 0
-7843 19 0
-7843 -39 0
-7843 -61 0
-7843 -62 0
-7843 95 0
-7843 -100 0
-7843 -116 0
-7843 -126 0
-7843 -133 0
7843 -16 -17 -19 39 61 62 -95 100 116 126 133 0
-7844 16 0
-7844 17 0
-7844 19 0
-7844 -39 0
-7844 -61 0
-7844 -62 0
-7844 94 0
-7844 -100 0
-7844 110 0
-7844 -116 0
-7844 -126 0
-7844 -133 0
7844 -16 -17 -19 39 61 62 -94 100 -110 116 126 133 0
-7845 16 0
-7845 17 0
-7845 19 0
-7845 -39 0
-7845 -61 0
-7845 -62 0
-7845 94 0
-7845 -100 0
-7845 101 0
-7845 -116 0
-7845 -126 0
-7845 -133 0
7845 -16 -17 -19 39 61 62 -94 100 -101 116 126 133 0
-7846 16 0
-7846 17 0
-7846 19 0
-7846 -39 0
-7846 -57 0
-7846 -58 0
-7846 -62 0
-7846 95 0
-7846 -100 0
-7846 -116 0
-7846 -126 0
-7846 -133 0
7846 -16 -17 -19 39 57 58 62 -95 100 116 126 133 0
-7847 16 0
-7847 17 0
-7847 19 0
-7847 -39 0
-7847 -84 0
-7847 95 0
-7847 -100 0
-7847 -116 0
-7847 -126 0
-7847 -133 0
7847 -16 -17 -19 39 84 -95 100 116 126 133 0
-7848 16 0
-7848 17 0
-7848 19 0
-7848 -39 0
-7848 -77 0
-7848 95 0
-7848 -100 0
-7848 -116 0
-7848 -126 0
-7848 -133 0
7848 -16 -17 -19 39 77 -95 100 116 126 133 0
-7849 16 0
-7849 17 0
-7849 19 0
-7849 -39 0
-7849 -81 0
-7849 95 0
-7849 -100 0
-7849 -116 0
-7849 -126 0
-7849 -133 0
7849 -16 -17 -19 39 81 -95 100 116 126 133 0
-7850 16 0
-7850 17 0
-7850 19 0
-7850 -39 0
-7850 -79 0
-7850 95 0
-7850 -100 0
-7850 -116 0
-7850 -126 0
-7850 -133 0
7850 -16 -17 -19 39 79 -95 100 116 126 133 0
-7851 16 0
-7851 17 0
-7851 19 0
-7851 -39 0
-7851 -83 0
-7851 95 0
-7851 -100 0
-7851 -116 0
-7851 -126 0
-7851 -133 0
7851 -16 -17 -19 39 83 -95 100 116 126 133 0
-7852 16 0
-7852 17 0
-7852 19 0
-7852 -39 0
-7852 -76 0
-7852 95 0
-7852 -100 0
-7852 -116 0
-7852 -126 0
-7852 -133 0
7852 -16 -17 -19 39 76 -95 100 116 126 133 0
-7853 16 0
-7853 17 0
-7853 19 0
-7853 -39 0
-7853 -82 0
-7853 95 0
-7853 -100 0
-7853 -116 0
-7853 -126 0
-7853 -133 0
7853 -16 -17 -19 39 82 -95 100 116 126 133 0
-7854 16 0
-7854 17 0
-7854 19 0
-7854 -39 0
-7854 -78 0
-7854 95 0
-7854 -100 0
-7854 -116 0
-7854 -126 0
-7854 -133 0
7854 -16 -17 -19 39 78 -95 100 116 126 133 0
-7855 16 0
-7855 17 0
-7855 19 0
-7855 -39 0
-7855 -80 0
-7855 95 0
-7855 -100 0
-7855 -116 0
-7855 -126 0
-7855 -133 0
7855 -16 -17 -19 39 80 -95 100 116 126 133 0
-7856 16 0
-7856 17 0
-7856 19 0
-7856 -39 0
-7856 95 0
-7856 -100 0
-7856 -116 0
-7856 -126 0
-7856 -133 0
-7856 -164 0
7856 -16 -17 -19 39 -95 100 116 126 133 164 0
-7857 16 0
-7857 17 0
-7857 19 0
-7857 -39 0
-7857 66 0
-7857 95 0
-7857 -100 0
-7857 -116 0
-7857 -126 0
-7857 -133 0
7857 -16 -17 -19 39 -66 -95 100 116 126 133 0
-7858 16 0
-7858 17 0
-7858 19 0
-7858 -39 0
-7858 65 0
-7858 95 0
-7858 -100 0
-7858 -116 0
-7858 -126 0
-7858 -133 0
7858 -16 -17 -19 39 -65 -95 100 116 126 133 0
-7859 16 0
-7859 17 0
-7859 19 0
-7859 -39 0
-7859 -63 0
-7859 95 0
-7859 -100 0
-7859 -116 0
-7859 -126 0
-7859 -133 0
7859 -16 -17 -19 39 63 -95 100 116 126 133 0
-7860 16 0
-7860 17 0
-7860 19 0
-7860 -39 0
-7860 -56 0
-7860 -62 0
-7860 95 0
-7860 -100 0
-7860 -116 0
-7860 -126 0
-7860 -133 0
7860 -16 -17 -19 39 56 62 -95 100 116 126 133 0
-7861 16 0
-7861 17 0
-7861 19 0
-7861 -39 0
-7861 -57 0
-7861 -58 0
-7861 -62 0
-7861 94 0
-7861 -100 0
-7861 110 0
-7861 -116 0
-7861 -126 0
-7861 -133 0
7861 -16 -17 -19 39 57 58 62 -94 100 -110 116 126 133 0
-7862 16 0
-7862 17 0
-7862 19 0
-7862 -39 0
-7862 -57 0
-7862 -58 0
-7862 -62 0
-7862 94 0
-7862 -100 0
-7862 101 0
-7862 -116 0
-7862 -126 0
-7862 -133 0
7862 -16 -17 -19 39 57 58 62 -94 100 -101 116 126 133 0
-7863 16 0
-7863 17 0
-7863 19 0
-7863 -39 0
-7863 -57 0
-7863 -58 0
-7863 -62 0
-7863 -93 0
-7863 -100 0
-7863 -116 0
-7863 -126 0
-7863 -133 0
7863 -16 -17 -19 39 57 58 62 93 100 116 126 133 0
-7864 16 0
-7864 17 0
-7864 19 0
-7864 -39 0
-7864 -57 0
-7864 -58 0
-7864 -62 0
-7864 -94 0
-7864 -100 0
-7864 -101 0
-7864 -116 0
-7864 -126 0
-7864 -133 0
7864 -16 -17 -19 39 57 58 62 94 100 101 116 126 133 0
-7865 16 0
-7865 17 0
-7865 19 0
-7865 -39 0
-7865 -57 0
-7865 -58 0
-7865 -62 0
-7865 -94 0
-7865 -100 0
-7865 -110 0
-7865 -116 0
-7865 -126 0
-7865 -133 0
7865 -16 -17 -19 39 57 58 62 94 100 110 116 126 133 0
-7866 16 0
-7866 17 0
-7866 19 0
-7866 -39 0
-7866 -57 0
-7866 -58 0
-7866 -62 0
-7866 -94 0
-7866 -100 0
-7866 -116 0
-7866 -126 0
-7866 -133 0
-7866 -140 0
7866 -16 -17 -19 39 57 58 62 94 100 116 126 133 140 0
-7867 16 0
-7867 17 0
-7867 19 0
-7867 -39 0
-7867 -84 0
-7867 -94 0
-7867 -100 0
-7867 -110 0
-7867 -116 0
-7867 -126 0
-7867 -133 0
7867 -16 -17 -19 39 84 94 100 110 116 126 133 0
-7868 16 0
-7868 17 0
-7868 19 0
-7868 -39 0
-7868 -77 0
-7868 -94 0
-7868 -100 0
-7868 -110 0
-7868 -116 0
-7868 -126 0
-7868 -133 0
7868 -16 -17 -19 39 77 94 100 110 116 126 133 0
-7869 16 0
-7869 17 0
-7869 19 0
-7869 -39 0
-7869 -81 0
-7869 -94 0
-7869 -100 0
-7869 -110 0
-7869 -116 0
-7869 -126 0
-7869 -133 0
7869 -16 -17 -19 39 81 94 100 110 116 126 133 0
-7870 16 0
-7870 17 0
-7870 19 0
-7870 -39 0
-7870 -79 0
-7870 -94 0
-7870 -100 0
-7870 -110 0
-7870 -116 0
-7870 -126 0
-7870 -133 0
7870 -16 -17 -19 39 79 94 100 110 116 126 133 0
-7871 16 0
-7871 17 0
-7871 19 0
-7871 -39 0
-7871 -83 0
-7871 -94 0
-7871 -100 0
-7871 -110 0
-7871 -116 0
-7871 -126 0
-7871 -133 0
7871 -16 -17 -19 39 83 94 100 110 116 126 133 0
-7872 16 0
-7872 17 0
-7872 19 0
-7872 -39 0
-7872 -76 0
-7872 -94 0
-7872 -100 0
-7872 -110 0
-7872 -116 0
-7872 -126 0
-7872 -133 0
7872 -16 -17 -19 39 76 94 100 110 116 126 133 0
-7873 16 0
-7873 17 0
-7873 19 0
-7873 -39 0
-7873 -82 0
-7873 -94 0
-7873 -100 0
-7873 -110 0
-7873 -116 0
-7873 -126 0
-7873 -133 0
7873 -16 -17 -19 39 82 94 100 110 116 126 133 0
-7874 16 0
-7874 17 0
-7874 19 0
-7874 -39 0
-7874 -78 0
-7874 -94 0
-7874 -100 0
-7874 -110 0
-7874 -116 0
-7874 -126 0
-7874 -133 0
7874 -16 -17 -19 39 78 94 100 110 116 126 133 0
-7875 16 0
-7875 17 0
-7875 19 0
-7875 -39 0
-7875 -80 0
-7875 -94 0
-7875 -100 0
-7875 -110 0
-7875 -116 0
-7875 -126 0
-7875 -133 0
7875 -16 -17 -19 39 80 94 100 110 116 126 133 0
-7876 16 0
-7876 17 0
-7876 19 0
-7876 -39 0
-7876 66 0
-7876 -94 0
-7876 -100 0
-7876 -110 0
-7876 -116 0
-7876 -126 0
-7876 -133 0
7876 -16 -17 -19 39 -66 94 100 110 116 126 133 0
-7877 16 0
-7877 17 0
-7877 19 0
-7877 -39 0
-7877 65 0
-7877 -94 0
-7877 -100 0
-7877 -110 0
-7877 -116 0
-7877 -126 0
-7877 -133 0
7877 -16 -17 -19 39 -65 94 100 110 116 126 133 0
-7878 16 0
-7878 17 0
-7878 19 0
-7878 -39 0
-7878 -56 0
-7878 -62 0
-7878 -94 0
-7878 -100 0
-7878 -110 0
-7878 -116 0
-7878 -126 0
-7878 -133 0
7878 -16 -17 -19 39 56 62 94 100 110 116 126 133 0
-7879 16 0
-7879 17 0
-7879 19 0
-7879 -39 0
-7879 -84 0
-7879 -94 0
-7879 -100 0
-7879 -101 0
-7879 -116 0
-7879 -126 0
-7879 -133 0
7879 -16 -17 -19 39 84 94 100 101 116 126 133 0
-7880 16 0
-7880 17 0
-7880 19 0
-7880 -39 0
-7880 -84 0
-7880 -93 0
-7880 -100 0
-7880 -116 0
-7880 -126 0
-7880 -133 0
7880 -16 -17 -19 39 84 93 100 116 126 133 0
-7881 16 0
-7881 17 0
-7881 19 0
-7881 -39 0
-7881 -84 0
-7881 -94 0
-7881 -100 0
-7881 -116 0
-7881 -126 0
-7881 -133 0
-7881 -140 0
7881 -16 -17 -19 39 84 94 100 116 126 133 140 0
-7882 16 0
-7882 17 0
-7882 19 0
-7882 -39 0
-7882 -77 0
-7882 -94 0
-7882 -100 0
-7882 -101 0
-7882 -116 0
-7882 -126 0
-7882 -133 0
7882 -16 -17 -19 39 77 94 100 101 116 126 133 0
-7883 16 0
-7883 17 0
-7883 19 0
-7883 -39 0
-7883 -81 0
-7883 -94 0
-7883 -100 0
-7883 -101 0
-7883 -116 0
-7883 -126 0
-7883 -133 0
7883 -16 -17 -19 39 81 94 100 101 116 126 133 0
-7884 16 0
-7884 17 0
-7884 19 0
-7884 -39 0
-7884 -79 0
-7884 -94 0
-7884 -100 0
-7884 -101 0
-7884 -116 0
-7884 -126 0
-7884 -133 0
7884 -16 -17 -19 39 79 94 100 101 116 126 133 0
-7885 16 0
-7885 17 0
-7885 19 0
-7885 -39 0
-7885 -83 0
-7885 -94 0
-7885 -100 0
-7885 -101 0
-7885 -116 0
-7885 -126 0
-7885 -133 0
7885 -16 -17 -19 39 83 94 100 101 116 126 133 0
-7886 16 0
-7886 17 0
-7886 19 0
-7886 -39 0
-7886 -76 0
-7886 -94 0
-7886 -100 0
-7886 -101 0
-7886 -116 0
-7886 -126 0
-7886 -133 0
7886 -16 -17 -19 39 76 94 100 101 116 126 133 0
-7887 16 0
-7887 17 0
-7887 19 0
-7887 -39 0
-7887 -82 0
-7887 -94 0
-7887 -100 0
-7887 -101 0
-7887 -116 0
-7887 -126 0
-7887 -133 0
7887 -16 -17 -19 39 82 94 100 101 116 126 133 0
-7888 16 0
-7888 17 0
-7888 19 0
-7888 -39 0
-7888 -78 0
-7888 -94 0
-7888 -100 0
-7888 -101 0
-7888 -116 0
-7888 -126 0
-7888 -133 0
7888 -16 -17 -19 39 78 94 100 101 116 126 133 0
-7889 16 0
-7889 17 0
-7889 19 0
-7889 -39 0
-7889 -80 0
-7889 -94 0
-7889 -100 0
-7889 -101 0
-7889 -116 0
-7889 -126 0
-7889 -133 0
7889 -16 -17 -19 39 80 94 100 101 116 126 133 0
-7890 16 0
-7890 17 0
-7890 19 0
-7890 -39 0
-7890 66 0
-7890 -94 0
-7890 -100 0
-7890 -101 0
-7890 -116 0
-7890 -126 0
-7890 -133 0
7890 -16 -17 -19 39 -66 94 100 101 116 126 133 0
-7891 16 0
-7891 17 0
-7891 19 0
-7891 -39 0
-7891 65 0
-7891 -94 0
-7891 -100 0
-7891 -101 0
-7891 -116 0
-7891 -126 0
-7891 -133 0
7891 -16 -17 -19 39 -65 94 100 101 116 126 133 0
-7892 16 0
-7892 17 0
-7892 19 0
-7892 -39 0
-7892 -56 0
-7892 -62 0
-7892 -94 0
-7892 -100 0
-7892 -101 0
-7892 -116 0
-7892 -126 0
-7892 -133 0
7892 -16 -17 -19 39 56 62 94 100 101 116 126 133 0
-7893 16 0
-7893 17 0
-7893 19 0
-7893 -39 0
-7893 -57 0
-7893 -58 0
-7893 64 0
-7893 -94 0
-7893 -100 0
-7893 -101 0
-7893 -116 0
-7893 -126 0
-7893 -133 0
7893 -16 -17 -19 39 57 58 -64 94 100 101 116 126 133 0
-7894 16 0
-7894 17 0
-7894 19 0
-7894 -39 0
-7894 62 0
-7894 64 0
-7894 -94 0
-7894 -100 0
-7894 -101 0
-7894 -116 0
-7894 -126 0
-7894 -133 0
7894 -16 -17 -19 39 -62 -64 94 100 101 116 126 133 0
-7895 16 0
-7895 17 0
-7895 19 0
-7895 -39 0
-7895 -56 0
-7895 -67 0
-7895 -94 0
-7895 -100 0
-7895 -101 0
-7895 -116 0
-7895 -126 0
-7895 -133 0
7895 -16 -17 -19 39 56 67 94 100 101 116 126 133 0
-7896 16 0
-7896 17 0
-7896 19 0
-7896 -39 0
-7896 -56 0
-7896 -73 0
-7896 -94 0
-7896 -100 0
-7896 -101 0
-7896 -116 0
-7896 -126 0
-7896 -133 0
7896 -16 -17 -19 39 56 73 94 100 101 116 126 133 0
-7897 16 0
-7897 17 0
-7897 19 0
-7897 -39 0
-7897 -56 0
-7897 -71 0
-7897 -94 0
-7897 -100 0
-7897 -101 0
-7897 -116 0
-7897 -126 0
-7897 -133 0
7897 -16 -17 -19 39 56 71 94 100 101 116 126 133 0
-7898 16 0
-7898 17 0
-7898 19 0
-7898 -39 0
-7898 -56 0
-7898 -69 0
-7898 -94 0
-7898 -100 0
-7898 -101 0
-7898 -116 0
-7898 -126 0
-7898 -133 0
7898 -16 -17 -19 39 56 69 94 100 101 116 126 133 0
-7899 16 0
-7899 17 0
-7899 19 0
-7899 -39 0
-7899 -56 0
-7899 -75 0
-7899 -94 0
-7899 -100 0
-7899 -101 0
-7899 -116 0
-7899 -126 0
-7899 -133 0
7899 -16 -17 -19 39 56 75 94 100 101 116 126 133 0
-7900 16 0
-7900 17 0
-7900 19 0
-7900 -39 0
-7900 -56 0
-7900 -68 0
-7900 -94 0
-7900 -100 0
-7900 -101 0
-7900 -116 0
-7900 -126 0
-7900 -133 0
7900 -16 -17 -19 39 56 68 94 100 101 116 126 133 0
-7901 16 0
-7901 17 0
-7901 19 0
-7901 -39 0
-7901 -56 0
-7901 -72 0
-7901 -94 0
-7901 -100 0
-7901 -101 0
-7901 -116 0
-7901 -126 0
-7901 -133 0
7901 -16 -17 -19 39 56 72 94 100 101 116 126 133 0
-7902 16 0
-7902 17 0
-7902 19 0
-7902 -39 0
-7902 -56 0
-7902 -70 0
-7902 -94 0
-7902 -100 0
-7902 -101 0
-7902 -116 0
-7902 -126 0
-7902 -133 0
7902 -16 -17 -19 39 56 70 94 100 101 116 126 133 0
-7903 16 0
-7903 17 0
-7903 19 0
-7903 -39 0
-7903 -56 0
-7903 -74 0
-7903 -94 0
-7903 -100 0
-7903 -101 0
-7903 -116 0
-7903 -126 0
-7903 -133 0
7903 -16 -17 -19 39 56 74 94 100 101 116 126 133 0
-7904 16 0
-7904 17 0
-7904 19 0
-7904 -39 0
-7904 -56 0
-7904 -67 0
-7904 -93 0
-7904 -100 0
-7904 -116 0
-7904 -126 0
-7904 -133 0
7904 -16 -17 -19 39 56 67 93 100 116 126 133 0
-7905 16 0
-7905 17 0
-7905 19 0
-7905 -39 0
-7905 -56 0
-7905 -67 0
-7905 -94 0
-7905 -100 0
-7905 -116 0
-7905 -126 0
-7905 -133 0
-7905 -140 0
7905 -16 -17 -19 39 56 67 94 100 116 126 133 140 0
-7906 16 0
-7906 17 0
-7906 19 0
-7906 -39 0
-7906 -56 0
-7906 -67 0
-7906 -94 0
-7906 -100 0
-7906 -110 0
-7906 -116 0
-7906 -126 0
-7906 -133 0
7906 -16 -17 -19 39 56 67 94 100 110 116 126 133 0
-7907 16 0
-7907 17 0
-7907 19 0
-7907 -39 0
-7907 -56 0
-7907 -73 0
-7907 -93 0
-7907 -100 0
-7907 -116 0
-7907 -126 0
-7907 -133 0
7907 -16 -17 -19 39 56 73 93 100 116 126 133 0
-7908 16 0
-7908 17 0
-7908 19 0
-7908 -39 0
-7908 -56 0
-7908 -71 0
-7908 -93 0
-7908 -100 0
-7908 -116 0
-7908 -126 0
-7908 -133 0
7908 -16 -17 -19 39 56 71 93 100 116 126 133 0
-7909 16 0
-7909 17 0
-7909 19 0
-7909 -39 0
-7909 -56 0
-7909 -69 0
-7909 -93 0
-7909 -100 0
-7909 -116 0
-7909 -126 0
-7909 -133 0
7909 -16 -17 -19 39 56 69 93 100 116 126 133 0
-7910 16 0
-7910 17 0
-7910 19 0
-7910 -39 0
-7910 -56 0
-7910 -75 0
-7910 -93 0
-7910 -100 0
-7910 -116 0
-7910 -126 0
-7910 -133 0
7910 -16 -17 -19 39 56 75 93 100 116 126 133 0
-7911 16 0
-7911 17 0
-7911 19 0
-7911 -39 0
-7911 -56 0
-7911 -68 0
-7911 -93 0
-7911 -100 0
-7911 -116 0
-7911 -126 0
-7911 -133 0
7911 -16 -17 -19 39 56 68 93 100 116 126 133 0
-7912 16 0
-7912 17 0
-7912 19 0
-7912 -39 0
-7912 -56 0
-7912 -72 0
-7912 -93 0
-7912 -100 0
-7912 -116 0
-7912 -126 0
-7912 -133 0
7912 -16 -17 -19 39 56 72 93 100 116 126 133 0
-7913 16 0
-7913 17 0
-7913 19 0
-7913 -39 0
-7913 -56 0
-7913 -70 0
-7913 -93 0
-7913 -100 0
-7913 -116 0
-7913 -126 0
-7913 -133 0
7913 -16 -17 -19 39 56 70 93 100 116 126 133 0
-7914 16 0
-7914 17 0
-7914 19 0
-7914 -39 0
-7914 -56 0
-7914 -74 0
-7914 -93 0
-7914 -100 0
-7914 -116 0
-7914 -126 0
-7914 -133 0
7914 -16 -17 -19 39 56 74 93 100 116 126 133 0
-7915 16 0
-7915 17 0
-7915 19 0
-7915 -39 0
-7915 -77 0
-7915 -93 0
-7915 -100 0
-7915 -116 0
-7915 -126 0
-7915 -133 0
7915 -16 -17 -19 39 77 93 100 116 126 133 0
-7916 16 0
-7916 17 0
-7916 19 0
-7916 -39 0
-7916 -81 0
-7916 -93 0
-7916 -100 0
-7916 -116 0
-7916 -126 0
-7916 -133 0
7916 -16 -17 -19 39 81 93 100 116 126 133 0
-7917 16 0
-7917 17 0
-7917 19 0
-7917 -39 0
-7917 -79 0
-7917 -93 0
-7917 -100 0
-7917 -116 0
-7917 -126 0
-7917 -133 0
7917 -16 -17 -19 39 79 93 100 116 126 133 0
-7918 16 0
-7918 17 0
-7918 19 0
-7918 -39 0
-7918 -83 0
-7918 -93 0
-7918 -100 0
-7918 -116 0
-7918 -126 0
-7918 -133 0
7918 -16 -17 -19 39 83 93 100 116 126 133 0
-7919 16 0
-7919 17 0
-7919 19 0
-7919 -39 0
-7919 -76 0
-7919 -93 0
-7919 -100 0
-7919 -116 0
-7919 -126 0
-7919 -133 0
7919 -16 -17 -19 39 76 93 100 116 126 133 0
-7920 16 0
-7920 17 0
-7920 19 0
-7920 -39 0
-7920 -82 0
-7920 -93 0
-7920 -100 0
-7920 -116 0
-7920 -126 0
-7920 -133 0
7920 -16 -17 -19 39 82 93 100 116 126 133 0
-7921 16 0
-7921 17 0
-7921 19 0
-7921 -39 0
-7921 -78 0
-7921 -93 0
-7921 -100 0
-7921 -116 0
-7921 -126 0
-7921 -133 0
7921 -16 -17 -19 39 78 93 100 116 126 133 0
-7922 16 0
-7922 17 0
-7922 19 0
-7922 -39 0
-7922 -80 0
-7922 -93 0
-7922 -100 0
-7922 -116 0
-7922 -126 0
-7922 -133 0
7922 -16 -17 -19 39 80 93 100 116 126 133 0
-7923 16 0
-7923 17 0
-7923 19 0
-7923 -39 0
-7923 -56 0
-7923 64 0
-7923 -93 0
-7923 -100 0
-7923 -116 0
-7923 -126 0
-7923 -133 0
7923 -16 -17 -19 39 56 -64 93 100 116 126 133 0
-7924 16 0
-7924 17 0
-7924 19 0
-7924 -39 0
-7924 66 0
-7924 -93 0
-7924 -100 0
-7924 -116 0
-7924 -126 0
-7924 -133 0
7924 -16 -17 -19 39 -66 93 100 116 126 133 0
-7925 16 0
-7925 17 0
-7925 19 0
-7925 -39 0
-7925 65 0
-7925 -93 0
-7925 -100 0
-7925 -116 0
-7925 -126 0
-7925 -133 0
7925 -16 -17 -19 39 -65 93 100 116 126 133 0
-7926 16 0
-7926 17 0
-7926 19 0
-7926 -39 0
-7926 -56 0
-7926 -73 0
-7926 -94 0
-7926 -100 0
-7926 -116 0
-7926 -126 0
-7926 -133 0
-7926 -140 0
7926 -16 -17 -19 39 56 73 94 100 116 126 133 140 0
-7927 16 0
-7927 17 0
-7927 19 0
-7927 -39 0
-7927 -56 0
-7927 -73 0
-7927 -94 0
-7927 -100 0
-7927 -110 0
-7927 -116 0
-7927 -126 0
-7927 -133 0
7927 -16 -17 -19 39 56 73 94 100 110 116 126 133 0
-7928 16 0
-7928 17 0
-7928 19 0
-7928 -39 0
-7928 -56 0
-7928 -73 0
-7928 95 0
-7928 -100 0
-7928 -116 0
-7928 -126 0
-7928 -133 0
7928 -16 -17 -19 39 56 73 -95 100 116 126 133 0
-7929 16 0
-7929 17 0
-7929 19 0
-7929 -39 0
-7929 -56 0
-7929 -73 0
-7929 94 0
-7929 -100 0
-7929 101 0
-7929 -116 0
-7929 -126 0
-7929 -133 0
7929 -16 -17 -19 39 56 73 -94 100 -101 116 126 133 0
-7930 16 0
-7930 17 0
-7930 19 0
-7930 -39 0
-7930 -56 0
-7930 -73 0
-7930 94 0
-7930 -100 0
-7930 110 0
-7930 -116 0
-7930 -126 0
-7930 -133 0
7930 -16 -17 -19 39 56 73 -94 100 -110 116 126 133 0
-7931 16 0
-7931 17 0
-7931 19 0
-7931 -39 0
-7931 -56 0
-7931 -71 0
-7931 94 0
-7931 -100 0
-7931 110 0
-7931 -116 0
-7931 -126 0
-7931 -133 0
7931 -16 -17 -19 39 56 71 -94 100 -110 116 126 133 0
-7932 16 0
-7932 17 0
-7932 19 0
-7932 -39 0
-7932 -56 0
-7932 -69 0
-7932 94 0
-7932 -100 0
-7932 110 0
-7932 -116 0
-7932 -126 0
-7932 -133 0
7932 -16 -17 -19 39 56 69 -94 100 -110 116 126 133 0
-7933 16 0
-7933 17 0
-7933 19 0
-7933 -39 0
-7933 -56 0
-7933 -75 0
-7933 94 0
-7933 -100 0
-7933 110 0
-7933 -116 0
-7933 -126 0
-7933 -133 0
7933 -16 -17 -19 39 56 75 -94 100 -110 116 126 133 0
-7934 16 0
-7934 17 0
-7934 19 0
-7934 -39 0
-7934 -56 0
-7934 -68 0
-7934 94 0
-7934 -100 0
-7934 110 0
-7934 -116 0
-7934 -126 0
-7934 -133 0
7934 -16 -17 -19 39 56 68 -94 100 -110 116 126 133 0
-7935 16 0
-7935 17 0
-7935 19 0
-7935 -39 0
-7935 -56 0
-7935 -72 0
-7935 94 0
-7935 -100 0
-7935 110 0
-7935 -116 0
-7935 -126 0
-7935 -133 0
7935 -16 -17 -19 39 56 72 -94 100 -110 116 126 133 0
-7936 16 0
-7936 17 0
-7936 19 0
-7936 -39 0
-7936 -56 0
-7936 -70 0
-7936 94 0
-7936 -100 0
-7936 110 0
-7936 -116 0
-7936 -126 0
-7936 -133 0
7936 -16 -17 -19 39 56 70 -94 100 -110 116 126 133 0
-7937 16 0
-7937 17 0
-7937 19 0
-7937 -39 0
-7937 -56 0
-7937 -74 0
-7937 94 0
-7937 -100 0
-7937 110 0
-7937 -116 0
-7937 -126 0
-7937 -133 0
7937 -16 -17 -19 39 56 74 -94 100 -110 116 126 133 0
-7938 16 0
-7938 17 0
-7938 19 0
-7938 -39 0
-7938 -54 0
-7938 -56 0
-7938 94 0
-7938 -100 0
-7938 110 0
-7938 -116 0
-7938 -126 0
-7938 -133 0
7938 -16 -17 -19 39 54 56 -94 100 -110 116 126 133 0
-7939 16 0
-7939 17 0
-7939 19 0
-7939 -39 0
-7939 -55 0
-7939 -56 0
-7939 94 0
-7939 -100 0
-7939 110 0
-7939 -116 0
-7939 -126 0
-7939 -133 0
7939 -16 -17 -19 39 55 56 -94 100 -110 116 126 133 0
-7940 16 0
-7940 17 0
-7940 19 0
-7940 -39 0
-7940 -77 0
-7940 94 0
-7940 -100 0
-7940 110 0
-7940 -116 0
-7940 -126 0
-7940 -133 0
7940 -16 -17 -19 39 77 -94 100 -110 116 126 133 0
-7941 16 0
-7941 17 0
-7941 19 0
-7941 -39 0
-7941 -81 0
-7941 94 0
-7941 -100 0
-7941 110 0
-7941 -116 0
-7941 -126 0
-7941 -133 0
7941 -16 -17 -19 39 81 -94 100 -110 116 126 133 0
-7942 16 0
-7942 17 0
-7942 19 0
-7942 -39 0
-7942 -79 0
-7942 94 0
-7942 -100 0
-7942 110 0
-7942 -116 0
-7942 -126 0
-7942 -133 0
7942 -16 -17 -19 39 79 -94 100 -110 116 126 133 0
-7943 16 0
-7943 17 0
-7943 19 0
-7943 -39 0
-7943 -83 0
-7943 94 0
-7943 -100 0
-7943 110 0
-7943 -116 0
-7943 -126 0
-7943 -133 0
7943 -16 -17 -19 39 83 -94 100 -110 116 126 133 0
-7944 16 0
-7944 17 0
-7944 19 0
-7944 -39 0
-7944 -76 0
-7944 94 0
-7944 -100 0
-7944 110 0
-7944 -116 0
-7944 -126 0
-7944 -133 0
7944 -16 -17 -19 39 76 -94 100 -110 116 126 133 0
-7945 16 0
-7945 17 0
-7945 19 0
-7945 -39 0
-7945 -82 0
-7945 94 0
-7945 -100 0
-7945 110 0
-7945 -116 0
-7945 -126 0
-7945 -133 0
7945 -16 -17 -19 39 82 -94 100 -110 116 126 133 0
-7946 16 0
-7946 17 0
-7946 19 0
-7946 -39 0
-7946 -78 0
-7946 94 0
-7946 -100 0
-7946 110 0
-7946 -116 0
-7946 -126 0
-7946 -133 0
7946 -16 -17 -19 39 78 -94 100 -110 116 126 133 0
-7947 16 0
-7947 17 0
-7947 19 0
-7947 -39 0
-7947 -80 0
-7947 94 0
-7947 -100 0
-7947 110 0
-7947 -116 0
-7947 -126 0
-7947 -133 0
7947 -16 -17 -19 39 80 -94 100 -110 116 126 133 0
-7948 16 0
-7948 17 0
-7948 19 0
-7948 -39 0
-7948 -84 0
-7948 94 0
-7948 -100 0
-7948 110 0
-7948 -116 0
-7948 -126 0
-7948 -133 0
7948 -16 -17 -19 39 84 -94 100 -110 116 126 133 0
-7949 16 0
-7949 17 0
-7949 19 0
-7949 -39 0
-7949 -56 0
-7949 64 0
-7949 94 0
-7949 -100 0
-7949 110 0
-7949 -116 0
-7949 -126 0
-7949 -133 0
7949 -16 -17 -19 39 56 -64 -94 100 -110 116 126 133 0
-7950 16 0
-7950 17 0
-7950 19 0
-7950 -39 0
-7950 94 0
-7950 -100 0
-7950 110 0
-7950 -116 0
-7950 -126 0
-7950 -133 0
-7950 -164 0
7950 -16 -17 -19 39 -94 100 -110 116 126 133 164 0
-7951 16 0
-7951 17 0
-7951 19 0
-7951 -39 0
-7951 66 0
-7951 94 0
-7951 -100 0
-7951 110 0
-7951 -116 0
-7951 -126 0
-7951 -133 0
7951 -16 -17 -19 39 -66 -94 100 -110 116 126 133 0
-7952 16 0
-7952 17 0
-7952 19 0
-7952 -39 0
-7952 65 0
-7952 94 0
-7952 -100 0
-7952 110 0
-7952 -116 0
-7952 -126 0
-7952 -133 0
7952 -16 -17 -19 39 -65 -94 100 -110 116 126 133 0
-7953 16 0
-7953 17 0
-7953 19 0
-7953 -39 0
-7953 -63 0
-7953 94 0
-7953 -100 0
-7953 110 0
-7953 -116 0
-7953 -126 0
-7953 -133 0
7953 -16 -17 -19 39 63 -94 100 -110 116 126 133 0
-7954 16 0
-7954 17 0
-7954 19 0
-7954 -39 0
-7954 -56 0
-7954 -67 0
-7954 94 0
-7954 -100 0
-7954 110 0
-7954 -116 0
-7954 -126 0
-7954 -133 0
7954 -16 -17 -19 39 56 67 -94 100 -110 116 126 133 0
-7955 16 0
-7955 17 0
-7955 19 0
-7955 -39 0
-7955 -56 0
-7955 -71 0
-7955 94 0
-7955 -100 0
-7955 101 0
-7955 -116 0
-7955 -126 0
-7955 -133 0
7955 -16 -17 -19 39 56 71 -94 100 -101 116 126 133 0
-7956 16 0
-7956 17 0
-7956 19 0
-7956 -39 0
-7956 -56 0
-7956 -71 0
-7956 95 0
-7956 -100 0
-7956 -116 0
-7956 -126 0
-7956 -133 0
7956 -16 -17 -19 39 56 71 -95 100 116 126 133 0
-7957 16 0
-7957 17 0
-7957 19 0
-7957 -39 0
-7957 -56 0
-7957 -69 0
-7957 94 0
-7957 -100 0
-7957 101 0
-7957 -116 0
-7957 -126 0
-7957 -133 0
7957 -16 -17 -19 39 56 69 -94 100 -101 116 126 133 0
-7958 16 0
-7958 17 0
-7958 19 0
-7958 -39 0
-7958 -56 0
-7958 -75 0
-7958 94 0
-7958 -100 0
-7958 101 0
-7958 -116 0
-7958 -126 0
-7958 -133 0
7958 -16 -17 -19 39 56 75 -94 100 -101 116 126 133 0
-7959 16 0
-7959 17 0
-7959 19 0
-7959 -39 0
-7959 -56 0
-7959 -68 0
-7959 94 0
-7959 -100 0
-7959 101 0
-7959 -116 0
-7959 -126 0
-7959 -133 0
7959 -16 -17 -19 39 56 68 -94 100 -101 116 126 133 0
-7960 16 0
-7960 17 0
-7960 19 0
-7960 -39 0
-7960 -56 0
-7960 -72 0
-7960 94 0
-7960 -100 0
-7960 101 0
-7960 -116 0
-7960 -126 0
-7960 -133 0
7960 -16 -17 -19 39 56 72 -94 100 -101 116 126 133 0
-7961 16 0
-7961 17 0
-7961 19 0
-7961 -39 0
-7961 -56 0
-7961 -70 0
-7961 94 0
-7961 -100 0
-7961 101 0
-7961 -116 0
-7961 -126 0
-7961 -133 0
7961 -16 -17 -19 39 56 70 -94 100 -101 116 126 133 0
-7962 16 0
-7962 17 0
-7962 19 0
-7962 -39 0
-7962 -56 0
-7962 -74 0
-7962 94 0
-7962 -100 0
-7962 101 0
-7962 -116 0
-7962 -126 0
-7962 -133 0
7962 -16 -17 -19 39 56 74 -94 100 -101 116 126 133 0
-7963 16 0
-7963 17 0
-7963 19 0
-7963 -39 0
-7963 -54 0
-7963 -56 0
-7963 94 0
-7963 -100 0
-7963 101 0
-7963 -116 0
-7963 -126 0
-7963 -133 0
7963 -16 -17 -19 39 54 56 -94 100 -101 116 126 133 0
-7964 16 0
-7964 17 0
-7964 19 0
-7964 -39 0
-7964 -55 0
-7964 -56 0
-7964 94 0
-7964 -100 0
-7964 101 0
-7964 -116 0
-7964 -126 0
-7964 -133 0
7964 -16 -17 -19 39 55 56 -94 100 -101 116 126 133 0
-7965 16 0
-7965 17 0
-7965 19 0
-7965 -39 0
-7965 -77 0
-7965 94 0
-7965 -100 0
-7965 101 0
-7965 -116 0
-7965 -126 0
-7965 -133 0
7965 -16 -17 -19 39 77 -94 100 -101 116 126 133 0
-7966 16 0
-7966 17 0
-7966 19 0
-7966 -39 0
-7966 -81 0
-7966 94 0
-7966 -100 0
-7966 101 0
-7966 -116 0
-7966 -126 0
-7966 -133 0
7966 -16 -17 -19 39 81 -94 100 -101 116 126 133 0
-7967 16 0
-7967 17 0
-7967 19 0
-7967 -39 0
-7967 -79 0
-7967 94 0
-7967 -100 0
-7967 101 0
-7967 -116 0
-7967 -126 0
-7967 -133 0
7967 -16 -17 -19 39 79 -94 100 -101 116 126 133 0
-7968 16 0
-7968 17 0
-7968 19 0
-7968 -39 0
-7968 -83 0
-7968 94 0
-7968 -100 0
-7968 101 0
-7968 -116 0
-7968 -126 0
-7968 -133 0
7968 -16 -17 -19 39 83 -94 100 -101 116 126 133 0
-7969 16 0
-7969 17 0
-7969 19 0
-7969 -39 0
-7969 -76 0
-7969 94 0
-7969 -100 0
-7969 101 0
-7969 -116 0
-7969 -126 0
-7969 -133 0
7969 -16 -17 -19 39 76 -94 100 -101 116 126 133 0
-7970 16 0
-7970 17 0
-7970 19 0
-7970 -39 0
-7970 -82 0
-7970 94 0
-7970 -100 0
-7970 101 0
-7970 -116 0
-7970 -126 0
-7970 -133 0
7970 -16 -17 -19 39 82 -94 100 -101 116 126 133 0
-7971 16 0
-7971 17 0
-7971 19 0
-7971 -39 0
-7971 -78 0
-7971 94 0
-7971 -100 0
-7971 101 0
-7971 -116 0
-7971 -126 0
-7971 -133 0
7971 -16 -17 -19 39 78 -94 100 -101 116 126 133 0
-7972 16 0
-7972 17 0
-7972 19 0
-7972 -39 0
-7972 -80 0
-7972 94 0
-7972 -100 0
-7972 101 0
-7972 -116 0
-7972 -126 0
-7972 -133 0
7972 -16 -17 -19 39 80 -94 100 -101 116 126 133 0
-7973 16 0
-7973 17 0
-7973 19 0
-7973 -39 0
-7973 -84 0
-7973 94 0
-7973 -100 0
-7973 101 0
-7973 -116 0
-7973 -126 0
-7973 -133 0
7973 -16 -17 -19 39 84 -94 100 -101 116 126 133 0
-7974 16 0
-7974 17 0
-7974 19 0
-7974 -39 0
-7974 -56 0
-7974 64 0
-7974 94 0
-7974 -100 0
-7974 101 0
-7974 -116 0
-7974 -126 0
-7974 -133 0
7974 -16 -17 -19 39 56 -64 -94 100 -101 116 126 133 0
-7975 16 0
-7975 17 0
-7975 19 0
-7975 -39 0
-7975 94 0
-7975 -100 0
-7975 101 0
-7975 -116 0
-7975 -126 0
-7975 -133 0
-7975 -164 0
7975 -16 -17 -19 39 -94 100 -101 116 126 133 164 0
-7976 16 0
-7976 17 0
-7976 19 0
-7976 -39 0
-7976 66 0
-7976 94 0
-7976 -100 0
-7976 101 0
-7976 -116 0
-7976 -126 0
-7976 -133 0
7976 -16 -17 -19 39 -66 -94 100 -101 116 126 133 0
-7977 16 0
-7977 17 0
-7977 19 0
-7977 -39 0
-7977 65 0
-7977 94 0
-7977 -100 0
-7977 101 0
-7977 -116 0
-7977 -126 0
-7977 -133 0
7977 -16 -17 -19 39 -65 -94 100 -101 116 126 133 0
-7978 16 0
-7978 17 0
-7978 19 0
-7978 -39 0
-7978 -63 0
-7978 94 0
-7978 -100 0
-7978 101 0
-7978 -116 0
-7978 -126 0
-7978 -133 0
7978 -16 -17 -19 39 63 -94 100 -101 116 126 133 0
-7979 16 0
-7979 17 0
-7979 19 0
-7979 -39 0
-7979 -56 0
-7979 -67 0
-7979 94 0
-7979 -100 0
-7979 101 0
-7979 -116 0
-7979 -126 0
-7979 -133 0
7979 -16 -17 -19 39 56 67 -94 100 -101 116 126 133 0
-7980 16 0
-7980 17 0
-7980 19 0
-7980 -39 0
-7980 -56 0
-7980 -69 0
-7980 95 0
-7980 -100 0
-7980 -116 0
-7980 -126 0
-7980 -133 0
7980 -16 -17 -19 39 56 69 -95 100 116 126 133 0
-7981 16 0
-7981 17 0
-7981 19 0
-7981 -39 0
-7981 -56 0
-7981 -75 0
-7981 95 0
-7981 -100 0
-7981 -116 0
-7981 -126 0
-7981 -133 0
7981 -16 -17 -19 39 56 75 -95 100 116 126 133 0
-7982 16 0
-7982 17 0
-7982 19 0
-7982 -39 0
-7982 -56 0
-7982 -68 0
-7982 95 0
-7982 -100 0
-7982 -116 0
-7982 -126 0
-7982 -133 0
7982 -16 -17 -19 39 56 68 -95 100 116 126 133 0
-7983 16 0
-7983 17 0
-7983 19 0
-7983 -39 0
-7983 -56 0
-7983 -72 0
-7983 95 0
-7983 -100 0
-7983 -116 0
-7983 -126 0
-7983 -133 0
7983 -16 -17 -19 39 56 72 -95 100 116 126 133 0
-7984 16 0
-7984 17 0
-7984 19 0
-7984 -39 0
-7984 -56 0
-7984 -70 0
-7984 95 0
-7984 -100 0
-7984 -116 0
-7984 -126 0
-7984 -133 0
7984 -16 -17 -19 39 56 70 -95 100 116 126 133 0
-7985 16 0
-7985 17 0
-7985 19 0
-7985 -39 0
-7985 -56 0
-7985 -74 0
-7985 95 0
-7985 -100 0
-7985 -116 0
-7985 -126 0
-7985 -133 0
7985 -16 -17 -19 39 56 74 -95 100 116 126 133 0
-7986 16 0
-7986 17 0
-7986 19 0
-7986 -39 0
-7986 -54 0
-7986 -56 0
-7986 95 0
-7986 -100 0
-7986 -116 0
-7986 -126 0
-7986 -133 0
7986 -16 -17 -19 39 54 56 -95 100 116 126 133 0
-7987 16 0
-7987 17 0
-7987 19 0
-7987 -39 0
-7987 -55 0
-7987 -56 0
-7987 95 0
-7987 -100 0
-7987 -116 0
-7987 -126 0
-7987 -133 0
7987 -16 -17 -19 39 55 56 -95 100 116 126 133 0
-7988 16 0
-7988 17 0
-7988 19 0
-7988 -39 0
-7988 -56 0
-7988 -67 0
-7988 95 0
-7988 -100 0
-7988 -116 0
-7988 -126 0
-7988 -133 0
7988 -16 -17 -19 39 56 67 -95 100 116 126 133 0
-7989 16 0
-7989 17 0
-7989 19 0
-7989 -39 0
-7989 -54 0
-7989 -61 0
-7989 95 0
-7989 -100 0
-7989 -116 0
-7989 -126 0
-7989 -133 0
7989 -16 -17 -19 39 54 61 -95 100 116 126 133 0
-7990 16 0
-7990 17 0
-7990 19 0
-7990 -39 0
-7990 -55 0
-7990 -61 0
-7990 95 0
-7990 -100 0
-7990 -116 0
-7990 -126 0
-7990 -133 0
7990 -16 -17 -19 39 55 61 -95 100 116 126 133 0
-7991 16 0
-7991 17 0
-7991 19 0
-7991 -39 0
-7991 -57 0
-7991 -58 0
-7991 64 0
-7991 -93 0
-7991 -100 0
-7991 -116 0
-7991 -126 0
-7991 -133 0
7991 -16 -17 -19 39 57 58 -64 93 100 116 126 133 0
-7992 16 0
-7992 17 0
-7992 19 0
-7992 -39 0
-7992 62 0
-7992 64 0
-7992 -93 0
-7992 -100 0
-7992 -116 0
-7992 -126 0
-7992 -133 0
7992 -16 -17 -19 39 -62 -64 93 100 116 126 133 0
-7993 16 0
-7993 17 0
-7993 19 0
-7993 -39 0
-7993 -54 0
-7993 -61 0
-7993 94 0
-7993 -100 0
-7993 110 0
-7993 -116 0
-7993 -126 0
-7993 -133 0
7993 -16 -17 -19 39 54 61 -94 100 -110 116 126 133 0
-7994 16 0
-7994 17 0
-7994 19 0
-7994 -39 0
-7994 -55 0
-7994 -61 0
-7994 94 0
-7994 -100 0
-7994 110 0
-7994 -116 0
-7994 -126 0
-7994 -133 0
7994 -16 -17 -19 39 55 61 -94 100 -110 116 126 133 0
-7995 16 0
-7995 17 0
-7995 19 0
-7995 -39 0
-7995 -61 0
-7995 64 0
-7995 94 0
-7995 -100 0
-7995 110 0
-7995 -116 0
-7995 -126 0
-7995 -133 0
7995 -16 -17 -19 39 61 -64 -94 100 -110 116 126 133 0
-7996 16 0
-7996 17 0
-7996 19 0
-7996 -39 0
-7996 62 0
-7996 64 0
-7996 94 0
-7996 -100 0
-7996 110 0
-7996 -116 0
-7996 -126 0
-7996 -133 0
7996 -16 -17 -19 39 -62 -64 -94 100 -110 116 126 133 0
-7997 16 0
-7997 17 0
-7997 19 0
-7997 -39 0
-7997 -57 0
-7997 -58 0
-7997 64 0
-7997 94 0
-7997 -100 0
-7997 101 0
-7997 -116 0
-7997 -126 0
-7997 -133 0
7997 -16 -17 -19 39 57 58 -64 -94 100 -101 116 126 133 0
-7998 16 0
-7998 17 0
-7998 19 0
-7998 -39 0
-7998 62 0
-7998 64 0
-7998 94 0
-7998 -100 0
-7998 101 0
-7998 -116 0
-7998 -126 0
-7998 -133 0
7998 -16 -17 -19 39 -62 -64 -94 100 -101 116 126 133 0
-7999 16 0
-7999 17 0
-7999 19 0
-7999 -39 0
-7999 -54 0
-7999 -61 0
-7999 94 0
-7999 -100 0
-7999 101 0
-7999 -116 0
-7999 -126 0
-7999 -133 0
7999 -16 -17 -19 39 54 61 -94 100 -101 116 126 133 0
-8000 16 0
-8000 17 0
-8000 19 0
-8000 -39 0
-8000 -55 0
-8000 -61 0
-8000 94 0
-8000 -100 0
-8000 101 0
-8000 -116 0
-8000 -126 0
-8000 -133 0
8000 -16 -17 -19 39 55 61 -94 100 -101 116 126 133 0
-8001 16 0
-8001 17 0
-8001 19 0
-8001 -39 0
-8001 -61 0
-8001 -62 0
-8001 -94 0
-8001 -100 0
-8001 -116 0
-8001 -126 0
-8001 -133 0
-8001 -140 0
8001 -16 -17 -19 39 61 62 94 100 116 126 133 140 0
-8002 16 0
-8002 17 0
-8002 19 0
-8002 -39 0
-8002 -56 0
-8002 -62 0
-8002 -94 0
-8002 -100 0
-8002 -116 0
-8002 -126 0
-8002 -133 0
-8002 -140 0
8002 -16 -17 -19 39 56 62 94 100 116 126 133 140 0
-8003 16 0
-8003 17 0
-8003 19 0
-8003 -39 0
-8003 -77 0
-8003 -94 0
-8003 -100 0
-8003 -116 0
-8003 -126 0
-8003 -133 0
-8003 -140 0
8003 -16 -17 -19 39 77 94 100 116 126 133 140 0
-8004 16 0
-8004 17 0
-8004 19 0
-8004 -39 0
-8004 -81 0
-8004 -94 0
-8004 -100 0
-8004 -116 0
-8004 -126 0
-8004 -133 0
-8004 -140 0
8004 -16 -17 -19 39 81 94 100 116 126 133 140 0
-8005 16 0
-8005 17 0
-8005 19 0
-8005 -39 0
-8005 -79 0
-8005 -94 0
-8005 -100 0
-8005 -116 0
-8005 -126 0
-8005 -133 0
-8005 -140 0
8005 -16 -17 -19 39 79 94 100 116 126 133 140 0
-8006 16 0
-8006 17 0
-8006 19 0
-8006 -39 0
-8006 -83 0
-8006 -94 0
-8006 -100 0
-8006 -116 0
-8006 -126 0
-8006 -133 0
-8006 -140 0
8006 -16 -17 -19 39 83 94 100 116 126 133 140 0
-8007 16 0
-8007 17 0
-8007 19 0
-8007 -39 0
-8007 -76 0
-8007 -94 0
-8007 -100 0
-8007 -116 0
-8007 -126 0
-8007 -133 0
-8007 -140 0
8007 -16 -17 -19 39 76 94 100 116 126 133 140 0
-8008 16 0
-8008 17 0
-8008 19 0
-8008 -39 0
-8008 -82 0
-8008 -94 0
-8008 -100 0
-8008 -116 0
-8008 -126 0
-8008 -133 0
-8008 -140 0
8008 -16 -17 -19 39 82 94 100 116 126 133 140 0
-8009 16 0
-8009 17 0
-8009 19 0
-8009 -39 0
-8009 -78 0
-8009 -94 0
-8009 -100 0
-8009 -116 0
-8009 -126 0
-8009 -133 0
-8009 -140 0
8009 -16 -17 -19 39 78 94 100 116 126 133 140 0
-8010 16 0
-8010 17 0
-8010 19 0
-8010 -39 0
-8010 -80 0
-8010 -94 0
-8010 -100 0
-8010 -116 0
-8010 -126 0
-8010 -133 0
-8010 -140 0
8010 -16 -17 -19 39 80 94 100 116 126 133 140 0
-8011 16 0
-8011 17 0
-8011 19 0
-8011 -39 0
-8011 -94 0
-8011 -100 0
-8011 -116 0
-8011 -126 0
-8011 -133 0
-8011 -140 0
-8011 -164 0
8011 -16 -17 -19 39 94 100 116 126 133 140 164 0
-8012 16 0
-8012 17 0
-8012 19 0
-8012 -39 0
-8012 66 0
-8012 -94 0
-8012 -100 0
-8012 -116 0
-8012 -126 0
-8012 -133 0
-8012 -140 0
8012 -16 -17 -19 39 -66 94 100 116 126 133 140 0
-8013 16 0
-8013 17 0
-8013 19 0
-8013 -39 0
-8013 65 0
-8013 -94 0
-8013 -100 0
-8013 -116 0
-8013 -126 0
-8013 -133 0
-8013 -140 0
8013 -16 -17 -19 39 -65 94 100 116 126 133 140 0
-8014 16 0
-8014 17 0
-8014 19 0
-8014 -39 0
-8014 -63 0
-8014 -94 0
-8014 -100 0
-8014 -116 0
-8014 -126 0
-8014 -133 0
-8014 -140 0
8014 -16 -17 -19 39 63 94 100 116 126 133 140 0
-8015 16 0
-8015 17 0
-8015 19 0
-8015 -39 0
-8015 -57 0
-8015 -58 0
-8015 64 0
-8015 -94 0
-8015 -100 0
-8015 -110 0
-8015 -116 0
-8015 -126 0
-8015 -133 0
8015 -16 -17 -19 39 57 58 -64 94 100 110 116 126 133 0
-8016 16 0
-8016 17 0
-8016 19 0
-8016 -39 0
-8016 62 0
-8016 64 0
-8016 -94 0
-8016 -100 0
-8016 -110 0
-8016 -116 0
-8016 -126 0
-8016 -133 0
8016 -16 -17 -19 39 -62 -64 94 100 110 116 126 133 0
-8017 16 0
-8017 17 0
-8017 19 0
-8017 -39 0
-8017 62 0
-8017 64 0
-8017 -94 0
-8017 -100 0
-8017 -116 0
-8017 -126 0
-8017 -133 0
-8017 -140 0
8017 -16 -17 -19 39 -62 -64 94 100 116 126 133 140 0
-8018 16 0
-8018 17 0
-8018 19 0
-8018 -39 0
-8018 -54 0
-8018 -61 0
-8018 -94 0
-8018 -100 0
-8018 -116 0
-8018 -126 0
-8018 -133 0
-8018 -140 0
8018 -16 -17 -19 39 54 61 94 100 116 126 133 140 0
-8019 16 0
-8019 17 0
-8019 19 0
-8019 -39 0
-8019 -55 0
-8019 -61 0
-8019 -94 0
-8019 -100 0
-8019 -116 0
-8019 -126 0
-8019 -133 0
-8019 -140 0
8019 -16 -17 -19 39 55 61 94 100 116 126 133 140 0
-8020 16 0
-8020 17 0
-8020 19 0
-8020 -39 0
-8020 -56 0
-8020 -69 0
-8020 -94 0
-8020 -100 0
-8020 -116 0
-8020 -126 0
-8020 -133 0
-8020 -140 0
8020 -16 -17 -19 39 56 69 94 100 116 126 133 140 0
-8021 16 0
-8021 17 0
-8021 19 0
-8021 -39 0
-8021 -56 0
-8021 -75 0
-8021 -94 0
-8021 -100 0
-8021 -116 0
-8021 -126 0
-8021 -133 0
-8021 -140 0
8021 -16 -17 -19 39 56 75 94 100 116 126 133 140 0
-8022 16 0
-8022 17 0
-8022 19 0
-8022 -39 0
-8022 -56 0
-8022 -68 0
-8022 -94 0
-8022 -100 0
-8022 -116 0
-8022 -126 0
-8022 -133 0
-8022 -140 0
8022 -16 -17 -19 39 56 68 94 100 116 126 133 140 0
-8023 16 0
-8023 17 0
-8023 19 0
-8023 -39 0
-8023 -56 0
-8023 -72 0
-8023 -94 0
-8023 -100 0
-8023 -116 0
-8023 -126 0
-8023 -133 0
-8023 -140 0
8023 -16 -17 -19 39 56 72 94 100 116 126 133 140 0
-8024 16 0
-8024 17 0
-8024 19 0
-8024 -39 0
-8024 -56 0
-8024 -70 0
-8024 -94 0
-8024 -100 0
-8024 -116 0
-8024 -126 0
-8024 -133 0
-8024 -140 0
8024 -16 -17 -19 39 56 70 94 100 116 126 133 140 0
-8025 16 0
-8025 17 0
-8025 19 0
-8025 -39 0
-8025 -56 0
-8025 -74 0
-8025 -94 0
-8025 -100 0
-8025 -116 0
-8025 -126 0
-8025 -133 0
-8025 -140 0
8025 -16 -17 -19 39 56 74 94 100 116 126 133 140 0
-8026 16 0
-8026 17 0
-8026 19 0
-8026 -39 0
-8026 -56 0
-8026 -71 0
-8026 -94 0
-8026 -100 0
-8026 -116 0
-8026 -126 0
-8026 -133 0
-8026 -140 0
8026 -16 -17 -19 39 56 71 94 100 116 126 133 140 0
-8027 16 0
-8027 17 0
-8027 19 0
-8027 -39 0
-8027 -56 0
-8027 -69 0
-8027 -94 0
-8027 -100 0
-8027 -110 0
-8027 -116 0
-8027 -126 0
-8027 -133 0
8027 -16 -17 -19 39 56 69 94 100 110 116 126 133 0
-8028 16 0
-8028 17 0
-8028 19 0
-8028 -39 0
-8028 -56 0
-8028 -75 0
-8028 -94 0
-8028 -100 0
-8028 -110 0
-8028 -116 0
-8028 -126 0
-8028 -133 0
8028 -16 -17 -19 39 56 75 94 100 110 116 126 133 0
-8029 16 0
-8029 17 0
-8029 19 0
-8029 -39 0
-8029 -56 0
-8029 -68 0
-8029 -94 0
-8029 -100 0
-8029 -110 0
-8029 -116 0
-8029 -126 0
-8029 -133 0
8029 -16 -17 -19 39 56 68 94 100 110 116 126 133 0
-8030 16 0
-8030 17 0
-8030 19 0
-8030 -39 0
-8030 -56 0
-8030 -72 0
-8030 -94 0
-8030 -100 0
-8030 -110 0
-8030 -116 0
-8030 -126 0
-8030 -133 0
8030 -16 -17 -19 39 56 72 94 100 110 116 126 133 0
-8031 16 0
-8031 17 0
-8031 19 0
-8031 -39 0
-8031 -56 0
-8031 -70 0
-8031 -94 0
-8031 -100 0
-8031 -110 0
-8031 -116 0
-8031 -126 0
-8031 -133 0
8031 -16 -17 -19 39 56 70 94 100 110 116 126 133 0
-8032 16 0
-8032 17 0
-8032 19 0
-8032 -39 0
-8032 -56 0
-8032 -74 0
-8032 -94 0
-8032 -100 0
-8032 -110 0
-8032 -116 0
-8032 -126 0
-8032 -133 0
8032 -16 -17 -19 39 56 74 94 100 110 116 126 133 0
-8033 16 0
-8033 17 0
-8033 19 0
-8033 -39 0
-8033 -56 0
-8033 -71 0
-8033 -94 0
-8033 -100 0
-8033 -110 0
-8033 -116 0
-8033 -126 0
-8033 -133 0
8033 -16 -17 -19 39 56 71 94 100 110 116 126 133 0
-8034 16 0
-8034 17 0
-8034 19 0
-8034 -39 0
-8034 -56 0
-8034 -75 0
-8034 95 0
-8034 -116 0
-8034 -133 0
-8034 134 0
8034 -16 -17 -19 39 56 75 -95 116 133 -134 0
-8035 16 0
-8035 17 0
-8035 19 0
-8035 -39 0
-8035 -56 0
-8035 -75 0
-8035 95 0
-8035 -116 0
-8035 -122 0
-8035 -133 0
8035 -16 -17 -19 39 56 75 -95 116 122 133 0
-8036 16 0
-8036 17 0
-8036 19 0
-8036 -39 0
-8036 -56 0
-8036 -75 0
-8036 -94 0
-8036 -101 0
-8036 -116 0
-8036 -133 0
-8036 134 0
8036 -16 -17 -19 39 56 75 94 101 116 133 -134 0
-8037 16 0
-8037 17 0
-8037 19 0
-8037 -39 0
-8037 -56 0
-8037 -75 0
-8037 -94 0
-8037 -110 0
-8037 -116 0
-8037 -133 0
-8037 134 0
8037 -16 -17 -19 39 56 75 94 110 116 133 -134 0
-8038 16 0
-8038 17 0
-8038 19 0
-8038 -39 0
-8038 -56 0
-8038 -75 0
-8038 -94 0
-8038 -116 0
-8038 -133 0
-8038 134 0
-8038 -140 0
8038 -16 -17 -19 39 56 75 94 116 133 -134 140 0
-8039 16 0
-8039 17 0
-8039 19 0
-8039 -39 0
-8039 -56 0
-8039 -75 0
-8039 -93 0
-8039 -116 0
-8039 -133 0
-8039 134 0
8039 -16 -17 -19 39 56 75 93 116 133 -134 0
-8040 16 0
-8040 17 0
-8040 19 0
-8040 -39 0
-8040 -56 0
-8040 -75 0
-8040 94 0
-8040 101 0
-8040 -116 0
-8040 -133 0
-8040 134 0
8040 -16 -17 -19 39 56 75 -94 -101 116 133 -134 0
-8041 16 0
-8041 17 0
-8041 19 0
-8041 -39 0
-8041 -56 0
-8041 -75 0
-8041 94 0
-8041 110 0
-8041 -116 0
-8041 -133 0
-8041 134 0
8041 -16 -17 -19 39 56 75 -94 -110 116 133 -134 0
-8042 16 0
-8042 17 0
-8042 19 0
-8042 -39 0
-8042 -56 0
-8042 -75 0
-8042 94 0
-8042 -116 0
-8042 -133 0
-8042 134 0
-8042 140 0
8042 -16 -17 -19 39 56 75 -94 116 133 -134 -140 0
-8043 16 0
-8043 17 0
-8043 19 0
-8043 -39 0
-8043 -56 0
-8043 -75 0
-8043 94 0
-8043 110 0
-8043 -116 0
-8043 -122 0
-8043 -133 0
8043 -16 -17 -19 39 56 75 -94 -110 116 122 133 0
-8044 16 0
-8044 17 0
-8044 19 0
-8044 -39 0
-8044 -56 0
-8044 -75 0
-8044 -93 0
-8044 -116 0
-8044 -122 0
-8044 -133 0
8044 -16 -17 -19 39 56 75 93 116 122 133 0
-8045 16 0
-8045 17 0
-8045 19 0
-8045 -39 0
-8045 -56 0
-8045 -75 0
-8045 94 0
-8045 101 0
-8045 -116 0
-8045 -122 0
-8045 -133 0
8045 -16 -17 -19 39 56 75 -94 -101 116 122 133 0
-8046 16 0
-8046 17 0
-8046 19 0
-8046 -39 0
-8046 -56 0
-8046 -75 0
-8046 -94 0
-8046 -101 0
-8046 -116 0
-8046 -122 0
-8046 -133 0
8046 -16 -17 -19 39 56 75 94 101 116 122 133 0
-8047 16 0
-8047 17 0
-8047 19 0
-8047 -39 0
-8047 -56 0
-8047 -75 0
-8047 -94 0
-8047 -110 0
-8047 -116 0
-8047 -122 0
-8047 -133 0
8047 -16 -17 -19 39 56 75 94 110 116 122 133 0
-8048 16 0
-8048 17 0
-8048 19 0
-8048 -39 0
-8048 -56 0
-8048 -75 0
-8048 -94 0
-8048 -116 0
-8048 -122 0
-8048 -133 0
-8048 -140 0
8048 -16 -17 -19 39 56 75 94 116 122 133 140 0
-8049 16 0
-8049 17 0
-8049 19 0
-8049 -39 0
-8049 -56 0
-8049 -68 0
-8049 -94 0
-8049 -101 0
-8049 -116 0
-8049 -122 0
-8049 -133 0
8049 -16 -17 -19 39 56 68 94 101 116 122 133 0
-8050 16 0
-8050 17 0
-8050 19 0
-8050 -39 0
-8050 -56 0
-8050 -72 0
-8050 -94 0
-8050 -101 0
-8050 -116 0
-8050 -122 0
-8050 -133 0
8050 -16 -17 -19 39 56 72 94 101 116 122 133 0
-8051 16 0
-8051 17 0
-8051 19 0
-8051 -39 0
-8051 -56 0
-8051 -70 0
-8051 -94 0
-8051 -101 0
-8051 -116 0
-8051 -122 0
-8051 -133 0
8051 -16 -17 -19 39 56 70 94 101 116 122 133 0
-8052 16 0
-8052 17 0
-8052 19 0
-8052 -39 0
-8052 -56 0
-8052 -74 0
-8052 -94 0
-8052 -101 0
-8052 -116 0
-8052 -122 0
-8052 -133 0
8052 -16 -17 -19 39 56 74 94 101 116 122 133 0
-8053 16 0
-8053 17 0
-8053 19 0
-8053 -39 0
-8053 -56 0
-8053 -67 0
-8053 -94 0
-8053 -101 0
-8053 -116 0
-8053 -122 0
-8053 -133 0
8053 -16 -17 -19 39 56 67 94 101 116 122 133 0
-8054 16 0
-8054 17 0
-8054 19 0
-8054 -39 0
-8054 -56 0
-8054 -71 0
-8054 -94 0
-8054 -101 0
-8054 -116 0
-8054 -122 0
-8054 -133 0
8054 -16 -17 -19 39 56 71 94 101 116 122 133 0
-8055 16 0
-8055 17 0
-8055 19 0
-8055 -39 0
-8055 -56 0
-8055 -73 0
-8055 -94 0
-8055 -101 0
-8055 -116 0
-8055 -122 0
-8055 -133 0
8055 -16 -17 -19 39 56 73 94 101 116 122 133 0
-8056 16 0
-8056 17 0
-8056 19 0
-8056 -39 0
-8056 -56 0
-8056 -69 0
-8056 -94 0
-8056 -101 0
-8056 -116 0
-8056 -122 0
-8056 -133 0
8056 -16 -17 -19 39 56 69 94 101 116 122 133 0
-8057 16 0
-8057 17 0
-8057 19 0
-8057 -39 0
-8057 66 0
-8057 -94 0
-8057 -101 0
-8057 -116 0
-8057 -122 0
-8057 -133 0
8057 -16 -17 -19 39 -66 94 101 116 122 133 0
-8058 16 0
-8058 17 0
-8058 19 0
-8058 -39 0
-8058 65 0
-8058 -94 0
-8058 -101 0
-8058 -116 0
-8058 -122 0
-8058 -133 0
8058 -16 -17 -19 39 -65 94 101 116 122 133 0
-8059 16 0
-8059 17 0
-8059 19 0
-8059 -39 0
-8059 -56 0
-8059 64 0
-8059 -94 0
-8059 -101 0
-8059 -116 0
-8059 -122 0
-8059 -133 0
8059 -16 -17 -19 39 56 -64 94 101 116 122 133 0
-8060 16 0
-8060 17 0
-8060 19 0
-8060 -39 0
-8060 -77 0
-8060 -94 0
-8060 -101 0
-8060 -116 0
-8060 -122 0
-8060 -133 0
8060 -16 -17 -19 39 77 94 101 116 122 133 0
-8061 16 0
-8061 17 0
-8061 19 0
-8061 -39 0
-8061 -81 0
-8061 -94 0
-8061 -101 0
-8061 -116 0
-8061 -122 0
-8061 -133 0
8061 -16 -17 -19 39 81 94 101 116 122 133 0
-8062 16 0
-8062 17 0
-8062 19 0
-8062 -39 0
-8062 -79 0
-8062 -94 0
-8062 -101 0
-8062 -116 0
-8062 -122 0
-8062 -133 0
8062 -16 -17 -19 39 79 94 101 116 122 133 0
-8063 16 0
-8063 17 0
-8063 19 0
-8063 -39 0
-8063 -83 0
-8063 -94 0
-8063 -101 0
-8063 -116 0
-8063 -122 0
-8063 -133 0
8063 -16 -17 -19 39 83 94 101 116 122 133 0
-8064 16 0
-8064 17 0
-8064 19 0
-8064 -39 0
-8064 -76 0
-8064 -94 0
-8064 -101 0
-8064 -116 0
-8064 -122 0
-8064 -133 0
8064 -16 -17 -19 39 76 94 101 116 122 133 0
-8065 16 0
-8065 17 0
-8065 19 0
-8065 -39 0
-8065 -82 0
-8065 -94 0
-8065 -101 0
-8065 -116 0
-8065 -122 0
-8065 -133 0
8065 -16 -17 -19 39 82 94 101 116 122 133 0
-8066 16 0
-8066 17 0
-8066 19 0
-8066 -39 0
-8066 -78 0
-8066 -94 0
-8066 -101 0
-8066 -116 0
-8066 -122 0
-8066 -133 0
8066 -16 -17 -19 39 78 94 101 116 122 133 0
-8067 16 0
-8067 17 0
-8067 19 0
-8067 -39 0
-8067 -80 0
-8067 -94 0
-8067 -101 0
-8067 -116 0
-8067 -122 0
-8067 -133 0
8067 -16 -17 -19 39 80 94 101 116 122 133 0
-8068 16 0
-8068 17 0
-8068 19 0
-8068 -39 0
-8068 -84 0
-8068 -94 0
-8068 -101 0
-8068 -116 0
-8068 -122 0
-8068 -133 0
8068 -16 -17 -19 39 84 94 101 116 122 133 0
-8069 16 0
-8069 17 0
-8069 19 0
-8069 -39 0
-8069 66 0
-8069 -94 0
-8069 -110 0
-8069 -116 0
-8069 -122 0
-8069 -133 0
8069 -16 -17 -19 39 -66 94 110 116 122 133 0
-8070 16 0
-8070 17 0
-8070 19 0
-8070 -39 0
-8070 65 0
-8070 -94 0
-8070 -110 0
-8070 -116 0
-8070 -122 0
-8070 -133 0
8070 -16 -17 -19 39 -65 94 110 116 122 133 0
-8071 16 0
-8071 17 0
-8071 19 0
-8071 -39 0
-8071 -56 0
-8071 64 0
-8071 -94 0
-8071 -110 0
-8071 -116 0
-8071 -122 0
-8071 -133 0
8071 -16 -17 -19 39 56 -64 94 110 116 122 133 0
-8072 16 0
-8072 17 0
-8072 19 0
-8072 -39 0
-8072 -56 0
-8072 -68 0
-8072 -94 0
-8072 -110 0
-8072 -116 0
-8072 -122 0
-8072 -133 0
8072 -16 -17 -19 39 56 68 94 110 116 122 133 0
-8073 16 0
-8073 17 0
-8073 19 0
-8073 -39 0
-8073 -56 0
-8073 -72 0
-8073 -94 0
-8073 -110 0
-8073 -116 0
-8073 -122 0
-8073 -133 0
8073 -16 -17 -19 39 56 72 94 110 116 122 133 0
-8074 16 0
-8074 17 0
-8074 19 0
-8074 -39 0
-8074 -56 0
-8074 -70 0
-8074 -94 0
-8074 -110 0
-8074 -116 0
-8074 -122 0
-8074 -133 0
8074 -16 -17 -19 39 56 70 94 110 116 122 133 0
-8075 16 0
-8075 17 0
-8075 19 0
-8075 -39 0
-8075 -56 0
-8075 -74 0
-8075 -94 0
-8075 -110 0
-8075 -116 0
-8075 -122 0
-8075 -133 0
8075 -16 -17 -19 39 56 74 94 110 116 122 133 0
-8076 16 0
-8076 17 0
-8076 19 0
-8076 -39 0
-8076 -56 0
-8076 -67 0
-8076 -94 0
-8076 -110 0
-8076 -116 0
-8076 -122 0
-8076 -133 0
8076 -16 -17 -19 39 56 67 94 110 116 122 133 0
-8077 16 0
-8077 17 0
-8077 19 0
-8077 -39 0
-8077 -56 0
-8077 -71 0
-8077 -94 0
-8077 -110 0
-8077 -116 0
-8077 -122 0
-8077 -133 0
8077 -16 -17 -19 39 56 71 94 110 116 122 133 0
-8078 16 0
-8078 17 0
-8078 19 0
-8078 -39 0
-8078 -56 0
-8078 -73 0
-8078 -94 0
-8078 -110 0
-8078 -116 0
-8078 -122 0
-8078 -133 0
8078 -16 -17 -19 39 56 73 94 110 116 122 133 0
-8079 16 0
-8079 17 0
-8079 19 0
-8079 -39 0
-8079 -56 0
-8079 -69 0
-8079 -94 0
-8079 -110 0
-8079 -116 0
-8079 -122 0
-8079 -133 0
8079 -16 -17 -19 39 56 69 94 110 116 122 133 0
-8080 16 0
-8080 17 0
-8080 19 0
-8080 -39 0
-8080 -77 0
-8080 -94 0
-8080 -110 0
-8080 -116 0
-8080 -122 0
-8080 -133 0
8080 -16 -17 -19 39 77 94 110 116 122 133 0
-8081 16 0
-8081 17 0
-8081 19 0
-8081 -39 0
-8081 -81 0
-8081 -94 0
-8081 -110 0
-8081 -116 0
-8081 -122 0
-8081 -133 0
8081 -16 -17 -19 39 81 94 110 116 122 133 0
-8082 16 0
-8082 17 0
-8082 19 0
-8082 -39 0
-8082 -79 0
-8082 -94 0
-8082 -110 0
-8082 -116 0
-8082 -122 0
-8082 -133 0
8082 -16 -17 -19 39 79 94 110 116 122 133 0
-8083 16 0
-8083 17 0
-8083 19 0
-8083 -39 0
-8083 -83 0
-8083 -94 0
-8083 -110 0
-8083 -116 0
-8083 -122 0
-8083 -133 0
8083 -16 -17 -19 39 83 94 110 116 122 133 0
-8084 16 0
-8084 17 0
-8084 19 0
-8084 -39 0
-8084 -76 0
-8084 -94 0
-8084 -110 0
-8084 -116 0
-8084 -122 0
-8084 -133 0
8084 -16 -17 -19 39 76 94 110 116 122 133 0
-8085 16 0
-8085 17 0
-8085 19 0
-8085 -39 0
-8085 -82 0
-8085 -94 0
-8085 -110 0
-8085 -116 0
-8085 -122 0
-8085 -133 0
8085 -16 -17 -19 39 82 94 110 116 122 133 0
-8086 16 0
-8086 17 0
-8086 19 0
-8086 -39 0
-8086 -78 0
-8086 -94 0
-8086 -110 0
-8086 -116 0
-8086 -122 0
-8086 -133 0
8086 -16 -17 -19 39 78 94 110 116 122 133 0
-8087 16 0
-8087 17 0
-8087 19 0
-8087 -39 0
-8087 -80 0
-8087 -94 0
-8087 -110 0
-8087 -116 0
-8087 -122 0
-8087 -133 0
8087 -16 -17 -19 39 80 94 110 116 122 133 0
-8088 16 0
-8088 17 0
-8088 19 0
-8088 -39 0
-8088 -84 0
-8088 -94 0
-8088 -110 0
-8088 -116 0
-8088 -122 0
-8088 -133 0
8088 -16 -17 -19 39 84 94 110 116 122 133 0
-8089 16 0
-8089 17 0
-8089 19 0
-8089 -39 0
-8089 -61 0
-8089 64 0
-8089 -94 0
-8089 -110 0
-8089 -116 0
-8089 -122 0
-8089 -133 0
8089 -16 -17 -19 39 61 -64 94 110 116 122 133 0
-8090 16 0
-8090 17 0
-8090 19 0
-8090 -39 0
-8090 62 0
-8090 64 0
-8090 -94 0
-8090 -110 0
-8090 -116 0
-8090 -122 0
-8090 -133 0
8090 -16 -17 -19 39 -62 -64 94 110 116 122 133 0
-8091 16 0
-8091 17 0
-8091 19 0
-8091 -39 0
-8091 -57 0
-8091 -58 0
-8091 -62 0
-8091 -94 0
-8091 -110 0
-8091 -116 0
-8091 -122 0
-8091 -133 0
8091 -16 -17 -19 39 57 58 62 94 110 116 122 133 0
-8092 16 0
-8092 17 0
-8092 19 0
-8092 -39 0
-8092 -57 0
-8092 -58 0
-8092 -62 0
-8092 -93 0
-8092 -116 0
-8092 -122 0
-8092 -133 0
8092 -16 -17 -19 39 57 58 62 93 116 122 133 0
-8093 16 0
-8093 17 0
-8093 19 0
-8093 -39 0
-8093 -57 0
-8093 -58 0
-8093 -62 0
-8093 -94 0
-8093 -116 0
-8093 -122 0
-8093 -133 0
-8093 -140 0
8093 -16 -17 -19 39 57 58 62 94 116 122 133 140 0
-8094 16 0
-8094 17 0
-8094 19 0
-8094 -39 0
-8094 -57 0
-8094 -58 0
-8094 -62 0
-8094 95 0
-8094 -116 0
-8094 -122 0
-8094 -133 0
8094 -16 -17 -19 39 57 58 62 -95 116 122 133 0
-8095 16 0
-8095 17 0
-8095 19 0
-8095 -39 0
-8095 -57 0
-8095 -58 0
-8095 -62 0
-8095 -94 0
-8095 -101 0
-8095 -116 0
-8095 -122 0
-8095 -133 0
8095 -16 -17 -19 39 57 58 62 94 101 116 122 133 0
-8096 16 0
-8096 17 0
-8096 19 0
-8096 -39 0
-8096 66 0
-8096 -93 0
-8096 -116 0
-8096 -122 0
-8096 -133 0
8096 -16 -17 -19 39 -66 93 116 122 133 0
-8097 16 0
-8097 17 0
-8097 19 0
-8097 -39 0
-8097 -77 0
-8097 -93 0
-8097 -116 0
-8097 -122 0
-8097 -133 0
8097 -16 -17 -19 39 77 93 116 122 133 0
-8098 16 0
-8098 17 0
-8098 19 0
-8098 -39 0
-8098 -81 0
-8098 -93 0
-8098 -116 0
-8098 -122 0
-8098 -133 0
8098 -16 -17 -19 39 81 93 116 122 133 0
-8099 16 0
-8099 17 0
-8099 19 0
-8099 -39 0
-8099 -79 0
-8099 -93 0
-8099 -116 0
-8099 -122 0
-8099 -133 0
8099 -16 -17 -19 39 79 93 116 122 133 0
-8100 16 0
-8100 17 0
-8100 19 0
-8100 -39 0
-8100 -83 0
-8100 -93 0
-8100 -116 0
-8100 -122 0
-8100 -133 0
8100 -16 -17 -19 39 83 93 116 122 133 0
-8101 16 0
-8101 17 0
-8101 19 0
-8101 -39 0
-8101 -76 0
-8101 -93 0
-8101 -116 0
-8101 -122 0
-8101 -133 0
8101 -16 -17 -19 39 76 93 116 122 133 0
-8102 16 0
-8102 17 0
-8102 19 0
-8102 -39 0
-8102 -82 0
-8102 -93 0
-8102 -116 0
-8102 -122 0
-8102 -133 0
8102 -16 -17 -19 39 82 93 116 122 133 0
-8103 16 0
-8103 17 0
-8103 19 0
-8103 -39 0
-8103 -78 0
-8103 -93 0
-8103 -116 0
-8103 -122 0
-8103 -133 0
8103 -16 -17 -19 39 78 93 116 122 133 0
-8104 16 0
-8104 17 0
-8104 19 0
-8104 -39 0
-8104 -80 0
-8104 -93 0
-8104 -116 0
-8104 -122 0
-8104 -133 0
8104 -16 -17 -19 39 80 93 116 122 133 0
-8105 16 0
-8105 17 0
-8105 19 0
-8105 -39 0
-8105 -84 0
-8105 -93 0
-8105 -116 0
-8105 -122 0
-8105 -133 0
8105 -16 -17 -19 39 84 93 116 122 133 0
-8106 16 0
-8106 17 0
-8106 19 0
-8106 -39 0
-8106 65 0
-8106 -93 0
-8106 -116 0
-8106 -122 0
-8106 -133 0
8106 -16 -17 -19 39 -65 93 116 122 133 0
-8107 16 0
-8107 17 0
-8107 19 0
-8107 -39 0
-8107 -56 0
-8107 -62 0
-8107 -93 0
-8107 -116 0
-8107 -122 0
-8107 -133 0
8107 -16 -17 -19 39 56 62 93 116 122 133 0
-8108 16 0
-8108 17 0
-8108 19 0
-8108 -39 0
-8108 -77 0
-8108 -94 0
-8108 -116 0
-8108 -122 0
-8108 -133 0
-8108 -140 0
8108 -16 -17 -19 39 77 94 116 122 133 140 0
-8109 16 0
-8109 17 0
-8109 19 0
-8109 -39 0
-8109 -77 0
-8109 95 0
-8109 -116 0
-8109 -122 0
-8109 -133 0
8109 -16 -17 -19 39 77 -95 116 122 133 0
-8110 16 0
-8110 17 0
-8110 19 0
-8110 -39 0
-8110 -77 0
-8110 94 0
-8110 101 0
-8110 -116 0
-8110 -122 0
-8110 -133 0
8110 -16 -17 -19 39 77 -94 -101 116 122 133 0
-8111 16 0
-8111 17 0
-8111 19 0
-8111 -39 0
-8111 -77 0
-8111 94 0
-8111 110 0
-8111 -116 0
-8111 -122 0
-8111 -133 0
8111 -16 -17 -19 39 77 -94 -110 116 122 133 0
-8112 16 0
-8112 17 0
-8112 19 0
-8112 -39 0
-8112 -81 0
-8112 94 0
-8112 110 0
-8112 -116 0
-8112 -122 0
-8112 -133 0
8112 -16 -17 -19 39 81 -94 -110 116 122 133 0
-8113 16 0
-8113 17 0
-8113 19 0
-8113 -39 0
-8113 -79 0
-8113 94 0
-8113 110 0
-8113 -116 0
-8113 -122 0
-8113 -133 0
8113 -16 -17 -19 39 79 -94 -110 116 122 133 0
-8114 16 0
-8114 17 0
-8114 19 0
-8114 -39 0
-8114 -83 0
-8114 94 0
-8114 110 0
-8114 -116 0
-8114 -122 0
-8114 -133 0
8114 -16 -17 -19 39 83 -94 -110 116 122 133 0
-8115 16 0
-8115 17 0
-8115 19 0
-8115 -39 0
-8115 -76 0
-8115 94 0
-8115 110 0
-8115 -116 0
-8115 -122 0
-8115 -133 0
8115 -16 -17 -19 39 76 -94 -110 116 122 133 0
-8116 16 0
-8116 17 0
-8116 19 0
-8116 -39 0
-8116 -82 0
-8116 94 0
-8116 110 0
-8116 -116 0
-8116 -122 0
-8116 -133 0
8116 -16 -17 -19 39 82 -94 -110 116 122 133 0
-8117 16 0
-8117 17 0
-8117 19 0
-8117 -39 0
-8117 -78 0
-8117 94 0
-8117 110 0
-8117 -116 0
-8117 -122 0
-8117 -133 0
8117 -16 -17 -19 39 78 -94 -110 116 122 133 0
-8118 16 0
-8118 17 0
-8118 19 0
-8118 -39 0
-8118 -80 0
-8118 94 0
-8118 110 0
-8118 -116 0
-8118 -122 0
-8118 -133 0
8118 -16 -17 -19 39 80 -94 -110 116 122 133 0
-8119 16 0
-8119 17 0
-8119 19 0
-8119 -39 0
-8119 -84 0
-8119 94 0
-8119 110 0
-8119 -116 0
-8119 -122 0
-8119 -133 0
8119 -16 -17 -19 39 84 -94 -110 116 122 133 0
-8120 16 0
-8120 17 0
-8120 19 0
-8120 -39 0
-8120 66 0
-8120 94 0
-8120 110 0
-8120 -116 0
-8120 -122 0
-8120 -133 0
8120 -16 -17 -19 39 -66 -94 -110 116 122 133 0
-8121 16 0
-8121 17 0
-8121 19 0
-8121 -39 0
-8121 65 0
-8121 94 0
-8121 110 0
-8121 -116 0
-8121 -122 0
-8121 -133 0
8121 -16 -17 -19 39 -65 -94 -110 116 122 133 0
-8122 16 0
-8122 17 0
-8122 19 0
-8122 -39 0
-8122 -63 0
-8122 94 0
-8122 110 0
-8122 -116 0
-8122 -122 0
-8122 -133 0
8122 -16 -17 -19 39 63 -94 -110 116 122 133 0
-8123 16 0
-8123 17 0
-8123 19 0
-8123 -39 0
-8123 -56 0
-8123 -62 0
-8123 94 0
-8123 110 0
-8123 -116 0
-8123 -122 0
-8123 -133 0
8123 -16 -17 -19 39 56 62 -94 -110 116 122 133 0
-8124 16 0
-8124 17 0
-8124 19 0
-8124 -39 0
-8124 -61 0
-8124 -62 0
-8124 94 0
-8124 110 0
-8124 -116 0
-8124 -122 0
-8124 -133 0
8124 -16 -17 -19 39 61 62 -94 -110 116 122 133 0
-8125 16 0
-8125 17 0
-8125 19 0
-8125 -39 0
-8125 -61 0
-8125 -62 0
-8125 95 0
-8125 -116 0
-8125 -122 0
-8125 -133 0
8125 -16 -17 -19 39 61 62 -95 116 122 133 0
-8126 16 0
-8126 17 0
-8126 19 0
-8126 -39 0
-8126 -61 0
-8126 -62 0
-8126 94 0
-8126 101 0
-8126 -116 0
-8126 -122 0
-8126 -133 0
8126 -16 -17 -19 39 61 62 -94 -101 116 122 133 0
-8127 16 0
-8127 17 0
-8127 19 0
-8127 -39 0
-8127 -61 0
-8127 -62 0
-8127 -94 0
-8127 -116 0
-8127 -122 0
-8127 -133 0
-8127 -140 0
8127 -16 -17 -19 39 61 62 94 116 122 133 140 0
-8128 16 0
-8128 17 0
-8128 19 0
-8128 -39 0
-8128 -61 0
-8128 -62 0
-8128 -94 0
-8128 -110 0
-8128 -116 0
-8128 -133 0
-8128 134 0
8128 -16 -17 -19 39 61 62 94 110 116 133 -134 0
-8129 16 0
-8129 17 0
-8129 19 0
-8129 -39 0
-8129 -61 0
-8129 -62 0
-8129 -93 0
-8129 -116 0
-8129 -133 0
-8129 134 0
8129 -16 -17 -19 39 61 62 93 116 133 -134 0
-8130 16 0
-8130 17 0
-8130 19 0
-8130 -39 0
-8130 -61 0
-8130 -62 0
-8130 -94 0
-8130 -116 0
-8130 -133 0
-8130 134 0
-8130 -140 0
8130 -16 -17 -19 39 61 62 94 116 133 -134 140 0
-8131 16 0
-8131 17 0
-8131 19 0
-8131 -39 0
-8131 -61 0
-8131 -62 0
-8131 -94 0
-8131 -101 0
-8131 -116 0
-8131 -133 0
-8131 134 0
8131 -16 -17 -19 39 61 62 94 101 116 133 -134 0
-8132 16 0
-8132 17 0
-8132 19 0
-8132 -39 0
-8132 -61 0
-8132 -62 0
-8132 94 0
-8132 101 0
-8132 -116 0
-8132 -133 0
-8132 134 0
8132 -16 -17 -19 39 61 62 -94 -101 116 133 -134 0
-8133 16 0
-8133 17 0
-8133 19 0
-8133 -39 0
-8133 -61 0
-8133 -62 0
-8133 94 0
-8133 110 0
-8133 -116 0
-8133 -133 0
-8133 134 0
8133 -16 -17 -19 39 61 62 -94 -110 116 133 -134 0
-8134 16 0
-8134 -19 0
-8134 39 0
-8134 -61 0
-8134 -62 0
-8134 -94 0
-8134 -100 0
-8134 -116 0
-8134 -126 0
-8134 -133 0
-8134 -140 0
8134 -16 19 -39 61 62 94 100 116 126 133 140 0
-8135 16 0
-8135 -19 0
-8135 39 0
-8135 -57 0
-8135 -58 0
-8135 -62 0
-8135 -94 0
-8135 -100 0
-8135 -116 0
-8135 -126 0
-8135 -133 0
-8135 -140 0
8135 -16 19 -39 57 58 62 94 100 116 126 133 140 0
-8136 16 0
-8136 -19 0
-8136 39 0
-8136 -57 0
-8136 -58 0
-8136 64 0
-8136 -94 0
-8136 -100 0
-8136 -116 0
-8136 -126 0
-8136 -133 0
-8136 -140 0
8136 -16 19 -39 57 58 -64 94 100 116 126 133 140 0
-8137 16 0
-8137 -19 0
-8137 39 0
-8137 62 0
-8137 64 0
-8137 -94 0
-8137 -100 0
-8137 -116 0
-8137 -126 0
-8137 -133 0
-8137 -140 0
8137 -16 19 -39 -62 -64 94 100 116 126 133 140 0
-8138 16 0
-8138 -19 0
-8138 39 0
-8138 -54 0
-8138 -61 0
-8138 -94 0
-8138 -100 0
-8138 -116 0
-8138 -126 0
-8138 -133 0
-8138 -140 0
8138 -16 19 -39 54 61 94 100 116 126 133 140 0
-8139 16 0
-8139 -17 0
-8139 39 0
-8139 -56 0
-8139 -68 0
-8139 95 0
-8139 -116 0
-8139 -122 0
-8139 -133 0
8139 -16 17 -39 56 68 -95 116 122 133 0
-8140 16 0
-8140 -17 0
-8140 39 0
-8140 -56 0
-8140 -68 0
-8140 -94 0
-8140 -116 0
-8140 -122 0
-8140 -133 0
-8140 -140 0
8140 -16 17 -39 56 68 94 116 122 133 140 0
-8141 16 0
-8141 -17 0
-8141 39 0
-8141 -56 0
-8141 -68 0
-8141 -94 0
-8141 -110 0
-8141 -116 0
-8141 -122 0
-8141 -133 0
8141 -16 17 -39 56 68 94 110 116 122 133 0
-8142 16 0
-8142 -17 0
-8142 39 0
-8142 -56 0
-8142 -68 0
-8142 -93 0
-8142 -116 0
-8142 -122 0
-8142 -133 0
8142 -16 17 -39 56 68 93 116 122 133 0
-8143 16 0
-8143 -17 0
-8143 39 0
-8143 -56 0
-8143 -68 0
-8143 -94 0
-8143 -101 0
-8143 -116 0
-8143 -122 0
-8143 -133 0
8143 -16 17 -39 56 68 94 101 116 122 133 0
-8144 16 0
-8144 -17 0
-8144 39 0
-8144 -56 0
-8144 -68 0
-8144 94 0
-8144 101 0
-8144 -116 0
-8144 -122 0
-8144 -133 0
8144 -16 17 -39 56 68 -94 -101 116 122 133 0
-8145 16 0
-8145 -17 0
-8145 39 0
-8145 -56 0
-8145 -68 0
-8145 94 0
-8145 110 0
-8145 -116 0
-8145 -122 0
-8145 -133 0
8145 -16 17 -39 56 68 -94 -110 116 122 133 0
-8146 16 0
-8146 -17 0
-8146 39 0
-8146 -56 0
-8146 -68 0
-8146 94 0
-8146 -116 0
-8146 -122 0
-8146 -133 0
-8146 140 0
8146 -16 17 -39 56 68 -94 116 122 133 -140 0
-8147 16 0
-8147 -17 0
-8147 39 0
-8147 -56 0
-8147 -72 0
-8147 95 0
-8147 -116 0
-8147 -122 0
-8147 -133 0
8147 -16 17 -39 56 72 -95 116 122 133 0
-8148 16 0
-8148 -17 0
-8148 39 0
-8148 -56 0
-8148 -70 0
-8148 95 0
-8148 -116 0
-8148 -122 0
-8148 -133 0
8148 -16 17 -39 56 70 -95 116 122 133 0
-8149 16 0
-8149 -17 0
-8149 39 0
-8149 -56 0
-8149 -74 0
-8149 95 0
-8149 -116 0
-8149 -122 0
-8149 -133 0
8149 -16 17 -39 56 74 -95 116 122 133 0
-8150 16 0
-8150 -17 0
-8150 39 0
-8150 -56 0
-8150 -71 0
-8150 95 0
-8150 -116 0
-8150 -122 0
-8150 -133 0
8150 -16 17 -39 56 71 -95 116 122 133 0
-8151 16 0
-8151 -17 0
-8151 39 0
-8151 -56 0
-8151 -73 0
-8151 95 0
-8151 -116 0
-8151 -122 0
-8151 -133 0
8151 -16 17 -39 56 73 -95 116 122 133 0
-8152 16 0
-8152 -17 0
-8152 39 0
-8152 -56 0
-8152 -69 0
-8152 95 0
-8152 -116 0
-8152 -122 0
-8152 -133 0
8152 -16 17 -39 56 69 -95 116 122 133 0
-8153 16 0
-8153 -17 0
-8153 39 0
-8153 -56 0
-8153 -75 0
-8153 95 0
-8153 -116 0
-8153 -122 0
-8153 -133 0
8153 -16 17 -39 56 75 -95 116 122 133 0
-8154 16 0
-8154 -17 0
-8154 39 0
-8154 -54 0
-8154 -56 0
-8154 95 0
-8154 -116 0
-8154 -122 0
-8154 -133 0
8154 -16 17 -39 54 56 -95 116 122 133 0
-8155 16 0
-8155 -17 0
-8155 39 0
-8155 -55 0
-8155 -56 0
-8155 95 0
-8155 -116 0
-8155 -122 0
-8155 -133 0
8155 -16 17 -39 55 56 -95 116 122 133 0
-8156 16 0
-8156 -17 0
-8156 39 0
-8156 -80 0
-8156 95 0
-8156 -116 0
-8156 -122 0
-8156 -133 0
8156 -16 17 -39 80 -95 116 122 133 0
-8157 16 0
-8157 -17 0
-8157 39 0
-8157 -81 0
-8157 95 0
-8157 -116 0
-8157 -122 0
-8157 -133 0
8157 -16 17 -39 81 -95 116 122 133 0
-8158 16 0
-8158 -17 0
-8158 39 0
-8158 -79 0
-8158 95 0
-8158 -116 0
-8158 -122 0
-8158 -133 0
8158 -16 17 -39 79 -95 116 122 133 0
-8159 16 0
-8159 -17 0
-8159 39 0
-8159 -83 0
-8159 95 0
-8159 -116 0
-8159 -122 0
-8159 -133 0
8159 -16 17 -39 83 -95 116 122 133 0
-8160 16 0
-8160 -17 0
-8160 39 0
-8160 -76 0
-8160 95 0
-8160 -116 0
-8160 -122 0
-8160 -133 0
8160 -16 17 -39 76 -95 116 122 133 0
-8161 16 0
-8161 -17 0
-8161 39 0
-8161 -82 0
-8161 95 0
-8161 -116 0
-8161 -122 0
-8161 -133 0
8161 -16 17 -39 82 -95 116 122 133 0
-8162 16 0
-8162 -17 0
-8162 39 0
-8162 -78 0
-8162 95 0
-8162 -116 0
-8162 -122 0
-8162 -133 0
8162 -16 17 -39 78 -95 116 122 133 0
-8163 16 0
-8163 -17 0
-8163 39 0
-8163 -84 0
-8163 95 0
-8163 -116 0
-8163 -122 0
-8163 -133 0
8163 -16 17 -39 84 -95 116 122 133 0
-8164 16 0
-8164 -17 0
-8164 39 0
-8164 -77 0
-8164 95 0
-8164 -116 0
-8164 -122 0
-8164 -133 0
8164 -16 17 -39 77 -95 116 122 133 0
-8165 16 0
-8165 -17 0
-8165 39 0
-8165 -63 0
-8165 95 0
-8165 -116 0
-8165 -122 0
-8165 -133 0
8165 -16 17 -39 63 -95 116 122 133 0
-8166 16 0
-8166 -17 0
-8166 39 0
-8166 95 0
-8166 -116 0
-8166 -122 0
-8166 -133 0
-8166 -164 0
8166 -16 17 -39 -95 116 122 133 164 0
-8167 16 0
-8167 -17 0
-8167 39 0
-8167 66 0
-8167 95 0
-8167 -116 0
-8167 -122 0
-8167 -133 0
8167 -16 17 -39 -66 -95 116 122 133 0
-8168 16 0
-8168 -17 0
-8168 39 0
-8168 65 0
-8168 95 0
-8168 -116 0
-8168 -122 0
-8168 -133 0
8168 -16 17 -39 -65 -95 116 122 133 0
-8169 16 0
-8169 -17 0
-8169 39 0
-8169 -56 0
-8169 64 0
-8169 95 0
-8169 -116 0
-8169 -122 0
-8169 -133 0
8169 -16 17 -39 56 -64 -95 116 122 133 0
-8170 16 0
-8170 -17 0
-8170 39 0
-8170 -56 0
-8170 -62 0
-8170 95 0
-8170 -116 0
-8170 -122 0
-8170 -133 0
8170 -16 17 -39 56 62 -95 116 122 133 0
-8171 16 0
-8171 -17 0
-8171 39 0
-8171 -54 0
-8171 -56 0
-8171 94 0
-8171 -116 0
-8171 -122 0
-8171 -133 0
-8171 140 0
8171 -16 17 -39 54 56 -94 116 122 133 -140 0
-8172 16 0
-8172 -17 0
-8172 39 0
-8172 -54 0
-8172 -56 0
-8172 94 0
-8172 110 0
-8172 -116 0
-8172 -122 0
-8172 -133 0
8172 -16 17 -39 54 56 -94 -110 116 122 133 0
-8173 16 0
-8173 -17 0
-8173 39 0
-8173 -54 0
-8173 -56 0
-8173 94 0
-8173 101 0
-8173 -116 0
-8173 -122 0
-8173 -133 0
8173 -16 17 -39 54 56 -94 -101 116 122 133 0
-8174 16 0
-8174 -17 0
-8174 39 0
-8174 -54 0
-8174 -56 0
-8174 -94 0
-8174 -110 0
-8174 -116 0
-8174 -122 0
-8174 -133 0
8174 -16 17 -39 54 56 94 110 116 122 133 0
-8175 16 0
-8175 -17 0
-8175 39 0
-8175 -54 0
-8175 -56 0
-8175 -94 0
-8175 -116 0
-8175 -122 0
-8175 -133 0
-8175 -140 0
8175 -16 17 -39 54 56 94 116 122 133 140 0
-8176 16 0
-8176 -17 0
-8176 39 0
-8176 -54 0
-8176 -56 0
-8176 -93 0
-8176 -116 0
-8176 -122 0
-8176 -133 0
8176 -16 17 -39 54 56 93 116 122 133 0
-8177 16 0
-8177 -17 0
-8177 39 0
-8177 -54 0
-8177 -56 0
-8177 -94 0
-8177 -101 0
-8177 -116 0
-8177 -122 0
-8177 -133 0
8177 -16 17 -39 54 56 94 101 116 122 133 0
-8178 16 0
-8178 -17 0
-8178 39 0
-8178 -56 0
-8178 64 0
-8178 -94 0
-8178 -116 0
-8178 -122 0
-8178 -133 0
-8178 -140 0
8178 -16 17 -39 56 -64 94 116 122 133 140 0
-8179 16 0
-8179 -17 0
-8179 39 0
-8179 -55 0
-8179 -56 0
-8179 -94 0
-8179 -116 0
-8179 -122 0
-8179 -133 0
-8179 -140 0
8179 -16 17 -39 55 56 94 116 122 133 140 0
-8180 16 0
-8180 -17 0
-8180 39 0
-8180 -56 0
-8180 -72 0
-8180 -94 0
-8180 -116 0
-8180 -122 0
-8180 -133 0
-8180 -140 0
8180 -16 17 -39 56 72 94 116 122 133 140 0
-8181 16 0
-8181 -17 0
-8181 39 0
-8181 -56 0
-8181 -70 0
-8181 -94 0
-8181 -116 0
-8181 -122 0
-8181 -133 0
-8181 -140 0
8181 -16 17 -39 56 70 94 116 122 133 140 0
-8182 16 0
-8182 -17 0
-8182 39 0
-8182 -56 0
-8182 -67 0
-8182 -94 0
-8182 -116 0
-8182 -122 0
-8182 -133 0
-8182 -140 0
8182 -16 17 -39 56 67 94 116 122 133 140 0
-8183 16 0
-8183 -17 0
-8183 39 0
-8183 -56 0
-8183 -71 0
-8183 -94 0
-8183 -116 0
-8183 -122 0
-8183 -133 0
-8183 -140 0
8183 -16 17 -39 56 71 94 116 122 133 140 0
-8184 16 0
-8184 -17 0
-8184 39 0
-8184 -56 0
-8184 -73 0
-8184 -94 0
-8184 -116 0
-8184 -122 0
-8184 -133 0
-8184 -140 0
8184 -16 17 -39 56 73 94 116 122 133 140 0
-8185 16 0
-8185 -17 0
-8185 39 0
-8185 -56 0
-8185 -69 0
-8185 -94 0
-8185 -116 0
-8185 -122 0
-8185 -133 0
-8185 -140 0
8185 -16 17 -39 56 69 94 116 122 133 140 0
-8186 16 0
-8186 -17 0
-8186 39 0
-8186 -56 0
-8186 -75 0
-8186 -94 0
-8186 -116 0
-8186 -122 0
-8186 -133 0
-8186 -140 0
8186 -16 17 -39 56 75 94 116 122 133 140 0
-8187 16 0
-8187 -17 0
-8187 39 0
-8187 -80 0
-8187 -94 0
-8187 -116 0
-8187 -122 0
-8187 -133 0
-8187 -140 0
8187 -16 17 -39 80 94 116 122 133 140 0
-8188 16 0
-8188 -17 0
-8188 39 0
-8188 -81 0
-8188 -94 0
-8188 -116 0
-8188 -122 0
-8188 -133 0
-8188 -140 0
8188 -16 17 -39 81 94 116 122 133 140 0
-8189 16 0
-8189 -17 0
-8189 39 0
-8189 -79 0
-8189 -94 0
-8189 -116 0
-8189 -122 0
-8189 -133 0
-8189 -140 0
8189 -16 17 -39 79 94 116 122 133 140 0
-8190 16 0
-8190 -17 0
-8190 39 0
-8190 -83 0
-8190 -94 0
-8190 -116 0
-8190 -122 0
-8190 -133 0
-8190 -140 0
8190 -16 17 -39 83 94 116 122 133 140 0
-8191 16 0
-8191 -17 0
-8191 39 0
-8191 -76 0
-8191 -94 0
-8191 -116 0
-8191 -122 0
-8191 -133 0
-8191 -140 0
8191 -16 17 -39 76 94 116 122 133 140 0
-8192 16 0
-8192 -17 0
-8192 39 0
-8192 -82 0
-8192 -94 0
-8192 -116 0
-8192 -122 0
-8192 -133 0
-8192 -140 0
8192 -16 17 -39 82 94 116 122 133 140 0
-8193 16 0
-8193 -17 0
-8193 39 0
-8193 -78 0
-8193 -94 0
-8193 -116 0
-8193 -122 0
-8193 -133 0
-8193 -140 0
8193 -16 17 -39 78 94 116 122 133 140 0
-8194 16 0
-8194 -17 0
-8194 39 0
-8194 -84 0
-8194 -94 0
-8194 -116 0
-8194 -122 0
-8194 -133 0
-8194 -140 0
8194 -16 17 -39 84 94 116 122 133 140 0
-8195 16 0
-8195 -17 0
-8195 39 0
-8195 -77 0
-8195 -94 0
-8195 -116 0
-8195 -122 0
-8195 -133 0
-8195 -140 0
8195 -16 17 -39 77 94 116 122 133 140 0
-8196 16 0
-8196 -17 0
-8196 39 0
-8196 -63 0
-8196 -94 0
-8196 -116 0
-8196 -122 0
-8196 -133 0
-8196 -140 0
8196 -16 17 -39 63 94 116 122 133 140 0
-8197 16 0
-8197 -17 0
-8197 39 0
-8197 -94 0
-8197 -116 0
-8197 -122 0
-8197 -133 0
-8197 -140 0
-8197 -164 0
8197 -16 17 -39 94 116 122 133 140 164 0
-8198 16 0
-8198 -17 0
-8198 39 0
-8198 66 0
-8198 -94 0
-8198 -116 0
-8198 -122 0
-8198 -133 0
-8198 -140 0
8198 -16 17 -39 -66 94 116 122 133 140 0
-8199 16 0
-8199 -17 0
-8199 39 0
-8199 65 0
-8199 -94 0
-8199 -116 0
-8199 -122 0
-8199 -133 0
-8199 -140 0
8199 -16 17 -39 -65 94 116 122 133 140 0
-8200 16 0
-8200 -17 0
-8200 39 0
-8200 -56 0
-8200 -62 0
-8200 -94 0
-8200 -116 0
-8200 -122 0
-8200 -133 0
-8200 -140 0
8200 -16 17 -39 56 62 94 116 122 133 140 0
-8201 16 0
-8201 -17 0
-8201 39 0
-8201 -56 0
-8201 -72 0
-8201 -94 0
-8201 -110 0
-8201 -116 0
-8201 -122 0
-8201 -133 0
8201 -16 17 -39 56 72 94 110 116 122 133 0
-8202 16 0
-8202 -17 0
-8202 39 0
-8202 -56 0
-8202 -72 0
-8202 -93 0
-8202 -116 0
-8202 -122 0
-8202 -133 0
8202 -16 17 -39 56 72 93 116 122 133 0
-8203 16 0
-8203 -17 0
-8203 39 0
-8203 -56 0
-8203 -72 0
-8203 -94 0
-8203 -101 0
-8203 -116 0
-8203 -122 0
-8203 -133 0
8203 -16 17 -39 56 72 94 101 116 122 133 0
-8204 16 0
-8204 -17 0
-8204 39 0
-8204 -56 0
-8204 -70 0
-8204 -94 0
-8204 -110 0
-8204 -116 0
-8204 -122 0
-8204 -133 0
8204 -16 17 -39 56 70 94 110 116 122 133 0
-8205 16 0
-8205 -17 0
-8205 39 0
-8205 -56 0
-8205 -74 0
-8205 -94 0
-8205 -110 0
-8205 -116 0
-8205 -122 0
-8205 -133 0
8205 -16 17 -39 56 74 94 110 116 122 133 0
-8206 16 0
-8206 -17 0
-8206 39 0
-8206 -56 0
-8206 -71 0
-8206 -94 0
-8206 -110 0
-8206 -116 0
-8206 -122 0
-8206 -133 0
8206 -16 17 -39 56 71 94 110 116 122 133 0
-8207 16 0
-8207 -17 0
-8207 39 0
-8207 -56 0
-8207 -73 0
-8207 -94 0
-8207 -110 0
-8207 -116 0
-8207 -122 0
-8207 -133 0
8207 -16 17 -39 56 73 94 110 116 122 133 0
-8208 16 0
-8208 -17 0
-8208 39 0
-8208 -56 0
-8208 -69 0
-8208 -94 0
-8208 -110 0
-8208 -116 0
-8208 -122 0
-8208 -133 0
8208 -16 17 -39 56 69 94 110 116 122 133 0
-8209 16 0
-8209 -17 0
-8209 39 0
-8209 -56 0
-8209 -75 0
-8209 -94 0
-8209 -110 0
-8209 -116 0
-8209 -122 0
-8209 -133 0
8209 -16 17 -39 56 75 94 110 116 122 133 0
-8210 16 0
-8210 -17 0
-8210 39 0
-8210 -55 0
-8210 -56 0
-8210 -94 0
-8210 -110 0
-8210 -116 0
-8210 -122 0
-8210 -133 0
8210 -16 17 -39 55 56 94 110 116 122 133 0
-8211 16 0
-8211 -17 0
-8211 39 0
-8211 -80 0
-8211 -94 0
-8211 -110 0
-8211 -116 0
-8211 -122 0
-8211 -133 0
8211 -16 17 -39 80 94 110 116 122 133 0
-8212 16 0
-8212 -17 0
-8212 39 0
-8212 -81 0
-8212 -94 0
-8212 -110 0
-8212 -116 0
-8212 -122 0
-8212 -133 0
8212 -16 17 -39 81 94 110 116 122 133 0
-8213 16 0
-8213 -17 0
-8213 39 0
-8213 -79 0
-8213 -94 0
-8213 -110 0
-8213 -116 0
-8213 -122 0
-8213 -133 0
8213 -16 17 -39 79 94 110 116 122 133 0
-8214 16 0
-8214 -17 0
-8214 39 0
-8214 -83 0
-8214 -94 0
-8214 -110 0
-8214 -116 0
-8214 -122 0
-8214 -133 0
8214 -16 17 -39 83 94 110 116 122 133 0
-8215 16 0
-8215 -17 0
-8215 39 0
-8215 -76 0
-8215 -94 0
-8215 -110 0
-8215 -116 0
-8215 -122 0
-8215 -133 0
8215 -16 17 -39 76 94 110 116 122 133 0
-8216 16 0
-8216 -17 0
-8216 39 0
-8216 -82 0
-8216 -94 0
-8216 -110 0
-8216 -116 0
-8216 -122 0
-8216 -133 0
8216 -16 17 -39 82 94 110 116 122 133 0
-8217 16 0
-8217 -17 0
-8217 39 0
-8217 -78 0
-8217 -94 0
-8217 -110 0
-8217 -116 0
-8217 -122 0
-8217 -133 0
8217 -16 17 -39 78 94 110 116 122 133 0
-8218 16 0
-8218 -17 0
-8218 39 0
-8218 -84 0
-8218 -94 0
-8218 -110 0
-8218 -116 0
-8218 -122 0
-8218 -133 0
8218 -16 17 -39 84 94 110 116 122 133 0
-8219 16 0
-8219 -17 0
-8219 39 0
-8219 -77 0
-8219 -94 0
-8219 -110 0
-8219 -116 0
-8219 -122 0
-8219 -133 0
8219 -16 17 -39 77 94 110 116 122 133 0
-8220 16 0
-8220 -17 0
-8220 39 0
-8220 -63 0
-8220 -94 0
-8220 -110 0
-8220 -116 0
-8220 -122 0
-8220 -133 0
8220 -16 17 -39 63 94 110 116 122 133 0
-8221 16 0
-8221 -17 0
-8221 39 0
-8221 66 0
-8221 -94 0
-8221 -110 0
-8221 -116 0
-8221 -122 0
-8221 -133 0
8221 -16 17 -39 -66 94 110 116 122 133 0
-8222 16 0
-8222 -17 0
-8222 39 0
-8222 65 0
-8222 -94 0
-8222 -110 0
-8222 -116 0
-8222 -122 0
-8222 -133 0
8222 -16 17 -39 -65 94 110 116 122 133 0
-8223 16 0
-8223 -17 0
-8223 39 0
-8223 -56 0
-8223 64 0
-8223 -94 0
-8223 -110 0
-8223 -116 0
-8223 -122 0
-8223 -133 0
8223 -16 17 -39 56 -64 94 110 116 122 133 0
-8224 16 0
-8224 -17 0
-8224 39 0
-8224 -56 0
-8224 -62 0
-8224 -94 0
-8224 -110 0
-8224 -116 0
-8224 -122 0
-8224 -133 0
8224 -16 17 -39 56 62 94 110 116 122 133 0
-8225 16 0
-8225 -17 0
-8225 39 0
-8225 -56 0
-8225 -70 0
-8225 -93 0
-8225 -116 0
-8225 -122 0
-8225 -133 0
8225 -16 17 -39 56 70 93 116 122 133 0
-8226 16 0
-8226 -17 0
-8226 39 0
-8226 -56 0
-8226 -70 0
-8226 -94 0
-8226 -101 0
-8226 -116 0
-8226 -122 0
-8226 -133 0
8226 -16 17 -39 56 70 94 101 116 122 133 0
-8227 16 0
-8227 -17 0
-8227 39 0
-8227 -56 0
-8227 -74 0
-8227 -93 0
-8227 -116 0
-8227 -122 0
-8227 -133 0
8227 -16 17 -39 56 74 93 116 122 133 0
-8228 16 0
-8228 -17 0
-8228 39 0
-8228 -56 0
-8228 -71 0
-8228 -93 0
-8228 -116 0
-8228 -122 0
-8228 -133 0
8228 -16 17 -39 56 71 93 116 122 133 0
-8229 16 0
-8229 -17 0
-8229 39 0
-8229 -56 0
-8229 -73 0
-8229 -93 0
-8229 -116 0
-8229 -122 0
-8229 -133 0
8229 -16 17 -39 56 73 93 116 122 133 0
-8230 16 0
-8230 -17 0
-8230 39 0
-8230 -56 0
-8230 -69 0
-8230 -93 0
-8230 -116 0
-8230 -122 0
-8230 -133 0
8230 -16 17 -39 56 69 93 116 122 133 0
-8231 16 0
-8231 -17 0
-8231 39 0
-8231 -56 0
-8231 -75 0
-8231 -93 0
-8231 -116 0
-8231 -122 0
-8231 -133 0
8231 -16 17 -39 56 75 93 116 122 133 0
-8232 16 0
-8232 -17 0
-8232 39 0
-8232 -80 0
-8232 -93 0
-8232 -116 0
-8232 -122 0
-8232 -133 0
8232 -16 17 -39 80 93 116 122 133 0
-8233 16 0
-8233 -17 0
-8233 39 0
-8233 -81 0
-8233 -93 0
-8233 -116 0
-8233 -122 0
-8233 -133 0
8233 -16 17 -39 81 93 116 122 133 0
-8234 16 0
-8234 -17 0
-8234 39 0
-8234 -79 0
-8234 -93 0
-8234 -116 0
-8234 -122 0
-8234 -133 0
8234 -16 17 -39 79 93 116 122 133 0
-8235 16 0
-8235 -17 0
-8235 39 0
-8235 -83 0
-8235 -93 0
-8235 -116 0
-8235 -122 0
-8235 -133 0
8235 -16 17 -39 83 93 116 122 133 0
-8236 16 0
-8236 -17 0
-8236 39 0
-8236 -76 0
-8236 -93 0
-8236 -116 0
-8236 -122 0
-8236 -133 0
8236 -16 17 -39 76 93 116 122 133 0
-8237 16 0
-8237 -17 0
-8237 39 0
-8237 -82 0
-8237 -93 0
-8237 -116 0
-8237 -122 0
-8237 -133 0
8237 -16 17 -39 82 93 116 122 133 0
-8238 16 0
-8238 -17 0
-8238 39 0
-8238 -78 0
-8238 -93 0
-8238 -116 0
-8238 -122 0
-8238 -133 0
8238 -16 17 -39 78 93 116 122 133 0
-8239 16 0
-8239 -17 0
-8239 39 0
-8239 -84 0
-8239 -93 0
-8239 -116 0
-8239 -122 0
-8239 -133 0
8239 -16 17 -39 84 93 116 122 133 0
-8240 16 0
-8240 -17 0
-8240 39 0
-8240 -77 0
-8240 -93 0
-8240 -116 0
-8240 -122 0
-8240 -133 0
8240 -16 17 -39 77 93 116 122 133 0
-8241 16 0
-8241 -17 0
-8241 39 0
-8241 66 0
-8241 -93 0
-8241 -116 0
-8241 -122 0
-8241 -133 0
8241 -16 17 -39 -66 93 116 122 133 0
-8242 16 0
-8242 -17 0
-8242 39 0
-8242 65 0
-8242 -93 0
-8242 -116 0
-8242 -122 0
-8242 -133 0
8242 -16 17 -39 -65 93 116 122 133 0
-8243 16 0
-8243 -17 0
-8243 39 0
-8243 -61 0
-8243 64 0
-8243 -93 0
-8243 -116 0
-8243 -122 0
-8243 -133 0
8243 -16 17 -39 61 -64 93 116 122 133 0
-8244 16 0
-8244 -17 0
-8244 39 0
-8244 -56 0
-8244 64 0
-8244 -93 0
-8244 -116 0
-8244 -122 0
-8244 -133 0
8244 -16 17 -39 56 -64 93 116 122 133 0
-8245 16 0
-8245 -17 0
-8245 39 0
-8245 62 0
-8245 64 0
-8245 -93 0
-8245 -116 0
-8245 -122 0
-8245 -133 0
8245 -16 17 -39 -62 -64 93 116 122 133 0
-8246 16 0
-8246 -17 0
-8246 39 0
-8246 -55 0
-8246 -57 0
-8246 -58 0
-8246 95 0
-8246 -116 0
-8246 -122 0
-8246 -133 0
8246 -16 17 -39 55 57 58 -95 116 122 133 0
-8247 16 0
-8247 17 0
-8247 19 0
-8247 -39 0
-8247 -61 0
-8247 64 0
-8247 -93 0
-8247 -116 0
-8247 -122 0
-8247 -133 0
8247 -16 -17 -19 39 61 -64 93 116 122 133 0
-8248 16 0
-8248 -17 0
-8248 39 0
-8248 -55 0
-8248 -57 0
-8248 -58 0
-8248 -94 0
-8248 -116 0
-8248 -122 0
-8248 -133 0
-8248 -140 0
8248 -16 17 -39 55 57 58 94 116 122 133 140 0
-8249 16 0
-8249 -17 0
-8249 39 0
-8249 -55 0
-8249 -57 0
-8249 -58 0
-8249 94 0
-8249 101 0
-8249 -116 0
-8249 -122 0
-8249 -133 0
8249 -16 17 -39 55 57 58 -94 -101 116 122 133 0
-8250 16 0
-8250 -17 0
-8250 39 0
-8250 -55 0
-8250 -57 0
-8250 -58 0
-8250 94 0
-8250 110 0
-8250 -116 0
-8250 -122 0
-8250 -133 0
8250 -16 17 -39 55 57 58 -94 -110 116 122 133 0
-8251 16 0
-8251 -17 0
-8251 39 0
-8251 -55 0
-8251 -57 0
-8251 -58 0
-8251 94 0
-8251 -116 0
-8251 -122 0
-8251 -133 0
-8251 140 0
8251 -16 17 -39 55 57 58 -94 116 122 133 -140 0
-8252 16 0
-8252 -17 0
-8252 39 0
-8252 -80 0
-8252 94 0
-8252 101 0
-8252 -116 0
-8252 -122 0
-8252 -133 0
8252 -16 17 -39 80 -94 -101 116 122 133 0
-8253 16 0
-8253 -17 0
-8253 39 0
-8253 -81 0
-8253 94 0
-8253 101 0
-8253 -116 0
-8253 -122 0
-8253 -133 0
8253 -16 17 -39 81 -94 -101 116 122 133 0
-8254 16 0
-8254 -17 0
-8254 39 0
-8254 -79 0
-8254 94 0
-8254 101 0
-8254 -116 0
-8254 -122 0
-8254 -133 0
8254 -16 17 -39 79 -94 -101 116 122 133 0
-8255 16 0
-8255 -17 0
-8255 39 0
-8255 -83 0
-8255 94 0
-8255 101 0
-8255 -116 0
-8255 -122 0
-8255 -133 0
8255 -16 17 -39 83 -94 -101 116 122 133 0
-8256 16 0
-8256 -17 0
-8256 39 0
-8256 -76 0
-8256 94 0
-8256 101 0
-8256 -116 0
-8256 -122 0
-8256 -133 0
8256 -16 17 -39 76 -94 -101 116 122 133 0
-8257 16 0
-8257 -17 0
-8257 39 0
-8257 -82 0
-8257 94 0
-8257 101 0
-8257 -116 0
-8257 -122 0
-8257 -133 0
8257 -16 17 -39 82 -94 -101 116 122 133 0
-8258 16 0
-8258 -17 0
-8258 39 0
-8258 -78 0
-8258 94 0
-8258 101 0
-8258 -116 0
-8258 -122 0
-8258 -133 0
8258 -16 17 -39 78 -94 -101 116 122 133 0
-8259 16 0
-8259 -17 0
-8259 39 0
-8259 -84 0
-8259 94 0
-8259 101 0
-8259 -116 0
-8259 -122 0
-8259 -133 0
8259 -16 17 -39 84 -94 -101 116 122 133 0
-8260 16 0
-8260 -17 0
-8260 39 0
-8260 -77 0
-8260 94 0
-8260 101 0
-8260 -116 0
-8260 -122 0
-8260 -133 0
8260 -16 17 -39 77 -94 -101 116 122 133 0
-8261 16 0
-8261 -17 0
-8261 39 0
-8261 -63 0
-8261 94 0
-8261 101 0
-8261 -116 0
-8261 -122 0
-8261 -133 0
8261 -16 17 -39 63 -94 -101 116 122 133 0
-8262 16 0
-8262 -17 0
-8262 39 0
-8262 94 0
-8262 101 0
-8262 -116 0
-8262 -122 0
-8262 -133 0
-8262 -164 0
8262 -16 17 -39 -94 -101 116 122 133 164 0
-8263 16 0
-8263 -17 0
-8263 39 0
-8263 66 0
-8263 94 0
-8263 101 0
-8263 -116 0
-8263 -122 0
-8263 -133 0
8263 -16 17 -39 -66 -94 -101 116 122 133 0
-8264 16 0
-8264 -17 0
-8264 39 0
-8264 65 0
-8264 94 0
-8264 101 0
-8264 -116 0
-8264 -122 0
-8264 -133 0
8264 -16 17 -39 -65 -94 -101 116 122 133 0
-8265 16 0
-8265 -17 0
-8265 39 0
-8265 -57 0
-8265 -58 0
-8265 64 0
-8265 94 0
-8265 101 0
-8265 -116 0
-8265 -122 0
-8265 -133 0
8265 -16 17 -39 57 58 -64 -94 -101 116 122 133 0
-8266 16 0
-8266 -17 0
-8266 39 0
-8266 -56 0
-8266 -74 0
-8266 94 0
-8266 101 0
-8266 -116 0
-8266 -122 0
-8266 -133 0
8266 -16 17 -39 56 74 -94 -101 116 122 133 0
-8267 16 0
-8267 -17 0
-8267 39 0
-8267 -56 0
-8267 -71 0
-8267 94 0
-8267 101 0
-8267 -116 0
-8267 -122 0
-8267 -133 0
8267 -16 17 -39 56 71 -94 -101 116 122 133 0
-8268 16 0
-8268 -17 0
-8268 39 0
-8268 -56 0
-8268 -73 0
-8268 94 0
-8268 101 0
-8268 -116 0
-8268 -122 0
-8268 -133 0
8268 -16 17 -39 56 73 -94 -101 116 122 133 0
-8269 16 0
-8269 -17 0
-8269 39 0
-8269 -56 0
-8269 -69 0
-8269 94 0
-8269 101 0
-8269 -116 0
-8269 -122 0
-8269 -133 0
8269 -16 17 -39 56 69 -94 -101 116 122 133 0
-8270 16 0
-8270 -17 0
-8270 39 0
-8270 -56 0
-8270 -75 0
-8270 94 0
-8270 101 0
-8270 -116 0
-8270 -122 0
-8270 -133 0
8270 -16 17 -39 56 75 -94 -101 116 122 133 0
-8271 16 0
-8271 -17 0
-8271 39 0
-8271 -56 0
-8271 -72 0
-8271 94 0
-8271 101 0
-8271 -116 0
-8271 -122 0
-8271 -133 0
8271 -16 17 -39 56 72 -94 -101 116 122 133 0
-8272 16 0
-8272 -17 0
-8272 39 0
-8272 -56 0
-8272 -70 0
-8272 94 0
-8272 101 0
-8272 -116 0
-8272 -122 0
-8272 -133 0
8272 -16 17 -39 56 70 -94 -101 116 122 133 0
-8273 16 0
-8273 -17 0
-8273 39 0
-8273 -56 0
-8273 -62 0
-8273 94 0
-8273 101 0
-8273 -116 0
-8273 -122 0
-8273 -133 0
8273 -16 17 -39 56 62 -94 -101 116 122 133 0
-8274 16 0
-8274 -17 0
-8274 39 0
-8274 -56 0
-8274 64 0
-8274 94 0
-8274 101 0
-8274 -116 0
-8274 -122 0
-8274 -133 0
8274 -16 17 -39 56 -64 -94 -101 116 122 133 0
-8275 16 0
-8275 -17 0
-8275 39 0
-8275 -55 0
-8275 -56 0
-8275 94 0
-8275 101 0
-8275 -116 0
-8275 -122 0
-8275 -133 0
8275 -16 17 -39 55 56 -94 -101 116 122 133 0
-8276 16 0
-8276 -17 0
-8276 39 0
-8276 -61 0
-8276 64 0
-8276 94 0
-8276 101 0
-8276 -116 0
-8276 -122 0
-8276 -133 0
8276 -16 17 -39 61 -64 -94 -101 116 122 133 0
-8277 16 0
-8277 -17 0
-8277 39 0
-8277 -61 0
-8277 -62 0
-8277 94 0
-8277 101 0
-8277 -116 0
-8277 -122 0
-8277 -133 0
8277 -16 17 -39 61 62 -94 -101 116 122 133 0
-8278 16 0
-8278 -17 0
-8278 39 0
-8278 -54 0
-8278 -61 0
-8278 94 0
-8278 101 0
-8278 -116 0
-8278 -122 0
-8278 -133 0
8278 -16 17 -39 54 61 -94 -101 116 122 133 0
-8279 16 0
-8279 -17 0
-8279 39 0
-8279 -55 0
-8279 -61 0
-8279 94 0
-8279 101 0
-8279 -116 0
-8279 -122 0
-8279 -133 0
8279 -16 17 -39 55 61 -94 -101 116 122 133 0
-8280 16 0
-8280 -17 0
-8280 39 0
-8280 62 0
-8280 64 0
-8280 94 0
-8280 101 0
-8280 -116 0
-8280 -122 0
-8280 -133 0
8280 -16 17 -39 -62 -64 -94 -101 116 122 133 0
-8281 16 0
-8281 -17 0
-8281 39 0
-8281 -57 0
-8281 -58 0
-8281 -62 0
-8281 95 0
-8281 -116 0
-8281 -122 0
-8281 -133 0
8281 -16 17 -39 57 58 62 -95 116 122 133 0
-8282 16 0
-8282 -17 0
-8282 39 0
-8282 -57 0
-8282 -58 0
-8282 -62 0
-8282 94 0
-8282 -116 0
-8282 -122 0
-8282 -133 0
-8282 140 0
8282 -16 17 -39 57 58 62 -94 116 122 133 -140 0
-8283 16 0
-8283 -17 0
-8283 39 0
-8283 -57 0
-8283 -58 0
-8283 -62 0
-8283 94 0
-8283 110 0
-8283 -116 0
-8283 -122 0
-8283 -133 0
8283 -16 17 -39 57 58 62 -94 -110 116 122 133 0
-8284 16 0
-8284 -17 0
-8284 39 0
-8284 -80 0
-8284 94 0
-8284 -116 0
-8284 -122 0
-8284 -133 0
-8284 140 0
8284 -16 17 -39 80 -94 116 122 133 -140 0
-8285 16 0
-8285 -17 0
-8285 39 0
-8285 -80 0
-8285 94 0
-8285 110 0
-8285 -116 0
-8285 -122 0
-8285 -133 0
8285 -16 17 -39 80 -94 -110 116 122 133 0
-8286 16 0
-8286 -17 0
-8286 39 0
-8286 -80 0
-8286 -94 0
-8286 -101 0
-8286 -116 0
-8286 -122 0
-8286 -133 0
8286 -16 17 -39 80 94 101 116 122 133 0
-8287 16 0
-8287 -17 0
-8287 39 0
-8287 -61 0
-8287 -62 0
-8287 -94 0
-8287 -116 0
-8287 -122 0
-8287 -133 0
-8287 -140 0
8287 -16 17 -39 61 62 94 116 122 133 140 0
-8288 16 0
-8288 -17 0
-8288 39 0
-8288 -61 0
-8288 -62 0
-8288 -94 0
-8288 -110 0
-8288 -116 0
-8288 -122 0
-8288 -133 0
8288 -16 17 -39 61 62 94 110 116 122 133 0
-8289 16 0
-8289 -17 0
-8289 39 0
-8289 -61 0
-8289 -62 0
-8289 94 0
-8289 110 0
-8289 -116 0
-8289 -122 0
-8289 -133 0
8289 -16 17 -39 61 62 -94 -110 116 122 133 0
-8290 16 0
-8290 -17 0
-8290 39 0
-8290 -61 0
-8290 -62 0
-8290 94 0
-8290 -116 0
-8290 -122 0
-8290 -133 0
-8290 140 0
8290 -16 17 -39 61 62 -94 116 122 133 -140 0
-8291 16 0
-8291 -17 0
-8291 39 0
-8291 -61 0
-8291 -62 0
-8291 95 0
-8291 -116 0
-8291 -122 0
-8291 -133 0
8291 -16 17 -39 61 62 -95 116 122 133 0
-8292 16 0
-8292 -17 0
-8292 39 0
-8292 -61 0
-8292 -62 0
-8292 95 0
-8292 100 0
-8292 -116 0
-8292 126 0
-8292 -133 0
8292 -16 17 -39 61 62 -95 -100 116 -126 133 0
-8293 16 0
-8293 -17 0
-8293 39 0
-8293 -61 0
-8293 -62 0
-8293 -94 0
-8293 100 0
-8293 -101 0
-8293 -116 0
-8293 126 0
-8293 -133 0
8293 -16 17 -39 61 62 94 -100 101 116 -126 133 0
-8294 16 0
-8294 -17 0
-8294 39 0
-8294 -61 0
-8294 -62 0
-8294 -94 0
-8294 100 0
-8294 -116 0
-8294 126 0
-8294 -133 0
-8294 -140 0
8294 -16 17 -39 61 62 94 -100 116 -126 133 140 0
-8295 16 0
-8295 -17 0
-8295 39 0
-8295 -61 0
-8295 -62 0
-8295 -94 0
-8295 100 0
-8295 -110 0
-8295 -116 0
-8295 126 0
-8295 -133 0
8295 -16 17 -39 61 62 94 -100 110 116 -126 133 0
-8296 16 0
-8296 -17 0
-8296 39 0
-8296 -61 0
-8296 -62 0
-8296 -93 0
-8296 100 0
-8296 -116 0
-8296 126 0
-8296 -133 0
8296 -16 17 -39 61 62 93 -100 116 -126 133 0
-8297 16 0
-8297 -17 0
-8297 39 0
-8297 -56 0
-8297 -62 0
-8297 -94 0
-8297 100 0
-8297 -116 0
-8297 126 0
-8297 -133 0
-8297 -140 0
8297 -16 17 -39 56 62 94 -100 116 -126 133 140 0
-8298 16 0
-8298 -17 0
-8298 39 0
-8298 -63 0
-8298 -94 0
-8298 100 0
-8298 -116 0
-8298 126 0
-8298 -133 0
-8298 -140 0
8298 -16 17 -39 63 94 -100 116 -126 133 140 0
-8299 16 0
-8299 -17 0
-8299 39 0
-8299 -94 0
-8299 100 0
-8299 -116 0
-8299 126 0
-8299 -133 0
-8299 -140 0
-8299 -164 0
8299 -16 17 -39 94 -100 116 -126 133 140 164 0
-8300 16 0
-8300 -17 0
-8300 39 0
-8300 66 0
-8300 -94 0
-8300 100 0
-8300 -116 0
-8300 126 0
-8300 -133 0
-8300 -140 0
8300 -16 17 -39 -66 94 -100 116 -126 133 140 0
-8301 16 0
-8301 -17 0
-8301 39 0
-8301 65 0
-8301 -94 0
-8301 100 0
-8301 -116 0
-8301 126 0
-8301 -133 0
-8301 -140 0
8301 -16 17 -39 -65 94 -100 116 -126 133 140 0
-8302 16 0
-8302 -17 0
-8302 39 0
-8302 -57 0
-8302 -58 0
-8302 -62 0
-8302 -94 0
-8302 100 0
-8302 -116 0
-8302 126 0
-8302 -133 0
-8302 -140 0
8302 -16 17 -39 57 58 62 94 -100 116 -126 133 140 0
-8303 16 0
-8303 -17 0
-8303 39 0
-8303 -81 0
-8303 -94 0
-8303 100 0
-8303 -116 0
-8303 126 0
-8303 -133 0
-8303 -140 0
8303 -16 17 -39 81 94 -100 116 -126 133 140 0
-8304 16 0
-8304 -17 0
-8304 39 0
-8304 -79 0
-8304 -94 0
-8304 100 0
-8304 -116 0
-8304 126 0
-8304 -133 0
-8304 -140 0
8304 -16 17 -39 79 94 -100 116 -126 133 140 0
-8305 16 0
-8305 -17 0
-8305 39 0
-8305 -83 0
-8305 -94 0
-8305 100 0
-8305 -116 0
-8305 126 0
-8305 -133 0
-8305 -140 0
8305 -16 17 -39 83 94 -100 116 -126 133 140 0
-8306 16 0
-8306 -17 0
-8306 39 0
-8306 -76 0
-8306 -94 0
-8306 100 0
-8306 -116 0
-8306 126 0
-8306 -133 0
-8306 -140 0
8306 -16 17 -39 76 94 -100 116 -126 133 140 0
-8307 16 0
-8307 -17 0
-8307 39 0
-8307 -82 0
-8307 -94 0
-8307 100 0
-8307 -116 0
-8307 126 0
-8307 -133 0
-8307 -140 0
8307 -16 17 -39 82 94 -100 116 -126 133 140 0
-8308 16 0
-8308 -17 0
-8308 39 0
-8308 -78 0
-8308 -94 0
-8308 100 0
-8308 -116 0
-8308 126 0
-8308 -133 0
-8308 -140 0
8308 -16 17 -39 78 94 -100 116 -126 133 140 0
-8309 16 0
-8309 -17 0
-8309 39 0
-8309 -84 0
-8309 -94 0
-8309 100 0
-8309 -116 0
-8309 126 0
-8309 -133 0
-8309 -140 0
8309 -16 17 -39 84 94 -100 116 -126 133 140 0
-8310 16 0
-8310 -17 0
-8310 39 0
-8310 -77 0
-8310 -94 0
-8310 100 0
-8310 -116 0
-8310 126 0
-8310 -133 0
-8310 -140 0
8310 -16 17 -39 77 94 -100 116 -126 133 140 0
-8311 16 0
-8311 -17 0
-8311 39 0
-8311 -80 0
-8311 -94 0
-8311 100 0
-8311 -116 0
-8311 126 0
-8311 -133 0
-8311 -140 0
8311 -16 17 -39 80 94 -100 116 -126 133 140 0
-8312 16 0
-8312 -17 0
-8312 39 0
-8312 -81 0
-8312 -94 0
-8312 100 0
-8312 -110 0
-8312 -116 0
-8312 126 0
-8312 -133 0
8312 -16 17 -39 81 94 -100 110 116 -126 133 0
-8313 16 0
-8313 -19 0
-8313 39 0
-8313 -54 0
-8313 -57 0
-8313 -58 0
-8313 94 0
-8313 -100 0
-8313 101 0
-8313 -116 0
-8313 -126 0
-8313 -133 0
8313 -16 19 -39 54 57 58 -94 100 -101 116 126 133 0
-8314 16 0
-8314 -19 0
-8314 39 0
-8314 -54 0
-8314 -61 0
-8314 94 0
-8314 -100 0
-8314 101 0
-8314 -116 0
-8314 -126 0
-8314 -133 0
8314 -16 19 -39 54 61 -94 100 -101 116 126 133 0
-8315 16 0
-8315 -19 0
-8315 39 0
-8315 -54 0
-8315 -57 0
-8315 -58 0
-8315 94 0
-8315 -100 0
-8315 110 0
-8315 -116 0
-8315 -126 0
-8315 -133 0
8315 -16 19 -39 54 57 58 -94 100 -110 116 126 133 0
-8316 16 0
-8316 -19 0
-8316 39 0
-8316 -54 0
-8316 -61 0
-8316 94 0
-8316 -100 0
-8316 110 0
-8316 -116 0
-8316 -126 0
-8316 -133 0
8316 -16 19 -39 54 61 -94 100 -110 116 126 133 0
-8317 16 0
-8317 -17 0
-8317 39 0
-8317 62 0
-8317 64 0
-8317 95 0
-8317 100 0
-8317 -116 0
-8317 126 0
-8317 -133 0
8317 -16 17 -39 -62 -64 -95 -100 116 -126 133 0
-8318 16 0
-8318 -17 0
-8318 39 0
-8318 65 0
-8318 95 0
-8318 100 0
-8318 -116 0
-8318 126 0
-8318 -133 0
8318 -16 17 -39 -65 -95 -100 116 -126 133 0
-8319 16 0
-8319 -17 0
-8319 39 0
-8319 66 0
-8319 95 0
-8319 100 0
-8319 -116 0
-8319 126 0
-8319 -133 0
8319 -16 17 -39 -66 -95 -100 116 -126 133 0
-8320 16 0
-8320 -17 0
-8320 39 0
-8320 -57 0
-8320 -58 0
-8320 -62 0
-8320 95 0
-8320 100 0
-8320 -116 0
-8320 126 0
-8320 -133 0
8320 -16 17 -39 57 58 62 -95 -100 116 -126 133 0
-8321 16 0
-8321 -17 0
-8321 39 0
-8321 -63 0
-8321 95 0
-8321 100 0
-8321 -116 0
-8321 126 0
-8321 -133 0
8321 -16 17 -39 63 -95 -100 116 -126 133 0
-8322 16 0
-8322 -17 0
-8322 39 0
-8322 -55 0
-8322 -61 0
-8322 95 0
-8322 100 0
-8322 -116 0
-8322 126 0
-8322 -133 0
8322 -16 17 -39 55 61 -95 -100 116 -126 133 0
-8323 16 0
-8323 -17 0
-8323 39 0
-8323 -81 0
-8323 -93 0
-8323 100 0
-8323 -116 0
-8323 126 0
-8323 -133 0
8323 -16 17 -39 81 93 -100 116 -126 133 0
-8324 16 0
-8324 -17 0
-8324 39 0
-8324 -81 0
-8324 -94 0
-8324 100 0
-8324 -101 0
-8324 -116 0
-8324 126 0
-8324 -133 0
8324 -16 17 -39 81 94 -100 101 116 -126 133 0
-8325 16 0
-8325 -17 0
-8325 39 0
-8325 -81 0
-8325 95 0
-8325 100 0
-8325 -116 0
-8325 126 0
-8325 -133 0
8325 -16 17 -39 81 -95 -100 116 -126 133 0
-8326 16 0
-8326 -17 0
-8326 39 0
-8326 62 0
-8326 64 0
-8326 94 0
-8326 100 0
-8326 101 0
-8326 -116 0
-8326 126 0
-8326 -133 0
8326 -16 17 -39 -62 -64 -94 -100 -101 116 -126 133 0
-8327 16 0
-8327 -17 0
-8327 39 0
-8327 65 0
-8327 94 0
-8327 100 0
-8327 101 0
-8327 -116 0
-8327 126 0
-8327 -133 0
8327 -16 17 -39 -65 -94 -100 -101 116 -126 133 0
-8328 16 0
-8328 -17 0
-8328 39 0
-8328 66 0
-8328 94 0
-8328 100 0
-8328 101 0
-8328 -116 0
-8328 126 0
-8328 -133 0
8328 -16 17 -39 -66 -94 -100 -101 116 -126 133 0
-8329 16 0
-8329 -17 0
-8329 39 0
-8329 -57 0
-8329 -58 0
-8329 -62 0
-8329 94 0
-8329 100 0
-8329 101 0
-8329 -116 0
-8329 126 0
-8329 -133 0
8329 -16 17 -39 57 58 62 -94 -100 -101 116 -126 133 0
-8330 16 0
-8330 -17 0
-8330 39 0
-8330 -61 0
-8330 -62 0
-8330 94 0
-8330 100 0
-8330 101 0
-8330 -116 0
-8330 126 0
-8330 -133 0
8330 -16 17 -39 61 62 -94 -100 -101 116 -126 133 0
-8331 16 0
-8331 -17 0
-8331 39 0
-8331 -63 0
-8331 94 0
-8331 100 0
-8331 101 0
-8331 -116 0
-8331 126 0
-8331 -133 0
8331 -16 17 -39 63 -94 -100 -101 116 -126 133 0
-8332 16 0
-8332 -17 0
-8332 39 0
-8332 -55 0
-8332 -61 0
-8332 94 0
-8332 100 0
-8332 101 0
-8332 -116 0
-8332 126 0
-8332 -133 0
8332 -16 17 -39 55 61 -94 -100 -101 116 -126 133 0
-8333 16 0
-8333 -17 0
-8333 39 0
-8333 -79 0
-8333 -94 0
-8333 100 0
-8333 -110 0
-8333 -116 0
-8333 126 0
-8333 -133 0
8333 -16 17 -39 79 94 -100 110 116 -126 133 0
-8334 16 0
-8334 -17 0
-8334 39 0
-8334 -83 0
-8334 -94 0
-8334 100 0
-8334 -110 0
-8334 -116 0
-8334 126 0
-8334 -133 0
8334 -16 17 -39 83 94 -100 110 116 -126 133 0
-8335 16 0
-8335 -17 0
-8335 39 0
-8335 -76 0
-8335 -94 0
-8335 100 0
-8335 -110 0
-8335 -116 0
-8335 126 0
-8335 -133 0
8335 -16 17 -39 76 94 -100 110 116 -126 133 0
-8336 16 0
-8336 -17 0
-8336 39 0
-8336 -82 0
-8336 -94 0
-8336 100 0
-8336 -110 0
-8336 -116 0
-8336 126 0
-8336 -133 0
8336 -16 17 -39 82 94 -100 110 116 -126 133 0
-8337 16 0
-8337 -17 0
-8337 39 0
-8337 -78 0
-8337 -94 0
-8337 100 0
-8337 -110 0
-8337 -116 0
-8337 126 0
-8337 -133 0
8337 -16 17 -39 78 94 -100 110 116 -126 133 0
-8338 16 0
-8338 -17 0
-8338 39 0
-8338 -84 0
-8338 -94 0
-8338 100 0
-8338 -110 0
-8338 -116 0
-8338 126 0
-8338 -133 0
8338 -16 17 -39 84 94 -100 110 116 -126 133 0
-8339 16 0
-8339 -17 0
-8339 39 0
-8339 -77 0
-8339 -94 0
-8339 100 0
-8339 -110 0
-8339 -116 0
-8339 126 0
-8339 -133 0
8339 -16 17 -39 77 94 -100 110 116 -126 133 0
-8340 16 0
-8340 -17 0
-8340 39 0
-8340 -80 0
-8340 -94 0
-8340 100 0
-8340 -110 0
-8340 -116 0
-8340 126 0
-8340 -133 0
8340 -16 17 -39 80 94 -100 110 116 -126 133 0
-8341 16 0
-8341 -17 0
-8341 39 0
-8341 -57 0
-8341 -58 0
-8341 -62 0
-8341 -94 0
-8341 100 0
-8341 -110 0
-8341 -116 0
-8341 126 0
-8341 -133 0
8341 -16 17 -39 57 58 62 94 -100 110 116 -126 133 0
-8342 16 0
-8342 -17 0
-8342 39 0
-8342 -56 0
-8342 -62 0
-8342 -94 0
-8342 100 0
-8342 -110 0
-8342 -116 0
-8342 126 0
-8342 -133 0
8342 -16 17 -39 56 62 94 -100 110 116 -126 133 0
-8343 16 0
-8343 -17 0
-8343 39 0
-8343 -63 0
-8343 -94 0
-8343 100 0
-8343 -110 0
-8343 -116 0
-8343 126 0
-8343 -133 0
8343 -16 17 -39 63 94 -100 110 116 -126 133 0
-8344 16 0
-8344 -17 0
-8344 39 0
-8344 -94 0
-8344 100 0
-8344 -110 0
-8344 -116 0
-8344 126 0
-8344 -133 0
-8344 -164 0
8344 -16 17 -39 94 -100 110 116 -126 133 164 0
-8345 16 0
-8345 -17 0
-8345 39 0
-8345 66 0
-8345 -94 0
-8345 100 0
-8345 -110 0
-8345 -116 0
-8345 126 0
-8345 -133 0
8345 -16 17 -39 -66 94 -100 110 116 -126 133 0
-8346 16 0
-8346 -17 0
-8346 39 0
-8346 65 0
-8346 -94 0
-8346 100 0
-8346 -110 0
-8346 -116 0
-8346 126 0
-8346 -133 0
8346 -16 17 -39 -65 94 -100 110 116 -126 133 0
-8347 16 0
-8347 -17 0
-8347 39 0
-8347 -57 0
-8347 -58 0
-8347 64 0
-8347 -94 0
-8347 100 0
-8347 -110 0
-8347 -116 0
-8347 126 0
-8347 -133 0
8347 -16 17 -39 57 58 -64 94 -100 110 116 -126 133 0
-8348 16 0
-8348 -17 0
-8348 39 0
-8348 62 0
-8348 64 0
-8348 -94 0
-8348 100 0
-8348 -110 0
-8348 -116 0
-8348 126 0
-8348 -133 0
8348 -16 17 -39 -62 -64 94 -100 110 116 -126 133 0
-8349 16 0
-8349 -17 0
-8349 39 0
-8349 -54 0
-8349 -61 0
-8349 -94 0
-8349 100 0
-8349 -110 0
-8349 -116 0
-8349 126 0
-8349 -133 0
8349 -16 17 -39 54 61 94 -100 110 116 -126 133 0
-8350 16 0
-8350 -17 0
-8350 39 0
-8350 -55 0
-8350 -61 0
-8350 -94 0
-8350 100 0
-8350 -110 0
-8350 -116 0
-8350 126 0
-8350 -133 0
8350 -16 17 -39 55 61 94 -100 110 116 -126 133 0
-8351 16 0
-8351 -17 0
-8351 39 0
-8351 -56 0
-8351 -73 0
-8351 -94 0
-8351 100 0
-8351 -110 0
-8351 -116 0
-8351 126 0
-8351 -133 0
8351 -16 17 -39 56 73 94 -100 110 116 -126 133 0
-8352 16 0
-8352 -17 0
-8352 39 0
-8352 -56 0
-8352 -73 0
-8352 -93 0
-8352 100 0
-8352 -116 0
-8352 126 0
-8352 -133 0
8352 -16 17 -39 56 73 93 -100 116 -126 133 0
-8353 16 0
-8353 -17 0
-8353 39 0
-8353 -56 0
-8353 -73 0
-8353 -94 0
-8353 100 0
-8353 -101 0
-8353 -116 0
-8353 126 0
-8353 -133 0
8353 -16 17 -39 56 73 94 -100 101 116 -126 133 0
-8354 16 0
-8354 -17 0
-8354 39 0
-8354 -56 0
-8354 -73 0
-8354 95 0
-8354 100 0
-8354 -116 0
-8354 126 0
-8354 -133 0
8354 -16 17 -39 56 73 -95 -100 116 -126 133 0
-8355 16 0
-8355 -17 0
-8355 39 0
-8355 -56 0
-8355 -73 0
-8355 -94 0
-8355 100 0
-8355 -116 0
-8355 126 0
-8355 -133 0
-8355 -140 0
8355 -16 17 -39 56 73 94 -100 116 -126 133 140 0
-8356 16 0
-8356 -17 0
-8356 39 0
-8356 -56 0
-8356 -73 0
-8356 -93 0
-8356 -116 0
-8356 -133 0
-8356 134 0
8356 -16 17 -39 56 73 93 116 133 -134 0
-8357 16 0
-8357 -17 0
-8357 39 0
-8357 -56 0
-8357 -71 0
-8357 -93 0
-8357 -116 0
-8357 -133 0
-8357 134 0
8357 -16 17 -39 56 71 93 116 133 -134 0
-8358 16 0
-8358 -17 0
-8358 39 0
-8358 -56 0
-8358 -69 0
-8358 -93 0
-8358 -116 0
-8358 -133 0
-8358 134 0
8358 -16 17 -39 56 69 93 116 133 -134 0
-8359 16 0
-8359 -17 0
-8359 39 0
-8359 -56 0
-8359 -75 0
-8359 -93 0
-8359 -116 0
-8359 -133 0
-8359 134 0
8359 -16 17 -39 56 75 93 116 133 -134 0
-8360 16 0
-8360 -17 0
-8360 39 0
-8360 -56 0
-8360 -68 0
-8360 -93 0
-8360 -116 0
-8360 -133 0
-8360 134 0
8360 -16 17 -39 56 68 93 116 133 -134 0
-8361 16 0
-8361 -17 0
-8361 39 0
-8361 -56 0
-8361 -72 0
-8361 -93 0
-8361 -116 0
-8361 -133 0
-8361 134 0
8361 -16 17 -39 56 72 93 116 133 -134 0
-8362 16 0
-8362 -17 0
-8362 39 0
-8362 -56 0
-8362 -70 0
-8362 -93 0
-8362 -116 0
-8362 -133 0
-8362 134 0
8362 -16 17 -39 56 70 93 116 133 -134 0
-8363 16 0
-8363 -17 0
-8363 39 0
-8363 -56 0
-8363 -74 0
-8363 -93 0
-8363 -116 0
-8363 -133 0
-8363 134 0
8363 -16 17 -39 56 74 93 116 133 -134 0
-8364 16 0
-8364 -17 0
-8364 39 0
-8364 -56 0
-8364 -67 0
-8364 -93 0
-8364 -116 0
-8364 -133 0
-8364 134 0
8364 -16 17 -39 56 67 93 116 133 -134 0
-8365 16 0
-8365 -17 0
-8365 39 0
-8365 -54 0
-8365 -56 0
-8365 -93 0
-8365 -116 0
-8365 -133 0
-8365 134 0
8365 -16 17 -39 54 56 93 116 133 -134 0
-8366 16 0
-8366 -17 0
-8366 39 0
-8366 -55 0
-8366 -56 0
-8366 -93 0
-8366 -116 0
-8366 -133 0
-8366 134 0
8366 -16 17 -39 55 56 93 116 133 -134 0
-8367 16 0
-8367 -17 0
-8367 39 0
-8367 -56 0
-8367 64 0
-8367 -93 0
-8367 -116 0
-8367 -133 0
-8367 134 0
8367 -16 17 -39 56 -64 93 116 133 -134 0
-8368 16 0
-8368 -17 0
-8368 39 0
-8368 -63 0
-8368 -93 0
-8368 -116 0
-8368 -133 0
-8368 134 0
8368 -16 17 -39 63 93 116 133 -134 0
-8369 16 0
-8369 -17 0
-8369 39 0
-8369 -93 0
-8369 -116 0
-8369 -133 0
-8369 134 0
-8369 -164 0
8369 -16 17 -39 93 116 133 -134 164 0
-8370 16 0
-8370 -17 0
-8370 39 0
-8370 66 0
-8370 -93 0
-8370 -116 0
-8370 -133 0
-8370 134 0
8370 -16 17 -39 -66 93 116 133 -134 0
-8371 16 0
-8371 -17 0
-8371 39 0
-8371 65 0
-8371 -93 0
-8371 -116 0
-8371 -133 0
-8371 134 0
8371 -16 17 -39 -65 93 116 133 -134 0
-8372 16 0
-8372 -17 0
-8372 39 0
-8372 -56 0
-8372 -62 0
-8372 -93 0
-8372 -116 0
-8372 -133 0
-8372 134 0
8372 -16 17 -39 56 62 93 116 133 -134 0
-8373 16 0
-8373 -17 0
-8373 39 0
-8373 -79 0
-8373 -93 0
-8373 -116 0
-8373 -133 0
-8373 134 0
8373 -16 17 -39 79 93 116 133 -134 0
-8374 16 0
-8374 -17 0
-8374 39 0
-8374 -83 0
-8374 -93 0
-8374 -116 0
-8374 -133 0
-8374 134 0
8374 -16 17 -39 83 93 116 133 -134 0
-8375 16 0
-8375 -17 0
-8375 39 0
-8375 -76 0
-8375 -93 0
-8375 -116 0
-8375 -133 0
-8375 134 0
8375 -16 17 -39 76 93 116 133 -134 0
-8376 16 0
-8376 -17 0
-8376 39 0
-8376 -82 0
-8376 -93 0
-8376 -116 0
-8376 -133 0
-8376 134 0
8376 -16 17 -39 82 93 116 133 -134 0
-8377 16 0
-8377 -17 0
-8377 39 0
-8377 -78 0
-8377 -93 0
-8377 -116 0
-8377 -133 0
-8377 134 0
8377 -16 17 -39 78 93 116 133 -134 0
-8378 16 0
-8378 -17 0
-8378 39 0
-8378 -84 0
-8378 -93 0
-8378 -116 0
-8378 -133 0
-8378 134 0
8378 -16 17 -39 84 93 116 133 -134 0
-8379 16 0
-8379 -17 0
-8379 39 0
-8379 -77 0
-8379 -93 0
-8379 -116 0
-8379 -133 0
-8379 134 0
8379 -16 17 -39 77 93 116 133 -134 0
-8380 16 0
-8380 -17 0
-8380 39 0
-8380 -80 0
-8380 -93 0
-8380 -116 0
-8380 -133 0
-8380 134 0
8380 -16 17 -39 80 93 116 133 -134 0
-8381 16 0
-8381 -17 0
-8381 39 0
-8381 -81 0
-8381 -93 0
-8381 -116 0
-8381 -133 0
-8381 134 0
8381 -16 17 -39 81 93 116 133 -134 0
-8382 16 0
-8382 -17 0
-8382 39 0
-8382 -54 0
-8382 -56 0
-8382 -94 0
-8382 -101 0
-8382 -116 0
-8382 -133 0
-8382 134 0
8382 -16 17 -39 54 56 94 101 116 133 -134 0
-8383 16 0
-8383 -17 0
-8383 39 0
-8383 -54 0
-8383 -56 0
-8383 95 0
-8383 -116 0
-8383 -133 0
-8383 134 0
8383 -16 17 -39 54 56 -95 116 133 -134 0
-8384 16 0
-8384 -17 0
-8384 39 0
-8384 -54 0
-8384 -56 0
-8384 -94 0
-8384 -116 0
-8384 -133 0
-8384 134 0
-8384 -140 0
8384 -16 17 -39 54 56 94 116 133 -134 140 0
-8385 16 0
-8385 -17 0
-8385 39 0
-8385 -54 0
-8385 -56 0
-8385 -94 0
-8385 -110 0
-8385 -116 0
-8385 -133 0
-8385 134 0
8385 -16 17 -39 54 56 94 110 116 133 -134 0
-8386 16 0
-8386 -17 0
-8386 39 0
-8386 -54 0
-8386 -56 0
-8386 94 0
-8386 101 0
-8386 -116 0
-8386 -133 0
-8386 134 0
8386 -16 17 -39 54 56 -94 -101 116 133 -134 0
-8387 16 0
-8387 -17 0
-8387 39 0
-8387 -54 0
-8387 -56 0
-8387 94 0
-8387 110 0
-8387 -116 0
-8387 -133 0
-8387 134 0
8387 -16 17 -39 54 56 -94 -110 116 133 -134 0
-8388 16 0
-8388 -17 0
-8388 39 0
-8388 -54 0
-8388 -56 0
-8388 94 0
-8388 -116 0
-8388 -133 0
-8388 134 0
-8388 140 0
8388 -16 17 -39 54 56 -94 116 133 -134 -140 0
-8389 16 0
-8389 -17 0
-8389 39 0
-8389 -55 0
-8389 -56 0
-8389 94 0
-8389 101 0
-8389 -116 0
-8389 -133 0
-8389 134 0
8389 -16 17 -39 55 56 -94 -101 116 133 -134 0
-8390 16 0
-8390 -17 0
-8390 39 0
-8390 -56 0
-8390 64 0
-8390 94 0
-8390 101 0
-8390 -116 0
-8390 -133 0
-8390 134 0
8390 -16 17 -39 56 -64 -94 -101 116 133 -134 0
-8391 16 0
-8391 -17 0
-8391 39 0
-8391 -63 0
-8391 94 0
-8391 101 0
-8391 -116 0
-8391 -133 0
-8391 134 0
8391 -16 17 -39 63 -94 -101 116 133 -134 0
-8392 16 0
-8392 -17 0
-8392 39 0
-8392 94 0
-8392 101 0
-8392 -116 0
-8392 -133 0
-8392 134 0
-8392 -164 0
8392 -16 17 -39 -94 -101 116 133 -134 164 0
-8393 16 0
-8393 -17 0
-8393 39 0
-8393 66 0
-8393 94 0
-8393 101 0
-8393 -116 0
-8393 -133 0
-8393 134 0
8393 -16 17 -39 -66 -94 -101 116 133 -134 0
-8394 16 0
-8394 -17 0
-8394 39 0
-8394 65 0
-8394 94 0
-8394 101 0
-8394 -116 0
-8394 -133 0
-8394 134 0
8394 -16 17 -39 -65 -94 -101 116 133 -134 0
-8395 16 0
-8395 -17 0
-8395 39 0
-8395 -56 0
-8395 -62 0
-8395 94 0
-8395 101 0
-8395 -116 0
-8395 -133 0
-8395 134 0
8395 -16 17 -39 56 62 -94 -101 116 133 -134 0
-8396 16 0
-8396 -17 0
-8396 39 0
-8396 -56 0
-8396 -74 0
-8396 94 0
-8396 101 0
-8396 -116 0
-8396 -133 0
-8396 134 0
8396 -16 17 -39 56 74 -94 -101 116 133 -134 0
-8397 16 0
-8397 -17 0
-8397 39 0
-8397 -56 0
-8397 -67 0
-8397 94 0
-8397 101 0
-8397 -116 0
-8397 -133 0
-8397 134 0
8397 -16 17 -39 56 67 -94 -101 116 133 -134 0
-8398 16 0
-8398 -17 0
-8398 39 0
-8398 -56 0
-8398 -71 0
-8398 94 0
-8398 101 0
-8398 -116 0
-8398 -133 0
-8398 134 0
8398 -16 17 -39 56 71 -94 -101 116 133 -134 0
-8399 16 0
-8399 -17 0
-8399 39 0
-8399 -56 0
-8399 -69 0
-8399 94 0
-8399 101 0
-8399 -116 0
-8399 -133 0
-8399 134 0
8399 -16 17 -39 56 69 -94 -101 116 133 -134 0
-8400 16 0
-8400 -17 0
-8400 39 0
-8400 -56 0
-8400 -75 0
-8400 94 0
-8400 101 0
-8400 -116 0
-8400 -133 0
-8400 134 0
8400 -16 17 -39 56 75 -94 -101 116 133 -134 0
-8401 16 0
-8401 -17 0
-8401 39 0
-8401 -56 0
-8401 -68 0
-8401 94 0
-8401 101 0
-8401 -116 0
-8401 -133 0
-8401 134 0
8401 -16 17 -39 56 68 -94 -101 116 133 -134 0
-8402 16 0
-8402 -17 0
-8402 39 0
-8402 -56 0
-8402 -72 0
-8402 94 0
-8402 101 0
-8402 -116 0
-8402 -133 0
-8402 134 0
8402 -16 17 -39 56 72 -94 -101 116 133 -134 0
-8403 16 0
-8403 -17 0
-8403 39 0
-8403 -56 0
-8403 -70 0
-8403 94 0
-8403 101 0
-8403 -116 0
-8403 -133 0
-8403 134 0
8403 -16 17 -39 56 70 -94 -101 116 133 -134 0
-8404 16 0
-8404 -17 0
-8404 39 0
-8404 -79 0
-8404 94 0
-8404 101 0
-8404 -116 0
-8404 -133 0
-8404 134 0
8404 -16 17 -39 79 -94 -101 116 133 -134 0
-8405 16 0
-8405 -17 0
-8405 39 0
-8405 62 0
-8405 64 0
-8405 95 0
-8405 -116 0
-8405 -133 0
-8405 134 0
8405 -16 17 -39 -62 -64 -95 116 133 -134 0
-8406 16 0
-8406 -17 0
-8406 39 0
-8406 65 0
-8406 95 0
-8406 -116 0
-8406 -133 0
-8406 134 0
8406 -16 17 -39 -65 -95 116 133 -134 0
-8407 16 0
-8407 -17 0
-8407 39 0
-8407 66 0
-8407 95 0
-8407 -116 0
-8407 -133 0
-8407 134 0
8407 -16 17 -39 -66 -95 116 133 -134 0
-8408 16 0
-8408 -17 0
-8408 39 0
-8408 -57 0
-8408 -58 0
-8408 -62 0
-8408 95 0
-8408 -116 0
-8408 -133 0
-8408 134 0
8408 -16 17 -39 57 58 62 -95 116 133 -134 0
-8409 16 0
-8409 -17 0
-8409 39 0
-8409 -61 0
-8409 -62 0
-8409 95 0
-8409 -116 0
-8409 -133 0
-8409 134 0
8409 -16 17 -39 61 62 -95 116 133 -134 0
-8410 16 0
-8410 -17 0
-8410 39 0
-8410 -63 0
-8410 95 0
-8410 -116 0
-8410 -133 0
-8410 134 0
8410 -16 17 -39 63 -95 116 133 -134 0
-8411 16 0
-8411 -17 0
-8411 39 0
-8411 -55 0
-8411 -61 0
-8411 95 0
-8411 -116 0
-8411 -133 0
-8411 134 0
8411 -16 17 -39 55 61 -95 116 133 -134 0
-8412 16 0
-8412 -17 0
-8412 39 0
-8412 -83 0
-8412 94 0
-8412 101 0
-8412 -116 0
-8412 -133 0
-8412 134 0
8412 -16 17 -39 83 -94 -101 116 133 -134 0
-8413 16 0
-8413 -17 0
-8413 39 0
-8413 -76 0
-8413 94 0
-8413 101 0
-8413 -116 0
-8413 -133 0
-8413 134 0
8413 -16 17 -39 76 -94 -101 116 133 -134 0
-8414 16 0
-8414 -17 0
-8414 39 0
-8414 -82 0
-8414 94 0
-8414 101 0
-8414 -116 0
-8414 -133 0
-8414 134 0
8414 -16 17 -39 82 -94 -101 116 133 -134 0
-8415 16 0
-8415 -17 0
-8415 39 0
-8415 -78 0
-8415 94 0
-8415 101 0
-8415 -116 0
-8415 -133 0
-8415 134 0
8415 -16 17 -39 78 -94 -101 116 133 -134 0
-8416 16 0
-8416 -17 0
-8416 39 0
-8416 -84 0
-8416 94 0
-8416 101 0
-8416 -116 0
-8416 -133 0
-8416 134 0
8416 -16 17 -39 84 -94 -101 116 133 -134 0
-8417 16 0
-8417 -17 0
-8417 39 0
-8417 -77 0
-8417 94 0
-8417 101 0
-8417 -116 0
-8417 -133 0
-8417 134 0
8417 -16 17 -39 77 -94 -101 116 133 -134 0
-8418 16 0
-8418 -17 0
-8418 39 0
-8418 -80 0
-8418 94 0
-8418 101 0
-8418 -116 0
-8418 -133 0
-8418 134 0
8418 -16 17 -39 80 -94 -101 116 133 -134 0
-8419 16 0
-8419 -17 0
-8419 39 0
-8419 -81 0
-8419 94 0
-8419 101 0
-8419 -116 0
-8419 -133 0
-8419 134 0
8419 -16 17 -39 81 -94 -101 116 133 -134 0
-8420 16 0
-8420 -17 0
-8420 39 0
-8420 -56 0
-8420 -73 0
-8420 94 0
-8420 101 0
-8420 -116 0
-8420 -133 0
-8420 134 0
8420 -16 17 -39 56 73 -94 -101 116 133 -134 0
-8421 16 0
-8421 -17 0
-8421 39 0
-8421 95 0
-8421 -116 0
-8421 -133 0
-8421 134 0
-8421 -164 0
8421 -16 17 -39 -95 116 133 -134 164 0
-8422 16 0
-8422 -17 0
-8422 39 0
-8422 94 0
-8422 -116 0
-8422 -133 0
-8422 134 0
-8422 140 0
-8422 -164 0
8422 -16 17 -39 -94 116 133 -134 -140 164 0
-8423 16 0
-8423 -17 0
-8423 39 0
-8423 94 0
-8423 110 0
-8423 -116 0
-8423 -133 0
-8423 134 0
-8423 -164 0
8423 -16 17 -39 -94 -110 116 133 -134 164 0
-8424 16 0
-8424 -17 0
-8424 39 0
-8424 -55 0
-8424 -56 0
-8424 94 0
-8424 -116 0
-8424 -133 0
-8424 134 0
-8424 140 0
8424 -16 17 -39 55 56 -94 116 133 -134 -140 0
-8425 16 0
-8425 -17 0
-8425 39 0
-8425 -55 0
-8425 -61 0
-8425 94 0
-8425 -116 0
-8425 -133 0
-8425 134 0
-8425 140 0
8425 -16 17 -39 55 61 -94 116 133 -134 -140 0
-8426 16 0
-8426 -17 0
-8426 39 0
-8426 -55 0
-8426 -61 0
-8426 94 0
-8426 110 0
-8426 -116 0
-8426 -133 0
-8426 134 0
8426 -16 17 -39 55 61 -94 -110 116 133 -134 0
-8427 16 0
-8427 -17 0
-8427 39 0
-8427 -55 0
-8427 -61 0
-8427 -93 0
-8427 -116 0
-8427 -133 0
-8427 134 0
8427 -16 17 -39 55 61 93 116 133 -134 0
-8428 16 0
-8428 -17 0
-8428 39 0
-8428 -55 0
-8428 -61 0
-8428 94 0
-8428 101 0
-8428 -116 0
-8428 -133 0
-8428 134 0
8428 -16 17 -39 55 61 -94 -101 116 133 -134 0
-8429 16 0
-8429 -17 0
-8429 39 0
-8429 -55 0
-8429 -61 0
-8429 -94 0
-8429 -101 0
-8429 -116 0
-8429 -133 0
-8429 134 0
8429 -16 17 -39 55 61 94 101 116 133 -134 0
-8430 16 0
-8430 -17 0
-8430 39 0
-8430 -55 0
-8430 -61 0
-8430 -94 0
-8430 -110 0
-8430 -116 0
-8430 -133 0
-8430 134 0
8430 -16 17 -39 55 61 94 110 116 133 -134 0
-8431 16 0
-8431 -17 0
-8431 39 0
-8431 -55 0
-8431 -61 0
-8431 -94 0
-8431 -116 0
-8431 -133 0
-8431 134 0
-8431 -140 0
8431 -16 17 -39 55 61 94 116 133 -134 140 0
-8432 16 0
-8432 -17 0
-8432 39 0
-8432 -79 0
-8432 -94 0
-8432 -116 0
-8432 -133 0
-8432 134 0
-8432 -140 0
8432 -16 17 -39 79 94 116 133 -134 140 0
-8433 16 0
-8433 -17 0
-8433 39 0
-8433 -83 0
-8433 -94 0
-8433 -116 0
-8433 -133 0
-8433 134 0
-8433 -140 0
8433 -16 17 -39 83 94 116 133 -134 140 0
-8434 16 0
-8434 -17 0
-8434 39 0
-8434 -76 0
-8434 -94 0
-8434 -116 0
-8434 -133 0
-8434 134 0
-8434 -140 0
8434 -16 17 -39 76 94 116 133 -134 140 0
-8435 16 0
-8435 -17 0
-8435 39 0
-8435 -82 0
-8435 -94 0
-8435 -116 0
-8435 -133 0
-8435 134 0
-8435 -140 0
8435 -16 17 -39 82 94 116 133 -134 140 0
-8436 16 0
-8436 -17 0
-8436 39 0
-8436 -78 0
-8436 -94 0
-8436 -116 0
-8436 -133 0
-8436 134 0
-8436 -140 0
8436 -16 17 -39 78 94 116 133 -134 140 0
-8437 16 0
-8437 -17 0
-8437 39 0
-8437 -84 0
-8437 -94 0
-8437 -116 0
-8437 -133 0
-8437 134 0
-8437 -140 0
8437 -16 17 -39 84 94 116 133 -134 140 0
-8438 16 0
-8438 -17 0
-8438 39 0
-8438 -77 0
-8438 -94 0
-8438 -116 0
-8438 -133 0
-8438 134 0
-8438 -140 0
8438 -16 17 -39 77 94 116 133 -134 140 0
-8439 16 0
-8439 -17 0
-8439 39 0
-8439 -80 0
-8439 -94 0
-8439 -116 0
-8439 -133 0
-8439 134 0
-8439 -140 0
8439 -16 17 -39 80 94 116 133 -134 140 0
-8440 16 0
-8440 -17 0
-8440 39 0
-8440 -81 0
-8440 -94 0
-8440 -116 0
-8440 -133 0
-8440 134 0
-8440 -140 0
8440 -16 17 -39 81 94 116 133 -134 140 0
-8441 16 0
-8441 -17 0
-8441 39 0
-8441 -56 0
-8441 -74 0
-8441 -94 0
-8441 -116 0
-8441 -133 0
-8441 134 0
-8441 -140 0
8441 -16 17 -39 56 74 94 116 133 -134 140 0
-8442 16 0
-8442 -17 0
-8442 39 0
-8442 -56 0
-8442 -67 0
-8442 -94 0
-8442 -116 0
-8442 -133 0
-8442 134 0
-8442 -140 0
8442 -16 17 -39 56 67 94 116 133 -134 140 0
-8443 16 0
-8443 -17 0
-8443 39 0
-8443 -56 0
-8443 -71 0
-8443 -94 0
-8443 -116 0
-8443 -133 0
-8443 134 0
-8443 -140 0
8443 -16 17 -39 56 71 94 116 133 -134 140 0
-8444 16 0
-8444 -17 0
-8444 39 0
-8444 -56 0
-8444 -69 0
-8444 -94 0
-8444 -116 0
-8444 -133 0
-8444 134 0
-8444 -140 0
8444 -16 17 -39 56 69 94 116 133 -134 140 0
-8445 16 0
-8445 -17 0
-8445 39 0
-8445 -56 0
-8445 -75 0
-8445 -94 0
-8445 -116 0
-8445 -133 0
-8445 134 0
-8445 -140 0
8445 -16 17 -39 56 75 94 116 133 -134 140 0
-8446 16 0
-8446 -17 0
-8446 39 0
-8446 -56 0
-8446 -68 0
-8446 -94 0
-8446 -116 0
-8446 -133 0
-8446 134 0
-8446 -140 0
8446 -16 17 -39 56 68 94 116 133 -134 140 0
-8447 16 0
-8447 -17 0
-8447 39 0
-8447 -56 0
-8447 -72 0
-8447 -94 0
-8447 -116 0
-8447 -133 0
-8447 134 0
-8447 -140 0
8447 -16 17 -39 56 72 94 116 133 -134 140 0
-8448 16 0
-8448 -17 0
-8448 39 0
-8448 -56 0
-8448 -70 0
-8448 -94 0
-8448 -116 0
-8448 -133 0
-8448 134 0
-8448 -140 0
8448 -16 17 -39 56 70 94 116 133 -134 140 0
-8449 16 0
-8449 -17 0
-8449 39 0
-8449 -56 0
-8449 -73 0
-8449 -94 0
-8449 -116 0
-8449 -133 0
-8449 134 0
-8449 -140 0
8449 -16 17 -39 56 73 94 116 133 -134 140 0
-8450 16 0
-8450 -17 0
-8450 39 0
-8450 -56 0
-8450 64 0
-8450 -94 0
-8450 -116 0
-8450 -133 0
-8450 134 0
-8450 -140 0
8450 -16 17 -39 56 -64 94 116 133 -134 140 0
-8451 16 0
-8451 -17 0
-8451 39 0
-8451 -63 0
-8451 -94 0
-8451 -116 0
-8451 -133 0
-8451 134 0
-8451 -140 0
8451 -16 17 -39 63 94 116 133 -134 140 0
-8452 16 0
-8452 -17 0
-8452 39 0
-8452 66 0
-8452 -94 0
-8452 -116 0
-8452 -133 0
-8452 134 0
-8452 -140 0
8452 -16 17 -39 -66 94 116 133 -134 140 0
-8453 16 0
-8453 -17 0
-8453 39 0
-8453 65 0
-8453 -94 0
-8453 -116 0
-8453 -133 0
-8453 134 0
-8453 -140 0
8453 -16 17 -39 -65 94 116 133 -134 140 0
-8454 16 0
-8454 -17 0
-8454 39 0
-8454 -56 0
-8454 -62 0
-8454 -94 0
-8454 -116 0
-8454 -133 0
-8454 134 0
-8454 -140 0
8454 -16 17 -39 56 62 94 116 133 -134 140 0
-8455 16 0
-8455 -17 0
-8455 39 0
-8455 -94 0
-8455 -116 0
-8455 -133 0
-8455 134 0
-8455 -140 0
-8455 -164 0
8455 -16 17 -39 94 116 133 -134 140 164 0
-8456 16 0
-8456 -17 0
-8456 39 0
-8456 -61 0
-8456 64 0
-8456 -94 0
-8456 -116 0
-8456 -133 0
-8456 134 0
-8456 -140 0
8456 -16 17 -39 61 -64 94 116 133 -134 140 0
-8457 16 0
-8457 -17 0
-8457 39 0
-8457 -61 0
-8457 -62 0
-8457 -94 0
-8457 -116 0
-8457 -133 0
-8457 134 0
-8457 -140 0
8457 -16 17 -39 61 62 94 116 133 -134 140 0
-8458 16 0
-8458 -17 0
-8458 39 0
-8458 -54 0
-8458 -61 0
-8458 -94 0
-8458 -116 0
-8458 -133 0
-8458 134 0
-8458 -140 0
8458 -16 17 -39 54 61 94 116 133 -134 140 0
-8459 16 0
-8459 -17 0
-8459 39 0
-8459 62 0
-8459 64 0
-8459 -94 0
-8459 -116 0
-8459 -133 0
-8459 134 0
-8459 -140 0
8459 -16 17 -39 -62 -64 94 116 133 -134 140 0
-8460 16 0
-8460 -17 0
-8460 39 0
-8460 -57 0
-8460 -58 0
-8460 -62 0
-8460 -94 0
-8460 -116 0
-8460 -133 0
-8460 134 0
-8460 -140 0
8460 -16 17 -39 57 58 62 94 116 133 -134 140 0
-8461 16 0
-8461 -17 0
-8461 39 0
-8461 -57 0
-8461 -58 0
-8461 -62 0
-8461 -94 0
-8461 -110 0
-8461 -116 0
-8461 -133 0
-8461 134 0
8461 -16 17 -39 57 58 62 94 110 116 133 -134 0
-8462 16 0
-8462 -17 0
-8462 39 0
-8462 -57 0
-8462 -58 0
-8462 -62 0
-8462 -93 0
-8462 -116 0
-8462 -133 0
-8462 134 0
8462 -16 17 -39 57 58 62 93 116 133 -134 0
-8463 16 0
-8463 -17 0
-8463 39 0
-8463 -57 0
-8463 -58 0
-8463 -62 0
-8463 -94 0
-8463 -101 0
-8463 -116 0
-8463 -133 0
-8463 134 0
8463 -16 17 -39 57 58 62 94 101 116 133 -134 0
-8464 16 0
-8464 -17 0
-8464 39 0
-8464 -79 0
-8464 -94 0
-8464 -110 0
-8464 -116 0
-8464 -133 0
-8464 134 0
8464 -16 17 -39 79 94 110 116 133 -134 0
-8465 16 0
-8465 -17 0
-8465 39 0
-8465 -83 0
-8465 -94 0
-8465 -110 0
-8465 -116 0
-8465 -133 0
-8465 134 0
8465 -16 17 -39 83 94 110 116 133 -134 0
-8466 16 0
-8466 -17 0
-8466 39 0
-8466 -76 0
-8466 -94 0
-8466 -110 0
-8466 -116 0
-8466 -133 0
-8466 134 0
8466 -16 17 -39 76 94 110 116 133 -134 0
-8467 16 0
-8467 -17 0
-8467 39 0
-8467 -82 0
-8467 -94 0
-8467 -110 0
-8467 -116 0
-8467 -133 0
-8467 134 0
8467 -16 17 -39 82 94 110 116 133 -134 0
-8468 16 0
-8468 -17 0
-8468 39 0
-8468 -78 0
-8468 -94 0
-8468 -110 0
-8468 -116 0
-8468 -133 0
-8468 134 0
8468 -16 17 -39 78 94 110 116 133 -134 0
-8469 16 0
-8469 -17 0
-8469 39 0
-8469 -84 0
-8469 -94 0
-8469 -110 0
-8469 -116 0
-8469 -133 0
-8469 134 0
8469 -16 17 -39 84 94 110 116 133 -134 0
-8470 16 0
-8470 -17 0
-8470 39 0
-8470 -77 0
-8470 -94 0
-8470 -110 0
-8470 -116 0
-8470 -133 0
-8470 134 0
8470 -16 17 -39 77 94 110 116 133 -134 0
-8471 16 0
-8471 -17 0
-8471 39 0
-8471 -80 0
-8471 -94 0
-8471 -110 0
-8471 -116 0
-8471 -133 0
-8471 134 0
8471 -16 17 -39 80 94 110 116 133 -134 0
-8472 16 0
-8472 -17 0
-8472 39 0
-8472 -81 0
-8472 -94 0
-8472 -110 0
-8472 -116 0
-8472 -133 0
-8472 134 0
8472 -16 17 -39 81 94 110 116 133 -134 0
-8473 16 0
-8473 -17 0
-8473 39 0
-8473 -79 0
-8473 -94 0
-8473 -101 0
-8473 -116 0
-8473 -133 0
-8473 134 0
8473 -16 17 -39 79 94 101 116 133 -134 0
-8474 16 0
-8474 -17 0
-8474 39 0
-8474 -79 0
-8474 95 0
-8474 -116 0
-8474 -133 0
-8474 134 0
8474 -16 17 -39 79 -95 116 133 -134 0
-8475 16 0
-8475 -17 0
-8475 39 0
-8475 -79 0
-8475 94 0
-8475 110 0
-8475 -116 0
-8475 -133 0
-8475 134 0
8475 -16 17 -39 79 -94 -110 116 133 -134 0
-8476 16 0
-8476 -17 0
-8476 39 0
-8476 -79 0
-8476 94 0
-8476 -116 0
-8476 -133 0
-8476 134 0
-8476 140 0
8476 -16 17 -39 79 -94 116 133 -134 -140 0
-8477 16 0
-8477 -17 0
-8477 39 0
-8477 -57 0
-8477 -58 0
-8477 -62 0
-8477 94 0
-8477 101 0
-8477 -116 0
-8477 -133 0
-8477 134 0
8477 -16 17 -39 57 58 62 -94 -101 116 133 -134 0
-8478 16 0
-8478 -17 0
-8478 39 0
-8478 -57 0
-8478 -58 0
-8478 64 0
-8478 94 0
-8478 101 0
-8478 -116 0
-8478 -133 0
-8478 134 0
8478 -16 17 -39 57 58 -64 -94 -101 116 133 -134 0
-8479 16 0
-8479 -17 0
-8479 39 0
-8479 62 0
-8479 64 0
-8479 94 0
-8479 101 0
-8479 -116 0
-8479 -133 0
-8479 134 0
8479 -16 17 -39 -62 -64 -94 -101 116 133 -134 0
-8480 16 0
-8480 -17 0
-8480 39 0
-8480 -54 0
-8480 -61 0
-8480 94 0
-8480 101 0
-8480 -116 0
-8480 -133 0
-8480 134 0
8480 -16 17 -39 54 61 -94 -101 116 133 -134 0
-8481 16 0
-8481 -17 0
-8481 39 0
-8481 -61 0
-8481 -62 0
-8481 94 0
-8481 101 0
-8481 -116 0
-8481 -133 0
-8481 134 0
8481 -16 17 -39 61 62 -94 -101 116 133 -134 0
-8482 16 0
-8482 -17 0
-8482 39 0
-8482 -61 0
-8482 -62 0
-8482 94 0
-8482 -116 0
-8482 -133 0
-8482 134 0
-8482 140 0
8482 -16 17 -39 61 62 -94 116 133 -134 -140 0
-8483 16 0
-8483 -17 0
-8483 39 0
-8483 -61 0
-8483 -62 0
-8483 94 0
-8483 110 0
-8483 -116 0
-8483 -133 0
-8483 134 0
8483 -16 17 -39 61 62 -94 -110 116 133 -134 0
-8484 16 0
-8484 -17 0
-8484 39 0
-8484 -61 0
-8484 -62 0
-8484 -93 0
-8484 -116 0
-8484 -133 0
-8484 134 0
8484 -16 17 -39 61 62 93 116 133 -134 0
-8485 16 0
-8485 -17 0
-8485 39 0
-8485 -83 0
-8485 95 0
-8485 -116 0
-8485 -133 0
-8485 134 0
8485 -16 17 -39 83 -95 116 133 -134 0
-8486 16 0
-8486 -17 0
-8486 39 0
-8486 -76 0
-8486 95 0
-8486 -116 0
-8486 -133 0
-8486 134 0
8486 -16 17 -39 76 -95 116 133 -134 0
-8487 16 0
-8487 -17 0
-8487 39 0
-8487 -82 0
-8487 95 0
-8487 -116 0
-8487 -133 0
-8487 134 0
8487 -16 17 -39 82 -95 116 133 -134 0
-8488 16 0
-8488 -17 0
-8488 39 0
-8488 -78 0
-8488 95 0
-8488 -116 0
-8488 -133 0
-8488 134 0
8488 -16 17 -39 78 -95 116 133 -134 0
-8489 16 0
-8489 -17 0
-8489 39 0
-8489 -84 0
-8489 95 0
-8489 -116 0
-8489 -133 0
-8489 134 0
8489 -16 17 -39 84 -95 116 133 -134 0
-8490 16 0
-8490 -17 0
-8490 39 0
-8490 -77 0
-8490 95 0
-8490 -116 0
-8490 -133 0
-8490 134 0
8490 -16 17 -39 77 -95 116 133 -134 0
-8491 16 0
-8491 -17 0
-8491 39 0
-8491 -80 0
-8491 95 0
-8491 -116 0
-8491 -133 0
-8491 134 0
8491 -16 17 -39 80 -95 116 133 -134 0
-8492 16 0
-8492 -17 0
-8492 39 0
-8492 -81 0
-8492 95 0
-8492 -116 0
-8492 -133 0
-8492 134 0
8492 -16 17 -39 81 -95 116 133 -134 0
-8493 16 0
-8493 -17 0
-8493 39 0
-8493 -56 0
-8493 -74 0
-8493 95 0
-8493 -116 0
-8493 -133 0
-8493 134 0
8493 -16 17 -39 56 74 -95 116 133 -134 0
-8494 16 0
-8494 -17 0
-8494 39 0
-8494 -56 0
-8494 -67 0
-8494 95 0
-8494 -116 0
-8494 -133 0
-8494 134 0
8494 -16 17 -39 56 67 -95 116 133 -134 0
-8495 16 0
-8495 -17 0
-8495 39 0
-8495 -56 0
-8495 -71 0
-8495 95 0
-8495 -116 0
-8495 -133 0
-8495 134 0
8495 -16 17 -39 56 71 -95 116 133 -134 0
-8496 16 0
-8496 -17 0
-8496 39 0
-8496 -56 0
-8496 -69 0
-8496 95 0
-8496 -116 0
-8496 -133 0
-8496 134 0
8496 -16 17 -39 56 69 -95 116 133 -134 0
-8497 16 0
-8497 -17 0
-8497 39 0
-8497 -56 0
-8497 -75 0
-8497 95 0
-8497 -116 0
-8497 -133 0
-8497 134 0
8497 -16 17 -39 56 75 -95 116 133 -134 0
-8498 16 0
-8498 -17 0
-8498 39 0
-8498 -56 0
-8498 -68 0
-8498 95 0
-8498 -116 0
-8498 -133 0
-8498 134 0
8498 -16 17 -39 56 68 -95 116 133 -134 0
-8499 16 0
-8499 -17 0
-8499 39 0
-8499 -56 0
-8499 -72 0
-8499 95 0
-8499 -116 0
-8499 -133 0
-8499 134 0
8499 -16 17 -39 56 72 -95 116 133 -134 0
-8500 16 0
-8500 -17 0
-8500 39 0
-8500 -56 0
-8500 -70 0
-8500 95 0
-8500 -116 0
-8500 -133 0
-8500 134 0
8500 -16 17 -39 56 70 -95 116 133 -134 0
-8501 16 0
-8501 -17 0
-8501 39 0
-8501 -56 0
-8501 -73 0
-8501 95 0
-8501 -116 0
-8501 -133 0
-8501 134 0
8501 -16 17 -39 56 73 -95 116 133 -134 0
-8502 16 0
-8502 -17 0
-8502 39 0
-8502 -54 0
-8502 -61 0
-8502 95 0
-8502 -116 0
-8502 -133 0
-8502 134 0
8502 -16 17 -39 54 61 -95 116 133 -134 0
-8503 16 0
-8503 -17 0
-8503 39 0
-8503 -56 0
-8503 -62 0
-8503 95 0
-8503 -116 0
-8503 -133 0
-8503 134 0
8503 -16 17 -39 56 62 -95 116 133 -134 0
-8504 16 0
-8504 -17 0
-8504 39 0
-8504 -56 0
-8504 64 0
-8504 94 0
-8504 -116 0
-8504 -133 0
-8504 134 0
-8504 140 0
8504 -16 17 -39 56 -64 -94 116 133 -134 -140 0
-8505 16 0
-8505 -17 0
-8505 39 0
-8505 -56 0
-8505 64 0
-8505 94 0
-8505 110 0
-8505 -116 0
-8505 -133 0
-8505 134 0
8505 -16 17 -39 56 -64 -94 -110 116 133 -134 0
-8506 16 0
-8506 -17 0
-8506 39 0
-8506 -56 0
-8506 64 0
-8506 -94 0
-8506 -101 0
-8506 -116 0
-8506 -133 0
-8506 134 0
8506 -16 17 -39 56 -64 94 101 116 133 -134 0
-8507 16 0
-8507 -17 0
-8507 39 0
-8507 -56 0
-8507 64 0
-8507 -94 0
-8507 -110 0
-8507 -116 0
-8507 -133 0
-8507 134 0
8507 -16 17 -39 56 -64 94 110 116 133 -134 0
-8508 16 0
-8508 -17 0
-8508 39 0
-8508 62 0
-8508 64 0
-8508 -94 0
-8508 -110 0
-8508 -116 0
-8508 -133 0
-8508 134 0
8508 -16 17 -39 -62 -64 94 110 116 133 -134 0
-8509 16 0
-8509 -17 0
-8509 39 0
-8509 -63 0
-8509 -94 0
-8509 -110 0
-8509 -116 0
-8509 -133 0
-8509 134 0
8509 -16 17 -39 63 94 110 116 133 -134 0
-8510 16 0
-8510 -17 0
-8510 39 0
-8510 66 0
-8510 -94 0
-8510 -110 0
-8510 -116 0
-8510 -133 0
-8510 134 0
8510 -16 17 -39 -66 94 110 116 133 -134 0
-8511 16 0
-8511 -17 0
-8511 39 0
-8511 65 0
-8511 -94 0
-8511 -110 0
-8511 -116 0
-8511 -133 0
-8511 134 0
8511 -16 17 -39 -65 94 110 116 133 -134 0
-8512 16 0
-8512 -17 0
-8512 39 0
-8512 -94 0
-8512 -110 0
-8512 -116 0
-8512 -133 0
-8512 134 0
-8512 -164 0
8512 -16 17 -39 94 110 116 133 -134 164 0
-8513 16 0
-8513 -17 0
-8513 39 0
-8513 -61 0
-8513 -62 0
-8513 -94 0
-8513 -110 0
-8513 -116 0
-8513 -133 0
-8513 134 0
8513 -16 17 -39 61 62 94 110 116 133 -134 0
-8514 16 0
-8514 -17 0
-8514 39 0
-8514 62 0
-8514 64 0
-8514 -93 0
-8514 -116 0
-8514 -133 0
-8514 134 0
8514 -16 17 -39 -62 -64 93 116 133 -134 0
-8515 16 0
-8515 -17 0
-8515 39 0
-8515 62 0
-8515 64 0
-8515 -94 0
-8515 -101 0
-8515 -116 0
-8515 -133 0
-8515 134 0
8515 -16 17 -39 -62 -64 94 101 116 133 -134 0
-8516 16 0
-8516 -17 0
-8516 39 0
-8516 -83 0
-8516 -94 0
-8516 -101 0
-8516 -116 0
-8516 -133 0
-8516 134 0
8516 -16 17 -39 83 94 101 116 133 -134 0
-8517 16 0
-8517 -17 0
-8517 39 0
-8517 -76 0
-8517 -94 0
-8517 -101 0
-8517 -116 0
-8517 -133 0
-8517 134 0
8517 -16 17 -39 76 94 101 116 133 -134 0
-8518 16 0
-8518 -17 0
-8518 39 0
-8518 -82 0
-8518 -94 0
-8518 -101 0
-8518 -116 0
-8518 -133 0
-8518 134 0
8518 -16 17 -39 82 94 101 116 133 -134 0
-8519 16 0
-8519 -17 0
-8519 39 0
-8519 -78 0
-8519 -94 0
-8519 -101 0
-8519 -116 0
-8519 -133 0
-8519 134 0
8519 -16 17 -39 78 94 101 116 133 -134 0
-8520 16 0
-8520 -17 0
-8520 39 0
-8520 -84 0
-8520 -94 0
-8520 -101 0
-8520 -116 0
-8520 -133 0
-8520 134 0
8520 -16 17 -39 84 94 101 116 133 -134 0
-8521 16 0
-8521 -17 0
-8521 39 0
-8521 -77 0
-8521 -94 0
-8521 -101 0
-8521 -116 0
-8521 -133 0
-8521 134 0
8521 -16 17 -39 77 94 101 116 133 -134 0
-8522 16 0
-8522 -17 0
-8522 39 0
-8522 -80 0
-8522 -94 0
-8522 -101 0
-8522 -116 0
-8522 -133 0
-8522 134 0
8522 -16 17 -39 80 94 101 116 133 -134 0
-8523 16 0
-8523 -17 0
-8523 39 0
-8523 -81 0
-8523 -94 0
-8523 -101 0
-8523 -116 0
-8523 -133 0
-8523 134 0
8523 -16 17 -39 81 94 101 116 133 -134 0
-8524 16 0
-8524 -17 0
-8524 39 0
-8524 -63 0
-8524 -94 0
-8524 -101 0
-8524 -116 0
-8524 -133 0
-8524 134 0
8524 -16 17 -39 63 94 101 116 133 -134 0
-8525 16 0
-8525 -17 0
-8525 39 0
-8525 66 0
-8525 -94 0
-8525 -101 0
-8525 -116 0
-8525 -133 0
-8525 134 0
8525 -16 17 -39 -66 94 101 116 133 -134 0
-8526 16 0
-8526 -17 0
-8526 39 0
-8526 65 0
-8526 -94 0
-8526 -101 0
-8526 -116 0
-8526 -133 0
-8526 134 0
8526 -16 17 -39 -65 94 101 116 133 -134 0
-8527 16 0
-8527 -17 0
-8527 39 0
-8527 -94 0
-8527 -101 0
-8527 -116 0
-8527 -133 0
-8527 134 0
-8527 -164 0
8527 -16 17 -39 94 101 116 133 -134 164 0
-8528 16 0
-8528 -17 0
-8528 39 0
-8528 -61 0
-8528 -62 0
-8528 -94 0
-8528 -101 0
-8528 -116 0
-8528 -133 0
-8528 134 0
8528 -16 17 -39 61 62 94 101 116 133 -134 0
-8529 16 0
-8529 -17 0
-8529 39 0
-8529 -54 0
-8529 -61 0
-8529 -93 0
-8529 -116 0
-8529 -133 0
-8529 134 0
8529 -16 17 -39 54 61 93 116 133 -134 0
-8530 16 0
-8530 -17 0
-8530 39 0
-8530 -56 0
-8530 -74 0
-8530 -94 0
-8530 -101 0
-8530 -116 0
-8530 -133 0
-8530 134 0
8530 -16 17 -39 56 74 94 101 116 133 -134 0
-8531 16 0
-8531 -17 0
-8531 39 0
-8531 -56 0
-8531 -74 0
-8531 -94 0
-8531 -110 0
-8531 -116 0
-8531 -133 0
-8531 134 0
8531 -16 17 -39 56 74 94 110 116 133 -134 0
-8532 16 0
-8532 -17 0
-8532 39 0
-8532 -56 0
-8532 -67 0
-8532 -94 0
-8532 -101 0
-8532 -116 0
-8532 -133 0
-8532 134 0
8532 -16 17 -39 56 67 94 101 116 133 -134 0
-8533 16 0
-8533 -17 0
-8533 39 0
-8533 -56 0
-8533 -71 0
-8533 -94 0
-8533 -101 0
-8533 -116 0
-8533 -133 0
-8533 134 0
8533 -16 17 -39 56 71 94 101 116 133 -134 0
-8534 16 0
-8534 -17 0
-8534 39 0
-8534 -56 0
-8534 -69 0
-8534 -94 0
-8534 -101 0
-8534 -116 0
-8534 -133 0
-8534 134 0
8534 -16 17 -39 56 69 94 101 116 133 -134 0
-8535 16 0
-8535 -17 0
-8535 39 0
-8535 -56 0
-8535 -75 0
-8535 -94 0
-8535 -101 0
-8535 -116 0
-8535 -133 0
-8535 134 0
8535 -16 17 -39 56 75 94 101 116 133 -134 0
-8536 16 0
-8536 -17 0
-8536 39 0
-8536 -56 0
-8536 -68 0
-8536 -94 0
-8536 -101 0
-8536 -116 0
-8536 -133 0
-8536 134 0
8536 -16 17 -39 56 68 94 101 116 133 -134 0
-8537 16 0
-8537 -17 0
-8537 39 0
-8537 -56 0
-8537 -72 0
-8537 -94 0
-8537 -101 0
-8537 -116 0
-8537 -133 0
-8537 134 0
8537 -16 17 -39 56 72 94 101 116 133 -134 0
-8538 16 0
-8538 -17 0
-8538 39 0
-8538 -56 0
-8538 -70 0
-8538 -94 0
-8538 -101 0
-8538 -116 0
-8538 -133 0
-8538 134 0
8538 -16 17 -39 56 70 94 101 116 133 -134 0
-8539 16 0
-8539 -17 0
-8539 39 0
-8539 -56 0
-8539 -73 0
-8539 -94 0
-8539 -101 0
-8539 -116 0
-8539 -133 0
-8539 134 0
8539 -16 17 -39 56 73 94 101 116 133 -134 0
-8540 16 0
-8540 -17 0
-8540 39 0
-8540 -56 0
-8540 -67 0
-8540 -94 0
-8540 -110 0
-8540 -116 0
-8540 -133 0
-8540 134 0
8540 -16 17 -39 56 67 94 110 116 133 -134 0
-8541 16 0
-8541 -17 0
-8541 39 0
-8541 -56 0
-8541 -71 0
-8541 -94 0
-8541 -110 0
-8541 -116 0
-8541 -133 0
-8541 134 0
8541 -16 17 -39 56 71 94 110 116 133 -134 0
-8542 16 0
-8542 -17 0
-8542 39 0
-8542 -56 0
-8542 -69 0
-8542 -94 0
-8542 -110 0
-8542 -116 0
-8542 -133 0
-8542 134 0
8542 -16 17 -39 56 69 94 110 116 133 -134 0
-8543 16 0
-8543 -17 0
-8543 39 0
-8543 -56 0
-8543 -75 0
-8543 -94 0
-8543 -110 0
-8543 -116 0
-8543 -133 0
-8543 134 0
8543 -16 17 -39 56 75 94 110 116 133 -134 0
-8544 16 0
-8544 -17 0
-8544 39 0
-8544 -56 0
-8544 -68 0
-8544 -94 0
-8544 -110 0
-8544 -116 0
-8544 -133 0
-8544 134 0
8544 -16 17 -39 56 68 94 110 116 133 -134 0
-8545 16 0
-8545 -17 0
-8545 39 0
-8545 -56 0
-8545 -72 0
-8545 -94 0
-8545 -110 0
-8545 -116 0
-8545 -133 0
-8545 134 0
8545 -16 17 -39 56 72 94 110 116 133 -134 0
-8546 16 0
-8546 -17 0
-8546 39 0
-8546 -56 0
-8546 -70 0
-8546 -94 0
-8546 -110 0
-8546 -116 0
-8546 -133 0
-8546 134 0
8546 -16 17 -39 56 70 94 110 116 133 -134 0
-8547 16 0
-8547 -17 0
-8547 39 0
-8547 -56 0
-8547 -73 0
-8547 -94 0
-8547 -110 0
-8547 -116 0
-8547 -133 0
-8547 134 0
8547 -16 17 -39 56 73 94 110 116 133 -134 0
-8548 16 0
-8548 -17 0
-8548 39 0
-8548 -54 0
-8548 -61 0
-8548 -94 0
-8548 -110 0
-8548 -116 0
-8548 -133 0
-8548 134 0
8548 -16 17 -39 54 61 94 110 116 133 -134 0
-8549 16 0
-8549 -17 0
-8549 39 0
-8549 -54 0
-8549 -61 0
-8549 -94 0
-8549 -101 0
-8549 -116 0
-8549 -133 0
-8549 134 0
8549 -16 17 -39 54 61 94 101 116 133 -134 0
-8550 16 0
-8550 -17 0
-8550 39 0
-8550 -54 0
-8550 -61 0
-8550 94 0
-8550 110 0
-8550 -116 0
-8550 -133 0
-8550 134 0
8550 -16 17 -39 54 61 -94 -110 116 133 -134 0
-8551 16 0
-8551 -17 0
-8551 39 0
-8551 -54 0
-8551 -61 0
-8551 94 0
-8551 -116 0
-8551 -133 0
-8551 134 0
-8551 140 0
8551 -16 17 -39 54 61 -94 116 133 -134 -140 0
-8552 16 0
-8552 -17 0
-8552 39 0
-8552 -83 0
-8552 94 0
-8552 -116 0
-8552 -133 0
-8552 134 0
-8552 140 0
8552 -16 17 -39 83 -94 116 133 -134 -140 0
-8553 16 0
-8553 -17 0
-8553 39 0
-8553 -76 0
-8553 94 0
-8553 -116 0
-8553 -133 0
-8553 134 0
-8553 140 0
8553 -16 17 -39 76 -94 116 133 -134 -140 0
-8554 16 0
-8554 -17 0
-8554 39 0
-8554 -82 0
-8554 94 0
-8554 -116 0
-8554 -133 0
-8554 134 0
-8554 140 0
8554 -16 17 -39 82 -94 116 133 -134 -140 0
-8555 16 0
-8555 -17 0
-8555 39 0
-8555 -78 0
-8555 94 0
-8555 -116 0
-8555 -133 0
-8555 134 0
-8555 140 0
8555 -16 17 -39 78 -94 116 133 -134 -140 0
-8556 16 0
-8556 -17 0
-8556 39 0
-8556 -84 0
-8556 94 0
-8556 -116 0
-8556 -133 0
-8556 134 0
-8556 140 0
8556 -16 17 -39 84 -94 116 133 -134 -140 0
-8557 16 0
-8557 -17 0
-8557 39 0
-8557 -77 0
-8557 94 0
-8557 -116 0
-8557 -133 0
-8557 134 0
-8557 140 0
8557 -16 17 -39 77 -94 116 133 -134 -140 0
-8558 16 0
-8558 -17 0
-8558 39 0
-8558 -80 0
-8558 94 0
-8558 -116 0
-8558 -133 0
-8558 134 0
-8558 140 0
8558 -16 17 -39 80 -94 116 133 -134 -140 0
-8559 16 0
-8559 -17 0
-8559 39 0
-8559 -81 0
-8559 94 0
-8559 -116 0
-8559 -133 0
-8559 134 0
-8559 140 0
8559 -16 17 -39 81 -94 116 133 -134 -140 0
-8560 16 0
-8560 -17 0
-8560 39 0
-8560 -63 0
-8560 94 0
-8560 -116 0
-8560 -133 0
-8560 134 0
-8560 140 0
8560 -16 17 -39 63 -94 116 133 -134 -140 0
-8561 16 0
-8561 -17 0
-8561 39 0
-8561 66 0
-8561 94 0
-8561 -116 0
-8561 -133 0
-8561 134 0
-8561 140 0
8561 -16 17 -39 -66 -94 116 133 -134 -140 0
-8562 16 0
-8562 -17 0
-8562 39 0
-8562 65 0
-8562 94 0
-8562 -116 0
-8562 -133 0
-8562 134 0
-8562 140 0
8562 -16 17 -39 -65 -94 116 133 -134 -140 0
-8563 16 0
-8563 -17 0
-8563 39 0
-8563 -61 0
-8563 64 0
-8563 94 0
-8563 -116 0
-8563 -133 0
-8563 134 0
-8563 140 0
8563 -16 17 -39 61 -64 -94 116 133 -134 -140 0
-8564 16 0
-8564 -17 0
-8564 39 0
-8564 -56 0
-8564 -67 0
-8564 94 0
-8564 -116 0
-8564 -133 0
-8564 134 0
-8564 140 0
8564 -16 17 -39 56 67 -94 116 133 -134 -140 0
-8565 16 0
-8565 -17 0
-8565 39 0
-8565 -56 0
-8565 -71 0
-8565 94 0
-8565 -116 0
-8565 -133 0
-8565 134 0
-8565 140 0
8565 -16 17 -39 56 71 -94 116 133 -134 -140 0
-8566 16 0
-8566 -17 0
-8566 39 0
-8566 -56 0
-8566 -69 0
-8566 94 0
-8566 -116 0
-8566 -133 0
-8566 134 0
-8566 140 0
8566 -16 17 -39 56 69 -94 116 133 -134 -140 0
-8567 16 0
-8567 -17 0
-8567 39 0
-8567 -56 0
-8567 -75 0
-8567 94 0
-8567 -116 0
-8567 -133 0
-8567 134 0
-8567 140 0
8567 -16 17 -39 56 75 -94 116 133 -134 -140 0
-8568 16 0
-8568 -17 0
-8568 39 0
-8568 -56 0
-8568 -68 0
-8568 94 0
-8568 -116 0
-8568 -133 0
-8568 134 0
-8568 140 0
8568 -16 17 -39 56 68 -94 116 133 -134 -140 0
-8569 16 0
-8569 -17 0
-8569 39 0
-8569 -56 0
-8569 -72 0
-8569 94 0
-8569 -116 0
-8569 -133 0
-8569 134 0
-8569 140 0
8569 -16 17 -39 56 72 -94 116 133 -134 -140 0
-8570 16 0
-8570 -17 0
-8570 39 0
-8570 -56 0
-8570 -70 0
-8570 94 0
-8570 -116 0
-8570 -133 0
-8570 134 0
-8570 140 0
8570 -16 17 -39 56 70 -94 116 133 -134 -140 0
-8571 16 0
-8571 -17 0
-8571 39 0
-8571 -56 0
-8571 -73 0
-8571 94 0
-8571 -116 0
-8571 -133 0
-8571 134 0
-8571 140 0
8571 -16 17 -39 56 73 -94 116 133 -134 -140 0
-8572 16 0
-8572 -17 0
-8572 39 0
-8572 -56 0
-8572 -74 0
-8572 94 0
-8572 -116 0
-8572 -133 0
-8572 134 0
-8572 140 0
8572 -16 17 -39 56 74 -94 116 133 -134 -140 0
-8573 16 0
-8573 -17 0
-8573 39 0
-8573 -56 0
-8573 -67 0
-8573 94 0
-8573 110 0
-8573 -116 0
-8573 -133 0
-8573 134 0
8573 -16 17 -39 56 67 -94 -110 116 133 -134 0
-8574 16 0
-8574 -17 0
-8574 39 0
-8574 -56 0
-8574 -71 0
-8574 94 0
-8574 110 0
-8574 -116 0
-8574 -133 0
-8574 134 0
8574 -16 17 -39 56 71 -94 -110 116 133 -134 0
-8575 16 0
-8575 -17 0
-8575 39 0
-8575 -56 0
-8575 -69 0
-8575 94 0
-8575 110 0
-8575 -116 0
-8575 -133 0
-8575 134 0
8575 -16 17 -39 56 69 -94 -110 116 133 -134 0
-8576 16 0
-8576 -17 0
-8576 39 0
-8576 -56 0
-8576 -75 0
-8576 94 0
-8576 110 0
-8576 -116 0
-8576 -133 0
-8576 134 0
8576 -16 17 -39 56 75 -94 -110 116 133 -134 0
-8577 16 0
-8577 -17 0
-8577 39 0
-8577 -56 0
-8577 -68 0
-8577 94 0
-8577 110 0
-8577 -116 0
-8577 -133 0
-8577 134 0
8577 -16 17 -39 56 68 -94 -110 116 133 -134 0
-8578 16 0
-8578 -17 0
-8578 39 0
-8578 -56 0
-8578 -72 0
-8578 94 0
-8578 110 0
-8578 -116 0
-8578 -133 0
-8578 134 0
8578 -16 17 -39 56 72 -94 -110 116 133 -134 0
-8579 16 0
-8579 -17 0
-8579 39 0
-8579 -56 0
-8579 -70 0
-8579 94 0
-8579 110 0
-8579 -116 0
-8579 -133 0
-8579 134 0
8579 -16 17 -39 56 70 -94 -110 116 133 -134 0
-8580 16 0
-8580 -17 0
-8580 39 0
-8580 -56 0
-8580 -73 0
-8580 94 0
-8580 110 0
-8580 -116 0
-8580 -133 0
-8580 134 0
8580 -16 17 -39 56 73 -94 -110 116 133 -134 0
-8581 16 0
-8581 -17 0
-8581 39 0
-8581 -56 0
-8581 -74 0
-8581 94 0
-8581 110 0
-8581 -116 0
-8581 -133 0
-8581 134 0
8581 -16 17 -39 56 74 -94 -110 116 133 -134 0
-8582 16 0
-8582 -17 0
-8582 39 0
-8582 -83 0
-8582 94 0
-8582 110 0
-8582 -116 0
-8582 -133 0
-8582 134 0
8582 -16 17 -39 83 -94 -110 116 133 -134 0
-8583 16 0
-8583 -17 0
-8583 39 0
-8583 -76 0
-8583 94 0
-8583 110 0
-8583 -116 0
-8583 -133 0
-8583 134 0
8583 -16 17 -39 76 -94 -110 116 133 -134 0
-8584 16 0
-8584 -17 0
-8584 39 0
-8584 -82 0
-8584 94 0
-8584 110 0
-8584 -116 0
-8584 -133 0
-8584 134 0
8584 -16 17 -39 82 -94 -110 116 133 -134 0
-8585 16 0
-8585 -17 0
-8585 39 0
-8585 -78 0
-8585 94 0
-8585 110 0
-8585 -116 0
-8585 -133 0
-8585 134 0
8585 -16 17 -39 78 -94 -110 116 133 -134 0
-8586 16 0
-8586 -17 0
-8586 39 0
-8586 -84 0
-8586 94 0
-8586 110 0
-8586 -116 0
-8586 -133 0
-8586 134 0
8586 -16 17 -39 84 -94 -110 116 133 -134 0
-8587 16 0
-8587 -17 0
-8587 39 0
-8587 -77 0
-8587 94 0
-8587 110 0
-8587 -116 0
-8587 -133 0
-8587 134 0
8587 -16 17 -39 77 -94 -110 116 133 -134 0
-8588 16 0
-8588 -17 0
-8588 39 0
-8588 -80 0
-8588 94 0
-8588 110 0
-8588 -116 0
-8588 -133 0
-8588 134 0
8588 -16 17 -39 80 -94 -110 116 133 -134 0
-8589 16 0
-8589 -17 0
-8589 39 0
-8589 -81 0
-8589 94 0
-8589 110 0
-8589 -116 0
-8589 -133 0
-8589 134 0
8589 -16 17 -39 81 -94 -110 116 133 -134 0
-8590 16 0
-8590 -17 0
-8590 39 0
-8590 -63 0
-8590 94 0
-8590 110 0
-8590 -116 0
-8590 -133 0
-8590 134 0
8590 -16 17 -39 63 -94 -110 116 133 -134 0
-8591 16 0
-8591 -17 0
-8591 39 0
-8591 66 0
-8591 94 0
-8591 110 0
-8591 -116 0
-8591 -133 0
-8591 134 0
8591 -16 17 -39 -66 -94 -110 116 133 -134 0
-8592 16 0
-8592 -17 0
-8592 39 0
-8592 65 0
-8592 94 0
-8592 110 0
-8592 -116 0
-8592 -133 0
-8592 134 0
8592 -16 17 -39 -65 -94 -110 116 133 -134 0
-8593 16 0
-8593 -17 0
-8593 39 0
-8593 -61 0
-8593 64 0
-8593 94 0
-8593 110 0
-8593 -116 0
-8593 -133 0
-8593 134 0
8593 -16 17 -39 61 -64 -94 -110 116 133 -134 0
-8594 16 0
-8594 -17 0
-8594 39 0
-8594 62 0
-8594 64 0
-8594 94 0
-8594 110 0
-8594 -116 0
-8594 -133 0
-8594 134 0
8594 -16 17 -39 -62 -64 -94 -110 116 133 -134 0
-8595 16 0
-8595 -17 0
-8595 39 0
-8595 62 0
-8595 64 0
-8595 94 0
-8595 -116 0
-8595 -133 0
-8595 134 0
-8595 140 0
8595 -16 17 -39 -62 -64 -94 116 133 -134 -140 0
-8596 16 0
-8596 -17 0
-8596 39 0
-8596 -57 0
-8596 -58 0
-8596 -62 0
-8596 94 0
-8596 -116 0
-8596 -133 0
-8596 134 0
-8596 140 0
8596 -16 17 -39 57 58 62 -94 116 133 -134 -140 0
-8597 16 0
-8597 -17 0
-8597 39 0
-8597 -57 0
-8597 -58 0
-8597 -62 0
-8597 94 0
-8597 110 0
-8597 -116 0
-8597 -133 0
-8597 134 0
8597 -16 17 -39 57 58 62 -94 -110 116 133 -134 0
-8598 16 0
-8598 -17 0
-8598 39 0
-8598 -57 0
-8598 -58 0
-8598 -62 0
-8598 94 0
-8598 100 0
-8598 110 0
-8598 -116 0
-8598 126 0
-8598 -133 0
8598 -16 17 -39 57 58 62 -94 -100 -110 116 -126 133 0
-8599 16 0
-8599 -17 0
-8599 39 0
-8599 -57 0
-8599 -58 0
-8599 -62 0
-8599 94 0
-8599 100 0
-8599 -116 0
-8599 126 0
-8599 -133 0
-8599 140 0
8599 -16 17 -39 57 58 62 -94 -100 116 -126 133 -140 0
-8600 16 0
-8600 -17 0
-8600 39 0
-8600 -57 0
-8600 -58 0
-8600 -62 0
-8600 -93 0
-8600 100 0
-8600 -116 0
-8600 126 0
-8600 -133 0
8600 -16 17 -39 57 58 62 93 -100 116 -126 133 0
-8601 16 0
-8601 -17 0
-8601 39 0
-8601 -57 0
-8601 -58 0
-8601 -62 0
-8601 -94 0
-8601 100 0
-8601 -101 0
-8601 -116 0
-8601 126 0
-8601 -133 0
8601 -16 17 -39 57 58 62 94 -100 101 116 -126 133 0
-8602 16 0
-8602 -17 0
-8602 39 0
-8602 95 0
-8602 100 0
-8602 -116 0
-8602 126 0
-8602 -133 0
-8602 -164 0
8602 -16 17 -39 -95 -100 116 -126 133 164 0
-8603 16 0
-8603 -17 0
-8603 39 0
-8603 -56 0
-8603 -62 0
-8603 95 0
-8603 100 0
-8603 -116 0
-8603 126 0
-8603 -133 0
8603 -16 17 -39 56 62 -95 -100 116 -126 133 0
-8604 16 0
-8604 -17 0
-8604 39 0
-8604 -83 0
-8604 95 0
-8604 100 0
-8604 -116 0
-8604 126 0
-8604 -133 0
8604 -16 17 -39 83 -95 -100 116 -126 133 0
-8605 16 0
-8605 -17 0
-8605 39 0
-8605 -76 0
-8605 95 0
-8605 100 0
-8605 -116 0
-8605 126 0
-8605 -133 0
8605 -16 17 -39 76 -95 -100 116 -126 133 0
-8606 16 0
-8606 -17 0
-8606 39 0
-8606 -82 0
-8606 95 0
-8606 100 0
-8606 -116 0
-8606 126 0
-8606 -133 0
8606 -16 17 -39 82 -95 -100 116 -126 133 0
-8607 16 0
-8607 -17 0
-8607 39 0
-8607 -78 0
-8607 95 0
-8607 100 0
-8607 -116 0
-8607 126 0
-8607 -133 0
8607 -16 17 -39 78 -95 -100 116 -126 133 0
-8608 16 0
-8608 -17 0
-8608 39 0
-8608 -84 0
-8608 95 0
-8608 100 0
-8608 -116 0
-8608 126 0
-8608 -133 0
8608 -16 17 -39 84 -95 -100 116 -126 133 0
-8609 16 0
-8609 -17 0
-8609 39 0
-8609 -77 0
-8609 95 0
-8609 100 0
-8609 -116 0
-8609 126 0
-8609 -133 0
8609 -16 17 -39 77 -95 -100 116 -126 133 0
-8610 16 0
-8610 -17 0
-8610 39 0
-8610 -80 0
-8610 95 0
-8610 100 0
-8610 -116 0
-8610 126 0
-8610 -133 0
8610 -16 17 -39 80 -95 -100 116 -126 133 0
-8611 16 0
-8611 -17 0
-8611 39 0
-8611 -79 0
-8611 95 0
-8611 100 0
-8611 -116 0
-8611 126 0
-8611 -133 0
8611 -16 17 -39 79 -95 -100 116 -126 133 0
-8612 16 0
-8612 -17 0
-8612 39 0
-8612 -83 0
-8612 -94 0
-8612 100 0
-8612 -101 0
-8612 -116 0
-8612 126 0
-8612 -133 0
8612 -16 17 -39 83 94 -100 101 116 -126 133 0
-8613 16 0
-8613 -17 0
-8613 39 0
-8613 -83 0
-8613 -93 0
-8613 100 0
-8613 -116 0
-8613 126 0
-8613 -133 0
8613 -16 17 -39 83 93 -100 116 -126 133 0
-8614 16 0
-8614 -17 0
-8614 39 0
-8614 -76 0
-8614 -94 0
-8614 100 0
-8614 -101 0
-8614 -116 0
-8614 126 0
-8614 -133 0
8614 -16 17 -39 76 94 -100 101 116 -126 133 0
-8615 16 0
-8615 -17 0
-8615 39 0
-8615 -82 0
-8615 -94 0
-8615 100 0
-8615 -101 0
-8615 -116 0
-8615 126 0
-8615 -133 0
8615 -16 17 -39 82 94 -100 101 116 -126 133 0
-8616 16 0
-8616 -17 0
-8616 39 0
-8616 -78 0
-8616 -94 0
-8616 100 0
-8616 -101 0
-8616 -116 0
-8616 126 0
-8616 -133 0
8616 -16 17 -39 78 94 -100 101 116 -126 133 0
-8617 16 0
-8617 -17 0
-8617 39 0
-8617 -84 0
-8617 -94 0
-8617 100 0
-8617 -101 0
-8617 -116 0
-8617 126 0
-8617 -133 0
8617 -16 17 -39 84 94 -100 101 116 -126 133 0
-8618 16 0
-8618 -17 0
-8618 39 0
-8618 -77 0
-8618 -94 0
-8618 100 0
-8618 -101 0
-8618 -116 0
-8618 126 0
-8618 -133 0
8618 -16 17 -39 77 94 -100 101 116 -126 133 0
-8619 16 0
-8619 -17 0
-8619 39 0
-8619 -80 0
-8619 -94 0
-8619 100 0
-8619 -101 0
-8619 -116 0
-8619 126 0
-8619 -133 0
8619 -16 17 -39 80 94 -100 101 116 -126 133 0
-8620 16 0
-8620 -17 0
-8620 39 0
-8620 -79 0
-8620 -94 0
-8620 100 0
-8620 -101 0
-8620 -116 0
-8620 126 0
-8620 -133 0
8620 -16 17 -39 79 94 -100 101 116 -126 133 0
-8621 16 0
-8621 -17 0
-8621 39 0
-8621 -63 0
-8621 -94 0
-8621 100 0
-8621 -101 0
-8621 -116 0
-8621 126 0
-8621 -133 0
8621 -16 17 -39 63 94 -100 101 116 -126 133 0
-8622 16 0
-8622 -17 0
-8622 39 0
-8622 66 0
-8622 -94 0
-8622 100 0
-8622 -101 0
-8622 -116 0
-8622 126 0
-8622 -133 0
8622 -16 17 -39 -66 94 -100 101 116 -126 133 0
-8623 16 0
-8623 -17 0
-8623 39 0
-8623 65 0
-8623 -94 0
-8623 100 0
-8623 -101 0
-8623 -116 0
-8623 126 0
-8623 -133 0
8623 -16 17 -39 -65 94 -100 101 116 -126 133 0
-8624 16 0
-8624 -17 0
-8624 39 0
-8624 -94 0
-8624 100 0
-8624 -101 0
-8624 -116 0
-8624 126 0
-8624 -133 0
-8624 -164 0
8624 -16 17 -39 94 -100 101 116 -126 133 164 0
-8625 16 0
-8625 -17 0
-8625 39 0
-8625 -56 0
-8625 -62 0
-8625 -94 0
-8625 100 0
-8625 -101 0
-8625 -116 0
-8625 126 0
-8625 -133 0
8625 -16 17 -39 56 62 94 -100 101 116 -126 133 0
-8626 16 0
-8626 -17 0
-8626 39 0
-8626 -57 0
-8626 -58 0
-8626 64 0
-8626 -94 0
-8626 100 0
-8626 -101 0
-8626 -116 0
-8626 126 0
-8626 -133 0
8626 -16 17 -39 57 58 -64 94 -100 101 116 -126 133 0
-8627 16 0
-8627 -17 0
-8627 39 0
-8627 62 0
-8627 64 0
-8627 -94 0
-8627 100 0
-8627 -101 0
-8627 -116 0
-8627 126 0
-8627 -133 0
8627 -16 17 -39 -62 -64 94 -100 101 116 -126 133 0
-8628 16 0
-8628 -17 0
-8628 39 0
-8628 -55 0
-8628 -61 0
-8628 -94 0
-8628 100 0
-8628 -101 0
-8628 -116 0
-8628 126 0
-8628 -133 0
8628 -16 17 -39 55 61 94 -100 101 116 -126 133 0
-8629 16 0
-8629 -17 0
-8629 39 0
-8629 -54 0
-8629 -61 0
-8629 -94 0
-8629 100 0
-8629 -101 0
-8629 -116 0
-8629 126 0
-8629 -133 0
8629 -16 17 -39 54 61 94 -100 101 116 -126 133 0
-8630 16 0
-8630 -17 0
-8630 39 0
-8630 -56 0
-8630 -67 0
-8630 -94 0
-8630 100 0
-8630 -101 0
-8630 -116 0
-8630 126 0
-8630 -133 0
8630 -16 17 -39 56 67 94 -100 101 116 -126 133 0
-8631 16 0
-8631 -17 0
-8631 39 0
-8631 -56 0
-8631 -71 0
-8631 -94 0
-8631 100 0
-8631 -101 0
-8631 -116 0
-8631 126 0
-8631 -133 0
8631 -16 17 -39 56 71 94 -100 101 116 -126 133 0
-8632 16 0
-8632 -17 0
-8632 39 0
-8632 -56 0
-8632 -69 0
-8632 -94 0
-8632 100 0
-8632 -101 0
-8632 -116 0
-8632 126 0
-8632 -133 0
8632 -16 17 -39 56 69 94 -100 101 116 -126 133 0
-8633 16 0
-8633 -17 0
-8633 39 0
-8633 -56 0
-8633 -75 0
-8633 -94 0
-8633 100 0
-8633 -101 0
-8633 -116 0
-8633 126 0
-8633 -133 0
8633 -16 17 -39 56 75 94 -100 101 116 -126 133 0
-8634 16 0
-8634 -17 0
-8634 39 0
-8634 -56 0
-8634 -68 0
-8634 -94 0
-8634 100 0
-8634 -101 0
-8634 -116 0
-8634 126 0
-8634 -133 0
8634 -16 17 -39 56 68 94 -100 101 116 -126 133 0
-8635 16 0
-8635 -17 0
-8635 39 0
-8635 -56 0
-8635 -72 0
-8635 -94 0
-8635 100 0
-8635 -101 0
-8635 -116 0
-8635 126 0
-8635 -133 0
8635 -16 17 -39 56 72 94 -100 101 116 -126 133 0
-8636 16 0
-8636 -17 0
-8636 39 0
-8636 -56 0
-8636 -70 0
-8636 -94 0
-8636 100 0
-8636 -101 0
-8636 -116 0
-8636 126 0
-8636 -133 0
8636 -16 17 -39 56 70 94 -100 101 116 -126 133 0
-8637 16 0
-8637 -17 0
-8637 39 0
-8637 -56 0
-8637 -67 0
-8637 -94 0
-8637 100 0
-8637 -116 0
-8637 126 0
-8637 -133 0
-8637 -140 0
8637 -16 17 -39 56 67 94 -100 116 -126 133 140 0
-8638 16 0
-8638 -17 0
-8638 39 0
-8638 -56 0
-8638 -67 0
-8638 -93 0
-8638 100 0
-8638 -116 0
-8638 126 0
-8638 -133 0
8638 -16 17 -39 56 67 93 -100 116 -126 133 0
-8639 16 0
-8639 -17 0
-8639 39 0
-8639 -56 0
-8639 -67 0
-8639 -94 0
-8639 100 0
-8639 -110 0
-8639 -116 0
-8639 126 0
-8639 -133 0
8639 -16 17 -39 56 67 94 -100 110 116 -126 133 0
-8640 16 0
-8640 -17 0
-8640 39 0
-8640 -56 0
-8640 -67 0
-8640 95 0
-8640 100 0
-8640 -116 0
-8640 126 0
-8640 -133 0
8640 -16 17 -39 56 67 -95 -100 116 -126 133 0
-8641 16 0
-8641 -17 0
-8641 39 0
-8641 -56 0
-8641 -71 0
-8641 -94 0
-8641 100 0
-8641 -116 0
-8641 126 0
-8641 -133 0
-8641 -140 0
8641 -16 17 -39 56 71 94 -100 116 -126 133 140 0
-8642 16 0
-8642 -17 0
-8642 39 0
-8642 -56 0
-8642 -69 0
-8642 -94 0
-8642 100 0
-8642 -116 0
-8642 126 0
-8642 -133 0
-8642 -140 0
8642 -16 17 -39 56 69 94 -100 116 -126 133 140 0
-8643 16 0
-8643 -17 0
-8643 39 0
-8643 -56 0
-8643 -75 0
-8643 -94 0
-8643 100 0
-8643 -116 0
-8643 126 0
-8643 -133 0
-8643 -140 0
8643 -16 17 -39 56 75 94 -100 116 -126 133 140 0
-8644 16 0
-8644 -17 0
-8644 39 0
-8644 -56 0
-8644 -68 0
-8644 -94 0
-8644 100 0
-8644 -116 0
-8644 126 0
-8644 -133 0
-8644 -140 0
8644 -16 17 -39 56 68 94 -100 116 -126 133 140 0
-8645 16 0
-8645 -17 0
-8645 39 0
-8645 -56 0
-8645 -72 0
-8645 -94 0
-8645 100 0
-8645 -116 0
-8645 126 0
-8645 -133 0
-8645 -140 0
8645 -16 17 -39 56 72 94 -100 116 -126 133 140 0
-8646 16 0
-8646 -17 0
-8646 39 0
-8646 -56 0
-8646 -70 0
-8646 -94 0
-8646 100 0
-8646 -116 0
-8646 126 0
-8646 -133 0
-8646 -140 0
8646 -16 17 -39 56 70 94 -100 116 -126 133 140 0
-8647 16 0
-8647 -17 0
-8647 39 0
-8647 -55 0
-8647 -56 0
-8647 -94 0
-8647 100 0
-8647 -116 0
-8647 126 0
-8647 -133 0
-8647 -140 0
8647 -16 17 -39 55 56 94 -100 116 -126 133 140 0
-8648 16 0
-8648 -17 0
-8648 39 0
-8648 -54 0
-8648 -56 0
-8648 -94 0
-8648 100 0
-8648 -116 0
-8648 126 0
-8648 -133 0
-8648 -140 0
8648 -16 17 -39 54 56 94 -100 116 -126 133 140 0
-8649 16 0
-8649 -17 0
-8649 39 0
-8649 -56 0
-8649 64 0
-8649 -94 0
-8649 100 0
-8649 -116 0
-8649 126 0
-8649 -133 0
-8649 -140 0
8649 -16 17 -39 56 -64 94 -100 116 -126 133 140 0
-8650 16 0
-8650 -17 0
-8650 39 0
-8650 -56 0
-8650 64 0
-8650 -93 0
-8650 100 0
-8650 -116 0
-8650 126 0
-8650 -133 0
8650 -16 17 -39 56 -64 93 -100 116 -126 133 0
-8651 16 0
-8651 -17 0
-8651 39 0
-8651 -61 0
-8651 64 0
-8651 -94 0
-8651 100 0
-8651 -116 0
-8651 126 0
-8651 -133 0
-8651 -140 0
8651 -16 17 -39 61 -64 94 -100 116 -126 133 140 0
-8652 16 0
-8652 -17 0
-8652 39 0
-8652 62 0
-8652 64 0
-8652 -94 0
-8652 100 0
-8652 -116 0
-8652 126 0
-8652 -133 0
-8652 -140 0
8652 -16 17 -39 -62 -64 94 -100 116 -126 133 140 0
-8653 16 0
-8653 -17 0
-8653 39 0
-8653 62 0
-8653 64 0
-8653 -93 0
-8653 100 0
-8653 -116 0
-8653 126 0
-8653 -133 0
8653 -16 17 -39 -62 -64 93 -100 116 -126 133 0
-8654 16 0
-8654 -17 0
-8654 39 0
-8654 -76 0
-8654 -93 0
-8654 100 0
-8654 -116 0
-8654 126 0
-8654 -133 0
8654 -16 17 -39 76 93 -100 116 -126 133 0
-8655 16 0
-8655 -17 0
-8655 39 0
-8655 -82 0
-8655 -93 0
-8655 100 0
-8655 -116 0
-8655 126 0
-8655 -133 0
8655 -16 17 -39 82 93 -100 116 -126 133 0
-8656 16 0
-8656 -17 0
-8656 39 0
-8656 -78 0
-8656 -93 0
-8656 100 0
-8656 -116 0
-8656 126 0
-8656 -133 0
8656 -16 17 -39 78 93 -100 116 -126 133 0
-8657 16 0
-8657 -17 0
-8657 39 0
-8657 -84 0
-8657 -93 0
-8657 100 0
-8657 -116 0
-8657 126 0
-8657 -133 0
8657 -16 17 -39 84 93 -100 116 -126 133 0
-8658 16 0
-8658 -17 0
-8658 39 0
-8658 -77 0
-8658 -93 0
-8658 100 0
-8658 -116 0
-8658 126 0
-8658 -133 0
8658 -16 17 -39 77 93 -100 116 -126 133 0
-8659 16 0
-8659 -17 0
-8659 39 0
-8659 -80 0
-8659 -93 0
-8659 100 0
-8659 -116 0
-8659 126 0
-8659 -133 0
8659 -16 17 -39 80 93 -100 116 -126 133 0
-8660 16 0
-8660 -17 0
-8660 39 0
-8660 -79 0
-8660 -93 0
-8660 100 0
-8660 -116 0
-8660 126 0
-8660 -133 0
8660 -16 17 -39 79 93 -100 116 -126 133 0
-8661 16 0
-8661 -17 0
-8661 39 0
-8661 -63 0
-8661 -93 0
-8661 100 0
-8661 -116 0
-8661 126 0
-8661 -133 0
8661 -16 17 -39 63 93 -100 116 -126 133 0
-8662 16 0
-8662 -17 0
-8662 39 0
-8662 66 0
-8662 -93 0
-8662 100 0
-8662 -116 0
-8662 126 0
-8662 -133 0
8662 -16 17 -39 -66 93 -100 116 -126 133 0
-8663 16 0
-8663 -17 0
-8663 39 0
-8663 65 0
-8663 -93 0
-8663 100 0
-8663 -116 0
-8663 126 0
-8663 -133 0
8663 -16 17 -39 -65 93 -100 116 -126 133 0
-8664 16 0
-8664 -17 0
-8664 39 0
-8664 -93 0
-8664 100 0
-8664 -116 0
-8664 126 0
-8664 -133 0
-8664 -164 0
8664 -16 17 -39 93 -100 116 -126 133 164 0
-8665 16 0
-8665 -17 0
-8665 39 0
-8665 -55 0
-8665 -61 0
-8665 -93 0
-8665 100 0
-8665 -116 0
-8665 126 0
-8665 -133 0
8665 -16 17 -39 55 61 93 -100 116 -126 133 0
-8666 16 0
-8666 -17 0
-8666 39 0
-8666 -54 0
-8666 -61 0
-8666 -93 0
-8666 100 0
-8666 -116 0
-8666 126 0
-8666 -133 0
8666 -16 17 -39 54 61 93 -100 116 -126 133 0
-8667 16 0
-8667 -17 0
-8667 39 0
-8667 -56 0
-8667 -71 0
-8667 -93 0
-8667 100 0
-8667 -116 0
-8667 126 0
-8667 -133 0
8667 -16 17 -39 56 71 93 -100 116 -126 133 0
-8668 16 0
-8668 -17 0
-8668 39 0
-8668 -56 0
-8668 -69 0
-8668 -93 0
-8668 100 0
-8668 -116 0
-8668 126 0
-8668 -133 0
8668 -16 17 -39 56 69 93 -100 116 -126 133 0
-8669 16 0
-8669 -17 0
-8669 39 0
-8669 -56 0
-8669 -75 0
-8669 -93 0
-8669 100 0
-8669 -116 0
-8669 126 0
-8669 -133 0
8669 -16 17 -39 56 75 93 -100 116 -126 133 0
-8670 16 0
-8670 -17 0
-8670 39 0
-8670 -56 0
-8670 -68 0
-8670 -93 0
-8670 100 0
-8670 -116 0
-8670 126 0
-8670 -133 0
8670 -16 17 -39 56 68 93 -100 116 -126 133 0
-8671 16 0
-8671 -17 0
-8671 39 0
-8671 -56 0
-8671 -72 0
-8671 -93 0
-8671 100 0
-8671 -116 0
-8671 126 0
-8671 -133 0
8671 -16 17 -39 56 72 93 -100 116 -126 133 0
-8672 16 0
-8672 -17 0
-8672 39 0
-8672 -56 0
-8672 -70 0
-8672 -93 0
-8672 100 0
-8672 -116 0
-8672 126 0
-8672 -133 0
8672 -16 17 -39 56 70 93 -100 116 -126 133 0
-8673 16 0
-8673 -17 0
-8673 39 0
-8673 -56 0
-8673 -71 0
-8673 -94 0
-8673 100 0
-8673 -110 0
-8673 -116 0
-8673 126 0
-8673 -133 0
8673 -16 17 -39 56 71 94 -100 110 116 -126 133 0
-8674 16 0
-8674 -17 0
-8674 39 0
-8674 -56 0
-8674 -71 0
-8674 95 0
-8674 100 0
-8674 -116 0
-8674 126 0
-8674 -133 0
8674 -16 17 -39 56 71 -95 -100 116 -126 133 0
-8675 16 0
-8675 -17 0
-8675 39 0
-8675 -56 0
-8675 -69 0
-8675 -94 0
-8675 100 0
-8675 -110 0
-8675 -116 0
-8675 126 0
-8675 -133 0
8675 -16 17 -39 56 69 94 -100 110 116 -126 133 0
-8676 16 0
-8676 -17 0
-8676 39 0
-8676 -56 0
-8676 -75 0
-8676 -94 0
-8676 100 0
-8676 -110 0
-8676 -116 0
-8676 126 0
-8676 -133 0
8676 -16 17 -39 56 75 94 -100 110 116 -126 133 0
-8677 16 0
-8677 -17 0
-8677 39 0
-8677 -56 0
-8677 -68 0
-8677 -94 0
-8677 100 0
-8677 -110 0
-8677 -116 0
-8677 126 0
-8677 -133 0
8677 -16 17 -39 56 68 94 -100 110 116 -126 133 0
-8678 16 0
-8678 -17 0
-8678 39 0
-8678 -56 0
-8678 -72 0
-8678 -94 0
-8678 100 0
-8678 -110 0
-8678 -116 0
-8678 126 0
-8678 -133 0
8678 -16 17 -39 56 72 94 -100 110 116 -126 133 0
-8679 16 0
-8679 -17 0
-8679 39 0
-8679 -56 0
-8679 -70 0
-8679 -94 0
-8679 100 0
-8679 -110 0
-8679 -116 0
-8679 126 0
-8679 -133 0
8679 -16 17 -39 56 70 94 -100 110 116 -126 133 0
-8680 16 0
-8680 -17 0
-8680 39 0
-8680 -56 0
-8680 -69 0
-8680 95 0
-8680 100 0
-8680 -116 0
-8680 126 0
-8680 -133 0
8680 -16 17 -39 56 69 -95 -100 116 -126 133 0
-8681 16 0
-8681 -17 0
-8681 39 0
-8681 -56 0
-8681 -75 0
-8681 95 0
-8681 100 0
-8681 -116 0
-8681 126 0
-8681 -133 0
8681 -16 17 -39 56 75 -95 -100 116 -126 133 0
-8682 16 0
-8682 -17 0
-8682 39 0
-8682 -56 0
-8682 -68 0
-8682 95 0
-8682 100 0
-8682 -116 0
-8682 126 0
-8682 -133 0
8682 -16 17 -39 56 68 -95 -100 116 -126 133 0
-8683 16 0
-8683 -17 0
-8683 39 0
-8683 -56 0
-8683 -72 0
-8683 95 0
-8683 100 0
-8683 -116 0
-8683 126 0
-8683 -133 0
8683 -16 17 -39 56 72 -95 -100 116 -126 133 0
-8684 16 0
-8684 -17 0
-8684 39 0
-8684 -56 0
-8684 -70 0
-8684 95 0
-8684 100 0
-8684 -116 0
-8684 126 0
-8684 -133 0
8684 -16 17 -39 56 70 -95 -100 116 -126 133 0
-8685 16 0
-8685 -17 0
-8685 39 0
-8685 -54 0
-8685 -56 0
-8685 95 0
-8685 100 0
-8685 -116 0
-8685 126 0
-8685 -133 0
8685 -16 17 -39 54 56 -95 -100 116 -126 133 0
-8686 16 0
-8686 -17 0
-8686 39 0
-8686 -55 0
-8686 -61 0
-8686 -94 0
-8686 100 0
-8686 -116 0
-8686 126 0
-8686 -133 0
-8686 -140 0
8686 -16 17 -39 55 61 94 -100 116 -126 133 140 0
-8687 16 0
-8687 -17 0
-8687 39 0
-8687 -54 0
-8687 -61 0
-8687 -94 0
-8687 100 0
-8687 -116 0
-8687 126 0
-8687 -133 0
-8687 -140 0
8687 -16 17 -39 54 61 94 -100 116 -126 133 140 0
-8688 16 0
-8688 -17 0
-8688 39 0
-8688 -54 0
-8688 -61 0
-8688 95 0
-8688 100 0
-8688 -116 0
-8688 126 0
-8688 -133 0
8688 -16 17 -39 54 61 -95 -100 116 -126 133 0
-8689 16 0
-8689 -17 0
-8689 39 0
-8689 -56 0
-8689 -75 0
-8689 94 0
-8689 100 0
-8689 101 0
-8689 -116 0
-8689 126 0
-8689 -133 0
8689 -16 17 -39 56 75 -94 -100 -101 116 -126 133 0
-8690 16 0
-8690 -17 0
-8690 39 0
-8690 -56 0
-8690 -75 0
-8690 94 0
-8690 100 0
-8690 110 0
-8690 -116 0
-8690 126 0
-8690 -133 0
8690 -16 17 -39 56 75 -94 -100 -110 116 -126 133 0
-8691 16 0
-8691 -17 0
-8691 39 0
-8691 -56 0
-8691 -75 0
-8691 94 0
-8691 100 0
-8691 -116 0
-8691 126 0
-8691 -133 0
-8691 140 0
8691 -16 17 -39 56 75 -94 -100 116 -126 133 -140 0
-8692 16 0
-8692 -17 0
-8692 39 0
-8692 -56 0
-8692 -68 0
-8692 94 0
-8692 100 0
-8692 101 0
-8692 -116 0
-8692 126 0
-8692 -133 0
8692 -16 17 -39 56 68 -94 -100 -101 116 -126 133 0
-8693 16 0
-8693 -17 0
-8693 39 0
-8693 -56 0
-8693 -72 0
-8693 94 0
-8693 100 0
-8693 101 0
-8693 -116 0
-8693 126 0
-8693 -133 0
8693 -16 17 -39 56 72 -94 -100 -101 116 -126 133 0
-8694 16 0
-8694 -17 0
-8694 39 0
-8694 -56 0
-8694 -70 0
-8694 94 0
-8694 100 0
-8694 101 0
-8694 -116 0
-8694 126 0
-8694 -133 0
8694 -16 17 -39 56 70 -94 -100 -101 116 -126 133 0
-8695 16 0
-8695 -17 0
-8695 39 0
-8695 -56 0
-8695 -73 0
-8695 94 0
-8695 100 0
-8695 101 0
-8695 -116 0
-8695 126 0
-8695 -133 0
8695 -16 17 -39 56 73 -94 -100 -101 116 -126 133 0
-8696 16 0
-8696 -17 0
-8696 39 0
-8696 -56 0
-8696 -67 0
-8696 94 0
-8696 100 0
-8696 101 0
-8696 -116 0
-8696 126 0
-8696 -133 0
8696 -16 17 -39 56 67 -94 -100 -101 116 -126 133 0
-8697 16 0
-8697 -17 0
-8697 39 0
-8697 -56 0
-8697 -71 0
-8697 94 0
-8697 100 0
-8697 101 0
-8697 -116 0
-8697 126 0
-8697 -133 0
8697 -16 17 -39 56 71 -94 -100 -101 116 -126 133 0
-8698 16 0
-8698 -17 0
-8698 39 0
-8698 -56 0
-8698 -69 0
-8698 94 0
-8698 100 0
-8698 101 0
-8698 -116 0
-8698 126 0
-8698 -133 0
8698 -16 17 -39 56 69 -94 -100 -101 116 -126 133 0
-8699 16 0
-8699 -17 0
-8699 39 0
-8699 -54 0
-8699 -56 0
-8699 94 0
-8699 100 0
-8699 101 0
-8699 -116 0
-8699 126 0
-8699 -133 0
8699 -16 17 -39 54 56 -94 -100 -101 116 -126 133 0
-8700 16 0
-8700 -17 0
-8700 39 0
-8700 -76 0
-8700 94 0
-8700 100 0
-8700 101 0
-8700 -116 0
-8700 126 0
-8700 -133 0
8700 -16 17 -39 76 -94 -100 -101 116 -126 133 0
-8701 16 0
-8701 -17 0
-8701 39 0
-8701 -82 0
-8701 94 0
-8701 100 0
-8701 101 0
-8701 -116 0
-8701 126 0
-8701 -133 0
8701 -16 17 -39 82 -94 -100 -101 116 -126 133 0
-8702 16 0
-8702 -17 0
-8702 39 0
-8702 -78 0
-8702 94 0
-8702 100 0
-8702 101 0
-8702 -116 0
-8702 126 0
-8702 -133 0
8702 -16 17 -39 78 -94 -100 -101 116 -126 133 0
-8703 16 0
-8703 -17 0
-8703 39 0
-8703 -84 0
-8703 94 0
-8703 100 0
-8703 101 0
-8703 -116 0
-8703 126 0
-8703 -133 0
8703 -16 17 -39 84 -94 -100 -101 116 -126 133 0
-8704 16 0
-8704 -17 0
-8704 39 0
-8704 -77 0
-8704 94 0
-8704 100 0
-8704 101 0
-8704 -116 0
-8704 126 0
-8704 -133 0
8704 -16 17 -39 77 -94 -100 -101 116 -126 133 0
-8705 16 0
-8705 -17 0
-8705 39 0
-8705 -80 0
-8705 94 0
-8705 100 0
-8705 101 0
-8705 -116 0
-8705 126 0
-8705 -133 0
8705 -16 17 -39 80 -94 -100 -101 116 -126 133 0
-8706 16 0
-8706 -17 0
-8706 39 0
-8706 -81 0
-8706 94 0
-8706 100 0
-8706 101 0
-8706 -116 0
-8706 126 0
-8706 -133 0
8706 -16 17 -39 81 -94 -100 -101 116 -126 133 0
-8707 16 0
-8707 -17 0
-8707 39 0
-8707 -79 0
-8707 94 0
-8707 100 0
-8707 101 0
-8707 -116 0
-8707 126 0
-8707 -133 0
8707 -16 17 -39 79 -94 -100 -101 116 -126 133 0
-8708 16 0
-8708 -17 0
-8708 39 0
-8708 -83 0
-8708 94 0
-8708 100 0
-8708 101 0
-8708 -116 0
-8708 126 0
-8708 -133 0
8708 -16 17 -39 83 -94 -100 -101 116 -126 133 0
-8709 16 0
-8709 -17 0
-8709 39 0
-8709 94 0
-8709 100 0
-8709 101 0
-8709 -116 0
-8709 126 0
-8709 -133 0
-8709 -164 0
8709 -16 17 -39 -94 -100 -101 116 -126 133 164 0
-8710 16 0
-8710 -17 0
-8710 39 0
-8710 -56 0
-8710 -62 0
-8710 94 0
-8710 100 0
-8710 101 0
-8710 -116 0
-8710 126 0
-8710 -133 0
8710 -16 17 -39 56 62 -94 -100 -101 116 -126 133 0
-8711 16 0
-8711 -17 0
-8711 39 0
-8711 -54 0
-8711 -57 0
-8711 -58 0
-8711 94 0
-8711 100 0
-8711 101 0
-8711 -116 0
-8711 126 0
-8711 -133 0
8711 -16 17 -39 54 57 58 -94 -100 -101 116 -126 133 0
-8712 16 0
-8712 -17 0
-8712 39 0
-8712 -54 0
-8712 -61 0
-8712 94 0
-8712 100 0
-8712 101 0
-8712 -116 0
-8712 126 0
-8712 -133 0
8712 -16 17 -39 54 61 -94 -100 -101 116 -126 133 0
-8713 16 0
-8713 -17 0
-8713 39 0
-8713 -56 0
-8713 -68 0
-8713 94 0
-8713 100 0
-8713 110 0
-8713 -116 0
-8713 126 0
-8713 -133 0
8713 -16 17 -39 56 68 -94 -100 -110 116 -126 133 0
-8714 16 0
-8714 -17 0
-8714 39 0
-8714 -56 0
-8714 -68 0
-8714 94 0
-8714 100 0
-8714 -116 0
-8714 126 0
-8714 -133 0
-8714 140 0
8714 -16 17 -39 56 68 -94 -100 116 -126 133 -140 0
-8715 16 0
-8715 -17 0
-8715 39 0
-8715 -56 0
-8715 -72 0
-8715 94 0
-8715 100 0
-8715 110 0
-8715 -116 0
-8715 126 0
-8715 -133 0
8715 -16 17 -39 56 72 -94 -100 -110 116 -126 133 0
-8716 16 0
-8716 -17 0
-8716 39 0
-8716 -56 0
-8716 -70 0
-8716 94 0
-8716 100 0
-8716 110 0
-8716 -116 0
-8716 126 0
-8716 -133 0
8716 -16 17 -39 56 70 -94 -100 -110 116 -126 133 0
-8717 16 0
-8717 -17 0
-8717 39 0
-8717 -56 0
-8717 -73 0
-8717 94 0
-8717 100 0
-8717 110 0
-8717 -116 0
-8717 126 0
-8717 -133 0
8717 -16 17 -39 56 73 -94 -100 -110 116 -126 133 0
-8718 16 0
-8718 -17 0
-8718 39 0
-8718 -56 0
-8718 -67 0
-8718 94 0
-8718 100 0
-8718 110 0
-8718 -116 0
-8718 126 0
-8718 -133 0
8718 -16 17 -39 56 67 -94 -100 -110 116 -126 133 0
-8719 16 0
-8719 -17 0
-8719 39 0
-8719 -56 0
-8719 -71 0
-8719 94 0
-8719 100 0
-8719 110 0
-8719 -116 0
-8719 126 0
-8719 -133 0
8719 -16 17 -39 56 71 -94 -100 -110 116 -126 133 0
-8720 16 0
-8720 -17 0
-8720 39 0
-8720 -56 0
-8720 -69 0
-8720 94 0
-8720 100 0
-8720 110 0
-8720 -116 0
-8720 126 0
-8720 -133 0
8720 -16 17 -39 56 69 -94 -100 -110 116 -126 133 0
-8721 16 0
-8721 -17 0
-8721 39 0
-8721 -76 0
-8721 94 0
-8721 100 0
-8721 110 0
-8721 -116 0
-8721 126 0
-8721 -133 0
8721 -16 17 -39 76 -94 -100 -110 116 -126 133 0
-8722 16 0
-8722 -17 0
-8722 39 0
-8722 -82 0
-8722 94 0
-8722 100 0
-8722 110 0
-8722 -116 0
-8722 126 0
-8722 -133 0
8722 -16 17 -39 82 -94 -100 -110 116 -126 133 0
-8723 16 0
-8723 -17 0
-8723 39 0
-8723 -78 0
-8723 94 0
-8723 100 0
-8723 110 0
-8723 -116 0
-8723 126 0
-8723 -133 0
8723 -16 17 -39 78 -94 -100 -110 116 -126 133 0
-8724 16 0
-8724 -17 0
-8724 39 0
-8724 -84 0
-8724 94 0
-8724 100 0
-8724 110 0
-8724 -116 0
-8724 126 0
-8724 -133 0
8724 -16 17 -39 84 -94 -100 -110 116 -126 133 0
-8725 16 0
-8725 -17 0
-8725 39 0
-8725 -77 0
-8725 94 0
-8725 100 0
-8725 110 0
-8725 -116 0
-8725 126 0
-8725 -133 0
8725 -16 17 -39 77 -94 -100 -110 116 -126 133 0
-8726 16 0
-8726 -17 0
-8726 39 0
-8726 -80 0
-8726 94 0
-8726 100 0
-8726 110 0
-8726 -116 0
-8726 126 0
-8726 -133 0
8726 -16 17 -39 80 -94 -100 -110 116 -126 133 0
-8727 16 0
-8727 -17 0
-8727 39 0
-8727 -81 0
-8727 94 0
-8727 100 0
-8727 110 0
-8727 -116 0
-8727 126 0
-8727 -133 0
8727 -16 17 -39 81 -94 -100 -110 116 -126 133 0
-8728 16 0
-8728 -17 0
-8728 39 0
-8728 -79 0
-8728 94 0
-8728 100 0
-8728 110 0
-8728 -116 0
-8728 126 0
-8728 -133 0
8728 -16 17 -39 79 -94 -100 -110 116 -126 133 0
-8729 16 0
-8729 -17 0
-8729 39 0
-8729 -83 0
-8729 94 0
-8729 100 0
-8729 110 0
-8729 -116 0
-8729 126 0
-8729 -133 0
8729 -16 17 -39 83 -94 -100 -110 116 -126 133 0
-8730 16 0
-8730 -17 0
-8730 39 0
-8730 -63 0
-8730 94 0
-8730 100 0
-8730 110 0
-8730 -116 0
-8730 126 0
-8730 -133 0
8730 -16 17 -39 63 -94 -100 -110 116 -126 133 0
-8731 16 0
-8731 -17 0
-8731 39 0
-8731 66 0
-8731 94 0
-8731 100 0
-8731 110 0
-8731 -116 0
-8731 126 0
-8731 -133 0
8731 -16 17 -39 -66 -94 -100 -110 116 -126 133 0
-8732 16 0
-8732 -17 0
-8732 39 0
-8732 65 0
-8732 94 0
-8732 100 0
-8732 110 0
-8732 -116 0
-8732 126 0
-8732 -133 0
8732 -16 17 -39 -65 -94 -100 -110 116 -126 133 0
-8733 16 0
-8733 -17 0
-8733 39 0
-8733 94 0
-8733 100 0
-8733 110 0
-8733 -116 0
-8733 126 0
-8733 -133 0
-8733 -164 0
8733 -16 17 -39 -94 -100 -110 116 -126 133 164 0
-8734 16 0
-8734 -17 0
-8734 39 0
-8734 -54 0
-8734 -56 0
-8734 94 0
-8734 100 0
-8734 110 0
-8734 -116 0
-8734 126 0
-8734 -133 0
8734 -16 17 -39 54 56 -94 -100 -110 116 -126 133 0
-8735 16 0
-8735 -17 0
-8735 39 0
-8735 -55 0
-8735 -56 0
-8735 94 0
-8735 100 0
-8735 110 0
-8735 -116 0
-8735 126 0
-8735 -133 0
8735 -16 17 -39 55 56 -94 -100 -110 116 -126 133 0
-8736 16 0
-8736 -17 0
-8736 39 0
-8736 -56 0
-8736 -62 0
-8736 94 0
-8736 100 0
-8736 110 0
-8736 -116 0
-8736 126 0
-8736 -133 0
8736 -16 17 -39 56 62 -94 -100 -110 116 -126 133 0
-8737 16 0
-8737 -17 0
-8737 39 0
-8737 -56 0
-8737 64 0
-8737 94 0
-8737 100 0
-8737 110 0
-8737 -116 0
-8737 126 0
-8737 -133 0
8737 -16 17 -39 56 -64 -94 -100 -110 116 -126 133 0
-8738 16 0
-8738 -17 0
-8738 39 0
-8738 -56 0
-8738 -72 0
-8738 94 0
-8738 100 0
-8738 -116 0
-8738 126 0
-8738 -133 0
-8738 140 0
8738 -16 17 -39 56 72 -94 -100 116 -126 133 -140 0
-8739 16 0
-8739 -17 0
-8739 39 0
-8739 -56 0
-8739 -70 0
-8739 94 0
-8739 100 0
-8739 -116 0
-8739 126 0
-8739 -133 0
-8739 140 0
8739 -16 17 -39 56 70 -94 -100 116 -126 133 -140 0
-8740 16 0
-8740 -17 0
-8740 39 0
-8740 -56 0
-8740 -73 0
-8740 94 0
-8740 100 0
-8740 -116 0
-8740 126 0
-8740 -133 0
-8740 140 0
8740 -16 17 -39 56 73 -94 -100 116 -126 133 -140 0
-8741 16 0
-8741 -17 0
-8741 39 0
-8741 -56 0
-8741 -74 0
-8741 94 0
-8741 100 0
-8741 -116 0
-8741 126 0
-8741 -133 0
-8741 140 0
8741 -16 17 -39 56 74 -94 -100 116 -126 133 -140 0
-8742 16 0
-8742 -17 0
-8742 39 0
-8742 -56 0
-8742 -67 0
-8742 94 0
-8742 100 0
-8742 -116 0
-8742 126 0
-8742 -133 0
-8742 140 0
8742 -16 17 -39 56 67 -94 -100 116 -126 133 -140 0
-8743 16 0
-8743 -17 0
-8743 39 0
-8743 -56 0
-8743 -71 0
-8743 94 0
-8743 100 0
-8743 -116 0
-8743 126 0
-8743 -133 0
-8743 140 0
8743 -16 17 -39 56 71 -94 -100 116 -126 133 -140 0
-8744 16 0
-8744 -17 0
-8744 39 0
-8744 -56 0
-8744 -69 0
-8744 94 0
-8744 100 0
-8744 -116 0
-8744 126 0
-8744 -133 0
-8744 140 0
8744 -16 17 -39 56 69 -94 -100 116 -126 133 -140 0
-8745 16 0
-8745 -17 0
-8745 39 0
-8745 -76 0
-8745 94 0
-8745 100 0
-8745 -116 0
-8745 126 0
-8745 -133 0
-8745 140 0
8745 -16 17 -39 76 -94 -100 116 -126 133 -140 0
-8746 16 0
-8746 -17 0
-8746 39 0
-8746 -82 0
-8746 94 0
-8746 100 0
-8746 -116 0
-8746 126 0
-8746 -133 0
-8746 140 0
8746 -16 17 -39 82 -94 -100 116 -126 133 -140 0
-8747 16 0
-8747 -17 0
-8747 39 0
-8747 -78 0
-8747 94 0
-8747 100 0
-8747 -116 0
-8747 126 0
-8747 -133 0
-8747 140 0
8747 -16 17 -39 78 -94 -100 116 -126 133 -140 0
-8748 16 0
-8748 -17 0
-8748 39 0
-8748 -84 0
-8748 94 0
-8748 100 0
-8748 -116 0
-8748 126 0
-8748 -133 0
-8748 140 0
8748 -16 17 -39 84 -94 -100 116 -126 133 -140 0
-8749 16 0
-8749 -17 0
-8749 39 0
-8749 -77 0
-8749 94 0
-8749 100 0
-8749 -116 0
-8749 126 0
-8749 -133 0
-8749 140 0
8749 -16 17 -39 77 -94 -100 116 -126 133 -140 0
-8750 16 0
-8750 -17 0
-8750 39 0
-8750 -80 0
-8750 94 0
-8750 100 0
-8750 -116 0
-8750 126 0
-8750 -133 0
-8750 140 0
8750 -16 17 -39 80 -94 -100 116 -126 133 -140 0
-8751 16 0
-8751 -17 0
-8751 39 0
-8751 -81 0
-8751 94 0
-8751 100 0
-8751 -116 0
-8751 126 0
-8751 -133 0
-8751 140 0
8751 -16 17 -39 81 -94 -100 116 -126 133 -140 0
-8752 16 0
-8752 -17 0
-8752 39 0
-8752 -79 0
-8752 94 0
-8752 100 0
-8752 -116 0
-8752 126 0
-8752 -133 0
-8752 140 0
8752 -16 17 -39 79 -94 -100 116 -126 133 -140 0
-8753 16 0
-8753 -17 0
-8753 39 0
-8753 -83 0
-8753 94 0
-8753 100 0
-8753 -116 0
-8753 126 0
-8753 -133 0
-8753 140 0
8753 -16 17 -39 83 -94 -100 116 -126 133 -140 0
-8754 16 0
-8754 -17 0
-8754 39 0
-8754 -63 0
-8754 94 0
-8754 100 0
-8754 -116 0
-8754 126 0
-8754 -133 0
-8754 140 0
8754 -16 17 -39 63 -94 -100 116 -126 133 -140 0
-8755 16 0
-8755 -17 0
-8755 39 0
-8755 66 0
-8755 94 0
-8755 100 0
-8755 -116 0
-8755 126 0
-8755 -133 0
-8755 140 0
8755 -16 17 -39 -66 -94 -100 116 -126 133 -140 0
-8756 16 0
-8756 -17 0
-8756 39 0
-8756 65 0
-8756 94 0
-8756 100 0
-8756 -116 0
-8756 126 0
-8756 -133 0
-8756 140 0
8756 -16 17 -39 -65 -94 -100 116 -126 133 -140 0
-8757 16 0
-8757 -17 0
-8757 39 0
-8757 94 0
-8757 100 0
-8757 -116 0
-8757 126 0
-8757 -133 0
-8757 140 0
-8757 -164 0
8757 -16 17 -39 -94 -100 116 -126 133 -140 164 0
-8758 16 0
-8758 -17 0
-8758 39 0
-8758 -54 0
-8758 -56 0
-8758 94 0
-8758 100 0
-8758 -116 0
-8758 126 0
-8758 -133 0
-8758 140 0
8758 -16 17 -39 54 56 -94 -100 116 -126 133 -140 0
-8759 16 0
-8759 -17 0
-8759 39 0
-8759 -55 0
-8759 -56 0
-8759 94 0
-8759 100 0
-8759 -116 0
-8759 126 0
-8759 -133 0
-8759 140 0
8759 -16 17 -39 55 56 -94 -100 116 -126 133 -140 0
-8760 16 0
-8760 -17 0
-8760 39 0
-8760 -56 0
-8760 -62 0
-8760 94 0
-8760 100 0
-8760 -116 0
-8760 126 0
-8760 -133 0
-8760 140 0
8760 -16 17 -39 56 62 -94 -100 116 -126 133 -140 0
-8761 16 0
-8761 -17 0
-8761 39 0
-8761 -56 0
-8761 64 0
-8761 94 0
-8761 100 0
-8761 -116 0
-8761 126 0
-8761 -133 0
-8761 140 0
8761 -16 17 -39 56 -64 -94 -100 116 -126 133 -140 0
-8762 16 0
-8762 -17 0
-8762 39 0
-8762 -55 0
-8762 -61 0
-8762 94 0
-8762 100 0
-8762 -116 0
-8762 126 0
-8762 -133 0
-8762 140 0
8762 -16 17 -39 55 61 -94 -100 116 -126 133 -140 0
-8763 16 0
-8763 -17 0
-8763 39 0
-8763 -61 0
-8763 -62 0
-8763 94 0
-8763 100 0
-8763 -116 0
-8763 126 0
-8763 -133 0
-8763 140 0
8763 -16 17 -39 61 62 -94 -100 116 -126 133 -140 0
-8764 16 0
-8764 -17 0
-8764 39 0
-8764 62 0
-8764 64 0
-8764 94 0
-8764 100 0
-8764 -116 0
-8764 126 0
-8764 -133 0
-8764 140 0
8764 -16 17 -39 -62 -64 -94 -100 116 -126 133 -140 0
-8765 16 0
-8765 -17 0
-8765 39 0
-8765 -54 0
-8765 -61 0
-8765 94 0
-8765 100 0
-8765 -116 0
-8765 126 0
-8765 -133 0
-8765 140 0
8765 -16 17 -39 54 61 -94 -100 116 -126 133 -140 0
-8766 16 0
-8766 -17 0
-8766 39 0
-8766 -54 0
-8766 -61 0
-8766 94 0
-8766 100 0
-8766 110 0
-8766 -116 0
-8766 126 0
-8766 -133 0
8766 -16 17 -39 54 61 -94 -100 -110 116 -126 133 0
-8767 16 0
-8767 -17 0
-8767 39 0
-8767 -55 0
-8767 -61 0
-8767 94 0
-8767 100 0
-8767 110 0
-8767 -116 0
-8767 126 0
-8767 -133 0
8767 -16 17 -39 55 61 -94 -100 -110 116 -126 133 0
-8768 16 0
-8768 -17 0
-8768 39 0
-8768 -61 0
-8768 64 0
-8768 94 0
-8768 100 0
-8768 110 0
-8768 -116 0
-8768 126 0
-8768 -133 0
8768 -16 17 -39 61 -64 -94 -100 -110 116 -126 133 0
-8769 16 0
-8769 -17 0
-8769 39 0
-8769 -61 0
-8769 -62 0
-8769 94 0
-8769 100 0
-8769 110 0
-8769 -116 0
-8769 126 0
-8769 -133 0
8769 -16 17 -39 61 62 -94 -100 -110 116 -126 133 0
-8770 16 0
-8770 -17 0
-8770 39 0
-8770 62 0
-8770 64 0
-8770 94 0
-8770 100 0
-8770 110 0
-8770 -116 0
-8770 126 0
-8770 -133 0
8770 -16 17 -39 -62 -64 -94 -100 -110 116 -126 133 0
-8771 16 0
-8771 -17 0
-8771 39 0
-8771 62 0
-8771 64 0
-8771 94 0
-8771 110 0
-8771 -116 0
-8771 -122 0
-8771 -133 0
8771 -16 17 -39 -62 -64 -94 -110 116 122 133 0
-8772 16 0
-8772 -17 0
-8772 39 0
-8772 62 0
-8772 64 0
-8772 95 0
-8772 -116 0
-8772 -122 0
-8772 -133 0
8772 -16 17 -39 -62 -64 -95 116 122 133 0
-8773 16 0
-8773 -17 0
-8773 39 0
-8773 62 0
-8773 64 0
-8773 94 0
-8773 -116 0
-8773 -122 0
-8773 -133 0
-8773 140 0
8773 -16 17 -39 -62 -64 -94 116 122 133 -140 0
-8774 16 0
-8774 -17 0
-8774 39 0
-8774 62 0
-8774 64 0
-8774 -94 0
-8774 -101 0
-8774 -116 0
-8774 -122 0
-8774 -133 0
8774 -16 17 -39 -62 -64 94 101 116 122 133 0
-8775 16 0
-8775 -17 0
-8775 39 0
-8775 62 0
-8775 64 0
-8775 -94 0
-8775 -110 0
-8775 -116 0
-8775 -122 0
-8775 -133 0
8775 -16 17 -39 -62 -64 94 110 116 122 133 0
-8776 16 0
-8776 -17 0
-8776 39 0
-8776 62 0
-8776 64 0
-8776 -94 0
-8776 -116 0
-8776 -122 0
-8776 -133 0
-8776 -140 0
8776 -16 17 -39 -62 -64 94 116 122 133 140 0
-8777 16 0
-8777 -17 0
-8777 39 0
-8777 -56 0
-8777 -73 0
-8777 -94 0
-8777 -101 0
-8777 -116 0
-8777 -122 0
-8777 -133 0
8777 -16 17 -39 56 73 94 101 116 122 133 0
-8778 16 0
-8778 -17 0
-8778 39 0
-8778 -56 0
-8778 -74 0
-8778 -94 0
-8778 -101 0
-8778 -116 0
-8778 -122 0
-8778 -133 0
8778 -16 17 -39 56 74 94 101 116 122 133 0
-8779 16 0
-8779 -17 0
-8779 39 0
-8779 -56 0
-8779 -71 0
-8779 -94 0
-8779 -101 0
-8779 -116 0
-8779 -122 0
-8779 -133 0
8779 -16 17 -39 56 71 94 101 116 122 133 0
-8780 16 0
-8780 -17 0
-8780 39 0
-8780 -56 0
-8780 -69 0
-8780 -94 0
-8780 -101 0
-8780 -116 0
-8780 -122 0
-8780 -133 0
8780 -16 17 -39 56 69 94 101 116 122 133 0
-8781 16 0
-8781 -17 0
-8781 39 0
-8781 -56 0
-8781 -75 0
-8781 -94 0
-8781 -101 0
-8781 -116 0
-8781 -122 0
-8781 -133 0
8781 -16 17 -39 56 75 94 101 116 122 133 0
-8782 16 0
-8782 -17 0
-8782 39 0
-8782 -76 0
-8782 -94 0
-8782 -101 0
-8782 -116 0
-8782 -122 0
-8782 -133 0
8782 -16 17 -39 76 94 101 116 122 133 0
-8783 16 0
-8783 -17 0
-8783 39 0
-8783 66 0
-8783 -94 0
-8783 -101 0
-8783 -116 0
-8783 -122 0
-8783 -133 0
8783 -16 17 -39 -66 94 101 116 122 133 0
-8784 16 0
-8784 -17 0
-8784 39 0
-8784 65 0
-8784 -94 0
-8784 -101 0
-8784 -116 0
-8784 -122 0
-8784 -133 0
8784 -16 17 -39 -65 94 101 116 122 133 0
-8785 16 0
-8785 -17 0
-8785 39 0
-8785 -55 0
-8785 -56 0
-8785 -94 0
-8785 -101 0
-8785 -116 0
-8785 -122 0
-8785 -133 0
8785 -16 17 -39 55 56 94 101 116 122 133 0
-8786 16 0
-8786 -17 0
-8786 39 0
-8786 -82 0
-8786 -94 0
-8786 -101 0
-8786 -116 0
-8786 -122 0
-8786 -133 0
8786 -16 17 -39 82 94 101 116 122 133 0
-8787 16 0
-8787 -17 0
-8787 39 0
-8787 -78 0
-8787 -94 0
-8787 -101 0
-8787 -116 0
-8787 -122 0
-8787 -133 0
8787 -16 17 -39 78 94 101 116 122 133 0
-8788 16 0
-8788 -17 0
-8788 39 0
-8788 -84 0
-8788 -94 0
-8788 -101 0
-8788 -116 0
-8788 -122 0
-8788 -133 0
8788 -16 17 -39 84 94 101 116 122 133 0
-8789 16 0
-8789 -17 0
-8789 39 0
-8789 -77 0
-8789 -94 0
-8789 -101 0
-8789 -116 0
-8789 -122 0
-8789 -133 0
8789 -16 17 -39 77 94 101 116 122 133 0
-8790 16 0
-8790 -17 0
-8790 39 0
-8790 -79 0
-8790 -94 0
-8790 -101 0
-8790 -116 0
-8790 -122 0
-8790 -133 0
8790 -16 17 -39 79 94 101 116 122 133 0
-8791 16 0
-8791 -17 0
-8791 39 0
-8791 -81 0
-8791 -94 0
-8791 -101 0
-8791 -116 0
-8791 -122 0
-8791 -133 0
8791 -16 17 -39 81 94 101 116 122 133 0
-8792 16 0
-8792 -17 0
-8792 39 0
-8792 -83 0
-8792 -94 0
-8792 -101 0
-8792 -116 0
-8792 -122 0
-8792 -133 0
8792 -16 17 -39 83 94 101 116 122 133 0
-8793 16 0
-8793 -17 0
-8793 39 0
-8793 -56 0
-8793 -62 0
-8793 -94 0
-8793 -101 0
-8793 -116 0
-8793 -122 0
-8793 -133 0
8793 -16 17 -39 56 62 94 101 116 122 133 0
-8794 16 0
-8794 -17 0
-8794 39 0
-8794 -54 0
-8794 -61 0
-8794 -94 0
-8794 -110 0
-8794 -116 0
-8794 -122 0
-8794 -133 0
8794 -16 17 -39 54 61 94 110 116 122 133 0
-8795 16 0
-8795 -17 0
-8795 39 0
-8795 -54 0
-8795 -61 0
-8795 95 0
-8795 -116 0
-8795 -122 0
-8795 -133 0
8795 -16 17 -39 54 61 -95 116 122 133 0
-8796 16 0
-8796 -17 0
-8796 39 0
-8796 -54 0
-8796 -61 0
-8796 -94 0
-8796 -116 0
-8796 -122 0
-8796 -133 0
-8796 -140 0
8796 -16 17 -39 54 61 94 116 122 133 140 0
-8797 16 0
-8797 -17 0
-8797 39 0
-8797 -55 0
-8797 -61 0
-8797 -94 0
-8797 -110 0
-8797 -116 0
-8797 -122 0
-8797 -133 0
8797 -16 17 -39 55 61 94 110 116 122 133 0
-8798 16 0
-8798 -17 0
-8798 39 0
-8798 -55 0
-8798 -61 0
-8798 95 0
-8798 -116 0
-8798 -122 0
-8798 -133 0
8798 -16 17 -39 55 61 -95 116 122 133 0
-8799 16 0
-8799 -17 0
-8799 39 0
-8799 -55 0
-8799 -61 0
-8799 -94 0
-8799 -116 0
-8799 -122 0
-8799 -133 0
-8799 -140 0
8799 -16 17 -39 55 61 94 116 122 133 140 0
-8800 16 0
-8800 -17 0
-8800 39 0
-8800 -57 0
-8800 -58 0
-8800 -62 0
-8800 -94 0
-8800 -116 0
-8800 -122 0
-8800 -133 0
-8800 -140 0
8800 -16 17 -39 57 58 62 94 116 122 133 140 0
-8801 16 0
-8801 -17 0
-8801 39 0
-8801 -54 0
-8801 -57 0
-8801 -58 0
-8801 94 0
-8801 110 0
-8801 -116 0
-8801 -122 0
-8801 -133 0
8801 -16 17 -39 54 57 58 -94 -110 116 122 133 0
-8802 16 0
-8802 -17 0
-8802 39 0
-8802 -76 0
-8802 94 0
-8802 110 0
-8802 -116 0
-8802 -122 0
-8802 -133 0
8802 -16 17 -39 76 -94 -110 116 122 133 0
-8803 16 0
-8803 -17 0
-8803 39 0
-8803 -82 0
-8803 94 0
-8803 110 0
-8803 -116 0
-8803 -122 0
-8803 -133 0
8803 -16 17 -39 82 -94 -110 116 122 133 0
-8804 16 0
-8804 -17 0
-8804 39 0
-8804 -78 0
-8804 94 0
-8804 110 0
-8804 -116 0
-8804 -122 0
-8804 -133 0
8804 -16 17 -39 78 -94 -110 116 122 133 0
-8805 16 0
-8805 -17 0
-8805 39 0
-8805 -84 0
-8805 94 0
-8805 110 0
-8805 -116 0
-8805 -122 0
-8805 -133 0
8805 -16 17 -39 84 -94 -110 116 122 133 0
-8806 16 0
-8806 -17 0
-8806 39 0
-8806 -77 0
-8806 94 0
-8806 110 0
-8806 -116 0
-8806 -122 0
-8806 -133 0
8806 -16 17 -39 77 -94 -110 116 122 133 0
-8807 16 0
-8807 -17 0
-8807 39 0
-8807 -79 0
-8807 94 0
-8807 110 0
-8807 -116 0
-8807 -122 0
-8807 -133 0
8807 -16 17 -39 79 -94 -110 116 122 133 0
-8808 16 0
-8808 -17 0
-8808 39 0
-8808 -81 0
-8808 94 0
-8808 110 0
-8808 -116 0
-8808 -122 0
-8808 -133 0
8808 -16 17 -39 81 -94 -110 116 122 133 0
-8809 16 0
-8809 -17 0
-8809 39 0
-8809 -83 0
-8809 94 0
-8809 110 0
-8809 -116 0
-8809 -122 0
-8809 -133 0
8809 -16 17 -39 83 -94 -110 116 122 133 0
-8810 16 0
-8810 -17 0
-8810 39 0
-8810 -54 0
-8810 -57 0
-8810 -58 0
-8810 94 0
-8810 -116 0
-8810 -122 0
-8810 -133 0
-8810 140 0
8810 -16 17 -39 54 57 58 -94 116 122 133 -140 0
-8811 16 0
-8811 -17 0
-8811 39 0
-8811 -76 0
-8811 94 0
-8811 -116 0
-8811 -122 0
-8811 -133 0
-8811 140 0
8811 -16 17 -39 76 -94 116 122 133 -140 0
-8812 16 0
-8812 -17 0
-8812 39 0
-8812 -82 0
-8812 94 0
-8812 -116 0
-8812 -122 0
-8812 -133 0
-8812 140 0
8812 -16 17 -39 82 -94 116 122 133 -140 0
-8813 16 0
-8813 -17 0
-8813 39 0
-8813 -78 0
-8813 94 0
-8813 -116 0
-8813 -122 0
-8813 -133 0
-8813 140 0
8813 -16 17 -39 78 -94 116 122 133 -140 0
-8814 16 0
-8814 -17 0
-8814 39 0
-8814 -84 0
-8814 94 0
-8814 -116 0
-8814 -122 0
-8814 -133 0
-8814 140 0
8814 -16 17 -39 84 -94 116 122 133 -140 0
-8815 16 0
-8815 -17 0
-8815 39 0
-8815 -77 0
-8815 94 0
-8815 -116 0
-8815 -122 0
-8815 -133 0
-8815 140 0
8815 -16 17 -39 77 -94 116 122 133 -140 0
-8816 16 0
-8816 -17 0
-8816 39 0
-8816 -79 0
-8816 94 0
-8816 -116 0
-8816 -122 0
-8816 -133 0
-8816 140 0
8816 -16 17 -39 79 -94 116 122 133 -140 0
-8817 16 0
-8817 -17 0
-8817 39 0
-8817 -81 0
-8817 94 0
-8817 -116 0
-8817 -122 0
-8817 -133 0
-8817 140 0
8817 -16 17 -39 81 -94 116 122 133 -140 0
-8818 16 0
-8818 -17 0
-8818 39 0
-8818 -83 0
-8818 94 0
-8818 -116 0
-8818 -122 0
-8818 -133 0
-8818 140 0
8818 -16 17 -39 83 -94 116 122 133 -140 0
-8819 16 0
-8819 -17 0
-8819 39 0
-8819 -63 0
-8819 94 0
-8819 -116 0
-8819 -122 0
-8819 -133 0
-8819 140 0
8819 -16 17 -39 63 -94 116 122 133 -140 0
-8820 16 0
-8820 -17 0
-8820 39 0
-8820 94 0
-8820 -116 0
-8820 -122 0
-8820 -133 0
-8820 140 0
-8820 -164 0
8820 -16 17 -39 -94 116 122 133 -140 164 0
-8821 16 0
-8821 -17 0
-8821 39 0
-8821 66 0
-8821 94 0
-8821 -116 0
-8821 -122 0
-8821 -133 0
-8821 140 0
8821 -16 17 -39 -66 -94 116 122 133 -140 0
-8822 16 0
-8822 -17 0
-8822 39 0
-8822 65 0
-8822 94 0
-8822 -116 0
-8822 -122 0
-8822 -133 0
-8822 140 0
8822 -16 17 -39 -65 -94 116 122 133 -140 0
-8823 16 0
-8823 -17 0
-8823 39 0
-8823 -56 0
-8823 -72 0
-8823 94 0
-8823 -116 0
-8823 -122 0
-8823 -133 0
-8823 140 0
8823 -16 17 -39 56 72 -94 116 122 133 -140 0
-8824 16 0
-8824 -17 0
-8824 39 0
-8824 -56 0
-8824 -70 0
-8824 94 0
-8824 -116 0
-8824 -122 0
-8824 -133 0
-8824 140 0
8824 -16 17 -39 56 70 -94 116 122 133 -140 0
-8825 16 0
-8825 -17 0
-8825 39 0
-8825 -56 0
-8825 -73 0
-8825 94 0
-8825 -116 0
-8825 -122 0
-8825 -133 0
-8825 140 0
8825 -16 17 -39 56 73 -94 116 122 133 -140 0
-8826 16 0
-8826 -17 0
-8826 39 0
-8826 -56 0
-8826 -74 0
-8826 94 0
-8826 -116 0
-8826 -122 0
-8826 -133 0
-8826 140 0
8826 -16 17 -39 56 74 -94 116 122 133 -140 0
-8827 16 0
-8827 -17 0
-8827 39 0
-8827 -56 0
-8827 -67 0
-8827 94 0
-8827 -116 0
-8827 -122 0
-8827 -133 0
-8827 140 0
8827 -16 17 -39 56 67 -94 116 122 133 -140 0
-8828 16 0
-8828 -17 0
-8828 39 0
-8828 -56 0
-8828 -71 0
-8828 94 0
-8828 -116 0
-8828 -122 0
-8828 -133 0
-8828 140 0
8828 -16 17 -39 56 71 -94 116 122 133 -140 0
-8829 16 0
-8829 -17 0
-8829 39 0
-8829 -56 0
-8829 -69 0
-8829 94 0
-8829 -116 0
-8829 -122 0
-8829 -133 0
-8829 140 0
8829 -16 17 -39 56 69 -94 116 122 133 -140 0
-8830 16 0
-8830 -17 0
-8830 39 0
-8830 -56 0
-8830 -75 0
-8830 94 0
-8830 -116 0
-8830 -122 0
-8830 -133 0
-8830 140 0
8830 -16 17 -39 56 75 -94 116 122 133 -140 0
-8831 16 0
-8831 -17 0
-8831 39 0
-8831 -56 0
-8831 -72 0
-8831 94 0
-8831 110 0
-8831 -116 0
-8831 -122 0
-8831 -133 0
8831 -16 17 -39 56 72 -94 -110 116 122 133 0
-8832 16 0
-8832 -17 0
-8832 39 0
-8832 -56 0
-8832 -70 0
-8832 94 0
-8832 110 0
-8832 -116 0
-8832 -122 0
-8832 -133 0
8832 -16 17 -39 56 70 -94 -110 116 122 133 0
-8833 16 0
-8833 -17 0
-8833 39 0
-8833 -56 0
-8833 -73 0
-8833 94 0
-8833 110 0
-8833 -116 0
-8833 -122 0
-8833 -133 0
8833 -16 17 -39 56 73 -94 -110 116 122 133 0
-8834 16 0
-8834 -17 0
-8834 39 0
-8834 -56 0
-8834 -74 0
-8834 94 0
-8834 110 0
-8834 -116 0
-8834 -122 0
-8834 -133 0
8834 -16 17 -39 56 74 -94 -110 116 122 133 0
-8835 16 0
-8835 -17 0
-8835 39 0
-8835 -56 0
-8835 -71 0
-8835 94 0
-8835 110 0
-8835 -116 0
-8835 -122 0
-8835 -133 0
8835 -16 17 -39 56 71 -94 -110 116 122 133 0
-8836 16 0
-8836 -17 0
-8836 39 0
-8836 -56 0
-8836 -69 0
-8836 94 0
-8836 110 0
-8836 -116 0
-8836 -122 0
-8836 -133 0
8836 -16 17 -39 56 69 -94 -110 116 122 133 0
-8837 16 0
-8837 -17 0
-8837 39 0
-8837 -56 0
-8837 -75 0
-8837 94 0
-8837 110 0
-8837 -116 0
-8837 -122 0
-8837 -133 0
8837 -16 17 -39 56 75 -94 -110 116 122 133 0
-8838 16 0
-8838 -17 0
-8838 39 0
-8838 -55 0
-8838 -56 0
-8838 94 0
-8838 110 0
-8838 -116 0
-8838 -122 0
-8838 -133 0
8838 -16 17 -39 55 56 -94 -110 116 122 133 0
-8839 16 0
-8839 -17 0
-8839 39 0
-8839 -56 0
-8839 -62 0
-8839 94 0
-8839 110 0
-8839 -116 0
-8839 -122 0
-8839 -133 0
8839 -16 17 -39 56 62 -94 -110 116 122 133 0
-8840 16 0
-8840 -17 0
-8840 39 0
-8840 -56 0
-8840 -62 0
-8840 94 0
-8840 -116 0
-8840 -122 0
-8840 -133 0
-8840 140 0
8840 -16 17 -39 56 62 -94 116 122 133 -140 0
-8841 16 0
-8841 -17 0
-8841 39 0
-8841 -55 0
-8841 -61 0
-8841 94 0
-8841 110 0
-8841 -116 0
-8841 -122 0
-8841 -133 0
8841 -16 17 -39 55 61 -94 -110 116 122 133 0
-8842 16 0
-8842 -17 0
-8842 39 0
-8842 -54 0
-8842 -61 0
-8842 94 0
-8842 110 0
-8842 -116 0
-8842 -122 0
-8842 -133 0
8842 -16 17 -39 54 61 -94 -110 116 122 133 0
-8843 16 0
-8843 -17 0
-8843 39 0
-8843 -55 0
-8843 -61 0
-8843 94 0
-8843 -116 0
-8843 -122 0
-8843 -133 0
-8843 140 0
8843 -16 17 -39 55 61 -94 116 122 133 -140 0
-8844 16 0
-8844 -17 0
-8844 39 0
-8844 -54 0
-8844 -61 0
-8844 94 0
-8844 -116 0
-8844 -122 0
-8844 -133 0
-8844 140 0
8844 -16 17 -39 54 61 -94 116 122 133 -140 0
-8845 16 0
-8845 -17 0
-8845 39 0
-8845 -63 0
-8845 94 0
-8845 110 0
-8845 -116 0
-8845 -122 0
-8845 -133 0
8845 -16 17 -39 63 -94 -110 116 122 133 0
-8846 16 0
-8846 -17 0
-8846 39 0
-8846 94 0
-8846 110 0
-8846 -116 0
-8846 -122 0
-8846 -133 0
-8846 -164 0
8846 -16 17 -39 -94 -110 116 122 133 164 0
-8847 16 0
-8847 -17 0
-8847 39 0
-8847 66 0
-8847 94 0
-8847 110 0
-8847 -116 0
-8847 -122 0
-8847 -133 0
8847 -16 17 -39 -66 -94 -110 116 122 133 0
-8848 16 0
-8848 -17 0
-8848 39 0
-8848 65 0
-8848 94 0
-8848 110 0
-8848 -116 0
-8848 -122 0
-8848 -133 0
8848 -16 17 -39 -65 -94 -110 116 122 133 0
-8849 16 0
-8849 -19 0
-8849 39 0
-8849 -56 0
-8849 -62 0
-8849 94 0
-8849 -100 0
-8849 101 0
-8849 -116 0
-8849 -126 0
-8849 -133 0
8849 -16 19 -39 56 62 -94 100 -101 116 126 133 0
-8850 16 0
-8850 -19 0
-8850 39 0
-8850 -54 0
-8850 -56 0
-8850 94 0
-8850 -100 0
-8850 110 0
-8850 -116 0
-8850 -126 0
-8850 -133 0
8850 -16 19 -39 54 56 -94 100 -110 116 126 133 0
-8851 16 0
-8851 -19 0
-8851 39 0
-8851 -84 0
-8851 94 0
-8851 -100 0
-8851 101 0
-8851 -116 0
-8851 -126 0
-8851 -133 0
8851 -16 19 -39 84 -94 100 -101 116 126 133 0
-8852 16 0
-8852 -19 0
-8852 39 0
-8852 -77 0
-8852 94 0
-8852 -100 0
-8852 101 0
-8852 -116 0
-8852 -126 0
-8852 -133 0
8852 -16 19 -39 77 -94 100 -101 116 126 133 0
-8853 16 0
-8853 -19 0
-8853 39 0
-8853 -78 0
-8853 94 0
-8853 -100 0
-8853 101 0
-8853 -116 0
-8853 -126 0
-8853 -133 0
8853 -16 19 -39 78 -94 100 -101 116 126 133 0
-8854 16 0
-8854 -19 0
-8854 39 0
-8854 -79 0
-8854 94 0
-8854 -100 0
-8854 101 0
-8854 -116 0
-8854 -126 0
-8854 -133 0
8854 -16 19 -39 79 -94 100 -101 116 126 133 0
-8855 16 0
-8855 -19 0
-8855 39 0
-8855 -81 0
-8855 94 0
-8855 -100 0
-8855 101 0
-8855 -116 0
-8855 -126 0
-8855 -133 0
8855 -16 19 -39 81 -94 100 -101 116 126 133 0
-8856 16 0
-8856 -19 0
-8856 39 0
-8856 94 0
-8856 -100 0
-8856 110 0
-8856 -116 0
-8856 -126 0
-8856 -133 0
-8856 -164 0
8856 -16 19 -39 -94 100 -110 116 126 133 164 0
-8857 16 0
-8857 -19 0
-8857 39 0
-8857 94 0
-8857 -100 0
-8857 101 0
-8857 -116 0
-8857 -126 0
-8857 -133 0
-8857 -164 0
8857 -16 19 -39 -94 100 -101 116 126 133 164 0
-8858 16 0
-8858 -19 0
-8858 39 0
-8858 -56 0
-8858 -62 0
-8858 94 0
-8858 -100 0
-8858 110 0
-8858 -116 0
-8858 -126 0
-8858 -133 0
8858 -16 19 -39 56 62 -94 100 -110 116 126 133 0
-8859 16 0
-8859 17 0
-8859 19 0
-8859 -39 0
-8859 -54 0
-8859 -57 0
-8859 -58 0
-8859 94 0
-8859 101 0
-8859 -116 0
-8859 -133 0
-8859 134 0
8859 -16 -17 -19 39 54 57 58 -94 -101 116 133 -134 0
-8860 16 0
-8860 17 0
-8860 19 0
-8860 -39 0
-8860 -54 0
-8860 -56 0
-8860 -93 0
-8860 -116 0
-8860 -133 0
-8860 134 0
8860 -16 -17 -19 39 54 56 93 116 133 -134 0
-8861 16 0
-8861 17 0
-8861 19 0
-8861 -39 0
-8861 -54 0
-8861 -56 0
-8861 -94 0
-8861 -101 0
-8861 -116 0
-8861 -133 0
-8861 134 0
8861 -16 -17 -19 39 54 56 94 101 116 133 -134 0
-8862 16 0
-8862 17 0
-8862 19 0
-8862 -39 0
-8862 -54 0
-8862 -56 0
-8862 -94 0
-8862 -110 0
-8862 -116 0
-8862 -133 0
-8862 134 0
8862 -16 -17 -19 39 54 56 94 110 116 133 -134 0
-8863 16 0
-8863 17 0
-8863 19 0
-8863 -39 0
-8863 -54 0
-8863 -56 0
-8863 -94 0
-8863 -116 0
-8863 -133 0
-8863 134 0
-8863 -140 0
8863 -16 -17 -19 39 54 56 94 116 133 -134 140 0
-8864 16 0
-8864 17 0
-8864 19 0
-8864 -39 0
-8864 -54 0
-8864 -57 0
-8864 -58 0
-8864 94 0
-8864 101 0
-8864 -116 0
-8864 -122 0
-8864 -133 0
8864 -16 -17 -19 39 54 57 58 -94 -101 116 122 133 0
-8865 16 0
-8865 17 0
-8865 19 0
-8865 -39 0
-8865 -55 0
-8865 -57 0
-8865 -58 0
-8865 94 0
-8865 101 0
-8865 -116 0
-8865 -122 0
-8865 -133 0
8865 -16 -17 -19 39 55 57 58 -94 -101 116 122 133 0
-8866 16 0
-8866 17 0
-8866 19 0
-8866 -39 0
-8866 -54 0
-8866 -61 0
-8866 94 0
-8866 101 0
-8866 -116 0
-8866 -122 0
-8866 -133 0
8866 -16 -17 -19 39 54 61 -94 -101 116 122 133 0
-8867 16 0
-8867 17 0
-8867 19 0
-8867 -39 0
-8867 -55 0
-8867 -61 0
-8867 94 0
-8867 101 0
-8867 -116 0
-8867 -122 0
-8867 -133 0
8867 -16 -17 -19 39 55 61 -94 -101 116 122 133 0
-8868 16 0
-8868 17 0
-8868 19 0
-8868 -39 0
-8868 -54 0
-8868 -57 0
-8868 -58 0
-8868 94 0
-8868 110 0
-8868 -116 0
-8868 -122 0
-8868 -133 0
8868 -16 -17 -19 39 54 57 58 -94 -110 116 122 133 0
-8869 16 0
-8869 17 0
-8869 19 0
-8869 -39 0
-8869 -55 0
-8869 -57 0
-8869 -58 0
-8869 94 0
-8869 110 0
-8869 -116 0
-8869 -122 0
-8869 -133 0
8869 -16 -17 -19 39 55 57 58 -94 -110 116 122 133 0
-8870 16 0
-8870 17 0
-8870 19 0
-8870 -39 0
-8870 -54 0
-8870 -61 0
-8870 94 0
-8870 110 0
-8870 -116 0
-8870 -122 0
-8870 -133 0
8870 -16 -17 -19 39 54 61 -94 -110 116 122 133 0
-8871 16 0
-8871 17 0
-8871 19 0
-8871 -39 0
-8871 -55 0
-8871 -61 0
-8871 94 0
-8871 110 0
-8871 -116 0
-8871 -122 0
-8871 -133 0
8871 -16 -17 -19 39 55 61 -94 -110 116 122 133 0
-8872 16 0
-8872 17 0
-8872 19 0
-8872 -39 0
-8872 62 0
-8872 64 0
-8872 -93 0
-8872 -116 0
-8872 -133 0
-8872 134 0
8872 -16 -17 -19 39 -62 -64 93 116 133 -134 0
-8873 16 0
-8873 17 0
-8873 19 0
-8873 -39 0
-8873 65 0
-8873 -93 0
-8873 -116 0
-8873 -133 0
-8873 134 0
8873 -16 -17 -19 39 -65 93 116 133 -134 0
-8874 16 0
-8874 17 0
-8874 19 0
-8874 -39 0
-8874 66 0
-8874 -93 0
-8874 -116 0
-8874 -133 0
-8874 134 0
8874 -16 -17 -19 39 -66 93 116 133 -134 0
-8875 16 0
-8875 17 0
-8875 19 0
-8875 -39 0
-8875 -57 0
-8875 -58 0
-8875 -62 0
-8875 -93 0
-8875 -116 0
-8875 -133 0
-8875 134 0
8875 -16 -17 -19 39 57 58 62 93 116 133 -134 0
-8876 16 0
-8876 17 0
-8876 19 0
-8876 -39 0
-8876 -63 0
-8876 -93 0
-8876 -116 0
-8876 -133 0
-8876 134 0
8876 -16 -17 -19 39 63 93 116 133 -134 0
-8877 16 0
-8877 17 0
-8877 19 0
-8877 -39 0
-8877 -55 0
-8877 -61 0
-8877 -93 0
-8877 -116 0
-8877 -133 0
-8877 134 0
8877 -16 -17 -19 39 55 61 93 116 133 -134 0
-8878 16 0
-8878 17 0
-8878 19 0
-8878 -39 0
-8878 -57 0
-8878 -58 0
-8878 -62 0
-8878 94 0
-8878 101 0
-8878 -116 0
-8878 -133 0
-8878 134 0
8878 -16 -17 -19 39 57 58 62 -94 -101 116 133 -134 0
-8879 16 0
-8879 17 0
-8879 19 0
-8879 -39 0
-8879 -57 0
-8879 -58 0
-8879 -62 0
-8879 94 0
-8879 101 0
-8879 -116 0
-8879 -122 0
-8879 -133 0
8879 -16 -17 -19 39 57 58 62 -94 -101 116 122 133 0
-8880 16 0
-8880 17 0
-8880 19 0
-8880 -39 0
-8880 -63 0
-8880 94 0
-8880 101 0
-8880 -116 0
-8880 -133 0
-8880 134 0
8880 -16 -17 -19 39 63 -94 -101 116 133 -134 0
-8881 16 0
-8881 17 0
-8881 19 0
-8881 -39 0
-8881 -63 0
-8881 94 0
-8881 101 0
-8881 -116 0
-8881 -122 0
-8881 -133 0
8881 -16 -17 -19 39 63 -94 -101 116 122 133 0
-8882 16 0
-8882 17 0
-8882 19 0
-8882 -39 0
-8882 -80 0
-8882 94 0
-8882 101 0
-8882 -116 0
-8882 -133 0
-8882 134 0
8882 -16 -17 -19 39 80 -94 -101 116 133 -134 0
-8883 16 0
-8883 17 0
-8883 19 0
-8883 -39 0
-8883 -76 0
-8883 94 0
-8883 101 0
-8883 -116 0
-8883 -133 0
-8883 134 0
8883 -16 -17 -19 39 76 -94 -101 116 133 -134 0
-8884 16 0
-8884 17 0
-8884 19 0
-8884 -39 0
-8884 -82 0
-8884 94 0
-8884 101 0
-8884 -116 0
-8884 -133 0
-8884 134 0
8884 -16 -17 -19 39 82 -94 -101 116 133 -134 0
-8885 16 0
-8885 17 0
-8885 19 0
-8885 -39 0
-8885 -78 0
-8885 94 0
-8885 101 0
-8885 -116 0
-8885 -133 0
-8885 134 0
8885 -16 -17 -19 39 78 -94 -101 116 133 -134 0
-8886 16 0
-8886 17 0
-8886 19 0
-8886 -39 0
-8886 -84 0
-8886 94 0
-8886 101 0
-8886 -116 0
-8886 -133 0
-8886 134 0
8886 -16 -17 -19 39 84 -94 -101 116 133 -134 0
-8887 16 0
-8887 17 0
-8887 19 0
-8887 -39 0
-8887 -77 0
-8887 94 0
-8887 101 0
-8887 -116 0
-8887 -133 0
-8887 134 0
8887 -16 -17 -19 39 77 -94 -101 116 133 -134 0
-8888 16 0
-8888 17 0
-8888 19 0
-8888 -39 0
-8888 -79 0
-8888 94 0
-8888 101 0
-8888 -116 0
-8888 -133 0
-8888 134 0
8888 -16 -17 -19 39 79 -94 -101 116 133 -134 0
-8889 16 0
-8889 17 0
-8889 19 0
-8889 -39 0
-8889 -81 0
-8889 94 0
-8889 101 0
-8889 -116 0
-8889 -133 0
-8889 134 0
8889 -16 -17 -19 39 81 -94 -101 116 133 -134 0
-8890 16 0
-8890 17 0
-8890 19 0
-8890 -39 0
-8890 -83 0
-8890 94 0
-8890 101 0
-8890 -116 0
-8890 -133 0
-8890 134 0
8890 -16 -17 -19 39 83 -94 -101 116 133 -134 0
-8891 16 0
-8891 17 0
-8891 19 0
-8891 -39 0
-8891 -56 0
-8891 -62 0
-8891 94 0
-8891 101 0
-8891 -116 0
-8891 -133 0
-8891 134 0
8891 -16 -17 -19 39 56 62 -94 -101 116 133 -134 0
-8892 16 0
-8892 17 0
-8892 19 0
-8892 -39 0
-8892 66 0
-8892 94 0
-8892 101 0
-8892 -116 0
-8892 -133 0
-8892 134 0
8892 -16 -17 -19 39 -66 -94 -101 116 133 -134 0
-8893 16 0
-8893 17 0
-8893 19 0
-8893 -39 0
-8893 65 0
-8893 94 0
-8893 101 0
-8893 -116 0
-8893 -133 0
-8893 134 0
8893 -16 -17 -19 39 -65 -94 -101 116 133 -134 0
-8894 16 0
-8894 17 0
-8894 19 0
-8894 -39 0
-8894 94 0
-8894 101 0
-8894 -116 0
-8894 -133 0
-8894 134 0
-8894 -164 0
8894 -16 -17 -19 39 -94 -101 116 133 -134 164 0
-8895 16 0
-8895 17 0
-8895 19 0
-8895 -39 0
-8895 -55 0
-8895 -61 0
-8895 94 0
-8895 101 0
-8895 -116 0
-8895 -133 0
-8895 134 0
8895 -16 -17 -19 39 55 61 -94 -101 116 133 -134 0
-8896 16 0
-8896 17 0
-8896 19 0
-8896 -39 0
-8896 -54 0
-8896 -61 0
-8896 94 0
-8896 101 0
-8896 -116 0
-8896 -133 0
-8896 134 0
8896 -16 -17 -19 39 54 61 -94 -101 116 133 -134 0
-8897 16 0
-8897 17 0
-8897 19 0
-8897 -39 0
-8897 -56 0
-8897 -72 0
-8897 94 0
-8897 101 0
-8897 -116 0
-8897 -133 0
-8897 134 0
8897 -16 -17 -19 39 56 72 -94 -101 116 133 -134 0
-8898 16 0
-8898 17 0
-8898 19 0
-8898 -39 0
-8898 -56 0
-8898 -70 0
-8898 94 0
-8898 101 0
-8898 -116 0
-8898 -133 0
-8898 134 0
8898 -16 -17 -19 39 56 70 -94 -101 116 133 -134 0
-8899 16 0
-8899 17 0
-8899 19 0
-8899 -39 0
-8899 -56 0
-8899 -73 0
-8899 94 0
-8899 101 0
-8899 -116 0
-8899 -133 0
-8899 134 0
8899 -16 -17 -19 39 56 73 -94 -101 116 133 -134 0
-8900 16 0
-8900 17 0
-8900 19 0
-8900 -39 0
-8900 -56 0
-8900 -74 0
-8900 94 0
-8900 101 0
-8900 -116 0
-8900 -133 0
-8900 134 0
8900 -16 -17 -19 39 56 74 -94 -101 116 133 -134 0
-8901 16 0
-8901 17 0
-8901 19 0
-8901 -39 0
-8901 -56 0
-8901 -67 0
-8901 94 0
-8901 101 0
-8901 -116 0
-8901 -133 0
-8901 134 0
8901 -16 -17 -19 39 56 67 -94 -101 116 133 -134 0
-8902 16 0
-8902 17 0
-8902 19 0
-8902 -39 0
-8902 -56 0
-8902 -71 0
-8902 94 0
-8902 101 0
-8902 -116 0
-8902 -133 0
-8902 134 0
8902 -16 -17 -19 39 56 71 -94 -101 116 133 -134 0
-8903 16 0
-8903 17 0
-8903 19 0
-8903 -39 0
-8903 -56 0
-8903 -69 0
-8903 94 0
-8903 101 0
-8903 -116 0
-8903 -133 0
-8903 134 0
8903 -16 -17 -19 39 56 69 -94 -101 116 133 -134 0
-8904 16 0
-8904 17 0
-8904 19 0
-8904 -39 0
-8904 -56 0
-8904 -68 0
-8904 94 0
-8904 101 0
-8904 -116 0
-8904 -133 0
-8904 134 0
8904 -16 -17 -19 39 56 68 -94 -101 116 133 -134 0
-8905 16 0
-8905 17 0
-8905 19 0
-8905 -39 0
-8905 -56 0
-8905 -72 0
-8905 94 0
-8905 101 0
-8905 -116 0
-8905 -122 0
-8905 -133 0
8905 -16 -17 -19 39 56 72 -94 -101 116 122 133 0
-8906 16 0
-8906 17 0
-8906 19 0
-8906 -39 0
-8906 -56 0
-8906 -70 0
-8906 94 0
-8906 101 0
-8906 -116 0
-8906 -122 0
-8906 -133 0
8906 -16 -17 -19 39 56 70 -94 -101 116 122 133 0
-8907 16 0
-8907 17 0
-8907 19 0
-8907 -39 0
-8907 -56 0
-8907 -73 0
-8907 94 0
-8907 101 0
-8907 -116 0
-8907 -122 0
-8907 -133 0
8907 -16 -17 -19 39 56 73 -94 -101 116 122 133 0
-8908 16 0
-8908 17 0
-8908 19 0
-8908 -39 0
-8908 -56 0
-8908 -74 0
-8908 94 0
-8908 101 0
-8908 -116 0
-8908 -122 0
-8908 -133 0
8908 -16 -17 -19 39 56 74 -94 -101 116 122 133 0
-8909 16 0
-8909 17 0
-8909 19 0
-8909 -39 0
-8909 -56 0
-8909 -67 0
-8909 94 0
-8909 101 0
-8909 -116 0
-8909 -122 0
-8909 -133 0
8909 -16 -17 -19 39 56 67 -94 -101 116 122 133 0
-8910 16 0
-8910 17 0
-8910 19 0
-8910 -39 0
-8910 -56 0
-8910 -71 0
-8910 94 0
-8910 101 0
-8910 -116 0
-8910 -122 0
-8910 -133 0
8910 -16 -17 -19 39 56 71 -94 -101 116 122 133 0
-8911 16 0
-8911 17 0
-8911 19 0
-8911 -39 0
-8911 -56 0
-8911 -69 0
-8911 94 0
-8911 101 0
-8911 -116 0
-8911 -122 0
-8911 -133 0
8911 -16 -17 -19 39 56 69 -94 -101 116 122 133 0
-8912 16 0
-8912 17 0
-8912 19 0
-8912 -39 0
-8912 -56 0
-8912 -68 0
-8912 94 0
-8912 101 0
-8912 -116 0
-8912 -122 0
-8912 -133 0
8912 -16 -17 -19 39 56 68 -94 -101 116 122 133 0
-8913 16 0
-8913 17 0
-8913 19 0
-8913 -39 0
-8913 -80 0
-8913 94 0
-8913 101 0
-8913 -116 0
-8913 -122 0
-8913 -133 0
8913 -16 -17 -19 39 80 -94 -101 116 122 133 0
-8914 16 0
-8914 17 0
-8914 19 0
-8914 -39 0
-8914 -76 0
-8914 94 0
-8914 101 0
-8914 -116 0
-8914 -122 0
-8914 -133 0
8914 -16 -17 -19 39 76 -94 -101 116 122 133 0
-8915 16 0
-8915 17 0
-8915 19 0
-8915 -39 0
-8915 -82 0
-8915 94 0
-8915 101 0
-8915 -116 0
-8915 -122 0
-8915 -133 0
8915 -16 -17 -19 39 82 -94 -101 116 122 133 0
-8916 16 0
-8916 17 0
-8916 19 0
-8916 -39 0
-8916 -78 0
-8916 94 0
-8916 101 0
-8916 -116 0
-8916 -122 0
-8916 -133 0
8916 -16 -17 -19 39 78 -94 -101 116 122 133 0
-8917 16 0
-8917 17 0
-8917 19 0
-8917 -39 0
-8917 -84 0
-8917 94 0
-8917 101 0
-8917 -116 0
-8917 -122 0
-8917 -133 0
8917 -16 -17 -19 39 84 -94 -101 116 122 133 0
-8918 16 0
-8918 17 0
-8918 19 0
-8918 -39 0
-8918 -79 0
-8918 94 0
-8918 101 0
-8918 -116 0
-8918 -122 0
-8918 -133 0
8918 -16 -17 -19 39 79 -94 -101 116 122 133 0
-8919 16 0
-8919 17 0
-8919 19 0
-8919 -39 0
-8919 -81 0
-8919 94 0
-8919 101 0
-8919 -116 0
-8919 -122 0
-8919 -133 0
8919 -16 -17 -19 39 81 -94 -101 116 122 133 0
-8920 16 0
-8920 17 0
-8920 19 0
-8920 -39 0
-8920 -83 0
-8920 94 0
-8920 101 0
-8920 -116 0
-8920 -122 0
-8920 -133 0
8920 -16 -17 -19 39 83 -94 -101 116 122 133 0
-8921 16 0
-8921 17 0
-8921 19 0
-8921 -39 0
-8921 66 0
-8921 94 0
-8921 101 0
-8921 -116 0
-8921 -122 0
-8921 -133 0
8921 -16 -17 -19 39 -66 -94 -101 116 122 133 0
-8922 16 0
-8922 17 0
-8922 19 0
-8922 -39 0
-8922 65 0
-8922 94 0
-8922 101 0
-8922 -116 0
-8922 -122 0
-8922 -133 0
8922 -16 -17 -19 39 -65 -94 -101 116 122 133 0
-8923 16 0
-8923 17 0
-8923 19 0
-8923 -39 0
-8923 94 0
-8923 101 0
-8923 -116 0
-8923 -122 0
-8923 -133 0
-8923 -164 0
8923 -16 -17 -19 39 -94 -101 116 122 133 164 0
-8924 16 0
-8924 17 0
-8924 19 0
-8924 -39 0
-8924 -56 0
-8924 -62 0
-8924 94 0
-8924 101 0
-8924 -116 0
-8924 -122 0
-8924 -133 0
8924 -16 -17 -19 39 56 62 -94 -101 116 122 133 0
-8925 16 0
-8925 17 0
-8925 19 0
-8925 -39 0
-8925 -54 0
-8925 -57 0
-8925 -58 0
-8925 94 0
-8925 110 0
-8925 -116 0
-8925 -133 0
-8925 134 0
8925 -16 -17 -19 39 54 57 58 -94 -110 116 133 -134 0
-8926 16 0
-8926 17 0
-8926 19 0
-8926 -39 0
-8926 -55 0
-8926 -57 0
-8926 -58 0
-8926 94 0
-8926 110 0
-8926 -116 0
-8926 -133 0
-8926 134 0
8926 -16 -17 -19 39 55 57 58 -94 -110 116 133 -134 0
-8927 16 0
-8927 17 0
-8927 19 0
-8927 -39 0
-8927 -54 0
-8927 -61 0
-8927 94 0
-8927 110 0
-8927 -116 0
-8927 -133 0
-8927 134 0
8927 -16 -17 -19 39 54 61 -94 -110 116 133 -134 0
-8928 16 0
-8928 17 0
-8928 19 0
-8928 -39 0
-8928 -55 0
-8928 -61 0
-8928 94 0
-8928 110 0
-8928 -116 0
-8928 -133 0
-8928 134 0
8928 -16 -17 -19 39 55 61 -94 -110 116 133 -134 0
-8929 16 0
-8929 17 0
-8929 19 0
-8929 -39 0
-8929 -57 0
-8929 -58 0
-8929 -62 0
-8929 94 0
-8929 110 0
-8929 -116 0
-8929 -122 0
-8929 -133 0
8929 -16 -17 -19 39 57 58 62 -94 -110 116 122 133 0
-8930 16 0
-8930 17 0
-8930 19 0
-8930 -39 0
-8930 -80 0
-8930 95 0
-8930 -116 0
-8930 -122 0
-8930 -133 0
8930 -16 -17 -19 39 80 -95 116 122 133 0
-8931 16 0
-8931 17 0
-8931 19 0
-8931 -39 0
-8931 -76 0
-8931 95 0
-8931 -116 0
-8931 -122 0
-8931 -133 0
8931 -16 -17 -19 39 76 -95 116 122 133 0
-8932 16 0
-8932 17 0
-8932 19 0
-8932 -39 0
-8932 -82 0
-8932 95 0
-8932 -116 0
-8932 -122 0
-8932 -133 0
8932 -16 -17 -19 39 82 -95 116 122 133 0
-8933 16 0
-8933 17 0
-8933 19 0
-8933 -39 0
-8933 -78 0
-8933 95 0
-8933 -116 0
-8933 -122 0
-8933 -133 0
8933 -16 -17 -19 39 78 -95 116 122 133 0
-8934 16 0
-8934 17 0
-8934 19 0
-8934 -39 0
-8934 -84 0
-8934 95 0
-8934 -116 0
-8934 -122 0
-8934 -133 0
8934 -16 -17 -19 39 84 -95 116 122 133 0
-8935 16 0
-8935 17 0
-8935 19 0
-8935 -39 0
-8935 -79 0
-8935 95 0
-8935 -116 0
-8935 -122 0
-8935 -133 0
8935 -16 -17 -19 39 79 -95 116 122 133 0
-8936 16 0
-8936 17 0
-8936 19 0
-8936 -39 0
-8936 -81 0
-8936 95 0
-8936 -116 0
-8936 -122 0
-8936 -133 0
8936 -16 -17 -19 39 81 -95 116 122 133 0
-8937 16 0
-8937 17 0
-8937 19 0
-8937 -39 0
-8937 -83 0
-8937 95 0
-8937 -116 0
-8937 -122 0
-8937 -133 0
8937 -16 -17 -19 39 83 -95 116 122 133 0
-8938 16 0
-8938 17 0
-8938 19 0
-8938 -39 0
-8938 -56 0
-8938 -62 0
-8938 95 0
-8938 -116 0
-8938 -122 0
-8938 -133 0
8938 -16 -17 -19 39 56 62 -95 116 122 133 0
-8939 16 0
-8939 17 0
-8939 19 0
-8939 -39 0
-8939 66 0
-8939 95 0
-8939 -116 0
-8939 -122 0
-8939 -133 0
8939 -16 -17 -19 39 -66 -95 116 122 133 0
-8940 16 0
-8940 17 0
-8940 19 0
-8940 -39 0
-8940 65 0
-8940 95 0
-8940 -116 0
-8940 -122 0
-8940 -133 0
8940 -16 -17 -19 39 -65 -95 116 122 133 0
-8941 16 0
-8941 17 0
-8941 19 0
-8941 -39 0
-8941 95 0
-8941 -116 0
-8941 -122 0
-8941 -133 0
-8941 -164 0
8941 -16 -17 -19 39 -95 116 122 133 164 0
-8942 16 0
-8942 17 0
-8942 19 0
-8942 -39 0
-8942 -55 0
-8942 -61 0
-8942 95 0
-8942 -116 0
-8942 -122 0
-8942 -133 0
8942 -16 -17 -19 39 55 61 -95 116 122 133 0
-8943 16 0
-8943 17 0
-8943 19 0
-8943 -39 0
-8943 -54 0
-8943 -61 0
-8943 95 0
-8943 -116 0
-8943 -122 0
-8943 -133 0
8943 -16 -17 -19 39 54 61 -95 116 122 133 0
-8944 16 0
-8944 17 0
-8944 19 0
-8944 -39 0
-8944 -56 0
-8944 -72 0
-8944 95 0
-8944 -116 0
-8944 -122 0
-8944 -133 0
8944 -16 -17 -19 39 56 72 -95 116 122 133 0
-8945 16 0
-8945 17 0
-8945 19 0
-8945 -39 0
-8945 -56 0
-8945 -70 0
-8945 95 0
-8945 -116 0
-8945 -122 0
-8945 -133 0
8945 -16 -17 -19 39 56 70 -95 116 122 133 0
-8946 16 0
-8946 17 0
-8946 19 0
-8946 -39 0
-8946 -56 0
-8946 -73 0
-8946 95 0
-8946 -116 0
-8946 -122 0
-8946 -133 0
8946 -16 -17 -19 39 56 73 -95 116 122 133 0
-8947 16 0
-8947 17 0
-8947 19 0
-8947 -39 0
-8947 -56 0
-8947 -74 0
-8947 95 0
-8947 -116 0
-8947 -122 0
-8947 -133 0
8947 -16 -17 -19 39 56 74 -95 116 122 133 0
-8948 16 0
-8948 17 0
-8948 19 0
-8948 -39 0
-8948 -56 0
-8948 -67 0
-8948 95 0
-8948 -116 0
-8948 -122 0
-8948 -133 0
8948 -16 -17 -19 39 56 67 -95 116 122 133 0
-8949 16 0
-8949 17 0
-8949 19 0
-8949 -39 0
-8949 -56 0
-8949 -71 0
-8949 95 0
-8949 -116 0
-8949 -122 0
-8949 -133 0
8949 -16 -17 -19 39 56 71 -95 116 122 133 0
-8950 16 0
-8950 17 0
-8950 19 0
-8950 -39 0
-8950 -56 0
-8950 -69 0
-8950 95 0
-8950 -116 0
-8950 -122 0
-8950 -133 0
8950 -16 -17 -19 39 56 69 -95 116 122 133 0
-8951 16 0
-8951 17 0
-8951 19 0
-8951 -39 0
-8951 -56 0
-8951 -68 0
-8951 95 0
-8951 -116 0
-8951 -122 0
-8951 -133 0
8951 -16 -17 -19 39 56 68 -95 116 122 133 0
-8952 16 0
-8952 17 0
-8952 19 0
-8952 -39 0
-8952 -63 0
-8952 95 0
-8952 -116 0
-8952 -122 0
-8952 -133 0
8952 -16 -17 -19 39 63 -95 116 122 133 0
-8953 16 0
-8953 17 0
-8953 19 0
-8953 -39 0
-8953 -80 0
-8953 -94 0
-8953 -116 0
-8953 -122 0
-8953 -133 0
-8953 -140 0
8953 -16 -17 -19 39 80 94 116 122 133 140 0
-8954 16 0
-8954 17 0
-8954 19 0
-8954 -39 0
-8954 -76 0
-8954 -94 0
-8954 -116 0
-8954 -122 0
-8954 -133 0
-8954 -140 0
8954 -16 -17 -19 39 76 94 116 122 133 140 0
-8955 16 0
-8955 17 0
-8955 19 0
-8955 -39 0
-8955 -82 0
-8955 -94 0
-8955 -116 0
-8955 -122 0
-8955 -133 0
-8955 -140 0
8955 -16 -17 -19 39 82 94 116 122 133 140 0
-8956 16 0
-8956 17 0
-8956 19 0
-8956 -39 0
-8956 -78 0
-8956 -94 0
-8956 -116 0
-8956 -122 0
-8956 -133 0
-8956 -140 0
8956 -16 -17 -19 39 78 94 116 122 133 140 0
-8957 16 0
-8957 17 0
-8957 19 0
-8957 -39 0
-8957 -84 0
-8957 -94 0
-8957 -116 0
-8957 -122 0
-8957 -133 0
-8957 -140 0
8957 -16 -17 -19 39 84 94 116 122 133 140 0
-8958 16 0
-8958 17 0
-8958 19 0
-8958 -39 0
-8958 -79 0
-8958 -94 0
-8958 -116 0
-8958 -122 0
-8958 -133 0
-8958 -140 0
8958 -16 -17 -19 39 79 94 116 122 133 140 0
-8959 16 0
-8959 17 0
-8959 19 0
-8959 -39 0
-8959 -81 0
-8959 -94 0
-8959 -116 0
-8959 -122 0
-8959 -133 0
-8959 -140 0
8959 -16 -17 -19 39 81 94 116 122 133 140 0
-8960 16 0
-8960 17 0
-8960 19 0
-8960 -39 0
-8960 -83 0
-8960 -94 0
-8960 -116 0
-8960 -122 0
-8960 -133 0
-8960 -140 0
8960 -16 -17 -19 39 83 94 116 122 133 140 0
-8961 16 0
-8961 17 0
-8961 19 0
-8961 -39 0
-8961 -56 0
-8961 -62 0
-8961 -94 0
-8961 -116 0
-8961 -122 0
-8961 -133 0
-8961 -140 0
8961 -16 -17 -19 39 56 62 94 116 122 133 140 0
-8962 16 0
-8962 17 0
-8962 19 0
-8962 -39 0
-8962 66 0
-8962 -94 0
-8962 -116 0
-8962 -122 0
-8962 -133 0
-8962 -140 0
8962 -16 -17 -19 39 -66 94 116 122 133 140 0
-8963 16 0
-8963 17 0
-8963 19 0
-8963 -39 0
-8963 65 0
-8963 -94 0
-8963 -116 0
-8963 -122 0
-8963 -133 0
-8963 -140 0
8963 -16 -17 -19 39 -65 94 116 122 133 140 0
-8964 16 0
-8964 17 0
-8964 19 0
-8964 -39 0
-8964 -94 0
-8964 -116 0
-8964 -122 0
-8964 -133 0
-8964 -140 0
-8964 -164 0
8964 -16 -17 -19 39 94 116 122 133 140 164 0
-8965 16 0
-8965 17 0
-8965 19 0
-8965 -39 0
-8965 62 0
-8965 64 0
-8965 -94 0
-8965 -116 0
-8965 -122 0
-8965 -133 0
-8965 -140 0
8965 -16 -17 -19 39 -62 -64 94 116 122 133 140 0
-8966 16 0
-8966 17 0
-8966 19 0
-8966 -39 0
-8966 -55 0
-8966 -61 0
-8966 -94 0
-8966 -116 0
-8966 -122 0
-8966 -133 0
-8966 -140 0
8966 -16 -17 -19 39 55 61 94 116 122 133 140 0
-8967 16 0
-8967 17 0
-8967 19 0
-8967 -39 0
-8967 -54 0
-8967 -61 0
-8967 -94 0
-8967 -116 0
-8967 -122 0
-8967 -133 0
-8967 -140 0
8967 -16 -17 -19 39 54 61 94 116 122 133 140 0
-8968 16 0
-8968 17 0
-8968 19 0
-8968 -39 0
-8968 -56 0
-8968 -72 0
-8968 -94 0
-8968 -116 0
-8968 -122 0
-8968 -133 0
-8968 -140 0
8968 -16 -17 -19 39 56 72 94 116 122 133 140 0
-8969 16 0
-8969 17 0
-8969 19 0
-8969 -39 0
-8969 -56 0
-8969 -70 0
-8969 -94 0
-8969 -116 0
-8969 -122 0
-8969 -133 0
-8969 -140 0
8969 -16 -17 -19 39 56 70 94 116 122 133 140 0
-8970 16 0
-8970 17 0
-8970 19 0
-8970 -39 0
-8970 -56 0
-8970 -73 0
-8970 -94 0
-8970 -116 0
-8970 -122 0
-8970 -133 0
-8970 -140 0
8970 -16 -17 -19 39 56 73 94 116 122 133 140 0
-8971 16 0
-8971 17 0
-8971 19 0
-8971 -39 0
-8971 -56 0
-8971 -74 0
-8971 -94 0
-8971 -116 0
-8971 -122 0
-8971 -133 0
-8971 -140 0
8971 -16 -17 -19 39 56 74 94 116 122 133 140 0
-8972 16 0
-8972 17 0
-8972 19 0
-8972 -39 0
-8972 -56 0
-8972 -67 0
-8972 -94 0
-8972 -116 0
-8972 -122 0
-8972 -133 0
-8972 -140 0
8972 -16 -17 -19 39 56 67 94 116 122 133 140 0
-8973 16 0
-8973 17 0
-8973 19 0
-8973 -39 0
-8973 -56 0
-8973 -71 0
-8973 -94 0
-8973 -116 0
-8973 -122 0
-8973 -133 0
-8973 -140 0
8973 -16 -17 -19 39 56 71 94 116 122 133 140 0
-8974 16 0
-8974 17 0
-8974 19 0
-8974 -39 0
-8974 -56 0
-8974 -69 0
-8974 -94 0
-8974 -116 0
-8974 -122 0
-8974 -133 0
-8974 -140 0
8974 -16 -17 -19 39 56 69 94 116 122 133 140 0
-8975 16 0
-8975 17 0
-8975 19 0
-8975 -39 0
-8975 -56 0
-8975 -68 0
-8975 -94 0
-8975 -116 0
-8975 -122 0
-8975 -133 0
-8975 -140 0
8975 -16 -17 -19 39 56 68 94 116 122 133 140 0
-8976 16 0
-8976 17 0
-8976 19 0
-8976 -39 0
-8976 -63 0
-8976 -94 0
-8976 -116 0
-8976 -122 0
-8976 -133 0
-8976 -140 0
8976 -16 -17 -19 39 63 94 116 122 133 140 0
-8977 16 0
-8977 17 0
-8977 19 0
-8977 -39 0
-8977 -61 0
-8977 64 0
-8977 -94 0
-8977 -101 0
-8977 -116 0
-8977 -122 0
-8977 -133 0
8977 -16 -17 -19 39 61 -64 94 101 116 122 133 0
-8978 16 0
-8978 17 0
-8978 19 0
-8978 -39 0
-8978 -56 0
-8978 -72 0
-8978 -93 0
-8978 -116 0
-8978 -122 0
-8978 -133 0
8978 -16 -17 -19 39 56 72 93 116 122 133 0
-8979 16 0
-8979 17 0
-8979 19 0
-8979 -39 0
-8979 -56 0
-8979 -70 0
-8979 -93 0
-8979 -116 0
-8979 -122 0
-8979 -133 0
8979 -16 -17 -19 39 56 70 93 116 122 133 0
-8980 16 0
-8980 17 0
-8980 19 0
-8980 -39 0
-8980 -56 0
-8980 -73 0
-8980 -93 0
-8980 -116 0
-8980 -122 0
-8980 -133 0
8980 -16 -17 -19 39 56 73 93 116 122 133 0
-8981 16 0
-8981 17 0
-8981 19 0
-8981 -39 0
-8981 -56 0
-8981 -74 0
-8981 -93 0
-8981 -116 0
-8981 -122 0
-8981 -133 0
8981 -16 -17 -19 39 56 74 93 116 122 133 0
-8982 16 0
-8982 17 0
-8982 19 0
-8982 -39 0
-8982 -56 0
-8982 -67 0
-8982 -93 0
-8982 -116 0
-8982 -122 0
-8982 -133 0
8982 -16 -17 -19 39 56 67 93 116 122 133 0
-8983 16 0
-8983 17 0
-8983 19 0
-8983 -39 0
-8983 -56 0
-8983 -71 0
-8983 -93 0
-8983 -116 0
-8983 -122 0
-8983 -133 0
8983 -16 -17 -19 39 56 71 93 116 122 133 0
-8984 16 0
-8984 17 0
-8984 19 0
-8984 -39 0
-8984 -56 0
-8984 -69 0
-8984 -93 0
-8984 -116 0
-8984 -122 0
-8984 -133 0
8984 -16 -17 -19 39 56 69 93 116 122 133 0
-8985 16 0
-8985 17 0
-8985 19 0
-8985 -39 0
-8985 -56 0
-8985 -68 0
-8985 -93 0
-8985 -116 0
-8985 -122 0
-8985 -133 0
8985 -16 -17 -19 39 56 68 93 116 122 133 0
-8986 16 0
-8986 17 0
-8986 19 0
-8986 -39 0
-8986 -56 0
-8986 64 0
-8986 -93 0
-8986 -116 0
-8986 -122 0
-8986 -133 0
8986 -16 -17 -19 39 56 -64 93 116 122 133 0
-8987 16 0
-8987 17 0
-8987 19 0
-8987 -39 0
-8987 62 0
-8987 64 0
-8987 -93 0
-8987 -116 0
-8987 -122 0
-8987 -133 0
8987 -16 -17 -19 39 -62 -64 93 116 122 133 0
-8988 16 0
-8988 17 0
-8988 19 0
-8988 -39 0
-8988 62 0
-8988 64 0
-8988 -94 0
-8988 -101 0
-8988 -116 0
-8988 -122 0
-8988 -133 0
8988 -16 -17 -19 39 -62 -64 94 101 116 122 133 0
-8989 16 0
-8989 17 0
-8989 19 0
-8989 -39 0
-8989 -56 0
-8989 -72 0
-8989 94 0
-8989 110 0
-8989 -116 0
-8989 -122 0
-8989 -133 0
8989 -16 -17 -19 39 56 72 -94 -110 116 122 133 0
-8990 16 0
-8990 17 0
-8990 19 0
-8990 -39 0
-8990 62 0
-8990 64 0
-8990 -94 0
-8990 -116 0
-8990 -133 0
-8990 134 0
-8990 -140 0
8990 -16 -17 -19 39 -62 -64 94 116 133 -134 140 0
-8991 16 0
-8991 17 0
-8991 19 0
-8991 -39 0
-8991 62 0
-8991 64 0
-8991 -94 0
-8991 -110 0
-8991 -116 0
-8991 -133 0
-8991 134 0
8991 -16 -17 -19 39 -62 -64 94 110 116 133 -134 0
-8992 16 0
-8992 17 0
-8992 19 0
-8992 -39 0
-8992 62 0
-8992 64 0
-8992 -94 0
-8992 -101 0
-8992 -116 0
-8992 -133 0
-8992 134 0
8992 -16 -17 -19 39 -62 -64 94 101 116 133 -134 0
-8993 16 0
-8993 17 0
-8993 19 0
-8993 -39 0
-8993 -56 0
-8993 -70 0
-8993 94 0
-8993 110 0
-8993 -116 0
-8993 -122 0
-8993 -133 0
8993 -16 -17 -19 39 56 70 -94 -110 116 122 133 0
-8994 16 0
-8994 17 0
-8994 19 0
-8994 -39 0
-8994 -56 0
-8994 -73 0
-8994 94 0
-8994 110 0
-8994 -116 0
-8994 -122 0
-8994 -133 0
8994 -16 -17 -19 39 56 73 -94 -110 116 122 133 0
-8995 16 0
-8995 17 0
-8995 19 0
-8995 -39 0
-8995 -56 0
-8995 -74 0
-8995 94 0
-8995 110 0
-8995 -116 0
-8995 -122 0
-8995 -133 0
8995 -16 -17 -19 39 56 74 -94 -110 116 122 133 0
-8996 16 0
-8996 17 0
-8996 19 0
-8996 -39 0
-8996 -56 0
-8996 -67 0
-8996 94 0
-8996 110 0
-8996 -116 0
-8996 -122 0
-8996 -133 0
8996 -16 -17 -19 39 56 67 -94 -110 116 122 133 0
-8997 16 0
-8997 17 0
-8997 19 0
-8997 -39 0
-8997 -56 0
-8997 -71 0
-8997 94 0
-8997 110 0
-8997 -116 0
-8997 -122 0
-8997 -133 0
8997 -16 -17 -19 39 56 71 -94 -110 116 122 133 0
-8998 16 0
-8998 17 0
-8998 19 0
-8998 -39 0
-8998 -56 0
-8998 -69 0
-8998 94 0
-8998 110 0
-8998 -116 0
-8998 -122 0
-8998 -133 0
8998 -16 -17 -19 39 56 69 -94 -110 116 122 133 0
-8999 16 0
-8999 17 0
-8999 19 0
-8999 -39 0
-8999 -56 0
-8999 -68 0
-8999 94 0
-8999 110 0
-8999 -116 0
-8999 -122 0
-8999 -133 0
8999 -16 -17 -19 39 56 68 -94 -110 116 122 133 0
-9000 16 0
-9000 17 0
-9000 19 0
-9000 -39 0
-9000 94 0
-9000 110 0
-9000 -116 0
-9000 -122 0
-9000 -133 0
-9000 -164 0
9000 -16 -17 -19 39 -94 -110 116 122 133 164 0
-9001 16 0
-9001 17 0
-9001 19 0
-9001 -39 0
-9001 -56 0
-9001 -62 0
-9001 -94 0
-9001 -101 0
-9001 -116 0
-9001 -133 0
-9001 134 0
9001 -16 -17 -19 39 56 62 94 101 116 133 -134 0
-9002 16 0
-9002 17 0
-9002 19 0
-9002 -39 0
-9002 -57 0
-9002 -58 0
-9002 -62 0
-9002 94 0
-9002 110 0
-9002 -116 0
-9002 -133 0
-9002 134 0
9002 -16 -17 -19 39 57 58 62 -94 -110 116 133 -134 0
-9003 16 0
-9003 17 0
-9003 19 0
-9003 -39 0
-9003 -57 0
-9003 -58 0
-9003 -62 0
-9003 -94 0
-9003 -101 0
-9003 -116 0
-9003 -133 0
-9003 134 0
9003 -16 -17 -19 39 57 58 62 94 101 116 133 -134 0
-9004 16 0
-9004 17 0
-9004 19 0
-9004 -39 0
-9004 -80 0
-9004 -94 0
-9004 -101 0
-9004 -116 0
-9004 -133 0
-9004 134 0
9004 -16 -17 -19 39 80 94 101 116 133 -134 0
-9005 16 0
-9005 17 0
-9005 19 0
-9005 -39 0
-9005 -76 0
-9005 -94 0
-9005 -101 0
-9005 -116 0
-9005 -133 0
-9005 134 0
9005 -16 -17 -19 39 76 94 101 116 133 -134 0
-9006 16 0
-9006 17 0
-9006 19 0
-9006 -39 0
-9006 -82 0
-9006 -94 0
-9006 -101 0
-9006 -116 0
-9006 -133 0
-9006 134 0
9006 -16 -17 -19 39 82 94 101 116 133 -134 0
-9007 16 0
-9007 17 0
-9007 19 0
-9007 -39 0
-9007 -78 0
-9007 -94 0
-9007 -101 0
-9007 -116 0
-9007 -133 0
-9007 134 0
9007 -16 -17 -19 39 78 94 101 116 133 -134 0
-9008 16 0
-9008 17 0
-9008 19 0
-9008 -39 0
-9008 -84 0
-9008 -94 0
-9008 -101 0
-9008 -116 0
-9008 -133 0
-9008 134 0
9008 -16 -17 -19 39 84 94 101 116 133 -134 0
-9009 16 0
-9009 17 0
-9009 19 0
-9009 -39 0
-9009 -77 0
-9009 -94 0
-9009 -101 0
-9009 -116 0
-9009 -133 0
-9009 134 0
9009 -16 -17 -19 39 77 94 101 116 133 -134 0
-9010 16 0
-9010 17 0
-9010 19 0
-9010 -39 0
-9010 -79 0
-9010 -94 0
-9010 -101 0
-9010 -116 0
-9010 -133 0
-9010 134 0
9010 -16 -17 -19 39 79 94 101 116 133 -134 0
-9011 16 0
-9011 17 0
-9011 19 0
-9011 -39 0
-9011 -81 0
-9011 -94 0
-9011 -101 0
-9011 -116 0
-9011 -133 0
-9011 134 0
9011 -16 -17 -19 39 81 94 101 116 133 -134 0
-9012 16 0
-9012 17 0
-9012 19 0
-9012 -39 0
-9012 -83 0
-9012 -94 0
-9012 -101 0
-9012 -116 0
-9012 -133 0
-9012 134 0
9012 -16 -17 -19 39 83 94 101 116 133 -134 0
-9013 16 0
-9013 17 0
-9013 19 0
-9013 -39 0
-9013 66 0
-9013 -94 0
-9013 -101 0
-9013 -116 0
-9013 -133 0
-9013 134 0
9013 -16 -17 -19 39 -66 94 101 116 133 -134 0
-9014 16 0
-9014 17 0
-9014 19 0
-9014 -39 0
-9014 65 0
-9014 -94 0
-9014 -101 0
-9014 -116 0
-9014 -133 0
-9014 134 0
9014 -16 -17 -19 39 -65 94 101 116 133 -134 0
-9015 16 0
-9015 17 0
-9015 19 0
-9015 -39 0
-9015 -94 0
-9015 -101 0
-9015 -116 0
-9015 -133 0
-9015 134 0
-9015 -164 0
9015 -16 -17 -19 39 94 101 116 133 -134 164 0
-9016 16 0
-9016 17 0
-9016 19 0
-9016 -39 0
-9016 -63 0
-9016 -94 0
-9016 -101 0
-9016 -116 0
-9016 -133 0
-9016 134 0
9016 -16 -17 -19 39 63 94 101 116 133 -134 0
-9017 16 0
-9017 17 0
-9017 19 0
-9017 -39 0
-9017 -55 0
-9017 -61 0
-9017 -94 0
-9017 -101 0
-9017 -116 0
-9017 -133 0
-9017 134 0
9017 -16 -17 -19 39 55 61 94 101 116 133 -134 0
-9018 16 0
-9018 17 0
-9018 19 0
-9018 -39 0
-9018 -54 0
-9018 -61 0
-9018 -94 0
-9018 -101 0
-9018 -116 0
-9018 -133 0
-9018 134 0
9018 -16 -17 -19 39 54 61 94 101 116 133 -134 0
-9019 16 0
-9019 17 0
-9019 19 0
-9019 -39 0
-9019 -56 0
-9019 -72 0
-9019 -94 0
-9019 -101 0
-9019 -116 0
-9019 -133 0
-9019 134 0
9019 -16 -17 -19 39 56 72 94 101 116 133 -134 0
-9020 16 0
-9020 17 0
-9020 19 0
-9020 -39 0
-9020 -56 0
-9020 -70 0
-9020 -94 0
-9020 -101 0
-9020 -116 0
-9020 -133 0
-9020 134 0
9020 -16 -17 -19 39 56 70 94 101 116 133 -134 0
-9021 16 0
-9021 17 0
-9021 19 0
-9021 -39 0
-9021 -56 0
-9021 -73 0
-9021 -94 0
-9021 -101 0
-9021 -116 0
-9021 -133 0
-9021 134 0
9021 -16 -17 -19 39 56 73 94 101 116 133 -134 0
-9022 16 0
-9022 17 0
-9022 19 0
-9022 -39 0
-9022 -56 0
-9022 -74 0
-9022 -94 0
-9022 -101 0
-9022 -116 0
-9022 -133 0
-9022 134 0
9022 -16 -17 -19 39 56 74 94 101 116 133 -134 0
-9023 16 0
-9023 17 0
-9023 19 0
-9023 -39 0
-9023 -56 0
-9023 -67 0
-9023 -94 0
-9023 -101 0
-9023 -116 0
-9023 -133 0
-9023 134 0
9023 -16 -17 -19 39 56 67 94 101 116 133 -134 0
-9024 16 0
-9024 17 0
-9024 19 0
-9024 -39 0
-9024 -56 0
-9024 -71 0
-9024 -94 0
-9024 -101 0
-9024 -116 0
-9024 -133 0
-9024 134 0
9024 -16 -17 -19 39 56 71 94 101 116 133 -134 0
-9025 16 0
-9025 17 0
-9025 19 0
-9025 -39 0
-9025 -56 0
-9025 -69 0
-9025 -94 0
-9025 -101 0
-9025 -116 0
-9025 -133 0
-9025 134 0
9025 -16 -17 -19 39 56 69 94 101 116 133 -134 0
-9026 16 0
-9026 17 0
-9026 19 0
-9026 -39 0
-9026 -56 0
-9026 -68 0
-9026 -94 0
-9026 -101 0
-9026 -116 0
-9026 -133 0
-9026 134 0
9026 -16 -17 -19 39 56 68 94 101 116 133 -134 0
-9027 16 0
-9027 17 0
-9027 19 0
-9027 -39 0
-9027 -56 0
-9027 -72 0
-9027 95 0
-9027 -116 0
-9027 -133 0
-9027 134 0
9027 -16 -17 -19 39 56 72 -95 116 133 -134 0
-9028 16 0
-9028 17 0
-9028 19 0
-9028 -39 0
-9028 -56 0
-9028 -72 0
-9028 -94 0
-9028 -116 0
-9028 -133 0
-9028 134 0
-9028 -140 0
9028 -16 -17 -19 39 56 72 94 116 133 -134 140 0
-9029 16 0
-9029 17 0
-9029 19 0
-9029 -39 0
-9029 -56 0
-9029 -72 0
-9029 -94 0
-9029 -110 0
-9029 -116 0
-9029 -133 0
-9029 134 0
9029 -16 -17 -19 39 56 72 94 110 116 133 -134 0
-9030 16 0
-9030 17 0
-9030 19 0
-9030 -39 0
-9030 -56 0
-9030 -72 0
-9030 -93 0
-9030 -116 0
-9030 -133 0
-9030 134 0
9030 -16 -17 -19 39 56 72 93 116 133 -134 0
-9031 16 0
-9031 17 0
-9031 19 0
-9031 -39 0
-9031 -56 0
-9031 -70 0
-9031 95 0
-9031 -116 0
-9031 -133 0
-9031 134 0
9031 -16 -17 -19 39 56 70 -95 116 133 -134 0
-9032 16 0
-9032 17 0
-9032 19 0
-9032 -39 0
-9032 -56 0
-9032 -73 0
-9032 95 0
-9032 -116 0
-9032 -133 0
-9032 134 0
9032 -16 -17 -19 39 56 73 -95 116 133 -134 0
-9033 16 0
-9033 17 0
-9033 19 0
-9033 -39 0
-9033 -56 0
-9033 -74 0
-9033 95 0
-9033 -116 0
-9033 -133 0
-9033 134 0
9033 -16 -17 -19 39 56 74 -95 116 133 -134 0
-9034 16 0
-9034 17 0
-9034 19 0
-9034 -39 0
-9034 -56 0
-9034 -67 0
-9034 95 0
-9034 -116 0
-9034 -133 0
-9034 134 0
9034 -16 -17 -19 39 56 67 -95 116 133 -134 0
-9035 16 0
-9035 17 0
-9035 19 0
-9035 -39 0
-9035 -56 0
-9035 -71 0
-9035 95 0
-9035 -116 0
-9035 -133 0
-9035 134 0
9035 -16 -17 -19 39 56 71 -95 116 133 -134 0
-9036 16 0
-9036 17 0
-9036 19 0
-9036 -39 0
-9036 -56 0
-9036 -69 0
-9036 95 0
-9036 -116 0
-9036 -133 0
-9036 134 0
9036 -16 -17 -19 39 56 69 -95 116 133 -134 0
-9037 16 0
-9037 17 0
-9037 19 0
-9037 -39 0
-9037 -56 0
-9037 -68 0
-9037 95 0
-9037 -116 0
-9037 -133 0
-9037 134 0
9037 -16 -17 -19 39 56 68 -95 116 133 -134 0
-9038 16 0
-9038 17 0
-9038 19 0
-9038 -39 0
-9038 -54 0
-9038 -56 0
-9038 95 0
-9038 -116 0
-9038 -133 0
-9038 134 0
9038 -16 -17 -19 39 54 56 -95 116 133 -134 0
-9039 16 0
-9039 17 0
-9039 19 0
-9039 -39 0
-9039 -80 0
-9039 95 0
-9039 -116 0
-9039 -133 0
-9039 134 0
9039 -16 -17 -19 39 80 -95 116 133 -134 0
-9040 16 0
-9040 17 0
-9040 19 0
-9040 -39 0
-9040 -76 0
-9040 95 0
-9040 -116 0
-9040 -133 0
-9040 134 0
9040 -16 -17 -19 39 76 -95 116 133 -134 0
-9041 16 0
-9041 17 0
-9041 19 0
-9041 -39 0
-9041 -82 0
-9041 95 0
-9041 -116 0
-9041 -133 0
-9041 134 0
9041 -16 -17 -19 39 82 -95 116 133 -134 0
-9042 16 0
-9042 17 0
-9042 19 0
-9042 -39 0
-9042 -78 0
-9042 95 0
-9042 -116 0
-9042 -133 0
-9042 134 0
9042 -16 -17 -19 39 78 -95 116 133 -134 0
-9043 16 0
-9043 17 0
-9043 19 0
-9043 -39 0
-9043 -84 0
-9043 95 0
-9043 -116 0
-9043 -133 0
-9043 134 0
9043 -16 -17 -19 39 84 -95 116 133 -134 0
-9044 16 0
-9044 17 0
-9044 19 0
-9044 -39 0
-9044 -77 0
-9044 95 0
-9044 -116 0
-9044 -133 0
-9044 134 0
9044 -16 -17 -19 39 77 -95 116 133 -134 0
-9045 16 0
-9045 17 0
-9045 19 0
-9045 -39 0
-9045 -79 0
-9045 95 0
-9045 -116 0
-9045 -133 0
-9045 134 0
9045 -16 -17 -19 39 79 -95 116 133 -134 0
-9046 16 0
-9046 17 0
-9046 19 0
-9046 -39 0
-9046 -81 0
-9046 95 0
-9046 -116 0
-9046 -133 0
-9046 134 0
9046 -16 -17 -19 39 81 -95 116 133 -134 0
-9047 16 0
-9047 17 0
-9047 19 0
-9047 -39 0
-9047 -83 0
-9047 95 0
-9047 -116 0
-9047 -133 0
-9047 134 0
9047 -16 -17 -19 39 83 -95 116 133 -134 0
-9048 16 0
-9048 17 0
-9048 19 0
-9048 -39 0
-9048 95 0
-9048 -116 0
-9048 -133 0
-9048 134 0
-9048 -164 0
9048 -16 -17 -19 39 -95 116 133 -134 164 0
-9049 16 0
-9049 17 0
-9049 19 0
-9049 -39 0
-9049 -55 0
-9049 -56 0
-9049 95 0
-9049 -116 0
-9049 -133 0
-9049 134 0
9049 -16 -17 -19 39 55 56 -95 116 133 -134 0
-9050 16 0
-9050 17 0
-9050 19 0
-9050 -39 0
-9050 -56 0
-9050 -62 0
-9050 95 0
-9050 -116 0
-9050 -133 0
-9050 134 0
9050 -16 -17 -19 39 56 62 -95 116 133 -134 0
-9051 16 0
-9051 17 0
-9051 19 0
-9051 -39 0
-9051 -54 0
-9051 -61 0
-9051 95 0
-9051 -116 0
-9051 -133 0
-9051 134 0
9051 -16 -17 -19 39 54 61 -95 116 133 -134 0
-9052 16 0
-9052 17 0
-9052 19 0
-9052 -39 0
-9052 -55 0
-9052 -61 0
-9052 -94 0
-9052 -116 0
-9052 -133 0
-9052 134 0
-9052 -140 0
9052 -16 -17 -19 39 55 61 94 116 133 -134 140 0
-9053 16 0
-9053 17 0
-9053 19 0
-9053 -39 0
-9053 -55 0
-9053 -61 0
-9053 -94 0
-9053 -110 0
-9053 -116 0
-9053 -133 0
-9053 134 0
9053 -16 -17 -19 39 55 61 94 110 116 133 -134 0
-9054 16 0
-9054 17 0
-9054 19 0
-9054 -39 0
-9054 -55 0
-9054 -61 0
-9054 94 0
-9054 -116 0
-9054 -133 0
-9054 134 0
-9054 140 0
9054 -16 -17 -19 39 55 61 -94 116 133 -134 -140 0
-9055 16 0
-9055 17 0
-9055 19 0
-9055 -39 0
-9055 -61 0
-9055 64 0
-9055 94 0
-9055 -116 0
-9055 -133 0
-9055 134 0
-9055 140 0
9055 -16 -17 -19 39 61 -64 -94 116 133 -134 -140 0
-9056 16 0
-9056 17 0
-9056 19 0
-9056 -39 0
-9056 -54 0
-9056 -61 0
-9056 94 0
-9056 -116 0
-9056 -133 0
-9056 134 0
-9056 140 0
9056 -16 -17 -19 39 54 61 -94 116 133 -134 -140 0
-9057 16 0
-9057 17 0
-9057 19 0
-9057 -39 0
-9057 -56 0
-9057 -70 0
-9057 94 0
-9057 -116 0
-9057 -133 0
-9057 134 0
-9057 140 0
9057 -16 -17 -19 39 56 70 -94 116 133 -134 -140 0
-9058 16 0
-9058 17 0
-9058 19 0
-9058 -39 0
-9058 -56 0
-9058 -73 0
-9058 94 0
-9058 -116 0
-9058 -133 0
-9058 134 0
-9058 140 0
9058 -16 -17 -19 39 56 73 -94 116 133 -134 -140 0
-9059 16 0
-9059 17 0
-9059 19 0
-9059 -39 0
-9059 -56 0
-9059 -74 0
-9059 94 0
-9059 -116 0
-9059 -133 0
-9059 134 0
-9059 140 0
9059 -16 -17 -19 39 56 74 -94 116 133 -134 -140 0
-9060 16 0
-9060 17 0
-9060 19 0
-9060 -39 0
-9060 -56 0
-9060 -71 0
-9060 94 0
-9060 -116 0
-9060 -133 0
-9060 134 0
-9060 140 0
9060 -16 -17 -19 39 56 71 -94 116 133 -134 -140 0
-9061 16 0
-9061 17 0
-9061 19 0
-9061 -39 0
-9061 -56 0
-9061 -69 0
-9061 94 0
-9061 -116 0
-9061 -133 0
-9061 134 0
-9061 140 0
9061 -16 -17 -19 39 56 69 -94 116 133 -134 -140 0
-9062 16 0
-9062 17 0
-9062 19 0
-9062 -39 0
-9062 -56 0
-9062 -68 0
-9062 94 0
-9062 -116 0
-9062 -133 0
-9062 134 0
-9062 140 0
9062 -16 -17 -19 39 56 68 -94 116 133 -134 -140 0
-9063 16 0
-9063 17 0
-9063 19 0
-9063 -39 0
-9063 -56 0
-9063 -72 0
-9063 94 0
-9063 -116 0
-9063 -133 0
-9063 134 0
-9063 140 0
9063 -16 -17 -19 39 56 72 -94 116 133 -134 -140 0
-9064 16 0
-9064 17 0
-9064 19 0
-9064 -39 0
-9064 -56 0
-9064 -70 0
-9064 94 0
-9064 110 0
-9064 -116 0
-9064 -133 0
-9064 134 0
9064 -16 -17 -19 39 56 70 -94 -110 116 133 -134 0
-9065 16 0
-9065 17 0
-9065 19 0
-9065 -39 0
-9065 -56 0
-9065 -70 0
-9065 -93 0
-9065 -116 0
-9065 -133 0
-9065 134 0
9065 -16 -17 -19 39 56 70 93 116 133 -134 0
-9066 16 0
-9066 17 0
-9066 19 0
-9066 -39 0
-9066 -56 0
-9066 -73 0
-9066 94 0
-9066 110 0
-9066 -116 0
-9066 -133 0
-9066 134 0
9066 -16 -17 -19 39 56 73 -94 -110 116 133 -134 0
-9067 16 0
-9067 17 0
-9067 19 0
-9067 -39 0
-9067 -56 0
-9067 -74 0
-9067 94 0
-9067 110 0
-9067 -116 0
-9067 -133 0
-9067 134 0
9067 -16 -17 -19 39 56 74 -94 -110 116 133 -134 0
-9068 16 0
-9068 17 0
-9068 19 0
-9068 -39 0
-9068 -56 0
-9068 -67 0
-9068 94 0
-9068 110 0
-9068 -116 0
-9068 -133 0
-9068 134 0
9068 -16 -17 -19 39 56 67 -94 -110 116 133 -134 0
-9069 16 0
-9069 17 0
-9069 19 0
-9069 -39 0
-9069 -56 0
-9069 -71 0
-9069 94 0
-9069 110 0
-9069 -116 0
-9069 -133 0
-9069 134 0
9069 -16 -17 -19 39 56 71 -94 -110 116 133 -134 0
-9070 16 0
-9070 17 0
-9070 19 0
-9070 -39 0
-9070 -56 0
-9070 -69 0
-9070 94 0
-9070 110 0
-9070 -116 0
-9070 -133 0
-9070 134 0
9070 -16 -17 -19 39 56 69 -94 -110 116 133 -134 0
-9071 16 0
-9071 17 0
-9071 19 0
-9071 -39 0
-9071 -56 0
-9071 -68 0
-9071 94 0
-9071 110 0
-9071 -116 0
-9071 -133 0
-9071 134 0
9071 -16 -17 -19 39 56 68 -94 -110 116 133 -134 0
-9072 16 0
-9072 17 0
-9072 19 0
-9072 -39 0
-9072 -80 0
-9072 94 0
-9072 110 0
-9072 -116 0
-9072 -133 0
-9072 134 0
9072 -16 -17 -19 39 80 -94 -110 116 133 -134 0
-9073 16 0
-9073 17 0
-9073 19 0
-9073 -39 0
-9073 -76 0
-9073 94 0
-9073 110 0
-9073 -116 0
-9073 -133 0
-9073 134 0
9073 -16 -17 -19 39 76 -94 -110 116 133 -134 0
-9074 16 0
-9074 17 0
-9074 19 0
-9074 -39 0
-9074 -82 0
-9074 94 0
-9074 110 0
-9074 -116 0
-9074 -133 0
-9074 134 0
9074 -16 -17 -19 39 82 -94 -110 116 133 -134 0
-9075 16 0
-9075 17 0
-9075 19 0
-9075 -39 0
-9075 -78 0
-9075 94 0
-9075 110 0
-9075 -116 0
-9075 -133 0
-9075 134 0
9075 -16 -17 -19 39 78 -94 -110 116 133 -134 0
-9076 16 0
-9076 17 0
-9076 19 0
-9076 -39 0
-9076 -84 0
-9076 94 0
-9076 110 0
-9076 -116 0
-9076 -133 0
-9076 134 0
9076 -16 -17 -19 39 84 -94 -110 116 133 -134 0
-9077 16 0
-9077 17 0
-9077 19 0
-9077 -39 0
-9077 -77 0
-9077 94 0
-9077 110 0
-9077 -116 0
-9077 -133 0
-9077 134 0
9077 -16 -17 -19 39 77 -94 -110 116 133 -134 0
-9078 16 0
-9078 17 0
-9078 19 0
-9078 -39 0
-9078 -79 0
-9078 94 0
-9078 110 0
-9078 -116 0
-9078 -133 0
-9078 134 0
9078 -16 -17 -19 39 79 -94 -110 116 133 -134 0
-9079 16 0
-9079 17 0
-9079 19 0
-9079 -39 0
-9079 -81 0
-9079 94 0
-9079 110 0
-9079 -116 0
-9079 -133 0
-9079 134 0
9079 -16 -17 -19 39 81 -94 -110 116 133 -134 0
-9080 16 0
-9080 17 0
-9080 19 0
-9080 -39 0
-9080 -83 0
-9080 94 0
-9080 110 0
-9080 -116 0
-9080 -133 0
-9080 134 0
9080 -16 -17 -19 39 83 -94 -110 116 133 -134 0
-9081 16 0
-9081 17 0
-9081 19 0
-9081 -39 0
-9081 -56 0
-9081 -72 0
-9081 94 0
-9081 110 0
-9081 -116 0
-9081 -133 0
-9081 134 0
9081 -16 -17 -19 39 56 72 -94 -110 116 133 -134 0
-9082 16 0
-9082 17 0
-9082 19 0
-9082 -39 0
-9082 66 0
-9082 94 0
-9082 110 0
-9082 -116 0
-9082 -133 0
-9082 134 0
9082 -16 -17 -19 39 -66 -94 -110 116 133 -134 0
-9083 16 0
-9083 17 0
-9083 19 0
-9083 -39 0
-9083 65 0
-9083 94 0
-9083 110 0
-9083 -116 0
-9083 -133 0
-9083 134 0
9083 -16 -17 -19 39 -65 -94 -110 116 133 -134 0
-9084 16 0
-9084 17 0
-9084 19 0
-9084 -39 0
-9084 94 0
-9084 110 0
-9084 -116 0
-9084 -133 0
-9084 134 0
-9084 -164 0
9084 -16 -17 -19 39 -94 -110 116 133 -134 164 0
-9085 16 0
-9085 17 0
-9085 19 0
-9085 -39 0
-9085 -63 0
-9085 94 0
-9085 110 0
-9085 -116 0
-9085 -133 0
-9085 134 0
9085 -16 -17 -19 39 63 -94 -110 116 133 -134 0
-9086 16 0
-9086 17 0
-9086 19 0
-9086 -39 0
-9086 -56 0
-9086 -62 0
-9086 94 0
-9086 110 0
-9086 -116 0
-9086 -133 0
-9086 134 0
9086 -16 -17 -19 39 56 62 -94 -110 116 133 -134 0
-9087 16 0
-9087 17 0
-9087 19 0
-9087 -39 0
-9087 -56 0
-9087 -73 0
-9087 -93 0
-9087 -116 0
-9087 -133 0
-9087 134 0
9087 -16 -17 -19 39 56 73 93 116 133 -134 0
-9088 16 0
-9088 17 0
-9088 19 0
-9088 -39 0
-9088 -54 0
-9088 -57 0
-9088 -58 0
-9088 94 0
-9088 -116 0
-9088 -133 0
-9088 134 0
-9088 140 0
9088 -16 -17 -19 39 54 57 58 -94 116 133 -134 -140 0
-9089 16 0
-9089 17 0
-9089 19 0
-9089 -39 0
-9089 -55 0
-9089 -57 0
-9089 -58 0
-9089 94 0
-9089 -116 0
-9089 -133 0
-9089 134 0
-9089 140 0
9089 -16 -17 -19 39 55 57 58 -94 116 133 -134 -140 0
-9090 16 0
-9090 17 0
-9090 19 0
-9090 -39 0
-9090 -57 0
-9090 -58 0
-9090 64 0
-9090 94 0
-9090 -116 0
-9090 -133 0
-9090 134 0
-9090 140 0
9090 -16 -17 -19 39 57 58 -64 -94 116 133 -134 -140 0
-9091 16 0
-9091 17 0
-9091 19 0
-9091 -39 0
-9091 -54 0
-9091 62 0
-9091 94 0
-9091 -116 0
-9091 -133 0
-9091 134 0
-9091 140 0
9091 -16 -17 -19 39 54 -62 -94 116 133 -134 -140 0
-9092 16 0
-9092 17 0
-9092 19 0
-9092 -39 0
-9092 -55 0
-9092 62 0
-9092 94 0
-9092 -116 0
-9092 -133 0
-9092 134 0
-9092 140 0
9092 -16 -17 -19 39 55 -62 -94 116 133 -134 -140 0
-9093 16 0
-9093 17 0
-9093 19 0
-9093 -39 0
-9093 62 0
-9093 64 0
-9093 94 0
-9093 -116 0
-9093 -133 0
-9093 134 0
-9093 140 0
9093 -16 -17 -19 39 -62 -64 -94 116 133 -134 -140 0
-9094 16 0
-9094 17 0
-9094 19 0
-9094 -39 0
-9094 -54 0
-9094 -57 0
-9094 -58 0
-9094 -94 0
-9094 -110 0
-9094 -116 0
-9094 -133 0
-9094 134 0
9094 -16 -17 -19 39 54 57 58 94 110 116 133 -134 0
-9095 16 0
-9095 17 0
-9095 19 0
-9095 -39 0
-9095 -54 0
-9095 -61 0
-9095 -94 0
-9095 -110 0
-9095 -116 0
-9095 -133 0
-9095 134 0
9095 -16 -17 -19 39 54 61 94 110 116 133 -134 0
-9096 16 0
-9096 17 0
-9096 19 0
-9096 -39 0
-9096 -55 0
-9096 -57 0
-9096 -58 0
-9096 -94 0
-9096 -110 0
-9096 -116 0
-9096 -133 0
-9096 134 0
9096 -16 -17 -19 39 55 57 58 94 110 116 133 -134 0
-9097 16 0
-9097 17 0
-9097 19 0
-9097 -39 0
-9097 -57 0
-9097 -58 0
-9097 -62 0
-9097 -94 0
-9097 -110 0
-9097 -116 0
-9097 -133 0
-9097 134 0
9097 -16 -17 -19 39 57 58 62 94 110 116 133 -134 0
-9098 16 0
-9098 17 0
-9098 19 0
-9098 -39 0
-9098 -63 0
-9098 -94 0
-9098 -110 0
-9098 -116 0
-9098 -133 0
-9098 134 0
9098 -16 -17 -19 39 63 94 110 116 133 -134 0
-9099 16 0
-9099 17 0
-9099 19 0
-9099 -39 0
-9099 -82 0
-9099 -94 0
-9099 -110 0
-9099 -116 0
-9099 -133 0
-9099 134 0
9099 -16 -17 -19 39 82 94 110 116 133 -134 0
-9100 16 0
-9100 17 0
-9100 19 0
-9100 -39 0
-9100 -82 0
-9100 -93 0
-9100 -116 0
-9100 -133 0
-9100 134 0
9100 -16 -17 -19 39 82 93 116 133 -134 0
-9101 16 0
-9101 17 0
-9101 19 0
-9101 -39 0
-9101 65 0
-9101 -94 0
-9101 -116 0
-9101 -133 0
-9101 134 0
-9101 -140 0
9101 -16 -17 -19 39 -65 94 116 133 -134 140 0
-9102 16 0
-9102 17 0
-9102 19 0
-9102 -39 0
-9102 66 0
-9102 -94 0
-9102 -116 0
-9102 -133 0
-9102 134 0
-9102 -140 0
9102 -16 -17 -19 39 -66 94 116 133 -134 140 0
-9103 16 0
-9103 17 0
-9103 19 0
-9103 -39 0
-9103 -57 0
-9103 -58 0
-9103 -62 0
-9103 -94 0
-9103 -116 0
-9103 -133 0
-9103 134 0
-9103 -140 0
9103 -16 -17 -19 39 57 58 62 94 116 133 -134 140 0
-9104 16 0
-9104 17 0
-9104 19 0
-9104 -39 0
-9104 -63 0
-9104 -94 0
-9104 -116 0
-9104 -133 0
-9104 134 0
-9104 -140 0
9104 -16 -17 -19 39 63 94 116 133 -134 140 0
-9105 16 0
-9105 17 0
-9105 19 0
-9105 -39 0
-9105 -56 0
-9105 -74 0
-9105 -93 0
-9105 -116 0
-9105 -133 0
-9105 134 0
9105 -16 -17 -19 39 56 74 93 116 133 -134 0
-9106 16 0
-9106 17 0
-9106 19 0
-9106 -39 0
-9106 -56 0
-9106 -67 0
-9106 -93 0
-9106 -116 0
-9106 -133 0
-9106 134 0
9106 -16 -17 -19 39 56 67 93 116 133 -134 0
-9107 16 0
-9107 17 0
-9107 19 0
-9107 -39 0
-9107 -56 0
-9107 -71 0
-9107 -93 0
-9107 -116 0
-9107 -133 0
-9107 134 0
9107 -16 -17 -19 39 56 71 93 116 133 -134 0
-9108 16 0
-9108 17 0
-9108 19 0
-9108 -39 0
-9108 -56 0
-9108 -69 0
-9108 -93 0
-9108 -116 0
-9108 -133 0
-9108 134 0
9108 -16 -17 -19 39 56 69 93 116 133 -134 0
-9109 16 0
-9109 17 0
-9109 19 0
-9109 -39 0
-9109 -56 0
-9109 -68 0
-9109 -93 0
-9109 -116 0
-9109 -133 0
-9109 134 0
9109 -16 -17 -19 39 56 68 93 116 133 -134 0
-9110 16 0
-9110 17 0
-9110 19 0
-9110 -39 0
-9110 -93 0
-9110 -116 0
-9110 -133 0
-9110 134 0
-9110 -164 0
9110 -16 -17 -19 39 93 116 133 -134 164 0
-9111 16 0
-9111 17 0
-9111 19 0
-9111 -39 0
-9111 -80 0
-9111 -93 0
-9111 -116 0
-9111 -133 0
-9111 134 0
9111 -16 -17 -19 39 80 93 116 133 -134 0
-9112 16 0
-9112 17 0
-9112 19 0
-9112 -39 0
-9112 -76 0
-9112 -93 0
-9112 -116 0
-9112 -133 0
-9112 134 0
9112 -16 -17 -19 39 76 93 116 133 -134 0
-9113 16 0
-9113 17 0
-9113 19 0
-9113 -39 0
-9113 -78 0
-9113 -93 0
-9113 -116 0
-9113 -133 0
-9113 134 0
9113 -16 -17 -19 39 78 93 116 133 -134 0
-9114 16 0
-9114 17 0
-9114 19 0
-9114 -39 0
-9114 -84 0
-9114 -93 0
-9114 -116 0
-9114 -133 0
-9114 134 0
9114 -16 -17 -19 39 84 93 116 133 -134 0
-9115 16 0
-9115 17 0
-9115 19 0
-9115 -39 0
-9115 -77 0
-9115 -93 0
-9115 -116 0
-9115 -133 0
-9115 134 0
9115 -16 -17 -19 39 77 93 116 133 -134 0
-9116 16 0
-9116 17 0
-9116 19 0
-9116 -39 0
-9116 -79 0
-9116 -93 0
-9116 -116 0
-9116 -133 0
-9116 134 0
9116 -16 -17 -19 39 79 93 116 133 -134 0
-9117 16 0
-9117 17 0
-9117 19 0
-9117 -39 0
-9117 -81 0
-9117 -93 0
-9117 -116 0
-9117 -133 0
-9117 134 0
9117 -16 -17 -19 39 81 93 116 133 -134 0
-9118 16 0
-9118 17 0
-9118 19 0
-9118 -39 0
-9118 -83 0
-9118 -93 0
-9118 -116 0
-9118 -133 0
-9118 134 0
9118 -16 -17 -19 39 83 93 116 133 -134 0
-9119 16 0
-9119 17 0
-9119 19 0
-9119 -39 0
-9119 -54 0
-9119 -57 0
-9119 -58 0
-9119 -93 0
-9119 -116 0
-9119 -133 0
-9119 134 0
9119 -16 -17 -19 39 54 57 58 93 116 133 -134 0
-9120 16 0
-9120 17 0
-9120 19 0
-9120 -39 0
-9120 -54 0
-9120 -61 0
-9120 -93 0
-9120 -116 0
-9120 -133 0
-9120 134 0
9120 -16 -17 -19 39 54 61 93 116 133 -134 0
-9121 16 0
-9121 17 0
-9121 19 0
-9121 -39 0
-9121 -56 0
-9121 -62 0
-9121 -93 0
-9121 -116 0
-9121 -133 0
-9121 134 0
9121 -16 -17 -19 39 56 62 93 116 133 -134 0
-9122 16 0
-9122 17 0
-9122 19 0
-9122 -39 0
-9122 -56 0
-9122 -62 0
-9122 -94 0
-9122 -110 0
-9122 -116 0
-9122 -133 0
-9122 134 0
9122 -16 -17 -19 39 56 62 94 110 116 133 -134 0
-9123 16 0
-9123 17 0
-9123 19 0
-9123 -39 0
-9123 -82 0
-9123 -94 0
-9123 -116 0
-9123 -133 0
-9123 134 0
-9123 -140 0
9123 -16 -17 -19 39 82 94 116 133 -134 140 0
-9124 16 0
-9124 17 0
-9124 19 0
-9124 -39 0
-9124 -83 0
-9124 -94 0
-9124 -110 0
-9124 -116 0
-9124 -133 0
-9124 134 0
9124 -16 -17 -19 39 83 94 110 116 133 -134 0
-9125 16 0
-9125 17 0
-9125 19 0
-9125 -39 0
-9125 -83 0
-9125 -94 0
-9125 -116 0
-9125 -133 0
-9125 134 0
-9125 -140 0
9125 -16 -17 -19 39 83 94 116 133 -134 140 0
-9126 16 0
-9126 17 0
-9126 19 0
-9126 -39 0
-9126 -84 0
-9126 -94 0
-9126 -110 0
-9126 -116 0
-9126 -133 0
-9126 134 0
9126 -16 -17 -19 39 84 94 110 116 133 -134 0
-9127 16 0
-9127 17 0
-9127 19 0
-9127 -39 0
-9127 -84 0
-9127 -94 0
-9127 -116 0
-9127 -133 0
-9127 134 0
-9127 -140 0
9127 -16 -17 -19 39 84 94 116 133 -134 140 0
-9128 16 0
-9128 17 0
-9128 19 0
-9128 -39 0
-9128 -76 0
-9128 -94 0
-9128 -110 0
-9128 -116 0
-9128 -133 0
-9128 134 0
9128 -16 -17 -19 39 76 94 110 116 133 -134 0
-9129 16 0
-9129 17 0
-9129 19 0
-9129 -39 0
-9129 -76 0
-9129 -94 0
-9129 -116 0
-9129 -133 0
-9129 134 0
-9129 -140 0
9129 -16 -17 -19 39 76 94 116 133 -134 140 0
-9130 16 0
-9130 17 0
-9130 19 0
-9130 -39 0
-9130 -77 0
-9130 -94 0
-9130 -110 0
-9130 -116 0
-9130 -133 0
-9130 134 0
9130 -16 -17 -19 39 77 94 110 116 133 -134 0
-9131 16 0
-9131 17 0
-9131 19 0
-9131 -39 0
-9131 -77 0
-9131 -94 0
-9131 -116 0
-9131 -133 0
-9131 134 0
-9131 -140 0
9131 -16 -17 -19 39 77 94 116 133 -134 140 0
-9132 16 0
-9132 17 0
-9132 19 0
-9132 -39 0
-9132 -78 0
-9132 -94 0
-9132 -110 0
-9132 -116 0
-9132 -133 0
-9132 134 0
9132 -16 -17 -19 39 78 94 110 116 133 -134 0
-9133 16 0
-9133 17 0
-9133 19 0
-9133 -39 0
-9133 -78 0
-9133 -94 0
-9133 -116 0
-9133 -133 0
-9133 134 0
-9133 -140 0
9133 -16 -17 -19 39 78 94 116 133 -134 140 0
-9134 16 0
-9134 17 0
-9134 19 0
-9134 -39 0
-9134 -79 0
-9134 -94 0
-9134 -110 0
-9134 -116 0
-9134 -133 0
-9134 134 0
9134 -16 -17 -19 39 79 94 110 116 133 -134 0
-9135 16 0
-9135 17 0
-9135 19 0
-9135 -39 0
-9135 -79 0
-9135 -94 0
-9135 -116 0
-9135 -133 0
-9135 134 0
-9135 -140 0
9135 -16 -17 -19 39 79 94 116 133 -134 140 0
-9136 16 0
-9136 17 0
-9136 19 0
-9136 -39 0
-9136 -80 0
-9136 -94 0
-9136 -110 0
-9136 -116 0
-9136 -133 0
-9136 134 0
9136 -16 -17 -19 39 80 94 110 116 133 -134 0
-9137 16 0
-9137 17 0
-9137 19 0
-9137 -39 0
-9137 -80 0
-9137 -94 0
-9137 -116 0
-9137 -133 0
-9137 134 0
-9137 -140 0
9137 -16 -17 -19 39 80 94 116 133 -134 140 0
-9138 16 0
-9138 17 0
-9138 19 0
-9138 -39 0
-9138 -81 0
-9138 -94 0
-9138 -110 0
-9138 -116 0
-9138 -133 0
-9138 134 0
9138 -16 -17 -19 39 81 94 110 116 133 -134 0
-9139 16 0
-9139 17 0
-9139 19 0
-9139 -39 0
-9139 -81 0
-9139 -94 0
-9139 -116 0
-9139 -133 0
-9139 134 0
-9139 -140 0
9139 -16 -17 -19 39 81 94 116 133 -134 140 0
-9140 16 0
-9140 17 0
-9140 19 0
-9140 -39 0
-9140 -94 0
-9140 -110 0
-9140 -116 0
-9140 -133 0
-9140 134 0
-9140 -164 0
9140 -16 -17 -19 39 94 110 116 133 -134 164 0
-9141 16 0
-9141 17 0
-9141 19 0
-9141 -39 0
-9141 -94 0
-9141 -116 0
-9141 -133 0
-9141 134 0
-9141 -140 0
-9141 -164 0
9141 -16 -17 -19 39 94 116 133 -134 140 164 0
-9142 16 0
-9142 17 0
-9142 19 0
-9142 -39 0
-9142 65 0
-9142 -94 0
-9142 -110 0
-9142 -116 0
-9142 -133 0
-9142 134 0
9142 -16 -17 -19 39 -65 94 110 116 133 -134 0
-9143 16 0
-9143 17 0
-9143 19 0
-9143 -39 0
-9143 66 0
-9143 -94 0
-9143 -110 0
-9143 -116 0
-9143 -133 0
-9143 134 0
9143 -16 -17 -19 39 -66 94 110 116 133 -134 0
-9144 16 0
-9144 17 0
-9144 19 0
-9144 -39 0
-9144 -56 0
-9144 -62 0
-9144 -94 0
-9144 -116 0
-9144 -133 0
-9144 134 0
-9144 -140 0
9144 -16 -17 -19 39 56 62 94 116 133 -134 140 0
-9145 16 0
-9145 17 0
-9145 19 0
-9145 -39 0
-9145 -54 0
-9145 -57 0
-9145 -58 0
-9145 -94 0
-9145 -116 0
-9145 -133 0
-9145 134 0
-9145 -140 0
9145 -16 -17 -19 39 54 57 58 94 116 133 -134 140 0
-9146 16 0
-9146 17 0
-9146 19 0
-9146 -39 0
-9146 -54 0
-9146 -61 0
-9146 -94 0
-9146 -116 0
-9146 -133 0
-9146 134 0
-9146 -140 0
9146 -16 -17 -19 39 54 61 94 116 133 -134 140 0
-9147 16 0
-9147 17 0
-9147 19 0
-9147 -39 0
-9147 -56 0
-9147 -73 0
-9147 -94 0
-9147 -116 0
-9147 -133 0
-9147 134 0
-9147 -140 0
9147 -16 -17 -19 39 56 73 94 116 133 -134 140 0
-9148 16 0
-9148 17 0
-9148 19 0
-9148 -39 0
-9148 -56 0
-9148 -73 0
-9148 -94 0
-9148 -110 0
-9148 -116 0
-9148 -133 0
-9148 134 0
9148 -16 -17 -19 39 56 73 94 110 116 133 -134 0
-9149 16 0
-9149 17 0
-9149 19 0
-9149 -39 0
-9149 -56 0
-9149 -67 0
-9149 -94 0
-9149 -110 0
-9149 -116 0
-9149 -133 0
-9149 134 0
9149 -16 -17 -19 39 56 67 94 110 116 133 -134 0
-9150 16 0
-9150 17 0
-9150 19 0
-9150 -39 0
-9150 -56 0
-9150 -74 0
-9150 -94 0
-9150 -116 0
-9150 -133 0
-9150 134 0
-9150 -140 0
9150 -16 -17 -19 39 56 74 94 116 133 -134 140 0
-9151 16 0
-9151 17 0
-9151 19 0
-9151 -39 0
-9151 -56 0
-9151 -67 0
-9151 -94 0
-9151 -116 0
-9151 -133 0
-9151 134 0
-9151 -140 0
9151 -16 -17 -19 39 56 67 94 116 133 -134 140 0
-9152 16 0
-9152 17 0
-9152 19 0
-9152 -39 0
-9152 -56 0
-9152 -74 0
-9152 -94 0
-9152 -110 0
-9152 -116 0
-9152 -133 0
-9152 134 0
9152 -16 -17 -19 39 56 74 94 110 116 133 -134 0
-9153 16 0
-9153 17 0
-9153 19 0
-9153 -39 0
-9153 -56 0
-9153 -68 0
-9153 -94 0
-9153 -110 0
-9153 -116 0
-9153 -133 0
-9153 134 0
9153 -16 -17 -19 39 56 68 94 110 116 133 -134 0
-9154 16 0
-9154 17 0
-9154 19 0
-9154 -39 0
-9154 -56 0
-9154 -69 0
-9154 -94 0
-9154 -116 0
-9154 -133 0
-9154 134 0
-9154 -140 0
9154 -16 -17 -19 39 56 69 94 116 133 -134 140 0
-9155 16 0
-9155 17 0
-9155 19 0
-9155 -39 0
-9155 -56 0
-9155 -68 0
-9155 -94 0
-9155 -116 0
-9155 -133 0
-9155 134 0
-9155 -140 0
9155 -16 -17 -19 39 56 68 94 116 133 -134 140 0
-9156 16 0
-9156 17 0
-9156 19 0
-9156 -39 0
-9156 -56 0
-9156 -69 0
-9156 -94 0
-9156 -110 0
-9156 -116 0
-9156 -133 0
-9156 134 0
9156 -16 -17 -19 39 56 69 94 110 116 133 -134 0
-9157 16 0
-9157 17 0
-9157 19 0
-9157 -39 0
-9157 -56 0
-9157 -70 0
-9157 -94 0
-9157 -110 0
-9157 -116 0
-9157 -133 0
-9157 134 0
9157 -16 -17 -19 39 56 70 94 110 116 133 -134 0
-9158 16 0
-9158 17 0
-9158 19 0
-9158 -39 0
-9158 -56 0
-9158 -70 0
-9158 -94 0
-9158 -116 0
-9158 -133 0
-9158 134 0
-9158 -140 0
9158 -16 -17 -19 39 56 70 94 116 133 -134 140 0
-9159 16 0
-9159 17 0
-9159 19 0
-9159 -39 0
-9159 -56 0
-9159 -71 0
-9159 -94 0
-9159 -110 0
-9159 -116 0
-9159 -133 0
-9159 134 0
9159 -16 -17 -19 39 56 71 94 110 116 133 -134 0
-9160 16 0
-9160 17 0
-9160 19 0
-9160 -39 0
-9160 -56 0
-9160 -71 0
-9160 -94 0
-9160 -116 0
-9160 -133 0
-9160 134 0
-9160 -140 0
9160 -16 -17 -19 39 56 71 94 116 133 -134 140 0
-9161 -6187 0
-9161 -6188 0
-9161 -6189 0
-9161 -6190 0
-9161 -6191 0
-9161 -6192 0
-9161 -6193 0
-9161 -6194 0
-9161 -6195 0
-9161 -6196 0
-9161 -6197 0
-9161 -6198 0
-9161 -6199 0
-9161 -6200 0
-9161 -6201 0
-9161 -6202 0
-9161 -6203 0
-9161 -6204 0
-9161 -6205 0
-9161 -6206 0
-9161 -6207 0
-9161 -6208 0
-9161 -6209 0
-9161 -6210 0
-9161 -6211 0
-9161 -6212 0
-9161 -6213 0
-9161 -6214 0
-9161 -6215 0
-9161 -6216 0
-9161 -6217 0
-9161 -6218 0
-9161 -6219 0
-9161 -6220 0
-9161 -6221 0
-9161 -6222 0
-9161 -6223 0
-9161 -6224 0
-9161 -6225 0
-9161 -6226 0
-9161 -6227 0
-9161 -6228 0
-9161 -6229 0
-9161 -6230 0
-9161 -6231 0
-9161 -6232 0
-9161 -6233 0
-9161 -6234 0
-9161 -6235 0
-9161 -6236 0
-9161 -6237 0
-9161 -6238 0
-9161 -6239 0
-9161 -6240 0
-9161 -6241 0
-9161 -6242 0
-9161 -6243 0
-9161 -6244 0
-9161 -6245 0
-9161 -6246 0
-9161 -6247 0
-9161 -6248 0
-9161 -6249 0
-9161 -6250 0
-9161 -6251 0
-9161 -6252 0
-9161 -6253 0
-9161 -6254 0
-9161 -6255 0
-9161 -6256 0
-9161 -6257 0
-9161 -6258 0
-9161 -6259 0
-9161 -6260 0
-9161 -6261 0
-9161 -6262 0
-9161 -6263 0
-9161 -6264 0
-9161 -6265 0
-9161 -6266 0
-9161 -6267 0
-9161 -6268 0
-9161 -6269 0
-9161 -6270 0
-9161 -6271 0
-9161 -6272 0
-9161 -6273 0
-9161 -6274 0
-9161 -6275 0
-9161 -6276 0
-9161 -6277 0
-9161 -6278 0
-9161 -6279 0
-9161 -6280 0
-9161 -6281 0
-9161 -6282 0
-9161 -6283 0
-9161 -6284 0
-9161 -6285 0
-9161 -6286 0
-9161 -6287 0
-9161 -6288 0
-9161 -6289 0
-9161 -6290 0
-9161 -6291 0
-9161 -6292 0
-9161 -6293 0
-9161 -6294 0
-9161 -6295 0
-9161 -6296 0
-9161 -6297 0
-9161 -6298 0
-9161 -6299 0
-9161 -6300 0
-9161 -6301 0
-9161 -6302 0
-9161 -6303 0
-9161 -6304 0
-9161 -6305 0
-9161 -6306 0
-9161 -6307 0
-9161 -6308 0
-9161 -6309 0
-9161 -6310 0
-9161 -6311 0
-9161 -6312 0
-9161 -6313 0
-9161 -6314 0
-9161 -6315 0
-9161 -6316 0
-9161 -6317 0
-9161 -6318 0
-9161 -6319 0
-9161 -6320 0
-9161 -6321 0
-9161 -6322 0
-9161 -6323 0
-9161 -6324 0
-9161 -6325 0
-9161 -6326 0
-9161 -6327 0
-9161 -6328 0
-9161 -6329 0
-9161 -6330 0
-9161 -6331 0
-9161 -6332 0
-9161 -6333 0
-9161 -6334 0
-9161 -6335 0
-9161 -6336 0
-9161 -6337 0
-9161 -6338 0
-9161 -6339 0
-9161 -6340 0
-9161 -6341 0
-9161 -6342 0
-9161 -6343 0
-9161 -6344 0
-9161 -6345 0
-9161 -6346 0
-9161 -6347 0
-9161 -6348 0
-9161 -6349 0
-9161 -6350 0
-9161 -6351 0
-9161 -6352 0
-9161 -6353 0
-9161 -6354 0
-9161 -6355 0
-9161 -6356 0
-9161 -6357 0
-9161 -6358 0
-9161 -6359 0
-9161 -6360 0
-9161 -6361 0
-9161 -6362 0
-9161 -6363 0
-9161 -6364 0
-9161 -6365 0
-9161 -6366 0
-9161 -6367 0
-9161 -6368 0
-9161 -6369 0
-9161 -6370 0
-9161 -6371 0
-9161 -6372 0
-9161 -6373 0
-9161 -6374 0
-9161 -6375 0
-9161 -6376 0
-9161 -6377 0
-9161 -6378 0
-9161 -6379 0
-9161 -6380 0
-9161 -6381 0
-9161 -6382 0
-9161 -6383 0
-9161 -6384 0
-9161 -6385 0
-9161 -6386 0
-9161 -6387 0
-9161 -6388 0
-9161 -6389 0
-9161 -6390 0
-9161 -6391 0
-9161 -6392 0
-9161 -6393 0
-9161 -6394 0
-9161 -6395 0
-9161 -6396 0
-9161 -6397 0
-9161 -6398 0
-9161 -6399 0
-9161 -6400 0
-9161 -6401 0
-9161 -6402 0
-9161 -6403 0
-9161 -6404 0
-9161 -6405 0
-9161 -6406 0
-9161 -6407 0
-9161 -6408 0
-9161 -6409 0
-9161 -6410 0
-9161 -6411 0
-9161 -6412 0
-9161 -6413 0
-9161 -6414 0
-9161 -6415 0
-9161 -6416 0
-9161 -6417 0
-9161 -6418 0
-9161 -6419 0
-9161 -6420 0
-9161 -6421 0
-9161 -6422 0
-9161 -6423 0
-9161 -6424 0
-9161 -6425 0
-9161 -6426 0
-9161 -6427 0
-9161 -6428 0
-9161 -6429 0
-9161 -6430 0
-9161 -6431 0
-9161 -6432 0
-9161 -6433 0
-9161 -6434 0
-9161 -6435 0
-9161 -6436 0
-9161 -6437 0
-9161 -6438 0
-9161 -6439 0
-9161 -6440 0
-9161 -6441 0
-9161 -6442 0
-9161 -6443 0
-9161 -6444 0
-9161 -6445 0
-9161 -6446 0
-9161 -6447 0
-9161 -6448 0
-9161 -6449 0
-9161 -6450 0
-9161 -6451 0
-9161 -6452 0
-9161 -6453 0
-9161 -6454 0
-9161 -6455 0
-9161 -6456 0
-9161 -6457 0
-9161 -6458 0
-9161 -6459 0
-9161 -6460 0
-9161 -6461 0
-9161 -6462 0
-9161 -6463 0
-9161 -6464 0
-9161 -6465 0
-9161 -6466 0
-9161 -6467 0
-9161 -6468 0
-9161 -6469 0
-9161 -6470 0
-9161 -6471 0
-9161 -6472 0
-9161 -6473 0
-9161 -6474 0
-9161 -6475 0
-9161 -6476 0
-9161 -6477 0
-9161 -6478 0
-9161 -6479 0
-9161 -6480 0
-9161 -6481 0
-9161 -6482 0
-9161 -6483 0
-9161 -6484 0
-9161 -6485 0
-9161 -6486 0
-9161 -6487 0
-9161 -6488 0
-9161 -6489 0
-9161 -6490 0
-9161 -6491 0
-9161 -6492 0
-9161 -6493 0
-9161 -6494 0
-9161 -6495 0
-9161 -6496 0
-9161 -6497 0
-9161 -6498 0
-9161 -6499 0
-9161 -6500 0
-9161 -6501 0
-9161 -6502 0
-9161 -6503 0
-9161 -6504 0
-9161 -6505 0
-9161 -6506 0
-9161 -6507 0
-9161 -6508 0
-9161 -6509 0
-9161 -6510 0
-9161 -6511 0
-9161 -6512 0
-9161 -6513 0
-9161 -6514 0
-9161 -6515 0
-9161 -6516 0
-9161 -6517 0
-9161 -6518 0
-9161 -6519 0
-9161 -6520 0
-9161 -6521 0
-9161 -6522 0
-9161 -6523 0
-9161 -6524 0
-9161 -6525 0
-9161 -6526 0
-9161 -6527 0
-9161 -6528 0
-9161 -6529 0
-9161 -6530 0
-9161 -6531 0
-9161 -6532 0
-9161 -6533 0
-9161 -6534 0
-9161 -6535 0
-9161 -6536 0
-9161 -6537 0
-9161 -6538 0
-9161 -6539 0
-9161 -6540 0
-9161 -6541 0
-9161 -6542 0
-9161 -6543 0
-9161 -6544 0
-9161 -6545 0
-9161 -6546 0
-9161 -6547 0
-9161 -6548 0
-9161 -6549 0
-9161 -6550 0
-9161 -6551 0
-9161 -6552 0
-9161 -6553 0
-9161 -6554 0
-9161 -6555 0
-9161 -6556 0
-9161 -6557 0
-9161 -6558 0
-9161 -6559 0
-9161 -6560 0
-9161 -6561 0
-9161 -6562 0
-9161 -6563 0
-9161 -6564 0
-9161 -6565 0
-9161 -6566 0
-9161 -6567 0
-9161 -6568 0
-9161 -6569 0
-9161 -6570 0
-9161 -6571 0
-9161 -6572 0
-9161 -6573 0
-9161 -6574 0
-9161 -6575 0
-9161 -6576 0
-9161 -6577 0
-9161 -6578 0
-9161 -6579 0
-9161 -6580 0
-9161 -6581 0
-9161 -6582 0
-9161 -6583 0
-9161 -6584 0
-9161 -6585 0
-9161 -6586 0
-9161 -6587 0
-9161 -6588 0
-9161 -6589 0
-9161 -6590 0
-9161 -6591 0
-9161 -6592 0
-9161 -6593 0
-9161 -6594 0
-9161 -6595 0
-9161 -6596 0
-9161 -6597 0
-9161 -6598 0
-9161 -6599 0
-9161 -6600 0
-9161 -6601 0
-9161 -6602 0
-9161 -6603 0
-9161 -6604 0
-9161 -6605 0
-9161 -6606 0
-9161 -6607 0
-9161 -6608 0
-9161 -6609 0
-9161 -6610 0
-9161 -6611 0
-9161 -6612 0
-9161 -6613 0
-9161 -6614 0
-9161 -6615 0
-9161 -6616 0
-9161 -6617 0
-9161 -6618 0
-9161 -6619 0
-9161 -6620 0
-9161 -6621 0
-9161 -6622 0
-9161 -6623 0
-9161 -6624 0
-9161 -6625 0
-9161 -6626 0
-9161 -6627 0
-9161 -6628 0
-9161 -6629 0
-9161 -6630 0
-9161 -6631 0
-9161 -6632 0
-9161 -6633 0
-9161 -6634 0
-9161 -6635 0
-9161 -6636 0
-9161 -6637 0
-9161 -6638 0
-9161 -6639 0
-9161 -6640 0
-9161 -6641 0
-9161 -6642 0
-9161 -6643 0
-9161 -6644 0
-9161 -6645 0
-9161 -6646 0
-9161 -6647 0
-9161 -6648 0
-9161 -6649 0
-9161 -6650 0
-9161 -6651 0
-9161 -6652 0
-9161 -6653 0
-9161 -6654 0
-9161 -6655 0
-9161 -6656 0
-9161 -6657 0
-9161 -6658 0
-9161 -6659 0
-9161 -6660 0
-9161 -6661 0
-9161 -6662 0
-9161 -6663 0
-9161 -6664 0
-9161 -6665 0
-9161 -6666 0
-9161 -6667 0
-9161 -6668 0
-9161 -6669 0
-9161 -6670 0
-9161 -6671 0
-9161 -6672 0
-9161 -6673 0
-9161 -6674 0
-9161 -6675 0
-9161 -6676 0
-9161 -6677 0
-9161 -6678 0
-9161 -6679 0
-9161 -6680 0
-9161 -6681 0
-9161 -6682 0
-9161 -6683 0
-9161 -6684 0
-9161 -6685 0
-9161 -6686 0
-9161 -6687 0
-9161 -6688 0
-9161 -6689 0
-9161 -6690 0
-9161 -6691 0
-9161 -6692 0
-9161 -6693 0
-9161 -6694 0
-9161 -6695 0
-9161 -6696 0
-9161 -6697 0
-9161 -6698 0
-9161 -6699 0
-9161 -6700 0
-9161 -6701 0
-9161 -6702 0
-9161 -6703 0
-9161 -6704 0
-9161 -6705 0
-9161 -6706 0
-9161 -6707 0
-9161 -6708 0
-9161 -6709 0
-9161 -6710 0
-9161 -6711 0
-9161 -6712 0
-9161 -6713 0
-9161 -6714 0
-9161 -6715 0
-9161 -6716 0
-9161 -6717 0
-9161 -6718 0
-9161 -6719 0
-9161 -6720 0
-9161 -6721 0
-9161 -6722 0
-9161 -6723 0
-9161 -6724 0
-9161 -6725 0
-9161 -6726 0
-9161 -6727 0
-9161 -6728 0
-9161 -6729 0
-9161 -6730 0
-9161 -6731 0
-9161 -6732 0
-9161 -6733 0
-9161 -6734 0
-9161 -6735 0
-9161 -6736 0
-9161 -6737 0
-9161 -6738 0
-9161 -6739 0
-9161 -6740 0
-9161 -6741 0
-9161 -6742 0
-9161 -6743 0
-9161 -6744 0
-9161 -6745 0
-9161 -6746 0
-9161 -6747 0
-9161 -6748 0
-9161 -6749 0
-9161 -6750 0
-9161 -6751 0
-9161 -6752 0
-9161 -6753 0
-9161 -6754 0
-9161 -6755 0
-9161 -6756 0
-9161 -6757 0
-9161 -6758 0
-9161 -6759 0
-9161 -6760 0
-9161 -6761 0
-9161 -6762 0
-9161 -6763 0
-9161 -6764 0
-9161 -6765 0
-9161 -6766 0
-9161 -6767 0
-9161 -6768 0
-9161 -6769 0
-9161 -6770 0
-9161 -6771 0
-9161 -6772 0
-9161 -6773 0
-9161 -6774 0
-9161 -6775 0
-9161 -6776 0
-9161 -6777 0
-9161 -6778 0
-9161 -6779 0
-9161 -6780 0
-9161 -6781 0
-9161 -6782 0
-9161 -6783 0
-9161 -6784 0
-9161 -6785 0
-9161 -6786 0
-9161 -6787 0
-9161 -6788 0
-9161 -6789 0
-9161 -6790 0
-9161 -6791 0
-9161 -6792 0
-9161 -6793 0
-9161 -6794 0
-9161 -6795 0
-9161 -6796 0
-9161 -6797 0
-9161 -6798 0
-9161 -6799 0
-9161 -6800 0
-9161 -6801 0
-9161 -6802 0
-9161 -6803 0
-9161 -6804 0
-9161 -6805 0
-9161 -6806 0
-9161 -6807 0
-9161 -6808 0
-9161 -6809 0
-9161 -6810 0
-9161 -6811 0
-9161 -6812 0
-9161 -6813 0
-9161 -6814 0
-9161 -6815 0
-9161 -6816 0
-9161 -6817 0
-9161 -6818 0
-9161 -6819 0
-9161 -6820 0
-9161 -6821 0
-9161 -6822 0
-9161 -6823 0
-9161 -6824 0
-9161 -6825 0
-9161 -6826 0
-9161 -6827 0
-9161 -6828 0
-9161 -6829 0
-9161 -6830 0
-9161 -6831 0
-9161 -6832 0
-9161 -6833 0
-9161 -6834 0
-9161 -6835 0
-9161 -6836 0
-9161 -6837 0
-9161 -6838 0
-9161 -6839 0
-9161 -6840 0
-9161 -6841 0
-9161 -6842 0
-9161 -6843 0
-9161 -6844 0
-9161 -6845 0
-9161 -6846 0
-9161 -6847 0
-9161 -6848 0
-9161 -6849 0
-9161 -6850 0
-9161 -6851 0
-9161 -6852 0
-9161 -6853 0
-9161 -6854 0
-9161 -6855 0
-9161 -6856 0
-9161 -6857 0
-9161 -6858 0
-9161 -6859 0
-9161 -6860 0
-9161 -6861 0
-9161 -6862 0
-9161 -6863 0
-9161 -6864 0
-9161 -6865 0
-9161 -6866 0
-9161 -6867 0
-9161 -6868 0
-9161 -6869 0
-9161 -6870 0
-9161 -6871 0
-9161 -6872 0
-9161 -6873 0
-9161 -6874 0
-9161 -6875 0
-9161 -6876 0
-9161 -6877 0
-9161 -6878 0
-9161 -6879 0
-9161 -6880 0
-9161 -6881 0
-9161 -6882 0
-9161 -6883 0
-9161 -6884 0
-9161 -6885 0
-9161 -6886 0
-9161 -6887 0
-9161 -6888 0
-9161 -6889 0
-9161 -6890 0
-9161 -6891 0
-9161 -6892 0
-9161 -6893 0
-9161 -6894 0
-9161 -6895 0
-9161 -6896 0
-9161 -6897 0
-9161 -6898 0
-9161 -6899 0
-9161 -6900 0
-9161 -6901 0
-9161 -6902 0
-9161 -6903 0
-9161 -6904 0
-9161 -6905 0
-9161 -6906 0
-9161 -6907 0
-9161 -6908 0
-9161 -6909 0
-9161 -6910 0
-9161 -6911 0
-9161 -6912 0
-9161 -6913 0
-9161 -6914 0
-9161 -6915 0
-9161 -6916 0
-9161 -6917 0
-9161 -6918 0
-9161 -6919 0
-9161 -6920 0
-9161 -6921 0
-9161 -6922 0
-9161 -6923 0
-9161 -6924 0
-9161 -6925 0
-9161 -6926 0
-9161 -6927 0
-9161 -6928 0
-9161 -6929 0
-9161 -6930 0
-9161 -6931 0
-9161 -6932 0
-9161 -6933 0
-9161 -6934 0
-9161 -6935 0
-9161 -6936 0
-9161 -6937 0
-9161 -6938 0
-9161 -6939 0
-9161 -6940 0
-9161 -6941 0
-9161 -6942 0
-9161 -6943 0
-9161 -6944 0
-9161 -6945 0
-9161 -6946 0
-9161 -6947 0
-9161 -6948 0
-9161 -6949 0
-9161 -6950 0
-9161 -6951 0
-9161 -6952 0
-9161 -6953 0
-9161 -6954 0
-9161 -6955 0
-9161 -6956 0
-9161 -6957 0
-9161 -6958 0
-9161 -6959 0
-9161 -6960 0
-9161 -6961 0
-9161 -6962 0
-9161 -6963 0
-9161 -6964 0
-9161 -6965 0
-9161 -6966 0
-9161 -6967 0
-9161 -6968 0
-9161 -6969 0
-9161 -6970 0
-9161 -6971 0
-9161 -6972 0
-9161 -6973 0
-9161 -6974 0
-9161 -6975 0
-9161 -6976 0
-9161 -6977 0
-9161 -6978 0
-9161 -6979 0
-9161 -6980 0
-9161 -6981 0
-9161 -6982 0
-9161 -6983 0
-9161 -6984 0
-9161 -6985 0
-9161 -6986 0
-9161 -6987 0
-9161 -6988 0
-9161 -6989 0
-9161 -6990 0
-9161 -6991 0
-9161 -6992 0
-9161 -6993 0
-9161 -6994 0
-9161 -6995 0
-9161 -6996 0
-9161 -6997 0
-9161 -6998 0
-9161 -6999 0
-9161 -7000 0
-9161 -7001 0
-9161 -7002 0
-9161 -7003 0
-9161 -7004 0
-9161 -7005 0
-9161 -7006 0
-9161 -7007 0
-9161 -7008 0
-9161 -7009 0
-9161 -7010 0
-9161 -7011 0
-9161 -7012 0
-9161 -7013 0
-9161 -7014 0
-9161 -7015 0
-9161 -7016 0
-9161 -7017 0
-9161 -7018 0
-9161 -7019 0
-9161 -7020 0
-9161 -7021 0
-9161 -7022 0
-9161 -7023 0
-9161 -7024 0
-9161 -7025 0
-9161 -7026 0
-9161 -7027 0
-9161 -7028 0
-9161 -7029 0
-9161 -7030 0
-9161 -7031 0
-9161 -7032 0
-9161 -7033 0
-9161 -7034 0
-9161 -7035 0
-9161 -7036 0
-9161 -7037 0
-9161 -7038 0
-9161 -7039 0
-9161 -7040 0
-9161 -7041 0
-9161 -7042 0
-9161 -7043 0
-9161 -7044 0
-9161 -7045 0
-9161 -7046 0
-9161 -7047 0
-9161 -7048 0
-9161 -7049 0
-9161 -7050 0
-9161 -7051 0
-9161 -7052 0
-9161 -7053 0
-9161 -7054 0
-9161 -7055 0
-9161 -7056 0
-9161 -7057 0
-9161 -7058 0
-9161 -7059 0
-9161 -7060 0
-9161 -7061 0
-9161 -7062 0
-9161 -7063 0
-9161 -7064 0
-9161 -7065 0
-9161 -7066 0
-9161 -7067 0
-9161 -7068 0
-9161 -7069 0
-9161 -7070 0
-9161 -7071 0
-9161 -7072 0
-9161 -7073 0
-9161 -7074 0
-9161 -7075 0
-9161 -7076 0
-9161 -7077 0
-9161 -7078 0
-9161 -7079 0
-9161 -7080 0
-9161 -7081 0
-9161 -7082 0
-9161 -7083 0
-9161 -7084 0
-9161 -7085 0
-9161 -7086 0
-9161 -7087 0
-9161 -7088 0
-9161 -7089 0
-9161 -7090 0
-9161 -7091 0
-9161 -7092 0
-9161 -7093 0
-9161 -7094 0
-9161 -7095 0
-9161 -7096 0
-9161 -7097 0
-9161 -7098 0
-9161 -7099 0
-9161 -7100 0
-9161 -7101 0
-9161 -7102 0
-9161 -7103 0
-9161 -7104 0
-9161 -7105 0
-9161 -7106 0
-9161 -7107 0
-9161 -7108 0
-9161 -7109 0
-9161 -7110 0
-9161 -7111 0
-9161 -7112 0
-9161 -7113 0
-9161 -7114 0
-9161 -7115 0
-9161 -7116 0
-9161 -7117 0
-9161 -7118 0
-9161 -7119 0
-9161 -7120 0
-9161 -7121 0
-9161 -7122 0
-9161 -7123 0
-9161 -7124 0
-9161 -7125 0
-9161 -7126 0
-9161 -7127 0
-9161 -7128 0
-9161 -7129 0
-9161 -7130 0
-9161 -7131 0
-9161 -7132 0
-9161 -7133 0
-9161 -7134 0
-9161 -7135 0
-9161 -7136 0
-9161 -7137 0
-9161 -7138 0
-9161 -7139 0
-9161 -7140 0
-9161 -7141 0
-9161 -7142 0
-9161 -7143 0
-9161 -7144 0
-9161 -7145 0
-9161 -7146 0
-9161 -7147 0
-9161 -7148 0
-9161 -7149 0
-9161 -7150 0
-9161 -7151 0
-9161 -7152 0
-9161 -7153 0
-9161 -7154 0
-9161 -7155 0
-9161 -7156 0
-9161 -7157 0
-9161 -7158 0
-9161 -7159 0
-9161 -7160 0
-9161 -7161 0
-9161 -7162 0
-9161 -7163 0
-9161 -7164 0
-9161 -7165 0
-9161 -7166 0
-9161 -7167 0
-9161 -7168 0
-9161 -7169 0
-9161 -7170 0
-9161 -7171 0
-9161 -7172 0
-9161 -7173 0
-9161 -7174 0
-9161 -7175 0
-9161 -7176 0
-9161 -7177 0
-9161 -7178 0
-9161 -7179 0
-9161 -7180 0
-9161 -7181 0
-9161 -7182 0
-9161 -7183 0
-9161 -7184 0
-9161 -7185 0
-9161 -7186 0
-9161 -7187 0
-9161 -7188 0
-9161 -7189 0
-9161 -7190 0
-9161 -7191 0
-9161 -7192 0
-9161 -7193 0
-9161 -7194 0
-9161 -7195 0
-9161 -7196 0
-9161 -7197 0
-9161 -7198 0
-9161 -7199 0
-9161 -7200 0
-9161 -7201 0
-9161 -7202 0
-9161 -7203 0
-9161 -7204 0
-9161 -7205 0
-9161 -7206 0
-9161 -7207 0
-9161 -7208 0
-9161 -7209 0
-9161 -7210 0
-9161 -7211 0
-9161 -7212 0
-9161 -7213 0
-9161 -7214 0
-9161 -7215 0
-9161 -7216 0
-9161 -7217 0
-9161 -7218 0
-9161 -7219 0
-9161 -7220 0
-9161 -7221 0
-9161 -7222 0
-9161 -7223 0
-9161 -7224 0
-9161 -7225 0
-9161 -7226 0
-9161 -7227 0
-9161 -7228 0
-9161 -7229 0
-9161 -7230 0
-9161 -7231 0
-9161 -7232 0
-9161 -7233 0
-9161 -7234 0
-9161 -7235 0
-9161 -7236 0
-9161 -7237 0
-9161 -7238 0
-9161 -7239 0
-9161 -7240 0
-9161 -7241 0
-9161 -7242 0
-9161 -7243 0
-9161 -7244 0
-9161 -7245 0
-9161 -7246 0
-9161 -7247 0
-9161 -7248 0
-9161 -7249 0
-9161 -7250 0
-9161 -7251 0
-9161 -7252 0
-9161 -7253 0
-9161 -7254 0
-9161 -7255 0
-9161 -7256 0
-9161 -7257 0
-9161 -7258 0
-9161 -7259 0
-9161 -7260 0
-9161 -7261 0
-9161 -7262 0
-9161 -7263 0
-9161 -7264 0
-9161 -7265 0
-9161 -7266 0
-9161 -7267 0
-9161 -7268 0
-9161 -7269 0
-9161 -7270 0
-9161 -7271 0
-9161 -7272 0
-9161 -7273 0
-9161 -7274 0
-9161 -7275 0
-9161 -7276 0
-9161 -7277 0
-9161 -7278 0
-9161 -7279 0
-9161 -7280 0
-9161 -7281 0
-9161 -7282 0
-9161 -7283 0
-9161 -7284 0
-9161 -7285 0
-9161 -7286 0
-9161 -7287 0
-9161 -7288 0
-9161 -7289 0
-9161 -7290 0
-9161 -7291 0
-9161 -7292 0
-9161 -7293 0
-9161 -7294 0
-9161 -7295 0
-9161 -7296 0
-9161 -7297 0
-9161 -7298 0
-9161 -7299 0
-9161 -7300 0
-9161 -7301 0
-9161 -7302 0
-9161 -7303 0
-9161 -7304 0
-9161 -7305 0
-9161 -7306 0
-9161 -7307 0
-9161 -7308 0
-9161 -7309 0
-9161 -7310 0
-9161 -7311 0
-9161 -7312 0
-9161 -7313 0
-9161 -7314 0
-9161 -7315 0
-9161 -7316 0
-9161 -7317 0
-9161 -7318 0
-9161 -7319 0
-9161 -7320 0
-9161 -7321 0
-9161 -7322 0
-9161 -7323 0
-9161 -7324 0
-9161 -7325 0
-9161 -7326 0
-9161 -7327 0
-9161 -7328 0
-9161 -7329 0
-9161 -7330 0
-9161 -7331 0
-9161 -7332 0
-9161 -7333 0
-9161 -7334 0
-9161 -7335 0
-9161 -7336 0
-9161 -7337 0
-9161 -7338 0
-9161 -7339 0
-9161 -7340 0
-9161 -7341 0
-9161 -7342 0
-9161 -7343 0
-9161 -7344 0
-9161 -7345 0
-9161 -7346 0
-9161 -7347 0
-9161 -7348 0
-9161 -7349 0
-9161 -7350 0
-9161 -7351 0
-9161 -7352 0
-9161 -7353 0
-9161 -7354 0
-9161 -7355 0
-9161 -7356 0
-9161 -7357 0
-9161 -7358 0
-9161 -7359 0
-9161 -7360 0
-9161 -7361 0
-9161 -7362 0
-9161 -7363 0
-9161 -7364 0
-9161 -7365 0
-9161 -7366 0
-9161 -7367 0
-9161 -7368 0
-9161 -7369 0
-9161 -7370 0
-9161 -7371 0
-9161 -7372 0
-9161 -7373 0
-9161 -7374 0
-9161 -7375 0
-9161 -7376 0
-9161 -7377 0
-9161 -7378 0
-9161 -7379 0
-9161 -7380 0
-9161 -7381 0
-9161 -7382 0
-9161 -7383 0
-9161 -7384 0
-9161 -7385 0
-9161 -7386 0
-9161 -7387 0
-9161 -7388 0
-9161 -7389 0
-9161 -7390 0
-9161 -7391 0
-9161 -7392 0
-9161 -7393 0
-9161 -7394 0
-9161 -7395 0
-9161 -7396 0
-9161 -7397 0
-9161 -7398 0
-9161 -7399 0
-9161 -7400 0
-9161 -7401 0
-9161 -7402 0
-9161 -7403 0
-9161 -7404 0
-9161 -7405 0
-9161 -7406 0
-9161 -7407 0
-9161 -7408 0
-9161 -7409 0
-9161 -7410 0
-9161 -7411 0
-9161 -7412 0
-9161 -7413 0
-9161 -7414 0
-9161 -7415 0
-9161 -7416 0
-9161 -7417 0
-9161 -7418 0
-9161 -7419 0
-9161 -7420 0
-9161 -7421 0
-9161 -7422 0
-9161 -7423 0
-9161 -7424 0
-9161 -7425 0
-9161 -7426 0
-9161 -7427 0
-9161 -7428 0
-9161 -7429 0
-9161 -7430 0
-9161 -7431 0
-9161 -7432 0
-9161 -7433 0
-9161 -7434 0
-9161 -7435 0
-9161 -7436 0
-9161 -7437 0
-9161 -7438 0
-9161 -7439 0
-9161 -7440 0
-9161 -7441 0
-9161 -7442 0
-9161 -7443 0
-9161 -7444 0
-9161 -7445 0
-9161 -7446 0
-9161 -7447 0
-9161 -7448 0
-9161 -7449 0
-9161 -7450 0
-9161 -7451 0
-9161 -7452 0
-9161 -7453 0
-9161 -7454 0
-9161 -7455 0
-9161 -7456 0
-9161 -7457 0
-9161 -7458 0
-9161 -7459 0
-9161 -7460 0
-9161 -7461 0
-9161 -7462 0
-9161 -7463 0
-9161 -7464 0
-9161 -7465 0
-9161 -7466 0
-9161 -7467 0
-9161 -7468 0
-9161 -7469 0
-9161 -7470 0
-9161 -7471 0
-9161 -7472 0
-9161 -7473 0
-9161 -7474 0
-9161 -7475 0
-9161 -7476 0
-9161 -7477 0
-9161 -7478 0
-9161 -7479 0
-9161 -7480 0
-9161 -7481 0
-9161 -7482 0
-9161 -7483 0
-9161 -7484 0
-9161 -7485 0
-9161 -7486 0
-9161 -7487 0
-9161 -7488 0
-9161 -7489 0
-9161 -7490 0
-9161 -7491 0
-9161 -7492 0
-9161 -7493 0
-9161 -7494 0
-9161 -7495 0
-9161 -7496 0
-9161 -7497 0
-9161 -7498 0
-9161 -7499 0
-9161 -7500 0
-9161 -7501 0
-9161 -7502 0
-9161 -7503 0
-9161 -7504 0
-9161 -7505 0
-9161 -7506 0
-9161 -7507 0
-9161 -7508 0
-9161 -7509 0
-9161 -7510 0
-9161 -7511 0
-9161 -7512 0
-9161 -7513 0
-9161 -7514 0
-9161 -7515 0
-9161 -7516 0
-9161 -7517 0
-9161 -7518 0
-9161 -7519 0
-9161 -7520 0
-9161 -7521 0
-9161 -7522 0
-9161 -7523 0
-9161 -7524 0
-9161 -7525 0
-9161 -7526 0
-9161 -7527 0
-9161 -7528 0
-9161 -7529 0
-9161 -7530 0
-9161 -7531 0
-9161 -7532 0
-9161 -7533 0
-9161 -7534 0
-9161 -7535 0
-9161 -7536 0
-9161 -7537 0
-9161 -7538 0
-9161 -7539 0
-9161 -7540 0
-9161 -7541 0
-9161 -7542 0
-9161 -7543 0
-9161 -7544 0
-9161 -7545 0
-9161 -7546 0
-9161 -7547 0
-9161 -7548 0
-9161 -7549 0
-9161 -7550 0
-9161 -7551 0
-9161 -7552 0
-9161 -7553 0
-9161 -7554 0
-9161 -7555 0
-9161 -7556 0
-9161 -7557 0
-9161 -7558 0
-9161 -7559 0
-9161 -7560 0
-9161 -7561 0
-9161 -7562 0
-9161 -7563 0
-9161 -7564 0
-9161 -7565 0
-9161 -7566 0
-9161 -7567 0
-9161 -7568 0
-9161 -7569 0
-9161 -7570 0
-9161 -7571 0
-9161 -7572 0
-9161 -7573 0
-9161 -7574 0
-9161 -7575 0
-9161 -7576 0
-9161 -7577 0
-9161 -7578 0
-9161 -7579 0
-9161 -7580 0
-9161 -7581 0
-9161 -7582 0
-9161 -7583 0
-9161 -7584 0
-9161 -7585 0
-9161 -7586 0
-9161 -7587 0
-9161 -7588 0
-9161 -7589 0
-9161 -7590 0
-9161 -7591 0
-9161 -7592 0
-9161 -7593 0
-9161 -7594 0
-9161 -7595 0
-9161 -7596 0
-9161 -7597 0
-9161 -7598 0
-9161 -7599 0
-9161 -7600 0
-9161 -7601 0
-9161 -7602 0
-9161 -7603 0
-9161 -7604 0
-9161 -7605 0
-9161 -7606 0
-9161 -7607 0
-9161 -7608 0
-9161 -7609 0
-9161 -7610 0
-9161 -7611 0
-9161 -7612 0
-9161 -7613 0
-9161 -7614 0
-9161 -7615 0
-9161 -7616 0
-9161 -7617 0
-9161 -7618 0
-9161 -7619 0
-9161 -7620 0
-9161 -7621 0
-9161 -7622 0
-9161 -7623 0
-9161 -7624 0
-9161 -7625 0
-9161 -7626 0
-9161 -7627 0
-9161 -7628 0
-9161 -7629 0
-9161 -7630 0
-9161 -7631 0
-9161 -7632 0
-9161 -7633 0
-9161 -7634 0
-9161 -7635 0
-9161 -7636 0
-9161 -7637 0
-9161 -7638 0
-9161 -7639 0
-9161 -7640 0
-9161 -7641 0
-9161 -7642 0
-9161 -7643 0
-9161 -7644 0
-9161 -7645 0
-9161 -7646 0
-9161 -7647 0
-9161 -7648 0
-9161 -7649 0
-9161 -7650 0
-9161 -7651 0
-9161 -7652 0
-9161 -7653 0
-9161 -7654 0
-9161 -7655 0
-9161 -7656 0
-9161 -7657 0
-9161 -7658 0
-9161 -7659 0
-9161 -7660 0
-9161 -7661 0
-9161 -7662 0
-9161 -7663 0
-9161 -7664 0
-9161 -7665 0
-9161 -7666 0
-9161 -7667 0
-9161 -7668 0
-9161 -7669 0
-9161 -7670 0
-9161 -7671 0
-9161 -7672 0
-9161 -7673 0
-9161 -7674 0
-9161 -7675 0
-9161 -7676 0
-9161 -7677 0
-9161 -7678 0
-9161 -7679 0
-9161 -7680 0
-9161 -7681 0
-9161 -7682 0
-9161 -7683 0
-9161 -7684 0
-9161 -7685 0
-9161 -7686 0
-9161 -7687 0
-9161 -7688 0
-9161 -7689 0
-9161 -7690 0
-9161 -7691 0
-9161 -7692 0
-9161 -7693 0
-9161 -7694 0
-9161 -7695 0
-9161 -7696 0
-9161 -7697 0
-9161 -7698 0
-9161 -7699 0
-9161 -7700 0
-9161 -7701 0
-9161 -7702 0
-9161 -7703 0
-9161 -7704 0
-9161 -7705 0
-9161 -7706 0
-9161 -7707 0
-9161 -7708 0
-9161 -7709 0
-9161 -7710 0
-9161 -7711 0
-9161 -7712 0
-9161 -7713 0
-9161 -7714 0
-9161 -7715 0
-9161 -7716 0
-9161 -7717 0
-9161 -7718 0
-9161 -7719 0
-9161 -7720 0
-9161 -7721 0
-9161 -7722 0
-9161 -7723 0
-9161 -7724 0
-9161 -7725 0
-9161 -7726 0
-9161 -7727 0
-9161 -7728 0
-9161 -7729 0
-9161 -7730 0
-9161 -7731 0
-9161 -7732 0
-9161 -7733 0
-9161 -7734 0
-9161 -7735 0
-9161 -7736 0
-9161 -7737 0
-9161 -7738 0
-9161 -7739 0
-9161 -7740 0
-9161 -7741 0
-9161 -7742 0
-9161 -7743 0
-9161 -7744 0
-9161 -7745 0
-9161 -7746 0
-9161 -7747 0
-9161 -7748 0
-9161 -7749 0
-9161 -7750 0
-9161 -7751 0
-9161 -7752 0
-9161 -7753 0
-9161 -7754 0
-9161 -7755 0
-9161 -7756 0
-9161 -7757 0
-9161 -7758 0
-9161 -7759 0
-9161 -7760 0
-9161 -7761 0
-9161 -7762 0
-9161 -7763 0
-9161 -7764 0
-9161 -7765 0
-9161 -7766 0
-9161 -7767 0
-9161 -7768 0
-9161 -7769 0
-9161 -7770 0
-9161 -7771 0
-9161 -7772 0
-9161 -7773 0
-9161 -7774 0
-9161 -7775 0
-9161 -7776 0
-9161 -7777 0
-9161 -7778 0
-9161 -7779 0
-9161 -7780 0
-9161 -7781 0
-9161 -7782 0
-9161 -7783 0
-9161 -7784 0
-9161 -7785 0
-9161 -7786 0
-9161 -7787 0
-9161 -7788 0
-9161 -7789 0
-9161 -7790 0
-9161 -7791 0
-9161 -7792 0
-9161 -7793 0
-9161 -7794 0
-9161 -7795 0
-9161 -7796 0
-9161 -7797 0
-9161 -7798 0
-9161 -7799 0
-9161 -7800 0
-9161 -7801 0
-9161 -7802 0
-9161 -7803 0
-9161 -7804 0
-9161 -7805 0
-9161 -7806 0
-9161 -7807 0
-9161 -7808 0
-9161 -7809 0
-9161 -7810 0
-9161 -7811 0
-9161 -7812 0
-9161 -7813 0
-9161 -7814 0
-9161 -7815 0
-9161 -7816 0
-9161 -7817 0
-9161 -7818 0
-9161 -7819 0
-9161 -7820 0
-9161 -7821 0
-9161 -7822 0
-9161 -7823 0
-9161 -7824 0
-9161 -7825 0
-9161 -7826 0
-9161 -7827 0
-9161 -7828 0
-9161 -7829 0
-9161 -7830 0
-9161 -7831 0
-9161 -7832 0
-9161 -7833 0
-9161 -7834 0
-9161 -7835 0
-9161 -7836 0
-9161 -7837 0
-9161 -7838 0
-9161 -7839 0
-9161 -7840 0
-9161 -7841 0
-9161 -7842 0
-9161 -7843 0
-9161 -7844 0
-9161 -7845 0
-9161 -7846 0
-9161 -7847 0
-9161 -7848 0
-9161 -7849 0
-9161 -7850 0
-9161 -7851 0
-9161 -7852 0
-9161 -7853 0
-9161 -7854 0
-9161 -7855 0
-9161 -7856 0
-9161 -7857 0
-9161 -7858 0
-9161 -7859 0
-9161 -7860 0
-9161 -7861 0
-9161 -7862 0
-9161 -7863 0
-9161 -7864 0
-9161 -7865 0
-9161 -7866 0
-9161 -7867 0
-9161 -7868 0
-9161 -7869 0
-9161 -7870 0
-9161 -7871 0
-9161 -7872 0
-9161 -7873 0
-9161 -7874 0
-9161 -7875 0
-9161 -7876 0
-9161 -7877 0
-9161 -7878 0
-9161 -7879 0
-9161 -7880 0
-9161 -7881 0
-9161 -7882 0
-9161 -7883 0
-9161 -7884 0
-9161 -7885 0
-9161 -7886 0
-9161 -7887 0
-9161 -7888 0
-9161 -7889 0
-9161 -7890 0
-9161 -7891 0
-9161 -7892 0
-9161 -7893 0
-9161 -7894 0
-9161 -7895 0
-9161 -7896 0
-9161 -7897 0
-9161 -7898 0
-9161 -7899 0
-9161 -7900 0
-9161 -7901 0
-9161 -7902 0
-9161 -7903 0
-9161 -7904 0
-9161 -7905 0
-9161 -7906 0
-9161 -7907 0
-9161 -7908 0
-9161 -7909 0
-9161 -7910 0
-9161 -7911 0
-9161 -7912 0
-9161 -7913 0
-9161 -7914 0
-9161 -7915 0
-9161 -7916 0
-9161 -7917 0
-9161 -7918 0
-9161 -7919 0
-9161 -7920 0
-9161 -7921 0
-9161 -7922 0
-9161 -7923 0
-9161 -7924 0
-9161 -7925 0
-9161 -7926 0
-9161 -7927 0
-9161 -7928 0
-9161 -7929 0
-9161 -7930 0
-9161 -7931 0
-9161 -7932 0
-9161 -7933 0
-9161 -7934 0
-9161 -7935 0
-9161 -7936 0
-9161 -7937 0
-9161 -7938 0
-9161 -7939 0
-9161 -7940 0
-9161 -7941 0
-9161 -7942 0
-9161 -7943 0
-9161 -7944 0
-9161 -7945 0
-9161 -7946 0
-9161 -7947 0
-9161 -7948 0
-9161 -7949 0
-9161 -7950 0
-9161 -7951 0
-9161 -7952 0
-9161 -7953 0
-9161 -7954 0
-9161 -7955 0
-9161 -7956 0
-9161 -7957 0
-9161 -7958 0
-9161 -7959 0
-9161 -7960 0
-9161 -7961 0
-9161 -7962 0
-9161 -7963 0
-9161 -7964 0
-9161 -7965 0
-9161 -7966 0
-9161 -7967 0
-9161 -7968 0
-9161 -7969 0
-9161 -7970 0
-9161 -7971 0
-9161 -7972 0
-9161 -7973 0
-9161 -7974 0
-9161 -7975 0
-9161 -7976 0
-9161 -7977 0
-9161 -7978 0
-9161 -7979 0
-9161 -7980 0
-9161 -7981 0
-9161 -7982 0
-9161 -7983 0
-9161 -7984 0
-9161 -7985 0
-9161 -7986 0
-9161 -7987 0
-9161 -7988 0
-9161 -7989 0
-9161 -7990 0
-9161 -7991 0
-9161 -7992 0
-9161 -7993 0
-9161 -7994 0
-9161 -7995 0
-9161 -7996 0
-9161 -7997 0
-9161 -7998 0
-9161 -7999 0
-9161 -8000 0
-9161 -8001 0
-9161 -8002 0
-9161 -8003 0
-9161 -8004 0
-9161 -8005 0
-9161 -8006 0
-9161 -8007 0
-9161 -8008 0
-9161 -8009 0
-9161 -8010 0
-9161 -8011 0
-9161 -8012 0
-9161 -8013 0
-9161 -8014 0
-9161 -8015 0
-9161 -8016 0
-9161 -8017 0
-9161 -8018 0
-9161 -8019 0
-9161 -8020 0
-9161 -8021 0
-9161 -8022 0
-9161 -8023 0
-9161 -8024 0
-9161 -8025 0
-9161 -8026 0
-9161 -8027 0
-9161 -8028 0
-9161 -8029 0
-9161 -8030 0
-9161 -8031 0
-9161 -8032 0
-9161 -8033 0
-9161 -8034 0
-9161 -8035 0
-9161 -8036 0
-9161 -8037 0
-9161 -8038 0
-9161 -8039 0
-9161 -8040 0
-9161 -8041 0
-9161 -8042 0
-9161 -8043 0
-9161 -8044 0
-9161 -8045 0
-9161 -8046 0
-9161 -8047 0
-9161 -8048 0
-9161 -8049 0
-9161 -8050 0
-9161 -8051 0
-9161 -8052 0
-9161 -8053 0
-9161 -8054 0
-9161 -8055 0
-9161 -8056 0
-9161 -8057 0
-9161 -8058 0
-9161 -8059 0
-9161 -8060 0
-9161 -8061 0
-9161 -8062 0
-9161 -8063 0
-9161 -8064 0
-9161 -8065 0
-9161 -8066 0
-9161 -8067 0
-9161 -8068 0
-9161 -8069 0
-9161 -8070 0
-9161 -8071 0
-9161 -8072 0
-9161 -8073 0
-9161 -8074 0
-9161 -8075 0
-9161 -8076 0
-9161 -8077 0
-9161 -8078 0
-9161 -8079 0
-9161 -8080 0
-9161 -8081 0
-9161 -8082 0
-9161 -8083 0
-9161 -8084 0
-9161 -8085 0
-9161 -8086 0
-9161 -8087 0
-9161 -8088 0
-9161 -8089 0
-9161 -8090 0
-9161 -8091 0
-9161 -8092 0
-9161 -8093 0
-9161 -8094 0
-9161 -8095 0
-9161 -8096 0
-9161 -8097 0
-9161 -8098 0
-9161 -8099 0
-9161 -8100 0
-9161 -8101 0
-9161 -8102 0
-9161 -8103 0
-9161 -8104 0
-9161 -8105 0
-9161 -8106 0
-9161 -8107 0
-9161 -8108 0
-9161 -8109 0
-9161 -8110 0
-9161 -8111 0
-9161 -8112 0
-9161 -8113 0
-9161 -8114 0
-9161 -8115 0
-9161 -8116 0
-9161 -8117 0
-9161 -8118 0
-9161 -8119 0
-9161 -8120 0
-9161 -8121 0
-9161 -8122 0
-9161 -8123 0
-9161 -8124 0
-9161 -8125 0
-9161 -8126 0
-9161 -8127 0
-9161 -8128 0
-9161 -8129 0
-9161 -8130 0
-9161 -8131 0
-9161 -8132 0
-9161 -8133 0
-9161 -8134 0
-9161 -8135 0
-9161 -8136 0
-9161 -8137 0
-9161 -8138 0
-9161 -8139 0
-9161 -8140 0
-9161 -8141 0
-9161 -8142 0
-9161 -8143 0
-9161 -8144 0
-9161 -8145 0
-9161 -8146 0
-9161 -8147 0
-9161 -8148 0
-9161 -8149 0
-9161 -8150 0
-9161 -8151 0
-9161 -8152 0
-9161 -8153 0
-9161 -8154 0
-9161 -8155 0
-9161 -8156 0
-9161 -8157 0
-9161 -8158 0
-9161 -8159 0
-9161 -8160 0
-9161 -8161 0
-9161 -8162 0
-9161 -8163 0
-9161 -8164 0
-9161 -8165 0
-9161 -8166 0
-9161 -8167 0
-9161 -8168 0
-9161 -8169 0
-9161 -8170 0
-9161 -8171 0
-9161 -8172 0
-9161 -8173 0
-9161 -8174 0
-9161 -8175 0
-9161 -8176 0
-9161 -8177 0
-9161 -8178 0
-9161 -8179 0
-9161 -8180 0
-9161 -8181 0
-9161 -8182 0
-9161 -8183 0
-9161 -8184 0
-9161 -8185 0
-9161 -8186 0
-9161 -8187 0
-9161 -8188 0
-9161 -8189 0
-9161 -8190 0
-9161 -8191 0
-9161 -8192 0
-9161 -8193 0
-9161 -8194 0
-9161 -8195 0
-9161 -8196 0
-9161 -8197 0
-9161 -8198 0
-9161 -8199 0
-9161 -8200 0
-9161 -8201 0
-9161 -8202 0
-9161 -8203 0
-9161 -8204 0
-9161 -8205 0
-9161 -8206 0
-9161 -8207 0
-9161 -8208 0
-9161 -8209 0
-9161 -8210 0
-9161 -8211 0
-9161 -8212 0
-9161 -8213 0
-9161 -8214 0
-9161 -8215 0
-9161 -8216 0
-9161 -8217 0
-9161 -8218 0
-9161 -8219 0
-9161 -8220 0
-9161 -8221 0
-9161 -8222 0
-9161 -8223 0
-9161 -8224 0
-9161 -8225 0
-9161 -8226 0
-9161 -8227 0
-9161 -8228 0
-9161 -8229 0
-9161 -8230 0
-9161 -8231 0
-9161 -8232 0
-9161 -8233 0
-9161 -8234 0
-9161 -8235 0
-9161 -8236 0
-9161 -8237 0
-9161 -8238 0
-9161 -8239 0
-9161 -8240 0
-9161 -8241 0
-9161 -8242 0
-9161 -8243 0
-9161 -8244 0
-9161 -8245 0
-9161 -8246 0
-9161 -8247 0
-9161 -8248 0
-9161 -8249 0
-9161 -8250 0
-9161 -8251 0
-9161 -8252 0
-9161 -8253 0
-9161 -8254 0
-9161 -8255 0
-9161 -8256 0
-9161 -8257 0
-9161 -8258 0
-9161 -8259 0
-9161 -8260 0
-9161 -8261 0
-9161 -8262 0
-9161 -8263 0
-9161 -8264 0
-9161 -8265 0
-9161 -8266 0
-9161 -8267 0
-9161 -8268 0
-9161 -8269 0
-9161 -8270 0
-9161 -8271 0
-9161 -8272 0
-9161 -8273 0
-9161 -8274 0
-9161 -8275 0
-9161 -8276 0
-9161 -8277 0
-9161 -8278 0
-9161 -8279 0
-9161 -8280 0
-9161 -8281 0
-9161 -8282 0
-9161 -8283 0
-9161 -8284 0
-9161 -8285 0
-9161 -8286 0
-9161 -8287 0
-9161 -8288 0
-9161 -8289 0
-9161 -8290 0
-9161 -8291 0
-9161 -8292 0
-9161 -8293 0
-9161 -8294 0
-9161 -8295 0
-9161 -8296 0
-9161 -8297 0
-9161 -8298 0
-9161 -8299 0
-9161 -8300 0
-9161 -8301 0
-9161 -8302 0
-9161 -8303 0
-9161 -8304 0
-9161 -8305 0
-9161 -8306 0
-9161 -8307 0
-9161 -8308 0
-9161 -8309 0
-9161 -8310 0
-9161 -8311 0
-9161 -8312 0
-9161 -8313 0
-9161 -8314 0
-9161 -8315 0
-9161 -8316 0
-9161 -8317 0
-9161 -8318 0
-9161 -8319 0
-9161 -8320 0
-9161 -8321 0
-9161 -8322 0
-9161 -8323 0
-9161 -8324 0
-9161 -8325 0
-9161 -8326 0
-9161 -8327 0
-9161 -8328 0
-9161 -8329 0
-9161 -8330 0
-9161 -8331 0
-9161 -8332 0
-9161 -8333 0
-9161 -8334 0
-9161 -8335 0
-9161 -8336 0
-9161 -8337 0
-9161 -8338 0
-9161 -8339 0
-9161 -8340 0
-9161 -8341 0
-9161 -8342 0
-9161 -8343 0
-9161 -8344 0
-9161 -8345 0
-9161 -8346 0
-9161 -8347 0
-9161 -8348 0
-9161 -8349 0
-9161 -8350 0
-9161 -8351 0
-9161 -8352 0
-9161 -8353 0
-9161 -8354 0
-9161 -8355 0
-9161 -8356 0
-9161 -8357 0
-9161 -8358 0
-9161 -8359 0
-9161 -8360 0
-9161 -8361 0
-9161 -8362 0
-9161 -8363 0
-9161 -8364 0
-9161 -8365 0
-9161 -8366 0
-9161 -8367 0
-9161 -8368 0
-9161 -8369 0
-9161 -8370 0
-9161 -8371 0
-9161 -8372 0
-9161 -8373 0
-9161 -8374 0
-9161 -8375 0
-9161 -8376 0
-9161 -8377 0
-9161 -8378 0
-9161 -8379 0
-9161 -8380 0
-9161 -8381 0
-9161 -8382 0
-9161 -8383 0
-9161 -8384 0
-9161 -8385 0
-9161 -8386 0
-9161 -8387 0
-9161 -8388 0
-9161 -8389 0
-9161 -8390 0
-9161 -8391 0
-9161 -8392 0
-9161 -8393 0
-9161 -8394 0
-9161 -8395 0
-9161 -8396 0
-9161 -8397 0
-9161 -8398 0
-9161 -8399 0
-9161 -8400 0
-9161 -8401 0
-9161 -8402 0
-9161 -8403 0
-9161 -8404 0
-9161 -8405 0
-9161 -8406 0
-9161 -8407 0
-9161 -8408 0
-9161 -8409 0
-9161 -8410 0
-9161 -8411 0
-9161 -8412 0
-9161 -8413 0
-9161 -8414 0
-9161 -8415 0
-9161 -8416 0
-9161 -8417 0
-9161 -8418 0
-9161 -8419 0
-9161 -8420 0
-9161 -8421 0
-9161 -8422 0
-9161 -8423 0
-9161 -8424 0
-9161 -8425 0
-9161 -8426 0
-9161 -8427 0
-9161 -8428 0
-9161 -8429 0
-9161 -8430 0
-9161 -8431 0
-9161 -8432 0
-9161 -8433 0
-9161 -8434 0
-9161 -8435 0
-9161 -8436 0
-9161 -8437 0
-9161 -8438 0
-9161 -8439 0
-9161 -8440 0
-9161 -8441 0
-9161 -8442 0
-9161 -8443 0
-9161 -8444 0
-9161 -8445 0
-9161 -8446 0
-9161 -8447 0
-9161 -8448 0
-9161 -8449 0
-9161 -8450 0
-9161 -8451 0
-9161 -8452 0
-9161 -8453 0
-9161 -8454 0
-9161 -8455 0
-9161 -8456 0
-9161 -8457 0
-9161 -8458 0
-9161 -8459 0
-9161 -8460 0
-9161 -8461 0
-9161 -8462 0
-9161 -8463 0
-9161 -8464 0
-9161 -8465 0
-9161 -8466 0
-9161 -8467 0
-9161 -8468 0
-9161 -8469 0
-9161 -8470 0
-9161 -8471 0
-9161 -8472 0
-9161 -8473 0
-9161 -8474 0
-9161 -8475 0
-9161 -8476 0
-9161 -8477 0
-9161 -8478 0
-9161 -8479 0
-9161 -8480 0
-9161 -8481 0
-9161 -8482 0
-9161 -8483 0
-9161 -8484 0
-9161 -8485 0
-9161 -8486 0
-9161 -8487 0
-9161 -8488 0
-9161 -8489 0
-9161 -8490 0
-9161 -8491 0
-9161 -8492 0
-9161 -8493 0
-9161 -8494 0
-9161 -8495 0
-9161 -8496 0
-9161 -8497 0
-9161 -8498 0
-9161 -8499 0
-9161 -8500 0
-9161 -8501 0
-9161 -8502 0
-9161 -8503 0
-9161 -8504 0
-9161 -8505 0
-9161 -8506 0
-9161 -8507 0
-9161 -8508 0
-9161 -8509 0
-9161 -8510 0
-9161 -8511 0
-9161 -8512 0
-9161 -8513 0
-9161 -8514 0
-9161 -8515 0
-9161 -8516 0
-9161 -8517 0
-9161 -8518 0
-9161 -8519 0
-9161 -8520 0
-9161 -8521 0
-9161 -8522 0
-9161 -8523 0
-9161 -8524 0
-9161 -8525 0
-9161 -8526 0
-9161 -8527 0
-9161 -8528 0
-9161 -8529 0
-9161 -8530 0
-9161 -8531 0
-9161 -8532 0
-9161 -8533 0
-9161 -8534 0
-9161 -8535 0
-9161 -8536 0
-9161 -8537 0
-9161 -8538 0
-9161 -8539 0
-9161 -8540 0
-9161 -8541 0
-9161 -8542 0
-9161 -8543 0
-9161 -8544 0
-9161 -8545 0
-9161 -8546 0
-9161 -8547 0
-9161 -8548 0
-9161 -8549 0
-9161 -8550 0
-9161 -8551 0
-9161 -8552 0
-9161 -8553 0
-9161 -8554 0
-9161 -8555 0
-9161 -8556 0
-9161 -8557 0
-9161 -8558 0
-9161 -8559 0
-9161 -8560 0
-9161 -8561 0
-9161 -8562 0
-9161 -8563 0
-9161 -8564 0
-9161 -8565 0
-9161 -8566 0
-9161 -8567 0
-9161 -8568 0
-9161 -8569 0
-9161 -8570 0
-9161 -8571 0
-9161 -8572 0
-9161 -8573 0
-9161 -8574 0
-9161 -8575 0
-9161 -8576 0
-9161 -8577 0
-9161 -8578 0
-9161 -8579 0
-9161 -8580 0
-9161 -8581 0
-9161 -8582 0
-9161 -8583 0
-9161 -8584 0
-9161 -8585 0
-9161 -8586 0
-9161 -8587 0
-9161 -8588 0
-9161 -8589 0
-9161 -8590 0
-9161 -8591 0
-9161 -8592 0
-9161 -8593 0
-9161 -8594 0
-9161 -8595 0
-9161 -8596 0
-9161 -8597 0
-9161 -8598 0
-9161 -8599 0
-9161 -8600 0
-9161 -8601 0
-9161 -8602 0
-9161 -8603 0
-9161 -8604 0
-9161 -8605 0
-9161 -8606 0
-9161 -8607 0
-9161 -8608 0
-9161 -8609 0
-9161 -8610 0
-9161 -8611 0
-9161 -8612 0
-9161 -8613 0
-9161 -8614 0
-9161 -8615 0
-9161 -8616 0
-9161 -8617 0
-9161 -8618 0
-9161 -8619 0
-9161 -8620 0
-9161 -8621 0
-9161 -8622 0
-9161 -8623 0
-9161 -8624 0
-9161 -8625 0
-9161 -8626 0
-9161 -8627 0
-9161 -8628 0
-9161 -8629 0
-9161 -8630 0
-9161 -8631 0
-9161 -8632 0
-9161 -8633 0
-9161 -8634 0
-9161 -8635 0
-9161 -8636 0
-9161 -8637 0
-9161 -8638 0
-9161 -8639 0
-9161 -8640 0
-9161 -8641 0
-9161 -8642 0
-9161 -8643 0
-9161 -8644 0
-9161 -8645 0
-9161 -8646 0
-9161 -8647 0
-9161 -8648 0
-9161 -8649 0
-9161 -8650 0
-9161 -8651 0
-9161 -8652 0
-9161 -8653 0
-9161 -8654 0
-9161 -8655 0
-9161 -8656 0
-9161 -8657 0
-9161 -8658 0
-9161 -8659 0
-9161 -8660 0
-9161 -8661 0
-9161 -8662 0
-9161 -8663 0
-9161 -8664 0
-9161 -8665 0
-9161 -8666 0
-9161 -8667 0
-9161 -8668 0
-9161 -8669 0
-9161 -8670 0
-9161 -8671 0
-9161 -8672 0
-9161 -8673 0
-9161 -8674 0
-9161 -8675 0
-9161 -8676 0
-9161 -8677 0
-9161 -8678 0
-9161 -8679 0
-9161 -8680 0
-9161 -8681 0
-9161 -8682 0
-9161 -8683 0
-9161 -8684 0
-9161 -8685 0
-9161 -8686 0
-9161 -8687 0
-9161 -8688 0
-9161 -8689 0
-9161 -8690 0
-9161 -8691 0
-9161 -8692 0
-9161 -8693 0
-9161 -8694 0
-9161 -8695 0
-9161 -8696 0
-9161 -8697 0
-9161 -8698 0
-9161 -8699 0
-9161 -8700 0
-9161 -8701 0
-9161 -8702 0
-9161 -8703 0
-9161 -8704 0
-9161 -8705 0
-9161 -8706 0
-9161 -8707 0
-9161 -8708 0
-9161 -8709 0
-9161 -8710 0
-9161 -8711 0
-9161 -8712 0
-9161 -8713 0
-9161 -8714 0
-9161 -8715 0
-9161 -8716 0
-9161 -8717 0
-9161 -8718 0
-9161 -8719 0
-9161 -8720 0
-9161 -8721 0
-9161 -8722 0
-9161 -8723 0
-9161 -8724 0
-9161 -8725 0
-9161 -8726 0
-9161 -8727 0
-9161 -8728 0
-9161 -8729 0
-9161 -8730 0
-9161 -8731 0
-9161 -8732 0
-9161 -8733 0
-9161 -8734 0
-9161 -8735 0
-9161 -8736 0
-9161 -8737 0
-9161 -8738 0
-9161 -8739 0
-9161 -8740 0
-9161 -8741 0
-9161 -8742 0
-9161 -8743 0
-9161 -8744 0
-9161 -8745 0
-9161 -8746 0
-9161 -8747 0
-9161 -8748 0
-9161 -8749 0
-9161 -8750 0
-9161 -8751 0
-9161 -8752 0
-9161 -8753 0
-9161 -8754 0
-9161 -8755 0
-9161 -8756 0
-9161 -8757 0
-9161 -8758 0
-9161 -8759 0
-9161 -8760 0
-9161 -8761 0
-9161 -8762 0
-9161 -8763 0
-9161 -8764 0
-9161 -8765 0
-9161 -8766 0
-9161 -8767 0
-9161 -8768 0
-9161 -8769 0
-9161 -8770 0
-9161 -8771 0
-9161 -8772 0
-9161 -8773 0
-9161 -8774 0
-9161 -8775 0
-9161 -8776 0
-9161 -8777 0
-9161 -8778 0
-9161 -8779 0
-9161 -8780 0
-9161 -8781 0
-9161 -8782 0
-9161 -8783 0
-9161 -8784 0
-9161 -8785 0
-9161 -8786 0
-9161 -8787 0
-9161 -8788 0
-9161 -8789 0
-9161 -8790 0
-9161 -8791 0
-9161 -8792 0
-9161 -8793 0
-9161 -8794 0
-9161 -8795 0
-9161 -8796 0
-9161 -8797 0
-9161 -8798 0
-9161 -8799 0
-9161 -8800 0
-9161 -8801 0
-9161 -8802 0
-9161 -8803 0
-9161 -8804 0
-9161 -8805 0
-9161 -8806 0
-9161 -8807 0
-9161 -8808 0
-9161 -8809 0
-9161 -8810 0
-9161 -8811 0
-9161 -8812 0
-9161 -8813 0
-9161 -8814 0
-9161 -8815 0
-9161 -8816 0
-9161 -8817 0
-9161 -8818 0
-9161 -8819 0
-9161 -8820 0
-9161 -8821 0
-9161 -8822 0
-9161 -8823 0
-9161 -8824 0
-9161 -8825 0
-9161 -8826 0
-9161 -8827 0
-9161 -8828 0
-9161 -8829 0
-9161 -8830 0
-9161 -8831 0
-9161 -8832 0
-9161 -8833 0
-9161 -8834 0
-9161 -8835 0
-9161 -8836 0
-9161 -8837 0
-9161 -8838 0
-9161 -8839 0
-9161 -8840 0
-9161 -8841 0
-9161 -8842 0
-9161 -8843 0
-9161 -8844 0
-9161 -8845 0
-9161 -8846 0
-9161 -8847 0
-9161 -8848 0
-9161 -8849 0
-9161 -8850 0
-9161 -8851 0
-9161 -8852 0
-9161 -8853 0
-9161 -8854 0
-9161 -8855 0
-9161 -8856 0
-9161 -8857 0
-9161 -8858 0
-9161 -8859 0
-9161 -8860 0
-9161 -8861 0
-9161 -8862 0
-9161 -8863 0
-9161 -8864 0
-9161 -8865 0
-9161 -8866 0
-9161 -8867 0
-9161 -8868 0
-9161 -8869 0
-9161 -8870 0
-9161 -8871 0
-9161 -8872 0
-9161 -8873 0
-9161 -8874 0
-9161 -8875 0
-9161 -8876 0
-9161 -8877 0
-9161 -8878 0
-9161 -8879 0
-9161 -8880 0
-9161 -8881 0
-9161 -8882 0
-9161 -8883 0
-9161 -8884 0
-9161 -8885 0
-9161 -8886 0
-9161 -8887 0
-9161 -8888 0
-9161 -8889 0
-9161 -8890 0
-9161 -8891 0
-9161 -8892 0
-9161 -8893 0
-9161 -8894 0
-9161 -8895 0
-9161 -8896 0
-9161 -8897 0
-9161 -8898 0
-9161 -8899 0
-9161 -8900 0
-9161 -8901 0
-9161 -8902 0
-9161 -8903 0
-9161 -8904 0
-9161 -8905 0
-9161 -8906 0
-9161 -8907 0
-9161 -8908 0
-9161 -8909 0
-9161 -8910 0
-9161 -8911 0
-9161 -8912 0
-9161 -8913 0
-9161 -8914 0
-9161 -8915 0
-9161 -8916 0
-9161 -8917 0
-9161 -8918 0
-9161 -8919 0
-9161 -8920 0
-9161 -8921 0
-9161 -8922 0
-9161 -8923 0
-9161 -8924 0
-9161 -8925 0
-9161 -8926 0
-9161 -8927 0
-9161 -8928 0
-9161 -8929 0
-9161 -8930 0
-9161 -8931 0
-9161 -8932 0
-9161 -8933 0
-9161 -8934 0
-9161 -8935 0
-9161 -8936 0
-9161 -8937 0
-9161 -8938 0
-9161 -8939 0
-9161 -8940 0
-9161 -8941 0
-9161 -8942 0
-9161 -8943 0
-9161 -8944 0
-9161 -8945 0
-9161 -8946 0
-9161 -8947 0
-9161 -8948 0
-9161 -8949 0
-9161 -8950 0
-9161 -8951 0
-9161 -8952 0
-9161 -8953 0
-9161 -8954 0
-9161 -8955 0
-9161 -8956 0
-9161 -8957 0
-9161 -8958 0
-9161 -8959 0
-9161 -8960 0
-9161 -8961 0
-9161 -8962 0
-9161 -8963 0
-9161 -8964 0
-9161 -8965 0
-9161 -8966 0
-9161 -8967 0
-9161 -8968 0
-9161 -8969 0
-9161 -8970 0
-9161 -8971 0
-9161 -8972 0
-9161 -8973 0
-9161 -8974 0
-9161 -8975 0
-9161 -8976 0
-9161 -8977 0
-9161 -8978 0
-9161 -8979 0
-9161 -8980 0
-9161 -8981 0
-9161 -8982 0
-9161 -8983 0
-9161 -8984 0
-9161 -8985 0
-9161 -8986 0
-9161 -8987 0
-9161 -8988 0
-9161 -8989 0
-9161 -8990 0
-9161 -8991 0
-9161 -8992 0
-9161 -8993 0
-9161 -8994 0
-9161 -8995 0
-9161 -8996 0
-9161 -8997 0
-9161 -8998 0
-9161 -8999 0
-9161 -9000 0
-9161 -9001 0
-9161 -9002 0
-9161 -9003 0
-9161 -9004 0
-9161 -9005 0
-9161 -9006 0
-9161 -9007 0
-9161 -9008 0
-9161 -9009 0
-9161 -9010 0
-9161 -9011 0
-9161 -9012 0
-9161 -9013 0
-9161 -9014 0
-9161 -9015 0
-9161 -9016 0
-9161 -9017 0
-9161 -9018 0
-9161 -9019 0
-9161 -9020 0
-9161 -9021 0
-9161 -9022 0
-9161 -9023 0
-9161 -9024 0
-9161 -9025 0
-9161 -9026 0
-9161 -9027 0
-9161 -9028 0
-9161 -9029 0
-9161 -9030 0
-9161 -9031 0
-9161 -9032 0
-9161 -9033 0
-9161 -9034 0
-9161 -9035 0
-9161 -9036 0
-9161 -9037 0
-9161 -9038 0
-9161 -9039 0
-9161 -9040 0
-9161 -9041 0
-9161 -9042 0
-9161 -9043 0
-9161 -9044 0
-9161 -9045 0
-9161 -9046 0
-9161 -9047 0
-9161 -9048 0
-9161 -9049 0
-9161 -9050 0
-9161 -9051 0
-9161 -9052 0
-9161 -9053 0
-9161 -9054 0
-9161 -9055 0
-9161 -9056 0
-9161 -9057 0
-9161 -9058 0
-9161 -9059 0
-9161 -9060 0
-9161 -9061 0
-9161 -9062 0
-9161 -9063 0
-9161 -9064 0
-9161 -9065 0
-9161 -9066 0
-9161 -9067 0
-9161 -9068 0
-9161 -9069 0
-9161 -9070 0
-9161 -9071 0
-9161 -9072 0
-9161 -9073 0
-9161 -9074 0
-9161 -9075 0
-9161 -9076 0
-9161 -9077 0
-9161 -9078 0
-9161 -9079 0
-9161 -9080 0
-9161 -9081 0
-9161 -9082 0
-9161 -9083 0
-9161 -9084 0
-9161 -9085 0
-9161 -9086 0
-9161 -9087 0
-9161 -9088 0
-9161 -9089 0
-9161 -9090 0
-9161 -9091 0
-9161 -9092 0
-9161 -9093 0
-9161 -9094 0
-9161 -9095 0
-9161 -9096 0
-9161 -9097 0
-9161 -9098 0
-9161 -9099 0
-9161 -9100 0
-9161 -9101 0
-9161 -9102 0
-9161 -9103 0
-9161 -9104 0
-9161 -9105 0
-9161 -9106 0
-9161 -9107 0
-9161 -9108 0
-9161 -9109 0
-9161 -9110 0
-9161 -9111 0
-9161 -9112 0
-9161 -9113 0
-9161 -9114 0
-9161 -9115 0
-9161 -9116 0
-9161 -9117 0
-9161 -9118 0
-9161 -9119 0
-9161 -9120 0
-9161 -9121 0
-9161 -9122 0
-9161 -9123 0
-9161 -9124 0
-9161 -9125 0
-9161 -9126 0
-9161 -9127 0
-9161 -9128 0
-9161 -9129 0
-9161 -9130 0
-9161 -9131 0
-9161 -9132 0
-9161 -9133 0
-9161 -9134 0
-9161 -9135 0
-9161 -9136 0
-9161 -9137 0
-9161 -9138 0
-9161 -9139 0
-9161 -9140 0
-9161 -9141 0
-9161 -9142 0
-9161 -9143 0
-9161 -9144 0
-9161 -9145 0
-9161 -9146 0
-9161 -9147 0
-9161 -9148 0
-9161 -9149 0
-9161 -9150 0
-9161 -9151 0
-9161 -9152 0
-9161 -9153 0
-9161 -9154 0
-9161 -9155 0
-9161 -9156 0
-9161 -9157 0
-9161 -9158 0
-9161 -9159 0
-9161 -9160 0
9161 6187 6188 6189 6190 6191 6192 6193 6194 6195 6196 6197 6198 6199 6200 6201 6202 6203 6204 6205 6206 6207 6208 6209 6210 6211 6212 6213 6214 6215 6216 6217 6218 6219 6220 6221 6222 6223 6224 6225 6226 6227 6228 6229 6230 6231 6232 6233 6234 6235 6236 6237 6238 6239 6240 6241 6242 6243 6244 6245 6246 6247 6248 6249 6250 6251 6252 6253 6254 6255 6256 6257 6258 6259 6260 6261 6262 6263 6264 6265 6266 6267 6268 6269 6270 6271 6272 6273 6274 6275 6276 6277 6278 6279 6280 6281 6282 6283 6284 6285 6286 6287 6288 6289 6290 6291 6292 6293 6294 6295 6296 6297 6298 6299 6300 6301 6302 6303 6304 6305 6306 6307 6308 6309 6310 6311 6312 6313 6314 6315 6316 6317 6318 6319 6320 6321 6322 6323 6324 6325 6326 6327 6328 6329 6330 6331 6332 6333 6334 6335 6336 6337 6338 6339 6340 6341 6342 6343 6344 6345 6346 6347 6348 6349 6350 6351 6352 6353 6354 6355 6356 6357 6358 6359 6360 6361 6362 6363 6364 6365 6366 6367 6368 6369 6370 6371 6372 6373 6374 6375 6376 6377 6378 6379 6380 6381 6382 6383 6384 6385 6386 6387 6388 6389 6390 6391 6392 6393 6394 6395 6396 6397 6398 6399 6400 6401 6402 6403 6404 6405 6406 6407 6408 6409 6410 6411 6412 6413 6414 6415 6416 6417 6418 6419 6420 6421 6422 6423 6424 6425 6426 6427 6428 6429 6430 6431 6432 6433 6434 6435 6436 6437 6438 6439 6440 6441 6442 6443 6444 6445 6446 6447 6448 6449 6450 6451 6452 6453 6454 6455 6456 6457 6458 6459 6460 6461 6462 6463 6464 6465 6466 6467 6468 6469 6470 6471 6472 6473 6474 6475 6476 6477 6478 6479 6480 6481 6482 6483 6484 6485 6486 6487 6488 6489 6490 6491 6492 6493 6494 6495 6496 6497 6498 6499 6500 6501 6502 6503 6504 6505 6506 6507 6508 6509 6510 6511 6512 6513 6514 6515 6516 6517 6518 6519 6520 6521 6522 6523 6524 6525 6526 6527 6528 6529 6530 6531 6532 6533 6534 6535 6536 6537 6538 6539 6540 6541 6542 6543 6544 6545 6546 6547 6548 6549 6550 6551 6552 6553 6554 6555 6556 6557 6558 6559 6560 6561 6562 6563 6564 6565 6566 6567 6568 6569 6570 6571 6572 6573 6574 6575 6576 6577 6578 6579 6580 6581 6582 6583 6584 6585 6586 6587 6588 6589 6590 6591 6592 6593 6594 6595 6596 6597 6598 6599 6600 6601 6602 6603 6604 6605 6606 6607 6608 6609 6610 6611 6612 6613 6614 6615 6616 6617 6618 6619 6620 6621 6622 6623 6624 6625 6626 6627 6628 6629 6630 6631 6632 6633 6634 6635 6636 6637 6638 6639 6640 6641 6642 6643 6644 6645 6646 6647 6648 6649 6650 6651 6652 6653 6654 6655 6656 6657 6658 6659 6660 6661 6662 6663 6664 6665 6666 6667 6668 6669 6670 6671 6672 6673 6674 6675 6676 6677 6678 6679 6680 6681 6682 6683 6684 6685 6686 6687 6688 6689 6690 6691 6692 6693 6694 6695 6696 6697 6698 6699 6700 6701 6702 6703 6704 6705 6706 6707 6708 6709 6710 6711 6712 6713 6714 6715 6716 6717 6718 6719 6720 6721 6722 6723 6724 6725 6726 6727 6728 6729 6730 6731 6732 6733 6734 6735 6736 6737 6738 6739 6740 6741 6742 6743 6744 6745 6746 6747 6748 6749 6750 6751 6752 6753 6754 6755 6756 6757 6758 6759 6760 6761 6762 6763 6764 6765 6766 6767 6768 6769 6770 6771 6772 6773 6774 6775 6776 6777 6778 6779 6780 6781 6782 6783 6784 6785 6786 6787 6788 6789 6790 6791 6792 6793 6794 6795 6796 6797 6798 6799 6800 6801 6802 6803 6804 6805 6806 6807 6808 6809 6810 6811 6812 6813 6814 6815 6816 6817 6818 6819 6820 6821 6822 6823 6824 6825 6826 6827 6828 6829 6830 6831 6832 6833 6834 6835 6836 6837 6838 6839 6840 6841 6842 6843 6844 6845 6846 6847 6848 6849 6850 6851 6852 6853 6854 6855 6856 6857 6858 6859 6860 6861 6862 6863 6864 6865 6866 6867 6868 6869 6870 6871 6872 6873 6874 6875 6876 6877 6878 6879 6880 6881 6882 6883 6884 6885 6886 6887 6888 6889 6890 6891 6892 6893 6894 6895 6896 6897 6898 6899 6900 6901 6902 6903 6904 6905 6906 6907 6908 6909 6910 6911 6912 6913 6914 6915 6916 6917 6918 6919 6920 6921 6922 6923 6924 6925 6926 6927 6928 6929 6930 6931 6932 6933 6934 6935 6936 6937 6938 6939 6940 6941 6942 6943 6944 6945 6946 6947 6948 6949 6950 6951 6952 6953 6954 6955 6956 6957 6958 6959 6960 6961 6962 6963 6964 6965 6966 6967 6968 6969 6970 6971 6972 6973 6974 6975 6976 6977 6978 6979 6980 6981 6982 6983 6984 6985 6986 6987 6988 6989 6990 6991 6992 6993 6994 6995 6996 6997 6998 6999 7000 7001 7002 7003 7004 7005 7006 7007 7008 7009 7010 7011 7012 7013 7014 7015 7016 7017 7018 7019 7020 7021 7022 7023 7024 7025 7026 7027 7028 7029 7030 7031 7032 7033 7034 7035 7036 7037 7038 7039 7040 7041 7042 7043 7044 7045 7046 7047 7048 7049 7050 7051 7052 7053 7054 7055 7056 7057 7058 7059 7060 7061 7062 7063 7064 7065 7066 7067 7068 7069 7070 7071 7072 7073 7074 7075 7076 7077 7078 7079 7080 7081 7082 7083 7084 7085 7086 7087 7088 7089 7090 7091 7092 7093 7094 7095 7096 7097 7098 7099 7100 7101 7102 7103 7104 7105 7106 7107 7108 7109 7110 7111 7112 7113 7114 7115 7116 7117 7118 7119 7120 7121 7122 7123 7124 7125 7126 7127 7128 7129 7130 7131 7132 7133 7134 7135 7136 7137 7138 7139 7140 7141 7142 7143 7144 7145 7146 7147 7148 7149 7150 7151 7152 7153 7154 7155 7156 7157 7158 7159 7160 7161 7162 7163 7164 7165 7166 7167 7168 7169 7170 7171 7172 7173 7174 7175 7176 7177 7178 7179 7180 7181 7182 7183 7184 7185 7186 7187 7188 7189 7190 7191 7192 7193 7194 7195 7196 7197 7198 7199 7200 7201 7202 7203 7204 7205 7206 7207 7208 7209 7210 7211 7212 7213 7214 7215 7216 7217 7218 7219 7220 7221 7222 7223 7224 7225 7226 7227 7228 7229 7230 7231 7232 7233 7234 7235 7236 7237 7238 7239 7240 7241 7242 7243 7244 7245 7246 7247 7248 7249 7250 7251 7252 7253 7254 7255 7256 7257 7258 7259 7260 7261 7262 7263 7264 7265 7266 7267 7268 7269 7270 7271 7272 7273 7274 7275 7276 7277 7278 7279 7280 7281 7282 7283 7284 7285 7286 7287 7288 7289 7290 7291 7292 7293 7294 7295 7296 7297 7298 7299 7300 7301 7302 7303 7304 7305 7306 7307 7308 7309 7310 7311 7312 7313 7314 7315 7316 7317 7318 7319 7320 7321 7322 7323 7324 7325 7326 7327 7328 7329 7330 7331 7332 7333 7334 7335 7336 7337 7338 7339 7340 7341 7342 7343 7344 7345 7346 7347 7348 7349 7350 7351 7352 7353 7354 7355 7356 7357 7358 7359 7360 7361 7362 7363 7364 7365 7366 7367 7368 7369 7370 7371 7372 7373 7374 7375 7376 7377 7378 7379 7380 7381 7382 7383 7384 7385 7386 7387 7388 7389 7390 7391 7392 7393 7394 7395 7396 7397 7398 7399 7400 7401 7402 7403 7404 7405 7406 7407 7408 7409 7410 7411 7412 7413 7414 7415 7416 7417 7418 7419 7420 7421 7422 7423 7424 7425 7426 7427 7428 7429 7430 7431 7432 7433 7434 7435 7436 7437 7438 7439 7440 7441 7442 7443 7444 7445 7446 7447 7448 7449 7450 7451 7452 7453 7454 7455 7456 7457 7458 7459 7460 7461 7462 7463 7464 7465 7466 7467 7468 7469 7470 7471 7472 7473 7474 7475 7476 7477 7478 7479 7480 7481 7482 7483 7484 7485 7486 7487 7488 7489 7490 7491 7492 7493 7494 7495 7496 7497 7498 7499 7500 7501 7502 7503 7504 7505 7506 7507 7508 7509 7510 7511 7512 7513 7514 7515 7516 7517 7518 7519 7520 7521 7522 7523 7524 7525 7526 7527 7528 7529 7530 7531 7532 7533 7534 7535 7536 7537 7538 7539 7540 7541 7542 7543 7544 7545 7546 7547 7548 7549 7550 7551 7552 7553 7554 7555 7556 7557 7558 7559 7560 7561 7562 7563 7564 7565 7566 7567 7568 7569 7570 7571 7572 7573 7574 7575 7576 7577 7578 7579 7580 7581 7582 7583 7584 7585 7586 7587 7588 7589 7590 7591 7592 7593 7594 7595 7596 7597 7598 7599 7600 7601 7602 7603 7604 7605 7606 7607 7608 7609 7610 7611 7612 7613 7614 7615 7616 7617 7618 7619 7620 7621 7622 7623 7624 7625 7626 7627 7628 7629 7630 7631 7632 7633 7634 7635 7636 7637 7638 7639 7640 7641 7642 7643 7644 7645 7646 7647 7648 7649 7650 7651 7652 7653 7654 7655 7656 7657 7658 7659 7660 7661 7662 7663 7664 7665 7666 7667 7668 7669 7670 7671 7672 7673 7674 7675 7676 7677 7678 7679 7680 7681 7682 7683 7684 7685 7686 7687 7688 7689 7690 7691 7692 7693 7694 7695 7696 7697 7698 7699 7700 7701 7702 7703 7704 7705 7706 7707 7708 7709 7710 7711 7712 7713 7714 7715 7716 7717 7718 7719 7720 7721 7722 7723 7724 7725 7726 7727 7728 7729 7730 7731 7732 7733 7734 7735 7736 7737 7738 7739 7740 7741 7742 7743 7744 7745 7746 7747 7748 7749 7750 7751 7752 7753 7754 7755 7756 7757 7758 7759 7760 7761 7762 7763 7764 7765 7766 7767 7768 7769 7770 7771 7772 7773 7774 7775 7776 7777 7778 7779 7780 7781 7782 7783 7784 7785 7786 7787 7788 7789 7790 7791 7792 7793 7794 7795 7796 7797 7798 7799 7800 7801 7802 7803 7804 7805 7806 7807 7808 7809 7810 7811 7812 7813 7814 7815 7816 7817 7818 7819 7820 7821 7822 7823 7824 7825 7826 7827 7828 7829 7830 7831 7832 7833 7834 7835 7836 7837 7838 7839 7840 7841 7842 7843 7844 7845 7846 7847 7848 7849 7850 7851 7852 7853 7854 7855 7856 7857 7858 7859 7860 7861 7862 7863 7864 7865 7866 7867 7868 7869 7870 7871 7872 7873 7874 7875 7876 7877 7878 7879 7880 7881 7882 7883 7884 7885 7886 7887 7888 7889 7890 7891 7892 7893 7894 7895 7896 7897 7898 7899 7900 7901 7902 7903 7904 7905 7906 7907 7908 7909 7910 7911 7912 7913 7914 7915 7916 7917 7918 7919 7920 7921 7922 7923 7924 7925 7926 7927 7928 7929 7930 7931 7932 7933 7934 7935 7936 7937 7938 7939 7940 7941 7942 7943 7944 7945 7946 7947 7948 7949 7950 7951 7952 7953 7954 7955 7956 7957 7958 7959 7960 7961 7962 7963 7964 7965 7966 7967 7968 7969 7970 7971 7972 7973 7974 7975 7976 7977 7978 7979 7980 7981 7982 7983 7984 7985 7986 7987 7988 7989 7990 7991 7992 7993 7994 7995 7996 7997 7998 7999 8000 8001 8002 8003 8004 8005 8006 8007 8008 8009 8010 8011 8012 8013 8014 8015 8016 8017 8018 8019 8020 8021 8022 8023 8024 8025 8026 8027 8028 8029 8030 8031 8032 8033 8034 8035 8036 8037 8038 8039 8040 8041 8042 8043 8044 8045 8046 8047 8048 8049 8050 8051 8052 8053 8054 8055 8056 8057 8058 8059 8060 8061 8062 8063 8064 8065 8066 8067 8068 8069 8070 8071 8072 8073 8074 8075 8076 8077 8078 8079 8080 8081 8082 8083 8084 8085 8086 8087 8088 8089 8090 8091 8092 8093 8094 8095 8096 8097 8098 8099 8100 8101 8102 8103 8104 8105 8106 8107 8108 8109 8110 8111 8112 8113 8114 8115 8116 8117 8118 8119 8120 8121 8122 8123 8124 8125 8126 8127 8128 8129 8130 8131 8132 8133 8134 8135 8136 8137 8138 8139 8140 8141 8142 8143 8144 8145 8146 8147 8148 8149 8150 8151 8152 8153 8154 8155 8156 8157 8158 8159 8160 8161 8162 8163 8164 8165 8166 8167 8168 8169 8170 8171 8172 8173 8174 8175 8176 8177 8178 8179 8180 8181 8182 8183 8184 8185 8186 8187 8188 8189 8190 8191 8192 8193 8194 8195 8196 8197 8198 8199 8200 8201 8202 8203 8204 8205 8206 8207 8208 8209 8210 8211 8212 8213 8214 8215 8216 8217 8218 8219 8220 8221 8222 8223 8224 8225 8226 8227 8228 8229 8230 8231 8232 8233 8234 8235 8236 8237 8238 8239 8240 8241 8242 8243 8244 8245 8246 8247 8248 8249 8250 8251 8252 8253 8254 8255 8256 8257 8258 8259 8260 8261 8262 8263 8264 8265 8266 8267 8268 8269 8270 8271 8272 8273 8274 8275 8276 8277 8278 8279 8280 8281 8282 8283 8284 8285 8286 8287 8288 8289 8290 8291 8292 8293 8294 8295 8296 8297 8298 8299 8300 8301 8302 8303 8304 8305 8306 8307 8308 8309 8310 8311 8312 8313 8314 8315 8316 8317 8318 8319 8320 8321 8322 8323 8324 8325 8326 8327 8328 8329 8330 8331 8332 8333 8334 8335 8336 8337 8338 8339 8340 8341 8342 8343 8344 8345 8346 8347 8348 8349 8350 8351 8352 8353 8354 8355 8356 8357 8358 8359 8360 8361 8362 8363 8364 8365 8366 8367 8368 8369 8370 8371 8372 8373 8374 8375 8376 8377 8378 8379 8380 8381 8382 8383 8384 8385 8386 8387 8388 8389 8390 8391 8392 8393 8394 8395 8396 8397 8398 8399 8400 8401 8402 8403 8404 8405 8406 8407 8408 8409 8410 8411 8412 8413 8414 8415 8416 8417 8418 8419 8420 8421 8422 8423 8424 8425 8426 8427 8428 8429 8430 8431 8432 8433 8434 8435 8436 8437 8438 8439 8440 8441 8442 8443 8444 8445 8446 8447 8448 8449 8450 8451 8452 8453 8454 8455 8456 8457 8458 8459 8460 8461 8462 8463 8464 8465 8466 8467 8468 8469 8470 8471 8472 8473 8474 8475 8476 8477 8478 8479 8480 8481 8482 8483 8484 8485 8486 8487 8488 8489 8490 8491 8492 8493 8494 8495 8496 8497 8498 8499 8500 8501 8502 8503 8504 8505 8506 8507 8508 8509 8510 8511 8512 8513 8514 8515 8516 8517 8518 8519 8520 8521 8522 8523 8524 8525 8526 8527 8528 8529 8530 8531 8532 8533 8534 8535 8536 8537 8538 8539 8540 8541 8542 8543 8544 8545 8546 8547 8548 8549 8550 8551 8552 8553 8554 8555 8556 8557 8558 8559 8560 8561 8562 8563 8564 8565 8566 8567 8568 8569 8570 8571 8572 8573 8574 8575 8576 8577 8578 8579 8580 8581 8582 8583 8584 8585 8586 8587 8588 8589 8590 8591 8592 8593 8594 8595 8596 8597 8598 8599 8600 8601 8602 8603 8604 8605 8606 8607 8608 8609 8610 8611 8612 8613 8614 8615 8616 8617 8618 8619 8620 8621 8622 8623 8624 8625 8626 8627 8628 8629 8630 8631 8632 8633 8634 8635 8636 8637 8638 8639 8640 8641 8642 8643 8644 8645 8646 8647 8648 8649 8650 8651 8652 8653 8654 8655 8656 8657 8658 8659 8660 8661 8662 8663 8664 8665 8666 8667 8668 8669 8670 8671 8672 8673 8674 8675 8676 8677 8678 8679 8680 8681 8682 8683 8684 8685 8686 8687 8688 8689 8690 8691 8692 8693 8694 8695 8696 8697 8698 8699 8700 8701 8702 8703 8704 8705 8706 8707 8708 8709 8710 8711 8712 8713 8714 8715 8716 8717 8718 8719 8720 8721 8722 8723 8724 8725 8726 8727 8728 8729 8730 8731 8732 8733 8734 8735 8736 8737 8738 8739 8740 8741 8742 8743 8744 8745 8746 8747 8748 8749 8750 8751 8752 8753 8754 8755 8756 8757 8758 8759 8760 8761 8762 8763 8764 8765 8766 8767 8768 8769 8770 8771 8772 8773 8774 8775 8776 8777 8778 8779 8780 8781 8782 8783 8784 8785 8786 8787 8788 8789 8790 8791 8792 8793 8794 8795 8796 8797 8798 8799 8800 8801 8802 8803 8804 8805 8806 8807 8808 8809 8810 8811 8812 8813 8814 8815 8816 8817 8818 8819 8820 8821 8822 8823 8824 8825 8826 8827 8828 8829 8830 8831 8832 8833 8834 8835 8836 8837 8838 8839 8840 8841 8842 8843 8844 8845 8846 8847 8848 8849 8850 8851 8852 8853 8854 8855 8856 8857 8858 8859 8860 8861 8862 8863 8864 8865 8866 8867 8868 8869 8870 8871 8872 8873 8874 8875 8876 8877 8878 8879 8880 8881 8882 8883 8884 8885 8886 8887 8888 8889 8890 8891 8892 8893 8894 8895 8896 8897 8898 8899 8900 8901 8902 8903 8904 8905 8906 8907 8908 8909 8910 8911 8912 8913 8914 8915 8916 8917 8918 8919 8920 8921 8922 8923 8924 8925 8926 8927 8928 8929 8930 8931 8932 8933 8934 8935 8936 8937 8938 8939 8940 8941 8942 8943 8944 8945 8946 8947 8948 8949 8950 8951 8952 8953 8954 8955 8956 8957 8958 8959 8960 8961 8962 8963 8964 8965 8966 8967 8968 8969 8970 8971 8972 8973 8974 8975 8976 8977 8978 8979 8980 8981 8982 8983 8984 8985 8986 8987 8988 8989 8990 8991 8992 8993 8994 8995 8996 8997 8998 8999 9000 9001 9002 9003 9004 9005 9006 9007 9008 9009 9010 9011 9012 9013 9014 9015 9016 9017 9018 9019 9020 9021 9022 9023 9024 9025 9026 9027 9028 9029 9030 9031 9032 9033 9034 9035 9036 9037 9038 9039 9040 9041 9042 9043 9044 9045 9046 9047 9048 9049 9050 9051 9052 9053 9054 9055 9056 9057 9058 9059 9060 9061 9062 9063 9064 9065 9066 9067 9068 9069 9070 9071 9072 9073 9074 9075 9076 9077 9078 9079 9080 9081 9082 9083 9084 9085 9086 9087 9088 9089 9090 9091 9092 9093 9094 9095 9096 9097 9098 9099 9100 9101 9102 9103 9104 9105 9106 9107 9108 9109 9110 9111 9112 9113 9114 9115 9116 9117 9118 9119 9120 9121 9122 9123 9124 9125 9126 9127 9128 9129 9130 9131 9132 9133 9134 9135 9136 9137 9138 9139 9140 9141 9142 9143 9144 9145 9146 9147 9148 9149 9150 9151 9152 9153 9154 9155 9156 9157 9158 9159 9160 0
-9162 -9161 0
9162 9161 0
