p cnf 1258 600
-216 93 0
-216 94 0
-216 -95 0
-216 -101 0
-216 -110 0
216 -93 -94 95 101 110 0
-219 93 0
-219 -94 0
-219 -95 0
-219 101 0
-219 110 0
-219 140 0
219 -93 94 95 -101 -110 -140 0
-221 -100 0
-221 122 0
-221 126 0
-221 -133 0
-221 -134 0
221 100 -122 -126 133 134 0
-223 100 0
-223 122 0
-223 -126 0
-223 -133 0
-223 -134 0
223 -100 -122 126 133 134 0
-227 16 0
-227 -17 0
-227 19 0
-227 39 0
-227 -116 0
227 -16 17 -19 -39 116 0
-231 16 0
-231 17 0
-231 19 0
-231 -39 0
-231 -116 0
231 -16 -17 -19 39 116 0
-234 16 0
-234 -17 0
-234 -19 0
-234 39 0
-234 -116 0
234 -16 17 19 -39 116 0
-236 16 0
-236 17 0
-236 -19 0
-236 39 0
-236 -116 0
236 -16 -17 19 -39 116 0
-237 -227 0
-237 -231 0
-237 -234 0
-237 -236 0
237 227 231 234 236 0
-262 -57 0
-262 -58 0
262 57 58 0
-268 54 0
-268 61 0
-268 -64 0
-268 -65 0
-268 -66 0
-268 164 0
268 -54 -61 64 65 66 -164 0
-1011 54 0
-1011 55 0
-1011 62 0
-1011 63 0
-1011 -64 0
-1011 -65 0
-1011 -66 0
-1011 164 0
-1011 -268 0
1011 -54 -55 -62 -63 64 65 66 -164 268 0
-1013 56 0
-1013 61 0
-1013 -62 0
-1013 63 0
-1013 64 0
-1013 -65 0
-1013 -66 0
-1013 164 0
-1013 -262 0
1013 -56 -61 62 -63 -64 65 66 -164 262 0
-1014 -1011 0
-1014 -1013 0
1014 1011 1013 0
-1015 82 0
-1015 -1014 0
1015 -82 1014 0
-1016 54 0
-1016 73 0
1016 -54 -73 0
-1017 56 0
-1017 82 0
1017 -56 -82 0
-1018 -1016 0
-1018 -1017 0
1018 1016 1017 0
-1019 54 0
-1019 74 0
1019 -54 -74 0
-1020 56 0
-1020 83 0
1020 -56 -83 0
-1021 -1019 0
-1021 -1020 0
1021 1019 1020 0
-1022 56 0
-1022 76 0
1022 -56 -76 0
-1023 54 0
-1023 67 0
1023 -54 -67 0
-1024 -1022 0
-1024 -1023 0
1024 1022 1023 0
-1025 56 0
-1025 79 0
1025 -56 -79 0
-1026 54 0
-1026 70 0
1026 -54 -70 0
-1027 -1025 0
-1027 -1026 0
1027 1025 1026 0
-1031 83 0
-1031 -1014 0
1031 -83 1014 0
-1032 84 0
-1032 -1014 0
1032 -84 1014 0
-1033 56 0
-1033 84 0
1033 -56 -84 0
-1034 54 0
-1034 75 0
1034 -54 -75 0
-1035 -1033 0
-1035 -1034 0
1035 1033 1034 0
-1039 79 0
-1039 -1014 0
1039 -79 1014 0
-1040 81 0
-1040 -1014 0
1040 -81 1014 0
-1041 78 0
-1041 -1014 0
1041 -78 1014 0
-1042 80 0
-1042 -1014 0
1042 -80 1014 0
-1043 76 0
-1043 -1014 0
1043 -76 1014 0
-1044 77 0
-1044 -1014 0
1044 -77 1014 0
-1048 56 0
-1048 78 0
1048 -56 -78 0
-1049 54 0
-1049 69 0
1049 -54 -69 0
-1050 -1048 0
-1050 -1049 0
1050 1048 1049 0
-1054 56 0
-1054 77 0
1054 -56 -77 0
-1055 54 0
-1055 68 0
1055 -54 -68 0
-1056 -1054 0
-1056 -1055 0
1056 1054 1055 0
-1057 56 0
-1057 80 0
1057 -56 -80 0
-1058 54 0
-1058 71 0
1058 -54 -71 0
-1059 -1057 0
-1059 -1058 0
1059 1057 1058 0
-1060 56 0
-1060 81 0
1060 -56 -81 0
-1061 54 0
-1061 72 0
1061 -54 -72 0
-1062 -1060 0
-1062 -1061 0
1062 1060 1061 0
-1151 76 0
-1151 77 0
-1151 78 0
-1151 79 0
-1151 80 0
-1151 81 0
-1151 82 0
-1151 83 0
-1151 84 0
-1151 -1014 0
-1151 -1018 0
-1151 -1021 0
-1151 -1024 0
-1151 -1027 0
-1151 -1035 0
-1151 -1050 0
-1151 -1056 0
-1151 -1059 0
-1151 -1062 0
1151 -76 -77 -78 -79 -80 -81 -82 -83 -84 1014 1018 1021 1024 1027 1035 1050 1056 1059 1062 0
-1152 93 0
-1152 94 0
-1152 -95 0
-1152 -101 0
-1152 -110 0
-1152 -140 0
1152 -93 -94 95 101 110 140 0
-1153 -219 0
-1153 -1152 0
1153 219 1152 0
-1155 -133 0
-1155 -221 0
-1155 -223 0
-1155 -237 0
-1155 -1153 0
1155 133 221 223 237 1153 0
-1157 140 0
-1157 -219 0
1157 -140 219 0
-1159 -133 0
-1159 -221 0
-1159 -223 0
-1159 -237 0
-1159 -1157 0
1159 133 221 223 237 1157 0
140 1152 -1161 0
-140 -1152 -1161 0
140 -1152 1161 0
-140 1152 1161 0
-1164 -133 0
-1164 -219 0
-1164 -221 0
-1164 -223 0
-1164 -237 0
-1164 -1015 0
-1164 -1161 0
1164 133 219 221 223 237 1015 1161 0
-1167 -133 0
-1167 -219 0
-1167 -221 0
-1167 -223 0
-1167 -237 0
-1167 -1031 0
-1167 -1161 0
1167 133 219 221 223 237 1031 1161 0
-1170 -133 0
-1170 -219 0
-1170 -221 0
-1170 -223 0
-1170 -237 0
-1170 -1032 0
-1170 -1161 0
1170 133 219 221 223 237 1032 1161 0
-1172 54 0
-1172 74 0
-1172 -1155 0
1172 -54 -74 1155 0
-1174 56 0
-1174 83 0
-1174 -1155 0
1174 -56 -83 1155 0
-1175 -1155 0
-1175 -1172 0
-1175 -1174 0
1175 1155 1172 1174 0
-1177 54 0
-1177 74 0
-1177 -1159 0
1177 -54 -74 1159 0
-1179 56 0
-1179 83 0
-1179 -1159 0
1179 -56 -83 1159 0
-1180 -1159 0
-1180 -1177 0
-1180 -1179 0
1180 1159 1177 1179 0
1175 1180 -1181 0
-1175 -1180 -1181 0
1175 -1180 1181 0
-1175 1180 1181 0
-1184 -133 0
-1184 -219 0
-1184 -221 0
-1184 -223 0
-1184 -237 0
-1184 -1039 0
-1184 -1161 0
1184 133 219 221 223 237 1039 1161 0
-1187 -133 0
-1187 -219 0
-1187 -221 0
-1187 -223 0
-1187 -237 0
-1187 -1040 0
-1187 -1161 0
1187 133 219 221 223 237 1040 1161 0
-1190 -133 0
-1190 -219 0
-1190 -221 0
-1190 -223 0
-1190 -237 0
-1190 -1041 0
-1190 -1161 0
1190 133 219 221 223 237 1041 1161 0
-1193 -133 0
-1193 -219 0
-1193 -221 0
-1193 -223 0
-1193 -237 0
-1193 -1042 0
-1193 -1161 0
1193 133 219 221 223 237 1042 1161 0
-1196 -133 0
-1196 -219 0
-1196 -221 0
-1196 -223 0
-1196 -237 0
-1196 -1043 0
-1196 -1161 0
1196 133 219 221 223 237 1043 1161 0
-1199 -133 0
-1199 -219 0
-1199 -221 0
-1199 -223 0
-1199 -237 0
-1199 -1044 0
-1199 -1161 0
1199 133 219 221 223 237 1044 1161 0
-1200 54 0
-1200 67 0
-1200 -1155 0
1200 -54 -67 1155 0
-1201 56 0
-1201 76 0
-1201 -1155 0
1201 -56 -76 1155 0
-1202 -1155 0
-1202 -1200 0
-1202 -1201 0
1202 1155 1200 1201 0
-1203 54 0
-1203 67 0
-1203 -1159 0
1203 -54 -67 1159 0
-1204 56 0
-1204 76 0
-1204 -1159 0
1204 -56 -76 1159 0
-1205 -1159 0
-1205 -1203 0
-1205 -1204 0
1205 1159 1203 1204 0
1202 1205 -1206 0
-1202 -1205 -1206 0
1202 -1205 1206 0
-1202 1205 1206 0
-1207 56 0
-1207 82 0
-1207 -1155 0
1207 -56 -82 1155 0
-1208 54 0
-1208 73 0
-1208 -1155 0
1208 -54 -73 1155 0
-1209 -1155 0
-1209 -1207 0
-1209 -1208 0
1209 1155 1207 1208 0
-1210 56 0
-1210 82 0
-1210 -1159 0
1210 -56 -82 1159 0
-1211 54 0
-1211 73 0
-1211 -1159 0
1211 -54 -73 1159 0
-1212 -1159 0
-1212 -1210 0
-1212 -1211 0
1212 1159 1210 1211 0
1209 1212 -1213 0
-1209 -1212 -1213 0
1209 -1212 1213 0
-1209 1212 1213 0
-1214 56 0
-1214 78 0
-1214 -1155 0
1214 -56 -78 1155 0
-1215 54 0
-1215 69 0
-1215 -1155 0
1215 -54 -69 1155 0
-1216 -1155 0
-1216 -1214 0
-1216 -1215 0
1216 1155 1214 1215 0
-1217 56 0
-1217 78 0
-1217 -1159 0
1217 -56 -78 1159 0
-1218 54 0
-1218 69 0
-1218 -1159 0
1218 -54 -69 1159 0
-1219 -1159 0
-1219 -1217 0
-1219 -1218 0
1219 1159 1217 1218 0
1216 1219 -1220 0
-1216 -1219 -1220 0
1216 -1219 1220 0
-1216 1219 1220 0
-1221 56 0
-1221 84 0
-1221 -1155 0
1221 -56 -84 1155 0
-1222 54 0
-1222 75 0
-1222 -1155 0
1222 -54 -75 1155 0
-1223 -1155 0
-1223 -1221 0
-1223 -1222 0
1223 1155 1221 1222 0
-1224 56 0
-1224 84 0
-1224 -1159 0
1224 -56 -84 1159 0
-1225 54 0
-1225 75 0
-1225 -1159 0
1225 -54 -75 1159 0
-1226 -1159 0
-1226 -1224 0
-1226 -1225 0
1226 1159 1224 1225 0
1223 1226 -1227 0
-1223 -1226 -1227 0
1223 -1226 1227 0
-1223 1226 1227 0
-1228 54 0
-1228 68 0
-1228 -1155 0
1228 -54 -68 1155 0
-1229 56 0
-1229 77 0
-1229 -1155 0
1229 -56 -77 1155 0
-1230 -1155 0
-1230 -1228 0
-1230 -1229 0
1230 1155 1228 1229 0
-1231 54 0
-1231 68 0
-1231 -1159 0
1231 -54 -68 1159 0
-1232 56 0
-1232 77 0
-1232 -1159 0
1232 -56 -77 1159 0
-1233 -1159 0
-1233 -1231 0
-1233 -1232 0
1233 1159 1231 1232 0
1230 1233 -1234 0
-1230 -1233 -1234 0
1230 -1233 1234 0
-1230 1233 1234 0
-1235 56 0
-1235 81 0
-1235 -1155 0
1235 -56 -81 1155 0
-1236 54 0
-1236 72 0
-1236 -1155 0
1236 -54 -72 1155 0
-1237 -1155 0
-1237 -1235 0
-1237 -1236 0
1237 1155 1235 1236 0
-1238 56 0
-1238 81 0
-1238 -1159 0
1238 -56 -81 1159 0
-1239 54 0
-1239 72 0
-1239 -1159 0
1239 -54 -72 1159 0
-1240 -1159 0
-1240 -1238 0
-1240 -1239 0
1240 1159 1238 1239 0
1237 1240 -1241 0
-1237 -1240 -1241 0
1237 -1240 1241 0
-1237 1240 1241 0
-1242 54 0
-1242 70 0
-1242 -1155 0
1242 -54 -70 1155 0
-1243 56 0
-1243 79 0
-1243 -1155 0
1243 -56 -79 1155 0
-1244 -1155 0
-1244 -1242 0
-1244 -1243 0
1244 1155 1242 1243 0
-1245 54 0
-1245 70 0
-1245 -1159 0
1245 -54 -70 1159 0
-1246 56 0
-1246 79 0
-1246 -1159 0
1246 -56 -79 1159 0
-1247 -1159 0
-1247 -1245 0
-1247 -1246 0
1247 1159 1245 1246 0
1244 1247 -1248 0
-1244 -1247 -1248 0
1244 -1247 1248 0
-1244 1247 1248 0
-1249 54 0
-1249 71 0
-1249 -1155 0
1249 -54 -71 1155 0
-1250 56 0
-1250 80 0
-1250 -1155 0
1250 -56 -80 1155 0
-1251 -1155 0
-1251 -1249 0
-1251 -1250 0
1251 1155 1249 1250 0
-1252 54 0
-1252 71 0
-1252 -1159 0
1252 -54 -71 1159 0
-1253 56 0
-1253 80 0
-1253 -1159 0
1253 -56 -80 1159 0
-1254 -1159 0
-1254 -1252 0
-1254 -1253 0
1254 1159 1252 1253 0
1251 1254 -1255 0
-1251 -1254 -1255 0
1251 -1254 1255 0
-1251 1254 1255 0
-1256 -1164 0
-1256 -1167 0
-1256 -1170 0
-1256 -1181 0
-1256 -1184 0
-1256 -1187 0
-1256 -1190 0
-1256 -1193 0
-1256 -1196 0
-1256 -1199 0
-1256 -1206 0
-1256 -1213 0
-1256 -1220 0
-1256 -1227 0
-1256 -1234 0
-1256 -1241 0
-1256 -1248 0
-1256 -1255 0
1256 1164 1167 1170 1181 1184 1187 1190 1193 1196 1199 1206 1213 1220 1227 1234 1241 1248 1255 0
-1257 -133 0
-1257 -140 0
-1257 -216 0
-1257 -219 0
-1257 -221 0
-1257 -223 0
-1257 -237 0
-1257 -1151 0
1257 133 140 216 219 221 223 237 1151 0
1256 1257 -1258 0
-1256 -1257 -1258 0
1256 -1257 1258 0
-1256 1257 1258 0
