p cnf 1206 163
-216 100 0
-216 122 0
-216 -126 0
-216 -133 0
-216 -134 0
216 -100 -122 126 133 134 0
-217 -163 0
-217 -174 0
217 163 174 0
-218 148 0
-218 -217 0
218 -148 217 0
-222 16 0
-222 -17 0
-222 19 0
-222 39 0
-222 -116 0
222 -16 17 -19 -39 116 0
-226 16 0
-226 17 0
-226 19 0
-226 -39 0
-226 -116 0
226 -16 -17 -19 39 116 0
-229 16 0
-229 -17 0
-229 -19 0
-229 39 0
-229 -116 0
229 -16 17 19 -39 116 0
-231 16 0
-231 17 0
-231 -19 0
-231 39 0
-231 -116 0
231 -16 -17 19 -39 116 0
-232 -222 0
-232 -226 0
-232 -229 0
-232 -231 0
232 222 226 229 231 0
-235 -16 0
-235 -17 0
-235 19 0
-235 39 0
-235 -116 0
235 16 17 -19 -39 116 0
-238 -16 0
-238 17 0
-238 19 0
-238 39 0
-238 -116 0
238 16 -17 -19 -39 116 0
-239 -235 0
-239 -238 0
239 235 238 0
-240 -222 0
-240 -226 0
-240 -229 0
-240 -231 0
-240 -235 0
-240 -238 0
240 222 226 229 231 235 238 0
-242 -195 0
-242 -216 0
-242 -218 0
-242 -240 0
242 195 216 218 240 0
-243 163 0
-243 166 0
-243 173 0
243 -163 -166 -173 0
-245 -189 0
-245 192 0
-245 -218 0
-245 -243 0
245 189 -192 218 243 0
-249 53 0
-249 160 0
-249 163 0
-249 -171 0
249 -53 -160 -163 171 0
-250 168 0
-250 -249 0
250 -168 249 0
-252 -167 0
-252 168 0
-252 169 0
252 167 -168 -169 0
-254 -52 0
-254 164 0
-254 -171 0
-254 -250 0
-254 -252 0
254 52 -164 171 250 252 0
-256 148 0
-256 -185 0
-256 -192 0
-256 -217 0
-256 -232 0
256 -148 185 192 217 232 0
-257 189 0
-257 -218 0
257 -189 218 0
-259 148 0
-259 -181 0
-259 -217 0
-259 -239 0
259 -148 181 217 239 0
-260 -257 0
-260 -259 0
260 257 259 0
-261 -177 0
-261 -260 0
261 177 260 0
-590 148 0
-590 181 0
-590 -182 0
-590 -217 0
590 -148 -181 182 217 0
-592 148 0
-592 -177 0
-592 -181 0
-592 192 0
-592 -217 0
-592 -235 0
-592 -238 0
592 -148 177 181 -192 217 235 238 0
-593 -590 0
-593 -592 0
593 590 592 0
-1191 -186 0
-1191 -242 0
-1191 -245 0
-1191 -254 0
-1191 -256 0
-1191 -261 0
1191 186 242 245 254 256 261 0
-1199 -186 0
-1199 -242 0
-1199 -245 0
-1199 -254 0
-1199 -256 0
-1199 -261 0
-1199 -590 0
-1199 -592 0
1199 186 242 245 254 256 261 590 592 0
593 593 -1204 0
-593 -593 -1204 0
593 -593 1204 0
-593 593 1204 0
1204 1191 -1205 0
-1204 -1191 -1205 0
1204 -1191 1205 0
-1204 1191 1205 0
1205 1191 -1206 0
-1205 -1191 -1206 0
1205 -1191 1206 0
-1205 1191 1206 0
1206 1199 -1203 0
-1206 -1199 -1203 0
1206 -1199 1203 0
-1206 1199 1203 0
