p cnf 1208 166
-215 160 0
-215 163 0
215 -160 -163 0
-217 -167 0
-217 168 0
-217 169 0
217 167 -168 -169 0
-218 -163 0
-218 -174 0
218 163 174 0
-219 148 0
-219 -218 0
219 -148 218 0
-223 16 0
-223 -17 0
-223 19 0
-223 39 0
-223 -116 0
223 -16 17 -19 -39 116 0
-227 16 0
-227 17 0
-227 19 0
-227 -39 0
-227 -116 0
227 -16 -17 -19 39 116 0
-230 16 0
-230 -17 0
-230 -19 0
-230 39 0
-230 -116 0
230 -16 17 19 -39 116 0
-232 16 0
-232 17 0
-232 -19 0
-232 39 0
-232 -116 0
232 -16 -17 19 -39 116 0
-233 -223 0
-233 -227 0
-233 -230 0
-233 -232 0
233 223 227 230 232 0
-235 148 0
-235 -185 0
-235 -192 0
-235 -218 0
-235 -233 0
235 -148 185 192 218 233 0
-236 189 0
-236 -219 0
236 -189 219 0
-239 -16 0
-239 -17 0
-239 19 0
-239 39 0
-239 -116 0
239 16 17 -19 -39 116 0
-242 -16 0
-242 17 0
-242 19 0
-242 39 0
-242 -116 0
242 16 -17 -19 -39 116 0
-243 -239 0
-243 -242 0
243 239 242 0
-245 148 0
-245 -181 0
-245 -218 0
-245 -243 0
245 -148 181 218 243 0
-246 -236 0
-246 -245 0
246 236 245 0
-247 -177 0
-247 -246 0
247 177 246 0
-249 100 0
-249 122 0
-249 -126 0
-249 -133 0
-249 -134 0
249 -100 -122 126 133 134 0
-250 -223 0
-250 -227 0
-250 -230 0
-250 -232 0
-250 -239 0
-250 -242 0
250 223 227 230 232 239 242 0
-252 -195 0
-252 -219 0
-252 -249 0
-252 -250 0
252 195 219 249 250 0
-253 163 0
-253 166 0
-253 173 0
253 -163 -166 -173 0
-255 -189 0
-255 192 0
-255 -219 0
-255 -253 0
255 189 -192 219 253 0
-256 -252 0
-256 -255 0
256 252 255 0
-257 -186 0
-257 -256 0
257 186 256 0
-586 148 0
-586 181 0
-586 -182 0
-586 -218 0
586 -148 -181 182 218 0
-588 148 0
-588 -177 0
-588 -181 0
-588 192 0
-588 -218 0
-588 -239 0
-588 -242 0
588 -148 177 181 -192 218 239 242 0
-589 -586 0
-589 -588 0
589 586 588 0
-1187 -52 0
-1187 53 0
-1187 164 0
-1187 168 0
-1187 -171 0
-1187 -215 0
-1187 -217 0
-1187 -235 0
-1187 -247 0
-1187 -257 0
1187 52 -53 -164 -168 171 215 217 235 247 257 0
-1204 -52 0
-1204 53 0
-1204 164 0
-1204 168 0
-1204 -171 0
-1204 -215 0
-1204 -217 0
-1204 -235 0
-1204 -247 0
-1204 -257 0
-1204 -586 0
-1204 -588 0
1204 52 -53 -164 -168 171 215 217 235 247 257 586 588 0
589 589 -1206 0
-589 -589 -1206 0
589 -589 1206 0
-589 589 1206 0
1206 1187 -1207 0
-1206 -1187 -1207 0
1206 -1187 1207 0
-1206 1187 1207 0
1207 1187 -1208 0
-1207 -1187 -1208 0
1207 -1187 1208 0
-1207 1187 1208 0
1208 1204 -1205 0
-1208 -1204 -1205 0
1208 -1204 1205 0
-1208 1204 1205 0
