p cnf 1248 305
-245 54 0
-245 62 0
-245 -64 0
-245 -65 0
-245 -66 0
-245 164 0
245 -54 -62 64 65 66 -164 0
-381 16 0
-381 17 0
-381 -19 0
-381 39 0
-381 -116 0
381 -16 -17 19 -39 116 0
-856 54 0
-856 55 0
-856 61 0
-856 63 0
-856 -64 0
-856 -65 0
-856 -66 0
-856 164 0
-856 -245 0
856 -54 -55 -61 -63 64 65 66 -164 245 0
-884 54 0
-884 55 0
-884 61 0
-884 63 0
-884 -64 0
-884 -65 0
-884 -66 0
-884 71 0
-884 164 0
-884 -245 0
884 -54 -55 -61 -63 64 65 66 -71 -164 245 0
-885 16 0
-885 17 0
-885 -19 0
-885 39 0
-885 -40 0
-885 -45 0
-885 -116 0
885 -16 -17 19 -39 40 45 116 0
-886 16 0
-886 17 0
-886 -19 0
-886 39 0
-886 -40 0
-886 41 0
-886 -45 0
-886 -46 0
-886 -116 0
886 -16 -17 19 -39 40 -41 45 46 116 0
-887 -41 0
-887 46 0
887 41 -46 0
-888 -41 0
-888 -885 0
888 41 885 0
-889 -886 0
-889 -887 0
-889 -888 0
889 886 887 888 0
-890 -856 0
-890 -889 0
890 856 889 0
80 890 -893 0
-80 -890 -893 0
80 -890 893 0
-80 890 893 0
-894 -884 0
-894 893 0
894 884 -893 0
-895 54 0
-895 55 0
-895 61 0
-895 63 0
-895 -64 0
-895 -65 0
-895 -66 0
-895 70 0
-895 164 0
-895 -245 0
895 -54 -55 -61 -63 64 65 66 -70 -164 245 0
-896 16 0
-896 17 0
-896 -19 0
-896 39 0
-896 -40 0
-896 -45 0
-896 46 0
-896 -116 0
896 -16 -17 19 -39 40 45 -46 116 0
-897 -46 0
-897 -885 0
897 46 885 0
-898 -896 0
-898 -897 0
898 896 897 0
-899 -856 0
-899 -898 0
899 856 898 0
79 899 -902 0
-79 -899 -902 0
79 -899 902 0
-79 899 902 0
-903 -895 0
-903 902 0
903 895 -902 0
-904 54 0
-904 55 0
-904 61 0
-904 63 0
-904 -64 0
-904 -65 0
-904 -66 0
-904 67 0
-904 164 0
-904 -245 0
904 -54 -55 -61 -63 64 65 66 -67 -164 245 0
-905 16 0
-905 17 0
-905 -19 0
-905 39 0
-905 -45 0
-905 46 0
-905 -116 0
905 -16 -17 19 -39 45 -46 116 0
-906 16 0
-906 17 0
-906 -19 0
-906 39 0
-906 40 0
-906 -116 0
906 -16 -17 19 -39 -40 116 0
-907 -905 0
-907 -906 0
907 905 906 0
-908 -36 0
-908 -905 0
-908 -906 0
908 36 905 906 0
-909 36 0
-909 -907 0
909 -36 907 0
-910 -908 0
-910 -909 0
910 908 909 0
-911 -856 0
-911 -910 0
911 856 910 0
76 911 -914 0
-76 -911 -914 0
76 -911 914 0
-76 911 914 0
-915 -904 0
-915 914 0
915 904 -914 0
-916 54 0
-916 55 0
-916 61 0
-916 63 0
-916 -64 0
-916 -65 0
-916 -66 0
-916 68 0
-916 164 0
-916 -245 0
916 -54 -55 -61 -63 64 65 66 -68 -164 245 0
-917 -40 0
-917 -381 0
917 40 381 0
-918 -906 0
-918 -917 0
918 906 917 0
-919 -856 0
-919 -918 0
919 856 918 0
77 919 -922 0
-77 -919 -922 0
77 -919 922 0
-77 919 922 0
-923 -916 0
-923 922 0
923 916 -922 0
-924 16 0
-924 17 0
-924 -19 0
-924 39 0
-924 -40 0
-924 45 0
-924 -116 0
924 -16 -17 19 -39 40 -45 116 0
-925 40 0
-925 -45 0
925 -40 45 0
-926 -45 0
-926 -381 0
926 45 381 0
-927 -924 0
-927 -925 0
-927 -926 0
927 924 925 926 0
-928 -856 0
-928 -927 0
928 856 927 0
-929 54 0
-929 55 0
-929 61 0
-929 63 0
-929 -64 0
-929 -65 0
-929 -66 0
-929 69 0
-929 164 0
-929 -245 0
929 -54 -55 -61 -63 64 65 66 -69 -164 245 0
78 928 -932 0
-78 -928 -932 0
78 -928 932 0
-78 928 932 0
-933 -929 0
-933 932 0
933 929 -932 0
-1041 54 0
-1041 55 0
-1041 61 0
-1041 63 0
-1041 -64 0
-1041 -65 0
-1041 -66 0
-1041 73 0
-1041 164 0
-1041 -245 0
1041 -54 -55 -61 -63 64 65 66 -73 -164 245 0
-1042 -82 0
-1042 -1041 0
1042 82 1041 0
1041 1042 -1043 0
-1041 -1042 -1043 0
1041 -1042 1043 0
-1041 1042 1043 0
-1056 54 0
-1056 55 0
-1056 61 0
-1056 63 0
-1056 -64 0
-1056 -65 0
-1056 -66 0
-1056 75 0
-1056 164 0
-1056 -245 0
1056 -54 -55 -61 -63 64 65 66 -75 -164 245 0
-1057 -84 0
-1057 -1056 0
1057 84 1056 0
1056 1057 -1058 0
-1056 -1057 -1058 0
1056 -1057 1058 0
-1056 1057 1058 0
-1071 54 0
-1071 55 0
-1071 61 0
-1071 63 0
-1071 -64 0
-1071 -65 0
-1071 -66 0
-1071 74 0
-1071 164 0
-1071 -245 0
1071 -54 -55 -61 -63 64 65 66 -74 -164 245 0
-1072 -83 0
-1072 -1071 0
1072 83 1071 0
1071 1072 -1073 0
-1071 -1072 -1073 0
1071 -1072 1073 0
-1071 1072 1073 0
-1083 54 0
-1083 55 0
-1083 61 0
-1083 63 0
-1083 -64 0
-1083 -65 0
-1083 -66 0
-1083 72 0
-1083 164 0
-1083 -245 0
1083 -54 -55 -61 -63 64 65 66 -72 -164 245 0
-1084 -81 0
-1084 -1083 0
1084 81 1083 0
1083 1084 -1085 0
-1083 -1084 -1085 0
1083 -1084 1085 0
-1083 1084 1085 0
-1201 -894 0
-1201 -903 0
-1201 -915 0
-1201 -923 0
-1201 -933 0
-1201 1043 0
-1201 1058 0
-1201 1073 0
-1201 1085 0
1201 894 903 915 923 933 -1043 -1058 -1073 -1085 0
