p cnf 1215 300
-217 -119 0
-217 -120 0
-217 121 0
-217 123 0
-217 125 0
217 119 120 -121 -123 -125 0
-220 -163 0
-220 -174 0
220 163 174 0
-221 148 0
-221 -220 0
221 -148 220 0
-222 163 0
-222 166 0
-222 173 0
222 -163 -166 -173 0
-223 141 0
-223 142 0
-223 153 0
-223 -162 0
-223 -165 0
-223 -221 0
-223 -222 0
223 -141 -142 -153 162 165 221 222 0
-225 141 0
-225 -142 0
-225 -153 0
-225 -162 0
-225 165 0
225 -141 142 153 162 -165 0
-226 141 0
-226 -142 0
-226 148 0
-226 -153 0
-226 -162 0
-226 165 0
-226 -220 0
-226 -222 0
226 -141 142 -148 153 162 -165 220 222 0
-227 -223 0
-227 -226 0
227 223 226 0
-228 -7 0
-228 38 0
228 7 -38 0
-229 -3 0
-229 38 0
229 3 -38 0
-230 -37 0
-230 38 0
230 37 -38 0
-235 -7 0
-235 38 0
-235 119 0
-235 -120 0
-235 121 0
-235 -123 0
-235 125 0
-235 -227 0
-235 -229 0
-235 -230 0
235 7 -38 -119 120 -121 123 -125 227 229 230 0
-239 38 0
-239 119 0
-239 -120 0
-239 121 0
-239 123 0
-239 125 0
-239 -227 0
-239 -228 0
-239 -229 0
-239 -230 0
239 -38 -119 120 -121 -123 -125 227 228 229 230 0
-243 -3 0
-243 -7 0
-243 38 0
-243 -119 0
-243 -120 0
-243 121 0
-243 -123 0
-243 125 0
-243 -227 0
-243 -230 0
243 3 7 -38 119 120 -121 123 -125 227 230 0
-247 -3 0
-247 -37 0
-247 38 0
-247 -119 0
-247 -120 0
-247 -121 0
-247 123 0
-247 125 0
-247 -227 0
-247 -228 0
247 3 37 -38 119 120 121 -123 -125 227 228 0
-250 -37 0
-250 38 0
-250 119 0
-250 -120 0
-250 -121 0
-250 123 0
-250 125 0
-250 -227 0
-250 -228 0
-250 -229 0
250 37 -38 -119 120 121 -123 -125 227 228 229 0
-254 119 0
-254 -120 0
-254 121 0
-254 123 0
-254 -125 0
-254 -227 0
254 -119 120 -121 -123 125 227 0
-257 -7 0
-257 -37 0
-257 38 0
-257 119 0
-257 -120 0
-257 -121 0
-257 -123 0
-257 125 0
-257 -227 0
-257 -229 0
257 7 37 -38 -119 120 121 123 -125 227 229 0
-260 -3 0
-260 -7 0
-260 -37 0
-260 38 0
-260 -119 0
-260 -120 0
-260 -121 0
-260 -123 0
-260 125 0
-260 -227 0
260 3 7 37 -38 119 120 121 123 -125 227 0
-616 160 0
-616 163 0
616 -160 -163 0
-985 119 0
-985 -120 0
-985 121 0
-985 -123 0
-985 -125 0
985 -119 120 -121 123 125 0
-993 89 0
-993 98 0
-993 106 0
-993 107 0
-993 108 0
-993 129 0
993 -89 -98 -106 -107 -108 -129 0
-994 -50 0
-994 -993 0
994 50 993 0
-1142 -139 0
-1142 199 0
-1142 -994 0
1142 139 -199 994 0
-1144 171 0
-1144 -199 0
1144 -171 199 0
-1145 -616 0
-1145 -994 0
-1145 -1144 0
1145 616 994 1144 0
-1182 141 0
-1182 142 0
-1182 153 0
-1182 -162 0
-1182 -165 0
-1182 -221 0
-1182 -985 0
1182 -141 -142 -153 162 165 221 985 0
-1187 160 0
-1187 163 0
-1187 -225 0
-1187 -1142 0
-1187 -1145 0
-1187 -1182 0
1187 -160 -163 225 1142 1145 1182 0
-1198 -3 0
-1198 38 0
-1198 -139 0
-1198 199 0
-1198 -217 0
-1198 -227 0
-1198 -228 0
-1198 -230 0
-1198 -235 0
-1198 -239 0
-1198 -243 0
-1198 -247 0
-1198 -250 0
-1198 -254 0
-1198 -257 0
-1198 -260 0
-1198 -994 0
1198 3 -38 139 -199 217 227 228 230 235 239 243 247 250 254 257 260 994 0
-1201 -3 0
-1201 38 0
-1201 -217 0
-1201 -227 0
-1201 -228 0
-1201 -230 0
-1201 -235 0
-1201 -239 0
-1201 -243 0
-1201 -247 0
-1201 -250 0
-1201 -254 0
-1201 -257 0
-1201 -260 0
-1201 -616 0
1201 3 -38 217 227 228 230 235 239 243 247 250 254 257 260 616 0
-1206 -3 0
-1206 38 0
-1206 -217 0
-1206 -227 0
-1206 -228 0
-1206 -230 0
-1206 -235 0
-1206 -239 0
-1206 -243 0
-1206 -247 0
-1206 -250 0
-1206 -254 0
-1206 -257 0
-1206 -260 0
-1206 -616 0
-1206 -994 0
-1206 -1144 0
1206 3 -38 217 227 228 230 235 239 243 247 250 254 257 260 616 994 1144 0
-1209 -3 0
-1209 38 0
-1209 141 0
-1209 -142 0
-1209 -153 0
-1209 -162 0
-1209 165 0
-1209 -217 0
-1209 -227 0
-1209 -228 0
-1209 -230 0
-1209 -235 0
-1209 -239 0
-1209 -243 0
-1209 -247 0
-1209 -250 0
-1209 -254 0
-1209 -257 0
-1209 -260 0
1209 3 -38 -141 142 153 162 -165 217 227 228 230 235 239 243 247 250 254 257 260 0
-1212 -3 0
-1212 38 0
-1212 141 0
-1212 142 0
-1212 153 0
-1212 -162 0
-1212 -165 0
-1212 -217 0
-1212 -221 0
-1212 -227 0
-1212 -228 0
-1212 -230 0
-1212 -235 0
-1212 -239 0
-1212 -243 0
-1212 -247 0
-1212 -250 0
-1212 -254 0
-1212 -257 0
-1212 -260 0
-1212 -985 0
1212 3 -38 -141 -142 -153 162 165 217 221 227 228 230 235 239 243 247 250 254 257 260 985 0
-1213 -1198 0
-1213 -1201 0
-1213 -1206 0
-1213 -1209 0
-1213 -1212 0
1213 1198 1201 1206 1209 1212 0
-1214 -3 0
-1214 38 0
-1214 -217 0
-1214 -227 0
-1214 -228 0
-1214 -230 0
-1214 -235 0
-1214 -239 0
-1214 -243 0
-1214 -247 0
-1214 -250 0
-1214 -254 0
-1214 -257 0
-1214 -260 0
-1214 -1187 0
1214 3 -38 217 227 228 230 235 239 243 247 250 254 257 260 1187 0
1213 1214 -1215 0
-1213 -1214 -1215 0
1213 -1214 1215 0
-1213 1214 1215 0
