p cnf 1213 318
-220 -163 0
-220 -174 0
220 163 174 0
-221 148 0
-221 -220 0
221 -148 220 0
-222 163 0
-222 166 0
-222 173 0
222 -163 -166 -173 0
-223 141 0
-223 142 0
-223 153 0
-223 -162 0
-223 -165 0
-223 -221 0
-223 -222 0
223 -141 -142 -153 162 165 221 222 0
-225 141 0
-225 -142 0
-225 -153 0
-225 -162 0
-225 165 0
225 -141 142 153 162 -165 0
-226 141 0
-226 -142 0
-226 148 0
-226 -153 0
-226 -162 0
-226 165 0
-226 -220 0
-226 -222 0
226 -141 142 -148 153 162 -165 220 222 0
-227 -223 0
-227 -226 0
227 223 226 0
-228 -7 0
-228 38 0
228 7 -38 0
-229 -3 0
-229 38 0
229 3 -38 0
-230 -37 0
-230 38 0
230 37 -38 0
-235 -7 0
-235 38 0
-235 119 0
-235 -120 0
-235 121 0
-235 -123 0
-235 125 0
-235 -227 0
-235 -229 0
-235 -230 0
235 7 -38 -119 120 -121 123 -125 227 229 230 0
-239 38 0
-239 119 0
-239 -120 0
-239 121 0
-239 123 0
-239 125 0
-239 -227 0
-239 -228 0
-239 -229 0
-239 -230 0
239 -38 -119 120 -121 -123 -125 227 228 229 230 0
-243 -3 0
-243 -7 0
-243 38 0
-243 -119 0
-243 -120 0
-243 121 0
-243 -123 0
-243 125 0
-243 -227 0
-243 -230 0
243 3 7 -38 119 120 -121 123 -125 227 230 0
-247 -3 0
-247 -37 0
-247 38 0
-247 -119 0
-247 -120 0
-247 -121 0
-247 123 0
-247 125 0
-247 -227 0
-247 -228 0
247 3 37 -38 119 120 121 -123 -125 227 228 0
-250 -37 0
-250 38 0
-250 119 0
-250 -120 0
-250 -121 0
-250 123 0
-250 125 0
-250 -227 0
-250 -228 0
-250 -229 0
250 37 -38 -119 120 121 -123 -125 227 228 229 0
-254 119 0
-254 -120 0
-254 121 0
-254 123 0
-254 -125 0
-254 -227 0
254 -119 120 -121 -123 125 227 0
-257 -7 0
-257 -37 0
-257 38 0
-257 119 0
-257 -120 0
-257 -121 0
-257 -123 0
-257 125 0
-257 -227 0
-257 -229 0
257 7 37 -38 -119 120 121 123 -125 227 229 0
-260 -3 0
-260 -7 0
-260 -37 0
-260 38 0
-260 -119 0
-260 -120 0
-260 -121 0
-260 -123 0
-260 125 0
-260 -227 0
260 3 7 37 -38 119 120 121 123 -125 227 0
-616 160 0
-616 163 0
616 -160 -163 0
-985 119 0
-985 -120 0
-985 121 0
-985 -123 0
-985 -125 0
985 -119 120 -121 123 125 0
-993 89 0
-993 98 0
-993 106 0
-993 107 0
-993 108 0
-993 129 0
993 -89 -98 -106 -107 -108 -129 0
-994 -50 0
-994 -993 0
994 50 993 0
-1142 -139 0
-1142 199 0
-1142 -994 0
1142 139 -199 994 0
-1144 171 0
-1144 -199 0
1144 -171 199 0
-1145 -616 0
-1145 -994 0
-1145 -1144 0
1145 616 994 1144 0
-1182 141 0
-1182 142 0
-1182 153 0
-1182 -162 0
-1182 -165 0
-1182 -221 0
-1182 -985 0
1182 -141 -142 -153 162 165 221 985 0
-1187 160 0
-1187 163 0
-1187 -225 0
-1187 -1142 0
-1187 -1145 0
-1187 -1182 0
1187 -160 -163 225 1142 1145 1182 0
-1196 -3 0
-1196 38 0
-1196 -119 0
-1196 -120 0
-1196 121 0
-1196 123 0
-1196 125 0
-1196 -139 0
-1196 199 0
-1196 -227 0
-1196 -228 0
-1196 -230 0
-1196 -235 0
-1196 -239 0
-1196 -243 0
-1196 -247 0
-1196 -250 0
-1196 -254 0
-1196 -257 0
-1196 -260 0
-1196 -994 0
1196 3 -38 119 120 -121 -123 -125 139 -199 227 228 230 235 239 243 247 250 254 257 260 994 0
-1199 -3 0
-1199 38 0
-1199 -119 0
-1199 -120 0
-1199 121 0
-1199 123 0
-1199 125 0
-1199 -227 0
-1199 -228 0
-1199 -230 0
-1199 -235 0
-1199 -239 0
-1199 -243 0
-1199 -247 0
-1199 -250 0
-1199 -254 0
-1199 -257 0
-1199 -260 0
-1199 -616 0
1199 3 -38 119 120 -121 -123 -125 227 228 230 235 239 243 247 250 254 257 260 616 0
-1204 -3 0
-1204 38 0
-1204 -119 0
-1204 -120 0
-1204 121 0
-1204 123 0
-1204 125 0
-1204 -227 0
-1204 -228 0
-1204 -230 0
-1204 -235 0
-1204 -239 0
-1204 -243 0
-1204 -247 0
-1204 -250 0
-1204 -254 0
-1204 -257 0
-1204 -260 0
-1204 -616 0
-1204 -994 0
-1204 -1144 0
1204 3 -38 119 120 -121 -123 -125 227 228 230 235 239 243 247 250 254 257 260 616 994 1144 0
-1207 -3 0
-1207 38 0
-1207 -119 0
-1207 -120 0
-1207 121 0
-1207 123 0
-1207 125 0
-1207 141 0
-1207 -142 0
-1207 -153 0
-1207 -162 0
-1207 165 0
-1207 -227 0
-1207 -228 0
-1207 -230 0
-1207 -235 0
-1207 -239 0
-1207 -243 0
-1207 -247 0
-1207 -250 0
-1207 -254 0
-1207 -257 0
-1207 -260 0
1207 3 -38 119 120 -121 -123 -125 -141 142 153 162 -165 227 228 230 235 239 243 247 250 254 257 260 0
-1210 -3 0
-1210 38 0
-1210 -119 0
-1210 -120 0
-1210 121 0
-1210 123 0
-1210 125 0
-1210 141 0
-1210 142 0
-1210 153 0
-1210 -162 0
-1210 -165 0
-1210 -221 0
-1210 -227 0
-1210 -228 0
-1210 -230 0
-1210 -235 0
-1210 -239 0
-1210 -243 0
-1210 -247 0
-1210 -250 0
-1210 -254 0
-1210 -257 0
-1210 -260 0
-1210 -985 0
1210 3 -38 119 120 -121 -123 -125 -141 -142 -153 162 165 221 227 228 230 235 239 243 247 250 254 257 260 985 0
-1211 -1196 0
-1211 -1199 0
-1211 -1204 0
-1211 -1207 0
-1211 -1210 0
1211 1196 1199 1204 1207 1210 0
-1212 -3 0
-1212 38 0
-1212 -119 0
-1212 -120 0
-1212 121 0
-1212 123 0
-1212 125 0
-1212 -227 0
-1212 -228 0
-1212 -230 0
-1212 -235 0
-1212 -239 0
-1212 -243 0
-1212 -247 0
-1212 -250 0
-1212 -254 0
-1212 -257 0
-1212 -260 0
-1212 -1187 0
1212 3 -38 119 120 -121 -123 -125 227 228 230 235 239 243 247 250 254 257 260 1187 0
1211 1212 -1213 0
-1211 -1212 -1213 0
1211 -1212 1213 0
-1211 1212 1213 0
