p cnf 1202 38
-217 -163 0
-217 -174 0
217 163 174 0
-222 16 0
-222 -17 0
-222 19 0
-222 39 0
-222 -116 0
222 -16 17 -19 -39 116 0
-226 16 0
-226 17 0
-226 19 0
-226 -39 0
-226 -116 0
226 -16 -17 -19 39 116 0
-229 16 0
-229 -17 0
-229 -19 0
-229 39 0
-229 -116 0
229 -16 17 19 -39 116 0
-231 16 0
-231 17 0
-231 -19 0
-231 39 0
-231 -116 0
231 -16 -17 19 -39 116 0
-232 -222 0
-232 -226 0
-232 -229 0
-232 -231 0
232 222 226 229 231 0
-256 148 0
-256 -185 0
-256 -192 0
-256 -217 0
-256 -232 0
256 -148 185 192 217 232 0
