p cnf 6321 21034
429 0
425 430 0
-425 -430 0
430 431 0
-430 -431 0
431 432 0
-431 -432 0
432 433 0
-432 -433 0
215 434 0
-215 -434 0
434 435 0
-434 -435 0
435 436 0
-435 -436 0
436 437 0
-436 -437 0
220 438 0
-220 -438 0
438 439 0
-438 -439 0
439 440 0
-439 -440 0
440 441 0
-440 -441 0
433 437 441 442 0
433 437 -441 -442 0
433 -437 441 -442 0
433 -437 -441 -442 0
-433 437 441 -442 0
-433 437 -441 -442 0
-433 -437 441 -442 0
-433 -437 -441 -442 0
215 443 0
-215 -443 0
443 444 0
-443 -444 0
444 445 0
-444 -445 0
220 446 0
-220 -446 0
446 447 0
-446 -447 0
447 448 0
-447 -448 0
433 445 448 449 0
433 445 -448 -449 0
433 -445 448 -449 0
433 -445 -448 -449 0
-433 445 448 -449 0
-433 445 -448 -449 0
-433 -445 448 -449 0
-433 -445 -448 -449 0
425 450 0
-425 -450 0
450 451 0
-450 -451 0
451 452 0
-451 -452 0
452 437 448 453 0
452 437 -448 -453 0
452 -437 448 -453 0
452 -437 -448 -453 0
-452 437 448 -453 0
-452 437 -448 -453 0
-452 -437 448 -453 0
-452 -437 -448 -453 0
452 445 441 454 0
452 445 -441 -454 0
452 -445 441 -454 0
452 -445 -441 -454 0
-452 445 441 -454 0
-452 445 -441 -454 0
-452 -445 441 -454 0
-452 -445 -441 -454 0
442 449 453 454 -455 0
442 449 453 -454 455 0
442 449 -453 454 455 0
442 449 -453 -454 455 0
442 -449 453 454 455 0
442 -449 453 -454 455 0
442 -449 -453 454 455 0
442 -449 -453 -454 455 0
-442 449 453 454 455 0
-442 449 453 -454 455 0
-442 449 -453 454 455 0
-442 449 -453 -454 455 0
-442 -449 453 454 455 0
-442 -449 453 -454 455 0
-442 -449 -453 454 455 0
-442 -449 -453 -454 455 0
455 456 0
-455 -456 0
456 457 0
-456 -457 0
457 458 0
-457 -458 0
415 459 0
-415 -459 0
459 460 0
-459 -460 0
460 461 0
-460 -461 0
461 462 0
-461 -462 0
417 463 0
-417 -463 0
463 464 0
-463 -464 0
464 465 0
-464 -465 0
465 466 0
-465 -466 0
414 467 0
-414 -467 0
467 468 0
-467 -468 0
468 469 0
-468 -469 0
469 470 0
-469 -470 0
462 466 470 471 0
462 466 -470 -471 0
462 -466 470 -471 0
462 -466 -470 -471 0
-462 466 470 -471 0
-462 466 -470 -471 0
-462 -466 470 -471 0
-462 -466 -470 -471 0
417 472 0
-417 -472 0
472 473 0
-472 -473 0
473 474 0
-473 -474 0
414 475 0
-414 -475 0
475 476 0
-475 -476 0
476 477 0
-476 -477 0
462 474 477 478 0
462 474 -477 -478 0
462 -474 477 -478 0
462 -474 -477 -478 0
-462 474 477 -478 0
-462 474 -477 -478 0
-462 -474 477 -478 0
-462 -474 -477 -478 0
415 479 0
-415 -479 0
479 480 0
-479 -480 0
480 481 0
-480 -481 0
481 466 477 482 0
481 466 -477 -482 0
481 -466 477 -482 0
481 -466 -477 -482 0
-481 466 477 -482 0
-481 466 -477 -482 0
-481 -466 477 -482 0
-481 -466 -477 -482 0
481 474 470 483 0
481 474 -470 -483 0
481 -474 470 -483 0
481 -474 -470 -483 0
-481 474 470 -483 0
-481 474 -470 -483 0
-481 -474 470 -483 0
-481 -474 -470 -483 0
471 478 482 483 -484 0
471 478 482 -483 484 0
471 478 -482 483 484 0
471 478 -482 -483 484 0
471 -478 482 483 484 0
471 -478 482 -483 484 0
471 -478 -482 483 484 0
471 -478 -482 -483 484 0
-471 478 482 483 484 0
-471 478 482 -483 484 0
-471 478 -482 483 484 0
-471 478 -482 -483 484 0
-471 -478 482 483 484 0
-471 -478 482 -483 484 0
-471 -478 -482 483 484 0
-471 -478 -482 -483 484 0
484 485 0
-484 -485 0
485 486 0
-485 -486 0
219 487 0
-219 -487 0
487 488 0
-487 -488 0
488 489 0
-488 -489 0
489 490 0
-489 -490 0
423 491 0
-423 -491 0
491 492 0
-491 -492 0
492 493 0
-492 -493 0
493 494 0
-493 -494 0
420 495 0
-420 -495 0
495 496 0
-495 -496 0
496 497 0
-496 -497 0
497 498 0
-497 -498 0
490 494 498 499 0
490 494 -498 -499 0
490 -494 498 -499 0
490 -494 -498 -499 0
-490 494 498 -499 0
-490 494 -498 -499 0
-490 -494 498 -499 0
-490 -494 -498 -499 0
423 500 0
-423 -500 0
500 501 0
-500 -501 0
501 502 0
-501 -502 0
420 503 0
-420 -503 0
503 504 0
-503 -504 0
504 505 0
-504 -505 0
490 502 505 506 0
490 502 -505 -506 0
490 -502 505 -506 0
490 -502 -505 -506 0
-490 502 505 -506 0
-490 502 -505 -506 0
-490 -502 505 -506 0
-490 -502 -505 -506 0
219 507 0
-219 -507 0
507 508 0
-507 -508 0
508 509 0
-508 -509 0
509 494 505 510 0
509 494 -505 -510 0
509 -494 505 -510 0
509 -494 -505 -510 0
-509 494 505 -510 0
-509 494 -505 -510 0
-509 -494 505 -510 0
-509 -494 -505 -510 0
509 502 498 511 0
509 502 -498 -511 0
509 -502 498 -511 0
509 -502 -498 -511 0
-509 502 498 -511 0
-509 502 -498 -511 0
-509 -502 498 -511 0
-509 -502 -498 -511 0
499 506 510 511 -512 0
499 506 510 -511 512 0
499 506 -510 511 512 0
499 506 -510 -511 512 0
499 -506 510 511 512 0
499 -506 510 -511 512 0
499 -506 -510 511 512 0
499 -506 -510 -511 512 0
-499 506 510 511 512 0
-499 506 510 -511 512 0
-499 506 -510 511 512 0
-499 506 -510 -511 512 0
-499 -506 510 511 512 0
-499 -506 510 -511 512 0
-499 -506 -510 511 512 0
-499 -506 -510 -511 512 0
512 513 0
-512 -513 0
513 514 0
-513 -514 0
514 515 0
-514 -515 0
458 486 515 516 0
458 486 -515 -516 0
458 -486 515 -516 0
458 -486 -515 -516 0
-458 486 515 -516 0
-458 486 -515 -516 0
-458 -486 515 -516 0
-458 -486 -515 -516 0
484 517 0
-484 -517 0
517 518 0
-517 -518 0
518 519 0
-518 -519 0
512 520 0
-512 -520 0
520 521 0
-520 -521 0
458 519 521 522 0
458 519 -521 -522 0
458 -519 521 -522 0
458 -519 -521 -522 0
-458 519 521 -522 0
-458 519 -521 -522 0
-458 -519 521 -522 0
-458 -519 -521 -522 0
455 523 0
-455 -523 0
523 524 0
-523 -524 0
524 486 521 525 0
524 486 -521 -525 0
524 -486 521 -525 0
524 -486 -521 -525 0
-524 486 521 -525 0
-524 486 -521 -525 0
-524 -486 521 -525 0
-524 -486 -521 -525 0
524 519 515 526 0
524 519 -515 -526 0
524 -519 515 -526 0
524 -519 -515 -526 0
-524 519 515 -526 0
-524 519 -515 -526 0
-524 -519 515 -526 0
-524 -519 -515 -526 0
516 522 525 526 -527 0
516 522 525 -526 527 0
516 522 -525 526 527 0
516 522 -525 -526 527 0
516 -522 525 526 527 0
516 -522 525 -526 527 0
516 -522 -525 526 527 0
516 -522 -525 -526 527 0
-516 522 525 526 527 0
-516 522 525 -526 527 0
-516 522 -525 526 527 0
-516 522 -525 -526 527 0
-516 -522 525 526 527 0
-516 -522 525 -526 527 0
-516 -522 -525 526 527 0
-516 -522 -525 -526 527 0
425 528 0
-425 -528 0
528 529 0
-528 -529 0
529 530 0
-529 -530 0
530 531 0
-530 -531 0
215 532 0
-215 -532 0
532 533 0
-532 -533 0
533 534 0
-533 -534 0
534 535 0
-534 -535 0
220 536 0
-220 -536 0
536 537 0
-536 -537 0
537 538 0
-537 -538 0
538 539 0
-538 -539 0
531 535 539 540 0
531 535 -539 -540 0
531 -535 539 -540 0
531 -535 -539 -540 0
-531 535 539 -540 0
-531 535 -539 -540 0
-531 -535 539 -540 0
-531 -535 -539 -540 0
215 541 0
-215 -541 0
541 542 0
-541 -542 0
542 543 0
-542 -543 0
220 544 0
-220 -544 0
544 545 0
-544 -545 0
545 546 0
-545 -546 0
531 543 546 547 0
531 543 -546 -547 0
531 -543 546 -547 0
531 -543 -546 -547 0
-531 543 546 -547 0
-531 543 -546 -547 0
-531 -543 546 -547 0
-531 -543 -546 -547 0
425 548 0
-425 -548 0
548 549 0
-548 -549 0
549 550 0
-549 -550 0
550 535 546 551 0
550 535 -546 -551 0
550 -535 546 -551 0
550 -535 -546 -551 0
-550 535 546 -551 0
-550 535 -546 -551 0
-550 -535 546 -551 0
-550 -535 -546 -551 0
550 543 539 552 0
550 543 -539 -552 0
550 -543 539 -552 0
550 -543 -539 -552 0
-550 543 539 -552 0
-550 543 -539 -552 0
-550 -543 539 -552 0
-550 -543 -539 -552 0
540 547 551 552 -553 0
540 547 551 -552 553 0
540 547 -551 552 553 0
540 547 -551 -552 553 0
540 -547 551 552 553 0
540 -547 551 -552 553 0
540 -547 -551 552 553 0
540 -547 -551 -552 553 0
-540 547 551 552 553 0
-540 547 551 -552 553 0
-540 547 -551 552 553 0
-540 547 -551 -552 553 0
-540 -547 551 552 553 0
-540 -547 551 -552 553 0
-540 -547 -551 552 553 0
-540 -547 -551 -552 553 0
553 554 0
-553 -554 0
554 555 0
-554 -555 0
555 556 0
-555 -556 0
415 557 0
-415 -557 0
557 558 0
-557 -558 0
558 559 0
-558 -559 0
559 560 0
-559 -560 0
417 561 0
-417 -561 0
561 562 0
-561 -562 0
562 563 0
-562 -563 0
563 564 0
-563 -564 0
414 565 0
-414 -565 0
565 566 0
-565 -566 0
566 567 0
-566 -567 0
567 568 0
-567 -568 0
560 564 568 569 0
560 564 -568 -569 0
560 -564 568 -569 0
560 -564 -568 -569 0
-560 564 568 -569 0
-560 564 -568 -569 0
-560 -564 568 -569 0
-560 -564 -568 -569 0
417 570 0
-417 -570 0
570 571 0
-570 -571 0
571 572 0
-571 -572 0
414 573 0
-414 -573 0
573 574 0
-573 -574 0
574 575 0
-574 -575 0
560 572 575 576 0
560 572 -575 -576 0
560 -572 575 -576 0
560 -572 -575 -576 0
-560 572 575 -576 0
-560 572 -575 -576 0
-560 -572 575 -576 0
-560 -572 -575 -576 0
415 577 0
-415 -577 0
577 578 0
-577 -578 0
578 579 0
-578 -579 0
579 564 575 580 0
579 564 -575 -580 0
579 -564 575 -580 0
579 -564 -575 -580 0
-579 564 575 -580 0
-579 564 -575 -580 0
-579 -564 575 -580 0
-579 -564 -575 -580 0
579 572 568 581 0
579 572 -568 -581 0
579 -572 568 -581 0
579 -572 -568 -581 0
-579 572 568 -581 0
-579 572 -568 -581 0
-579 -572 568 -581 0
-579 -572 -568 -581 0
569 576 580 581 -582 0
569 576 580 -581 582 0
569 576 -580 581 582 0
569 576 -580 -581 582 0
569 -576 580 581 582 0
569 -576 580 -581 582 0
569 -576 -580 581 582 0
569 -576 -580 -581 582 0
-569 576 580 581 582 0
-569 576 580 -581 582 0
-569 576 -580 581 582 0
-569 576 -580 -581 582 0
-569 -576 580 581 582 0
-569 -576 580 -581 582 0
-569 -576 -580 581 582 0
-569 -576 -580 -581 582 0
582 583 0
-582 -583 0
583 584 0
-583 -584 0
219 585 0
-219 -585 0
585 586 0
-585 -586 0
586 587 0
-586 -587 0
587 588 0
-587 -588 0
423 589 0
-423 -589 0
589 590 0
-589 -590 0
590 591 0
-590 -591 0
591 592 0
-591 -592 0
420 593 0
-420 -593 0
593 594 0
-593 -594 0
594 595 0
-594 -595 0
595 596 0
-595 -596 0
588 592 596 597 0
588 592 -596 -597 0
588 -592 596 -597 0
588 -592 -596 -597 0
-588 592 596 -597 0
-588 592 -596 -597 0
-588 -592 596 -597 0
-588 -592 -596 -597 0
423 598 0
-423 -598 0
598 599 0
-598 -599 0
599 600 0
-599 -600 0
420 601 0
-420 -601 0
601 602 0
-601 -602 0
602 603 0
-602 -603 0
588 600 603 604 0
588 600 -603 -604 0
588 -600 603 -604 0
588 -600 -603 -604 0
-588 600 603 -604 0
-588 600 -603 -604 0
-588 -600 603 -604 0
-588 -600 -603 -604 0
219 605 0
-219 -605 0
605 606 0
-605 -606 0
606 607 0
-606 -607 0
607 592 603 608 0
607 592 -603 -608 0
607 -592 603 -608 0
607 -592 -603 -608 0
-607 592 603 -608 0
-607 592 -603 -608 0
-607 -592 603 -608 0
-607 -592 -603 -608 0
607 600 596 609 0
607 600 -596 -609 0
607 -600 596 -609 0
607 -600 -596 -609 0
-607 600 596 -609 0
-607 600 -596 -609 0
-607 -600 596 -609 0
-607 -600 -596 -609 0
597 604 608 609 -610 0
597 604 608 -609 610 0
597 604 -608 609 610 0
597 604 -608 -609 610 0
597 -604 608 609 610 0
597 -604 608 -609 610 0
597 -604 -608 609 610 0
597 -604 -608 -609 610 0
-597 604 608 609 610 0
-597 604 608 -609 610 0
-597 604 -608 609 610 0
-597 604 -608 -609 610 0
-597 -604 608 609 610 0
-597 -604 608 -609 610 0
-597 -604 -608 609 610 0
-597 -604 -608 -609 610 0
610 611 0
-610 -611 0
611 612 0
-611 -612 0
612 613 0
-612 -613 0
556 584 613 614 0
556 584 -613 -614 0
556 -584 613 -614 0
556 -584 -613 -614 0
-556 584 613 -614 0
-556 584 -613 -614 0
-556 -584 613 -614 0
-556 -584 -613 -614 0
582 615 0
-582 -615 0
615 616 0
-615 -616 0
616 617 0
-616 -617 0
610 618 0
-610 -618 0
618 619 0
-618 -619 0
556 617 619 620 0
556 617 -619 -620 0
556 -617 619 -620 0
556 -617 -619 -620 0
-556 617 619 -620 0
-556 617 -619 -620 0
-556 -617 619 -620 0
-556 -617 -619 -620 0
553 621 0
-553 -621 0
621 622 0
-621 -622 0
622 584 619 623 0
622 584 -619 -623 0
622 -584 619 -623 0
622 -584 -619 -623 0
-622 584 619 -623 0
-622 584 -619 -623 0
-622 -584 619 -623 0
-622 -584 -619 -623 0
622 617 613 624 0
622 617 -613 -624 0
622 -617 613 -624 0
622 -617 -613 -624 0
-622 617 613 -624 0
-622 617 -613 -624 0
-622 -617 613 -624 0
-622 -617 -613 -624 0
614 620 623 624 -625 0
614 620 623 -624 625 0
614 620 -623 624 625 0
614 620 -623 -624 625 0
614 -620 623 624 625 0
614 -620 623 -624 625 0
614 -620 -623 624 625 0
614 -620 -623 -624 625 0
-614 620 623 624 625 0
-614 620 623 -624 625 0
-614 620 -623 624 625 0
-614 620 -623 -624 625 0
-614 -620 623 624 625 0
-614 -620 623 -624 625 0
-614 -620 -623 624 625 0
-614 -620 -623 -624 625 0
527 625 -626 0
527 -625 626 0
-527 625 626 0
-527 -625 -626 0
218 627 0
-218 -627 0
218 628 0
-218 -628 0
627 628 -629 0
627 -628 629 0
-627 628 629 0
-627 -628 -629 0
223 630 0
-223 -630 0
223 631 0
-223 -631 0
630 631 -632 0
630 -631 632 0
-630 631 632 0
-630 -631 -632 0
224 633 0
-224 -633 0
224 634 0
-224 -634 0
633 634 -635 0
633 -634 635 0
-633 634 635 0
-633 -634 -635 0
225 636 0
-225 -636 0
225 637 0
-225 -637 0
636 637 -638 0
636 -637 638 0
-636 637 638 0
-636 -637 -638 0
275 639 0
-275 -639 0
639 640 0
-639 -640 0
640 641 0
-640 -641 0
641 642 0
-641 -642 0
276 643 0
-276 -643 0
643 644 0
-643 -644 0
644 645 0
-644 -645 0
642 645 646 0
642 -645 -646 0
-642 645 -646 0
-642 -645 -646 0
646 647 0
-646 -647 0
378 648 0
-378 -648 0
648 649 0
-648 -649 0
649 650 0
-649 -650 0
279 651 0
-279 -651 0
651 652 0
-651 -652 0
652 653 0
-652 -653 0
653 654 0
-653 -654 0
280 655 0
-280 -655 0
655 656 0
-655 -656 0
656 657 0
-656 -657 0
657 658 0
-657 -658 0
270 659 0
-270 -659 0
659 660 0
-659 -660 0
660 661 0
-660 -661 0
661 662 0
-661 -662 0
662 663 0
-662 -663 0
650 654 658 663 664 0
650 654 658 -663 -664 0
650 654 -658 663 -664 0
650 654 -658 -663 -664 0
650 -654 658 663 -664 0
650 -654 658 -663 -664 0
650 -654 -658 663 -664 0
650 -654 -658 -663 -664 0
-650 654 658 663 -664 0
-650 654 658 -663 -664 0
-650 654 -658 663 -664 0
-650 654 -658 -663 -664 0
-650 -654 658 663 -664 0
-650 -654 658 -663 -664 0
-650 -654 -658 663 -664 0
-650 -654 -658 -663 -664 0
664 665 0
-664 -665 0
278 666 0
-278 -666 0
666 667 0
-666 -667 0
667 668 0
-667 -668 0
277 669 0
-277 -669 0
669 670 0
-669 -670 0
670 671 0
-670 -671 0
668 671 672 0
668 -671 -672 0
-668 671 -672 0
-668 -671 -672 0
672 673 0
-672 -673 0
647 665 673 674 0
647 665 -673 -674 0
647 -665 673 -674 0
647 -665 -673 -674 0
-647 665 673 -674 0
-647 665 -673 -674 0
-647 -665 673 -674 0
-647 -665 -673 -674 0
674 675 0
-674 -675 0
272 271 -676 0
272 -271 676 0
-272 271 676 0
-272 -271 676 0
676 677 0
-676 -677 0
677 678 0
-677 -678 0
678 679 0
-678 -679 0
675 679 680 0
675 -679 -680 0
-675 679 -680 0
-675 -679 -680 0
269 681 0
-269 -681 0
681 682 0
-681 -682 0
682 683 0
-682 -683 0
683 684 0
-683 -684 0
684 685 0
-684 -685 0
268 686 0
-268 -686 0
686 687 0
-686 -687 0
687 688 0
-687 -688 0
688 689 0
-688 -689 0
689 690 0
-689 -690 0
648 691 0
-648 -691 0
691 692 0
-691 -692 0
667 693 0
-667 -693 0
693 694 0
-693 -694 0
694 658 654 -695 0
694 658 -654 695 0
694 -658 654 695 0
694 -658 -654 695 0
-694 658 654 695 0
-694 658 -654 695 0
-694 -658 654 695 0
-694 -658 -654 695 0
690 692 695 -696 0
690 692 -695 696 0
690 -692 695 696 0
690 -692 -695 696 0
-690 692 695 696 0
-690 692 -695 696 0
-690 -692 695 696 0
-690 -692 -695 696 0
696 697 0
-696 -697 0
697 698 0
-697 -698 0
698 645 699 0
698 -645 -699 0
-698 645 -699 0
-698 -645 -699 0
699 700 0
-699 -700 0
698 671 701 0
698 -671 -701 0
-698 671 -701 0
-698 -671 -701 0
701 702 0
-701 -702 0
640 703 0
-640 -703 0
698 703 704 0
698 -703 -704 0
-698 703 -704 0
-698 -703 -704 0
704 705 0
-704 -705 0
700 702 705 706 0
700 702 -705 -706 0
700 -702 705 -706 0
700 -702 -705 -706 0
-700 702 705 -706 0
-700 702 -705 -706 0
-700 -702 705 -706 0
-700 -702 -705 -706 0
706 707 0
-706 -707 0
685 707 708 0
685 -707 -708 0
-685 707 -708 0
-685 -707 -708 0
680 708 709 0
680 -708 -709 0
-680 708 -709 0
-680 -708 -709 0
709 710 0
-709 -710 0
275 711 0
-275 -711 0
711 712 0
-711 -712 0
712 713 0
-712 -713 0
713 714 0
-713 -714 0
276 715 0
-276 -715 0
715 716 0
-715 -716 0
716 717 0
-716 -717 0
714 717 718 0
714 -717 -718 0
-714 717 -718 0
-714 -717 -718 0
718 719 0
-718 -719 0
378 720 0
-378 -720 0
720 721 0
-720 -721 0
721 722 0
-721 -722 0
279 723 0
-279 -723 0
723 724 0
-723 -724 0
724 725 0
-724 -725 0
725 726 0
-725 -726 0
280 727 0
-280 -727 0
727 728 0
-727 -728 0
728 729 0
-728 -729 0
729 730 0
-729 -730 0
270 731 0
-270 -731 0
731 732 0
-731 -732 0
732 733 0
-732 -733 0
733 734 0
-733 -734 0
734 735 0
-734 -735 0
722 726 730 735 736 0
722 726 730 -735 -736 0
722 726 -730 735 -736 0
722 726 -730 -735 -736 0
722 -726 730 735 -736 0
722 -726 730 -735 -736 0
722 -726 -730 735 -736 0
722 -726 -730 -735 -736 0
-722 726 730 735 -736 0
-722 726 730 -735 -736 0
-722 726 -730 735 -736 0
-722 726 -730 -735 -736 0
-722 -726 730 735 -736 0
-722 -726 730 -735 -736 0
-722 -726 -730 735 -736 0
-722 -726 -730 -735 -736 0
736 737 0
-736 -737 0
278 738 0
-278 -738 0
738 739 0
-738 -739 0
739 740 0
-739 -740 0
277 741 0
-277 -741 0
741 742 0
-741 -742 0
742 743 0
-742 -743 0
740 743 744 0
740 -743 -744 0
-740 743 -744 0
-740 -743 -744 0
744 745 0
-744 -745 0
719 737 745 746 0
719 737 -745 -746 0
719 -737 745 -746 0
719 -737 -745 -746 0
-719 737 745 -746 0
-719 737 -745 -746 0
-719 -737 745 -746 0
-719 -737 -745 -746 0
746 747 0
-746 -747 0
272 271 -748 0
272 -271 748 0
-272 271 748 0
-272 -271 748 0
748 749 0
-748 -749 0
749 750 0
-749 -750 0
750 751 0
-750 -751 0
747 751 752 0
747 -751 -752 0
-747 751 -752 0
-747 -751 -752 0
269 753 0
-269 -753 0
753 754 0
-753 -754 0
754 755 0
-754 -755 0
755 756 0
-755 -756 0
756 757 0
-756 -757 0
268 758 0
-268 -758 0
758 759 0
-758 -759 0
759 760 0
-759 -760 0
760 761 0
-760 -761 0
761 762 0
-761 -762 0
720 763 0
-720 -763 0
763 764 0
-763 -764 0
739 765 0
-739 -765 0
765 766 0
-765 -766 0
766 730 726 -767 0
766 730 -726 767 0
766 -730 726 767 0
766 -730 -726 767 0
-766 730 726 767 0
-766 730 -726 767 0
-766 -730 726 767 0
-766 -730 -726 767 0
762 764 767 -768 0
762 764 -767 768 0
762 -764 767 768 0
762 -764 -767 768 0
-762 764 767 768 0
-762 764 -767 768 0
-762 -764 767 768 0
-762 -764 -767 768 0
768 769 0
-768 -769 0
769 770 0
-769 -770 0
770 717 771 0
770 -717 -771 0
-770 717 -771 0
-770 -717 -771 0
771 772 0
-771 -772 0
770 743 773 0
770 -743 -773 0
-770 743 -773 0
-770 -743 -773 0
773 774 0
-773 -774 0
712 775 0
-712 -775 0
770 775 776 0
770 -775 -776 0
-770 775 -776 0
-770 -775 -776 0
776 777 0
-776 -777 0
772 774 777 778 0
772 774 -777 -778 0
772 -774 777 -778 0
772 -774 -777 -778 0
-772 774 777 -778 0
-772 774 -777 -778 0
-772 -774 777 -778 0
-772 -774 -777 -778 0
778 779 0
-778 -779 0
757 779 780 0
757 -779 -780 0
-757 779 -780 0
-757 -779 -780 0
752 780 781 0
752 -780 -781 0
-752 780 -781 0
-752 -780 -781 0
781 782 0
-781 -782 0
710 782 -783 0
710 -782 783 0
-710 782 783 0
-710 -782 -783 0
226 784 0
-226 -784 0
226 785 0
-226 -785 0
784 785 -786 0
784 -785 786 0
-784 785 786 0
-784 -785 -786 0
227 787 0
-227 -787 0
227 788 0
-227 -788 0
787 788 -789 0
787 -788 789 0
-787 788 789 0
-787 -788 -789 0
656 790 0
-656 -790 0
790 791 0
-790 -791 0
791 792 0
-791 -792 0
668 793 0
-668 -793 0
793 794 0
-793 -794 0
652 795 0
-652 -795 0
795 796 0
-795 -796 0
796 797 0
-796 -797 0
792 794 797 798 0
792 794 -797 -798 0
792 -794 797 -798 0
792 -794 -797 -798 0
-792 794 797 -798 0
-792 794 -797 -798 0
-792 -794 797 -798 0
-792 -794 -797 -798 0
694 799 0
-694 -799 0
799 800 0
-799 -800 0
654 801 0
-654 -801 0
801 802 0
-801 -802 0
792 800 802 803 0
792 800 -802 -803 0
792 -800 802 -803 0
792 -800 -802 -803 0
-792 800 802 -803 0
-792 800 -802 -803 0
-792 -800 802 -803 0
-792 -800 -802 -803 0
658 804 0
-658 -804 0
804 805 0
-804 -805 0
805 794 802 806 0
805 794 -802 -806 0
805 -794 802 -806 0
805 -794 -802 -806 0
-805 794 802 -806 0
-805 794 -802 -806 0
-805 -794 802 -806 0
-805 -794 -802 -806 0
805 800 797 807 0
805 800 -797 -807 0
805 -800 797 -807 0
805 -800 -797 -807 0
-805 800 797 -807 0
-805 800 -797 -807 0
-805 -800 797 -807 0
-805 -800 -797 -807 0
798 803 806 807 -808 0
798 803 806 -807 808 0
798 803 -806 807 808 0
798 803 -806 -807 808 0
798 -803 806 807 808 0
798 -803 806 -807 808 0
798 -803 -806 807 808 0
798 -803 -806 -807 808 0
-798 803 806 807 808 0
-798 803 806 -807 808 0
-798 803 -806 807 808 0
-798 803 -806 -807 808 0
-798 -803 806 807 808 0
-798 -803 806 -807 808 0
-798 -803 -806 807 808 0
-798 -803 -806 -807 808 0
808 809 0
-808 -809 0
809 810 0
-809 -810 0
810 811 0
-810 -811 0
274 812 0
-274 -812 0
812 813 0
-812 -813 0
813 814 0
-813 -814 0
642 814 815 0
642 -814 -815 0
-642 814 -815 0
-642 -814 -815 0
813 816 0
-813 -816 0
816 817 0
-816 -817 0
703 817 818 0
703 -817 -818 0
-703 817 -818 0
-703 -817 -818 0
815 818 -819 0
815 -818 819 0
-815 818 819 0
-815 -818 819 0
819 820 0
-819 -820 0
820 821 0
-820 -821 0
644 822 0
-644 -822 0
822 823 0
-822 -823 0
823 671 824 0
823 -671 -824 0
-823 671 -824 0
-823 -671 -824 0
670 825 0
-670 -825 0
825 826 0
-825 -826 0
645 826 827 0
645 -826 -827 0
-645 826 -827 0
-645 -826 -827 0
824 827 -828 0
824 -827 828 0
-824 827 828 0
-824 -827 828 0
828 829 0
-828 -829 0
829 830 0
-829 -830 0
830 831 0
-830 -831 0
811 821 831 832 0
811 821 -831 -832 0
811 -821 831 -832 0
811 -821 -831 -832 0
-811 821 831 -832 0
-811 821 -831 -832 0
-811 -821 831 -832 0
-811 -821 -831 -832 0
819 833 0
-819 -833 0
833 834 0
-833 -834 0
834 835 0
-834 -835 0
828 836 0
-828 -836 0
836 837 0
-836 -837 0
811 835 837 838 0
811 835 -837 -838 0
811 -835 837 -838 0
811 -835 -837 -838 0
-811 835 837 -838 0
-811 835 -837 -838 0
-811 -835 837 -838 0
-811 -835 -837 -838 0
808 839 0
-808 -839 0
839 840 0
-839 -840 0
840 821 837 841 0
840 821 -837 -841 0
840 -821 837 -841 0
840 -821 -837 -841 0
-840 821 837 -841 0
-840 821 -837 -841 0
-840 -821 837 -841 0
-840 -821 -837 -841 0
840 835 831 842 0
840 835 -831 -842 0
840 -835 831 -842 0
840 -835 -831 -842 0
-840 835 831 -842 0
-840 835 -831 -842 0
-840 -835 831 -842 0
-840 -835 -831 -842 0
832 838 841 842 -843 0
832 838 841 -842 843 0
832 838 -841 842 843 0
832 838 -841 -842 843 0
832 -838 841 842 843 0
832 -838 841 -842 843 0
832 -838 -841 842 843 0
832 -838 -841 -842 843 0
-832 838 841 842 843 0
-832 838 841 -842 843 0
-832 838 -841 842 843 0
-832 838 -841 -842 843 0
-832 -838 841 842 843 0
-832 -838 841 -842 843 0
-832 -838 -841 842 843 0
-832 -838 -841 -842 843 0
728 844 0
-728 -844 0
844 845 0
-844 -845 0
845 846 0
-845 -846 0
740 847 0
-740 -847 0
847 848 0
-847 -848 0
724 849 0
-724 -849 0
849 850 0
-849 -850 0
850 851 0
-850 -851 0
846 848 851 852 0
846 848 -851 -852 0
846 -848 851 -852 0
846 -848 -851 -852 0
-846 848 851 -852 0
-846 848 -851 -852 0
-846 -848 851 -852 0
-846 -848 -851 -852 0
766 853 0
-766 -853 0
853 854 0
-853 -854 0
726 855 0
-726 -855 0
855 856 0
-855 -856 0
846 854 856 857 0
846 854 -856 -857 0
846 -854 856 -857 0
846 -854 -856 -857 0
-846 854 856 -857 0
-846 854 -856 -857 0
-846 -854 856 -857 0
-846 -854 -856 -857 0
730 858 0
-730 -858 0
858 859 0
-858 -859 0
859 848 856 860 0
859 848 -856 -860 0
859 -848 856 -860 0
859 -848 -856 -860 0
-859 848 856 -860 0
-859 848 -856 -860 0
-859 -848 856 -860 0
-859 -848 -856 -860 0
859 854 851 861 0
859 854 -851 -861 0
859 -854 851 -861 0
859 -854 -851 -861 0
-859 854 851 -861 0
-859 854 -851 -861 0
-859 -854 851 -861 0
-859 -854 -851 -861 0
852 857 860 861 -862 0
852 857 860 -861 862 0
852 857 -860 861 862 0
852 857 -860 -861 862 0
852 -857 860 861 862 0
852 -857 860 -861 862 0
852 -857 -860 861 862 0
852 -857 -860 -861 862 0
-852 857 860 861 862 0
-852 857 860 -861 862 0
-852 857 -860 861 862 0
-852 857 -860 -861 862 0
-852 -857 860 861 862 0
-852 -857 860 -861 862 0
-852 -857 -860 861 862 0
-852 -857 -860 -861 862 0
862 863 0
-862 -863 0
863 864 0
-863 -864 0
864 865 0
-864 -865 0
274 866 0
-274 -866 0
866 867 0
-866 -867 0
867 868 0
-867 -868 0
714 868 869 0
714 -868 -869 0
-714 868 -869 0
-714 -868 -869 0
867 870 0
-867 -870 0
870 871 0
-870 -871 0
775 871 872 0
775 -871 -872 0
-775 871 -872 0
-775 -871 -872 0
869 872 -873 0
869 -872 873 0
-869 872 873 0
-869 -872 873 0
873 874 0
-873 -874 0
874 875 0
-874 -875 0
716 876 0
-716 -876 0
876 877 0
-876 -877 0
877 743 878 0
877 -743 -878 0
-877 743 -878 0
-877 -743 -878 0
742 879 0
-742 -879 0
879 880 0
-879 -880 0
717 880 881 0
717 -880 -881 0
-717 880 -881 0
-717 -880 -881 0
878 881 -882 0
878 -881 882 0
-878 881 882 0
-878 -881 882 0
882 883 0
-882 -883 0
883 884 0
-883 -884 0
884 885 0
-884 -885 0
865 875 885 886 0
865 875 -885 -886 0
865 -875 885 -886 0
865 -875 -885 -886 0
-865 875 885 -886 0
-865 875 -885 -886 0
-865 -875 885 -886 0
-865 -875 -885 -886 0
873 887 0
-873 -887 0
887 888 0
-887 -888 0
888 889 0
-888 -889 0
882 890 0
-882 -890 0
890 891 0
-890 -891 0
865 889 891 892 0
865 889 -891 -892 0
865 -889 891 -892 0
865 -889 -891 -892 0
-865 889 891 -892 0
-865 889 -891 -892 0
-865 -889 891 -892 0
-865 -889 -891 -892 0
862 893 0
-862 -893 0
893 894 0
-893 -894 0
894 875 891 895 0
894 875 -891 -895 0
894 -875 891 -895 0
894 -875 -891 -895 0
-894 875 891 -895 0
-894 875 -891 -895 0
-894 -875 891 -895 0
-894 -875 -891 -895 0
894 889 885 896 0
894 889 -885 -896 0
894 -889 885 -896 0
894 -889 -885 -896 0
-894 889 885 -896 0
-894 889 -885 -896 0
-894 -889 885 -896 0
-894 -889 -885 -896 0
886 892 895 896 -897 0
886 892 895 -896 897 0
886 892 -895 896 897 0
886 892 -895 -896 897 0
886 -892 895 896 897 0
886 -892 895 -896 897 0
886 -892 -895 896 897 0
886 -892 -895 -896 897 0
-886 892 895 896 897 0
-886 892 895 -896 897 0
-886 892 -895 896 897 0
-886 892 -895 -896 897 0
-886 -892 895 896 897 0
-886 -892 895 -896 897 0
-886 -892 -895 896 897 0
-886 -892 -895 -896 897 0
843 897 -898 0
843 -897 898 0
-843 897 898 0
-843 -897 -898 0
232 899 0
-232 -899 0
232 900 0
-232 -900 0
899 900 -901 0
899 -900 901 0
-899 900 901 0
-899 -900 -901 0
234 902 0
-234 -902 0
234 903 0
-234 -903 0
902 903 -904 0
902 -903 904 0
-902 903 904 0
-902 -903 -904 0
235 905 0
-235 -905 0
235 906 0
-235 -906 0
905 906 -907 0
905 -906 907 0
-905 906 907 0
-905 -906 -907 0
243 908 0
-243 -908 0
243 909 0
-243 -909 0
908 909 -910 0
908 -909 910 0
-908 909 910 0
-908 -909 -910 0
236 911 0
-236 -911 0
911 912 0
-911 -912 0
912 913 0
-912 -913 0
913 914 0
-913 -914 0
228 915 0
-228 -915 0
915 916 0
-915 -916 0
916 917 0
-916 -917 0
917 918 0
-917 -918 0
245 919 0
-245 -919 0
919 920 0
-919 -920 0
920 921 0
-920 -921 0
921 922 0
-921 -922 0
914 918 922 923 0
914 918 -922 -923 0
914 -918 922 -923 0
914 -918 -922 -923 0
-914 918 922 -923 0
-914 918 -922 -923 0
-914 -918 922 -923 0
-914 -918 -922 -923 0
228 924 0
-228 -924 0
924 925 0
-924 -925 0
925 926 0
-925 -926 0
245 927 0
-245 -927 0
927 928 0
-927 -928 0
928 929 0
-928 -929 0
914 926 929 930 0
914 926 -929 -930 0
914 -926 929 -930 0
914 -926 -929 -930 0
-914 926 929 -930 0
-914 926 -929 -930 0
-914 -926 929 -930 0
-914 -926 -929 -930 0
236 931 0
-236 -931 0
931 932 0
-931 -932 0
932 933 0
-932 -933 0
933 918 929 934 0
933 918 -929 -934 0
933 -918 929 -934 0
933 -918 -929 -934 0
-933 918 929 -934 0
-933 918 -929 -934 0
-933 -918 929 -934 0
-933 -918 -929 -934 0
933 926 922 935 0
933 926 -922 -935 0
933 -926 922 -935 0
933 -926 -922 -935 0
-933 926 922 -935 0
-933 926 -922 -935 0
-933 -926 922 -935 0
-933 -926 -922 -935 0
923 930 934 935 -936 0
923 930 934 -935 936 0
923 930 -934 935 936 0
923 930 -934 -935 936 0
923 -930 934 935 936 0
923 -930 934 -935 936 0
923 -930 -934 935 936 0
923 -930 -934 -935 936 0
-923 930 934 935 936 0
-923 930 934 -935 936 0
-923 930 -934 935 936 0
-923 930 -934 -935 936 0
-923 -930 934 935 936 0
-923 -930 934 -935 936 0
-923 -930 -934 935 936 0
-923 -930 -934 -935 936 0
936 937 0
-936 -937 0
937 938 0
-937 -938 0
938 939 0
-938 -939 0
226 940 0
-226 -940 0
940 941 0
-940 -941 0
941 942 0
-941 -942 0
942 943 0
-942 -943 0
227 944 0
-227 -944 0
944 945 0
-944 -945 0
945 946 0
-945 -946 0
946 947 0
-946 -947 0
218 948 0
-218 -948 0
948 949 0
-948 -949 0
949 950 0
-949 -950 0
950 951 0
-950 -951 0
943 947 951 952 0
943 947 -951 -952 0
943 -947 951 -952 0
943 -947 -951 -952 0
-943 947 951 -952 0
-943 947 -951 -952 0
-943 -947 951 -952 0
-943 -947 -951 -952 0
787 953 0
-787 -953 0
953 954 0
-953 -954 0
627 955 0
-627 -955 0
955 956 0
-955 -956 0
943 954 956 957 0
943 954 -956 -957 0
943 -954 956 -957 0
943 -954 -956 -957 0
-943 954 956 -957 0
-943 954 -956 -957 0
-943 -954 956 -957 0
-943 -954 -956 -957 0
784 958 0
-784 -958 0
958 959 0
-958 -959 0
959 947 956 960 0
959 947 -956 -960 0
959 -947 956 -960 0
959 -947 -956 -960 0
-959 947 956 -960 0
-959 947 -956 -960 0
-959 -947 956 -960 0
-959 -947 -956 -960 0
959 954 951 961 0
959 954 -951 -961 0
959 -954 951 -961 0
959 -954 -951 -961 0
-959 954 951 -961 0
-959 954 -951 -961 0
-959 -954 951 -961 0
-959 -954 -951 -961 0
952 957 960 961 -962 0
952 957 960 -961 962 0
952 957 -960 961 962 0
952 957 -960 -961 962 0
952 -957 960 961 962 0
952 -957 960 -961 962 0
952 -957 -960 961 962 0
952 -957 -960 -961 962 0
-952 957 960 961 962 0
-952 957 960 -961 962 0
-952 957 -960 961 962 0
-952 957 -960 -961 962 0
-952 -957 960 961 962 0
-952 -957 960 -961 962 0
-952 -957 -960 961 962 0
-952 -957 -960 -961 962 0
962 963 0
-962 -963 0
963 964 0
-963 -964 0
244 965 0
-244 -965 0
965 966 0
-965 -966 0
966 967 0
-966 -967 0
967 968 0
-967 -968 0
235 969 0
-235 -969 0
969 970 0
-969 -970 0
970 971 0
-970 -971 0
971 972 0
-971 -972 0
234 973 0
-234 -973 0
973 974 0
-973 -974 0
974 975 0
-974 -975 0
975 976 0
-975 -976 0
968 972 976 977 0
968 972 -976 -977 0
968 -972 976 -977 0
968 -972 -976 -977 0
-968 972 976 -977 0
-968 972 -976 -977 0
-968 -972 976 -977 0
-968 -972 -976 -977 0
905 978 0
-905 -978 0
978 979 0
-978 -979 0
902 980 0
-902 -980 0
980 981 0
-980 -981 0
968 979 981 982 0
968 979 -981 -982 0
968 -979 981 -982 0
968 -979 -981 -982 0
-968 979 981 -982 0
-968 979 -981 -982 0
-968 -979 981 -982 0
-968 -979 -981 -982 0
244 983 0
-244 -983 0
983 984 0
-983 -984 0
984 985 0
-984 -985 0
985 972 981 986 0
985 972 -981 -986 0
985 -972 981 -986 0
985 -972 -981 -986 0
-985 972 981 -986 0
-985 972 -981 -986 0
-985 -972 981 -986 0
-985 -972 -981 -986 0
985 979 976 987 0
985 979 -976 -987 0
985 -979 976 -987 0
985 -979 -976 -987 0
-985 979 976 -987 0
-985 979 -976 -987 0
-985 -979 976 -987 0
-985 -979 -976 -987 0
977 982 986 987 -988 0
977 982 986 -987 988 0
977 982 -986 987 988 0
977 982 -986 -987 988 0
977 -982 986 987 988 0
977 -982 986 -987 988 0
977 -982 -986 987 988 0
977 -982 -986 -987 988 0
-977 982 986 987 988 0
-977 982 986 -987 988 0
-977 982 -986 987 988 0
-977 982 -986 -987 988 0
-977 -982 986 987 988 0
-977 -982 986 -987 988 0
-977 -982 -986 987 988 0
-977 -982 -986 -987 988 0
988 989 0
-988 -989 0
989 990 0
-989 -990 0
990 991 0
-990 -991 0
939 964 991 992 0
939 964 -991 -992 0
939 -964 991 -992 0
939 -964 -991 -992 0
-939 964 991 -992 0
-939 964 -991 -992 0
-939 -964 991 -992 0
-939 -964 -991 -992 0
962 993 0
-962 -993 0
993 994 0
-993 -994 0
994 995 0
-994 -995 0
988 996 0
-988 -996 0
996 997 0
-996 -997 0
939 995 997 998 0
939 995 -997 -998 0
939 -995 997 -998 0
939 -995 -997 -998 0
-939 995 997 -998 0
-939 995 -997 -998 0
-939 -995 997 -998 0
-939 -995 -997 -998 0
936 999 0
-936 -999 0
999 1000 0
-999 -1000 0
1000 964 997 1001 0
1000 964 -997 -1001 0
1000 -964 997 -1001 0
1000 -964 -997 -1001 0
-1000 964 997 -1001 0
-1000 964 -997 -1001 0
-1000 -964 997 -1001 0
-1000 -964 -997 -1001 0
1000 995 991 1002 0
1000 995 -991 -1002 0
1000 -995 991 -1002 0
1000 -995 -991 -1002 0
-1000 995 991 -1002 0
-1000 995 -991 -1002 0
-1000 -995 991 -1002 0
-1000 -995 -991 -1002 0
992 998 1001 1002 -1003 0
992 998 1001 -1002 1003 0
992 998 -1001 1002 1003 0
992 998 -1001 -1002 1003 0
992 -998 1001 1002 1003 0
992 -998 1001 -1002 1003 0
992 -998 -1001 1002 1003 0
992 -998 -1001 -1002 1003 0
-992 998 1001 1002 1003 0
-992 998 1001 -1002 1003 0
-992 998 -1001 1002 1003 0
-992 998 -1001 -1002 1003 0
-992 -998 1001 1002 1003 0
-992 -998 1001 -1002 1003 0
-992 -998 -1001 1002 1003 0
-992 -998 -1001 -1002 1003 0
236 1004 0
-236 -1004 0
1004 1005 0
-1004 -1005 0
1005 1006 0
-1005 -1006 0
1006 1007 0
-1006 -1007 0
228 1008 0
-228 -1008 0
1008 1009 0
-1008 -1009 0
1009 1010 0
-1009 -1010 0
1010 1011 0
-1010 -1011 0
245 1012 0
-245 -1012 0
1012 1013 0
-1012 -1013 0
1013 1014 0
-1013 -1014 0
1014 1015 0
-1014 -1015 0
1007 1011 1015 1016 0
1007 1011 -1015 -1016 0
1007 -1011 1015 -1016 0
1007 -1011 -1015 -1016 0
-1007 1011 1015 -1016 0
-1007 1011 -1015 -1016 0
-1007 -1011 1015 -1016 0
-1007 -1011 -1015 -1016 0
228 1017 0
-228 -1017 0
1017 1018 0
-1017 -1018 0
1018 1019 0
-1018 -1019 0
245 1020 0
-245 -1020 0
1020 1021 0
-1020 -1021 0
1021 1022 0
-1021 -1022 0
1007 1019 1022 1023 0
1007 1019 -1022 -1023 0
1007 -1019 1022 -1023 0
1007 -1019 -1022 -1023 0
-1007 1019 1022 -1023 0
-1007 1019 -1022 -1023 0
-1007 -1019 1022 -1023 0
-1007 -1019 -1022 -1023 0
236 1024 0
-236 -1024 0
1024 1025 0
-1024 -1025 0
1025 1026 0
-1025 -1026 0
1026 1011 1022 1027 0
1026 1011 -1022 -1027 0
1026 -1011 1022 -1027 0
1026 -1011 -1022 -1027 0
-1026 1011 1022 -1027 0
-1026 1011 -1022 -1027 0
-1026 -1011 1022 -1027 0
-1026 -1011 -1022 -1027 0
1026 1019 1015 1028 0
1026 1019 -1015 -1028 0
1026 -1019 1015 -1028 0
1026 -1019 -1015 -1028 0
-1026 1019 1015 -1028 0
-1026 1019 -1015 -1028 0
-1026 -1019 1015 -1028 0
-1026 -1019 -1015 -1028 0
1016 1023 1027 1028 -1029 0
1016 1023 1027 -1028 1029 0
1016 1023 -1027 1028 1029 0
1016 1023 -1027 -1028 1029 0
1016 -1023 1027 1028 1029 0
1016 -1023 1027 -1028 1029 0
1016 -1023 -1027 1028 1029 0
1016 -1023 -1027 -1028 1029 0
-1016 1023 1027 1028 1029 0
-1016 1023 1027 -1028 1029 0
-1016 1023 -1027 1028 1029 0
-1016 1023 -1027 -1028 1029 0
-1016 -1023 1027 1028 1029 0
-1016 -1023 1027 -1028 1029 0
-1016 -1023 -1027 1028 1029 0
-1016 -1023 -1027 -1028 1029 0
1029 1030 0
-1029 -1030 0
1030 1031 0
-1030 -1031 0
1031 1032 0
-1031 -1032 0
226 1033 0
-226 -1033 0
1033 1034 0
-1033 -1034 0
1034 1035 0
-1034 -1035 0
1035 1036 0
-1035 -1036 0
227 1037 0
-227 -1037 0
1037 1038 0
-1037 -1038 0
1038 1039 0
-1038 -1039 0
1039 1040 0
-1039 -1040 0
218 1041 0
-218 -1041 0
1041 1042 0
-1041 -1042 0
1042 1043 0
-1042 -1043 0
1043 1044 0
-1043 -1044 0
1036 1040 1044 1045 0
1036 1040 -1044 -1045 0
1036 -1040 1044 -1045 0
1036 -1040 -1044 -1045 0
-1036 1040 1044 -1045 0
-1036 1040 -1044 -1045 0
-1036 -1040 1044 -1045 0
-1036 -1040 -1044 -1045 0
788 1046 0
-788 -1046 0
1046 1047 0
-1046 -1047 0
628 1048 0
-628 -1048 0
1048 1049 0
-1048 -1049 0
1036 1047 1049 1050 0
1036 1047 -1049 -1050 0
1036 -1047 1049 -1050 0
1036 -1047 -1049 -1050 0
-1036 1047 1049 -1050 0
-1036 1047 -1049 -1050 0
-1036 -1047 1049 -1050 0
-1036 -1047 -1049 -1050 0
785 1051 0
-785 -1051 0
1051 1052 0
-1051 -1052 0
1052 1040 1049 1053 0
1052 1040 -1049 -1053 0
1052 -1040 1049 -1053 0
1052 -1040 -1049 -1053 0
-1052 1040 1049 -1053 0
-1052 1040 -1049 -1053 0
-1052 -1040 1049 -1053 0
-1052 -1040 -1049 -1053 0
1052 1047 1044 1054 0
1052 1047 -1044 -1054 0
1052 -1047 1044 -1054 0
1052 -1047 -1044 -1054 0
-1052 1047 1044 -1054 0
-1052 1047 -1044 -1054 0
-1052 -1047 1044 -1054 0
-1052 -1047 -1044 -1054 0
1045 1050 1053 1054 -1055 0
1045 1050 1053 -1054 1055 0
1045 1050 -1053 1054 1055 0
1045 1050 -1053 -1054 1055 0
1045 -1050 1053 1054 1055 0
1045 -1050 1053 -1054 1055 0
1045 -1050 -1053 1054 1055 0
1045 -1050 -1053 -1054 1055 0
-1045 1050 1053 1054 1055 0
-1045 1050 1053 -1054 1055 0
-1045 1050 -1053 1054 1055 0
-1045 1050 -1053 -1054 1055 0
-1045 -1050 1053 1054 1055 0
-1045 -1050 1053 -1054 1055 0
-1045 -1050 -1053 1054 1055 0
-1045 -1050 -1053 -1054 1055 0
1055 1056 0
-1055 -1056 0
1056 1057 0
-1056 -1057 0
244 1058 0
-244 -1058 0
1058 1059 0
-1058 -1059 0
1059 1060 0
-1059 -1060 0
1060 1061 0
-1060 -1061 0
235 1062 0
-235 -1062 0
1062 1063 0
-1062 -1063 0
1063 1064 0
-1063 -1064 0
1064 1065 0
-1064 -1065 0
234 1066 0
-234 -1066 0
1066 1067 0
-1066 -1067 0
1067 1068 0
-1067 -1068 0
1068 1069 0
-1068 -1069 0
1061 1065 1069 1070 0
1061 1065 -1069 -1070 0
1061 -1065 1069 -1070 0
1061 -1065 -1069 -1070 0
-1061 1065 1069 -1070 0
-1061 1065 -1069 -1070 0
-1061 -1065 1069 -1070 0
-1061 -1065 -1069 -1070 0
906 1071 0
-906 -1071 0
1071 1072 0
-1071 -1072 0
903 1073 0
-903 -1073 0
1073 1074 0
-1073 -1074 0
1061 1072 1074 1075 0
1061 1072 -1074 -1075 0
1061 -1072 1074 -1075 0
1061 -1072 -1074 -1075 0
-1061 1072 1074 -1075 0
-1061 1072 -1074 -1075 0
-1061 -1072 1074 -1075 0
-1061 -1072 -1074 -1075 0
244 1076 0
-244 -1076 0
1076 1077 0
-1076 -1077 0
1077 1078 0
-1077 -1078 0
1078 1065 1074 1079 0
1078 1065 -1074 -1079 0
1078 -1065 1074 -1079 0
1078 -1065 -1074 -1079 0
-1078 1065 1074 -1079 0
-1078 1065 -1074 -1079 0
-1078 -1065 1074 -1079 0
-1078 -1065 -1074 -1079 0
1078 1072 1069 1080 0
1078 1072 -1069 -1080 0
1078 -1072 1069 -1080 0
1078 -1072 -1069 -1080 0
-1078 1072 1069 -1080 0
-1078 1072 -1069 -1080 0
-1078 -1072 1069 -1080 0
-1078 -1072 -1069 -1080 0
1070 1075 1079 1080 -1081 0
1070 1075 1079 -1080 1081 0
1070 1075 -1079 1080 1081 0
1070 1075 -1079 -1080 1081 0
1070 -1075 1079 1080 1081 0
1070 -1075 1079 -1080 1081 0
1070 -1075 -1079 1080 1081 0
1070 -1075 -1079 -1080 1081 0
-1070 1075 1079 1080 1081 0
-1070 1075 1079 -1080 1081 0
-1070 1075 -1079 1080 1081 0
-1070 1075 -1079 -1080 1081 0
-1070 -1075 1079 1080 1081 0
-1070 -1075 1079 -1080 1081 0
-1070 -1075 -1079 1080 1081 0
-1070 -1075 -1079 -1080 1081 0
1081 1082 0
-1081 -1082 0
1082 1083 0
-1082 -1083 0
1083 1084 0
-1083 -1084 0
1032 1057 1084 1085 0
1032 1057 -1084 -1085 0
1032 -1057 1084 -1085 0
1032 -1057 -1084 -1085 0
-1032 1057 1084 -1085 0
-1032 1057 -1084 -1085 0
-1032 -1057 1084 -1085 0
-1032 -1057 -1084 -1085 0
1055 1086 0
-1055 -1086 0
1086 1087 0
-1086 -1087 0
1087 1088 0
-1087 -1088 0
1081 1089 0
-1081 -1089 0
1089 1090 0
-1089 -1090 0
1032 1088 1090 1091 0
1032 1088 -1090 -1091 0
1032 -1088 1090 -1091 0
1032 -1088 -1090 -1091 0
-1032 1088 1090 -1091 0
-1032 1088 -1090 -1091 0
-1032 -1088 1090 -1091 0
-1032 -1088 -1090 -1091 0
1029 1092 0
-1029 -1092 0
1092 1093 0
-1092 -1093 0
1093 1057 1090 1094 0
1093 1057 -1090 -1094 0
1093 -1057 1090 -1094 0
1093 -1057 -1090 -1094 0
-1093 1057 1090 -1094 0
-1093 1057 -1090 -1094 0
-1093 -1057 1090 -1094 0
-1093 -1057 -1090 -1094 0
1093 1088 1084 1095 0
1093 1088 -1084 -1095 0
1093 -1088 1084 -1095 0
1093 -1088 -1084 -1095 0
-1093 1088 1084 -1095 0
-1093 1088 -1084 -1095 0
-1093 -1088 1084 -1095 0
-1093 -1088 -1084 -1095 0
1085 1091 1094 1095 -1096 0
1085 1091 1094 -1095 1096 0
1085 1091 -1094 1095 1096 0
1085 1091 -1094 -1095 1096 0
1085 -1091 1094 1095 1096 0
1085 -1091 1094 -1095 1096 0
1085 -1091 -1094 1095 1096 0
1085 -1091 -1094 -1095 1096 0
-1085 1091 1094 1095 1096 0
-1085 1091 1094 -1095 1096 0
-1085 1091 -1094 1095 1096 0
-1085 1091 -1094 -1095 1096 0
-1085 -1091 1094 1095 1096 0
-1085 -1091 1094 -1095 1096 0
-1085 -1091 -1094 1095 1096 0
-1085 -1091 -1094 -1095 1096 0
1003 1096 -1097 0
1003 -1096 1097 0
-1003 1096 1097 0
-1003 -1096 -1097 0
299 1098 0
-299 -1098 0
1098 1099 0
-1098 -1099 0
1099 1100 0
-1099 -1100 0
1100 1101 0
-1100 -1101 0
393 1102 0
-393 -1102 0
1102 1103 0
-1102 -1103 0
1103 1104 0
-1103 -1104 0
1104 1105 0
-1104 -1105 0
300 1106 0
-300 -1106 0
1106 1107 0
-1106 -1107 0
1107 1108 0
-1107 -1108 0
1108 1109 0
-1108 -1109 0
1101 1105 1109 1110 0
1101 1105 -1109 -1110 0
1101 -1105 1109 -1110 0
1101 -1105 -1109 -1110 0
-1101 1105 1109 -1110 0
-1101 1105 -1109 -1110 0
-1101 -1105 1109 -1110 0
-1101 -1105 -1109 -1110 0
393 1111 0
-393 -1111 0
1111 1112 0
-1111 -1112 0
1112 1113 0
-1112 -1113 0
300 1114 0
-300 -1114 0
1114 1115 0
-1114 -1115 0
1115 1116 0
-1115 -1116 0
1101 1113 1116 1117 0
1101 1113 -1116 -1117 0
1101 -1113 1116 -1117 0
1101 -1113 -1116 -1117 0
-1101 1113 1116 -1117 0
-1101 1113 -1116 -1117 0
-1101 -1113 1116 -1117 0
-1101 -1113 -1116 -1117 0
299 1118 0
-299 -1118 0
1118 1119 0
-1118 -1119 0
1119 1120 0
-1119 -1120 0
1120 1105 1116 1121 0
1120 1105 -1116 -1121 0
1120 -1105 1116 -1121 0
1120 -1105 -1116 -1121 0
-1120 1105 1116 -1121 0
-1120 1105 -1116 -1121 0
-1120 -1105 1116 -1121 0
-1120 -1105 -1116 -1121 0
1120 1113 1109 1122 0
1120 1113 -1109 -1122 0
1120 -1113 1109 -1122 0
1120 -1113 -1109 -1122 0
-1120 1113 1109 -1122 0
-1120 1113 -1109 -1122 0
-1120 -1113 1109 -1122 0
-1120 -1113 -1109 -1122 0
1110 1117 1121 1122 -1123 0
1110 1117 1121 -1122 1123 0
1110 1117 -1121 1122 1123 0
1110 1117 -1121 -1122 1123 0
1110 -1117 1121 1122 1123 0
1110 -1117 1121 -1122 1123 0
1110 -1117 -1121 1122 1123 0
1110 -1117 -1121 -1122 1123 0
-1110 1117 1121 1122 1123 0
-1110 1117 1121 -1122 1123 0
-1110 1117 -1121 1122 1123 0
-1110 1117 -1121 -1122 1123 0
-1110 -1117 1121 1122 1123 0
-1110 -1117 1121 -1122 1123 0
-1110 -1117 -1121 1122 1123 0
-1110 -1117 -1121 -1122 1123 0
1123 1124 0
-1123 -1124 0
1124 1125 0
-1124 -1125 0
1125 1126 0
-1125 -1126 0
221 1127 0
-221 -1127 0
1127 1128 0
-1127 -1128 0
1128 1129 0
-1128 -1129 0
1129 1130 0
-1129 -1130 0
428 1131 0
-428 -1131 0
1131 1132 0
-1131 -1132 0
1132 1133 0
-1132 -1133 0
1133 1134 0
-1133 -1134 0
217 1135 0
-217 -1135 0
1135 1136 0
-1135 -1136 0
1136 1137 0
-1136 -1137 0
1137 1138 0
-1137 -1138 0
1130 1134 1138 1139 0
1130 1134 -1138 -1139 0
1130 -1134 1138 -1139 0
1130 -1134 -1138 -1139 0
-1130 1134 1138 -1139 0
-1130 1134 -1138 -1139 0
-1130 -1134 1138 -1139 0
-1130 -1134 -1138 -1139 0
428 1140 0
-428 -1140 0
1140 1141 0
-1140 -1141 0
1141 1142 0
-1141 -1142 0
217 1143 0
-217 -1143 0
1143 1144 0
-1143 -1144 0
1144 1145 0
-1144 -1145 0
1130 1142 1145 1146 0
1130 1142 -1145 -1146 0
1130 -1142 1145 -1146 0
1130 -1142 -1145 -1146 0
-1130 1142 1145 -1146 0
-1130 1142 -1145 -1146 0
-1130 -1142 1145 -1146 0
-1130 -1142 -1145 -1146 0
221 1147 0
-221 -1147 0
1147 1148 0
-1147 -1148 0
1148 1149 0
-1148 -1149 0
1149 1134 1145 1150 0
1149 1134 -1145 -1150 0
1149 -1134 1145 -1150 0
1149 -1134 -1145 -1150 0
-1149 1134 1145 -1150 0
-1149 1134 -1145 -1150 0
-1149 -1134 1145 -1150 0
-1149 -1134 -1145 -1150 0
1149 1142 1138 1151 0
1149 1142 -1138 -1151 0
1149 -1142 1138 -1151 0
1149 -1142 -1138 -1151 0
-1149 1142 1138 -1151 0
-1149 1142 -1138 -1151 0
-1149 -1142 1138 -1151 0
-1149 -1142 -1138 -1151 0
1139 1146 1150 1151 -1152 0
1139 1146 1150 -1151 1152 0
1139 1146 -1150 1151 1152 0
1139 1146 -1150 -1151 1152 0
1139 -1146 1150 1151 1152 0
1139 -1146 1150 -1151 1152 0
1139 -1146 -1150 1151 1152 0
1139 -1146 -1150 -1151 1152 0
-1139 1146 1150 1151 1152 0
-1139 1146 1150 -1151 1152 0
-1139 1146 -1150 1151 1152 0
-1139 1146 -1150 -1151 1152 0
-1139 -1146 1150 1151 1152 0
-1139 -1146 1150 -1151 1152 0
-1139 -1146 -1150 1151 1152 0
-1139 -1146 -1150 -1151 1152 0
1152 1153 0
-1152 -1153 0
1153 1154 0
-1153 -1154 0
301 1155 0
-301 -1155 0
1155 1156 0
-1155 -1156 0
1156 1157 0
-1156 -1157 0
1157 1158 0
-1157 -1158 0
251 1159 0
-251 -1159 0
1159 1160 0
-1159 -1160 0
1160 1161 0
-1160 -1161 0
1161 1162 0
-1161 -1162 0
252 1163 0
-252 -1163 0
1163 1164 0
-1163 -1164 0
1164 1165 0
-1164 -1165 0
1165 1166 0
-1165 -1166 0
1158 1162 1166 1167 0
1158 1162 -1166 -1167 0
1158 -1162 1166 -1167 0
1158 -1162 -1166 -1167 0
-1158 1162 1166 -1167 0
-1158 1162 -1166 -1167 0
-1158 -1162 1166 -1167 0
-1158 -1162 -1166 -1167 0
251 1168 0
-251 -1168 0
1168 1169 0
-1168 -1169 0
1169 1170 0
-1169 -1170 0
252 1171 0
-252 -1171 0
1171 1172 0
-1171 -1172 0
1172 1173 0
-1172 -1173 0
1158 1170 1173 1174 0
1158 1170 -1173 -1174 0
1158 -1170 1173 -1174 0
1158 -1170 -1173 -1174 0
-1158 1170 1173 -1174 0
-1158 1170 -1173 -1174 0
-1158 -1170 1173 -1174 0
-1158 -1170 -1173 -1174 0
301 1175 0
-301 -1175 0
1175 1176 0
-1175 -1176 0
1176 1177 0
-1176 -1177 0
1177 1162 1173 1178 0
1177 1162 -1173 -1178 0
1177 -1162 1173 -1178 0
1177 -1162 -1173 -1178 0
-1177 1162 1173 -1178 0
-1177 1162 -1173 -1178 0
-1177 -1162 1173 -1178 0
-1177 -1162 -1173 -1178 0
1177 1170 1166 1179 0
1177 1170 -1166 -1179 0
1177 -1170 1166 -1179 0
1177 -1170 -1166 -1179 0
-1177 1170 1166 -1179 0
-1177 1170 -1166 -1179 0
-1177 -1170 1166 -1179 0
-1177 -1170 -1166 -1179 0
1167 1174 1178 1179 -1180 0
1167 1174 1178 -1179 1180 0
1167 1174 -1178 1179 1180 0
1167 1174 -1178 -1179 1180 0
1167 -1174 1178 1179 1180 0
1167 -1174 1178 -1179 1180 0
1167 -1174 -1178 1179 1180 0
1167 -1174 -1178 -1179 1180 0
-1167 1174 1178 1179 1180 0
-1167 1174 1178 -1179 1180 0
-1167 1174 -1178 1179 1180 0
-1167 1174 -1178 -1179 1180 0
-1167 -1174 1178 1179 1180 0
-1167 -1174 1178 -1179 1180 0
-1167 -1174 -1178 1179 1180 0
-1167 -1174 -1178 -1179 1180 0
1180 1181 0
-1180 -1181 0
1181 1182 0
-1181 -1182 0
1182 1183 0
-1182 -1183 0
1126 1154 1183 1184 0
1126 1154 -1183 -1184 0
1126 -1154 1183 -1184 0
1126 -1154 -1183 -1184 0
-1126 1154 1183 -1184 0
-1126 1154 -1183 -1184 0
-1126 -1154 1183 -1184 0
-1126 -1154 -1183 -1184 0
1152 1185 0
-1152 -1185 0
1185 1186 0
-1185 -1186 0
1186 1187 0
-1186 -1187 0
1180 1188 0
-1180 -1188 0
1188 1189 0
-1188 -1189 0
1126 1187 1189 1190 0
1126 1187 -1189 -1190 0
1126 -1187 1189 -1190 0
1126 -1187 -1189 -1190 0
-1126 1187 1189 -1190 0
-1126 1187 -1189 -1190 0
-1126 -1187 1189 -1190 0
-1126 -1187 -1189 -1190 0
1123 1191 0
-1123 -1191 0
1191 1192 0
-1191 -1192 0
1192 1154 1189 1193 0
1192 1154 -1189 -1193 0
1192 -1154 1189 -1193 0
1192 -1154 -1189 -1193 0
-1192 1154 1189 -1193 0
-1192 1154 -1189 -1193 0
-1192 -1154 1189 -1193 0
-1192 -1154 -1189 -1193 0
1192 1187 1183 1194 0
1192 1187 -1183 -1194 0
1192 -1187 1183 -1194 0
1192 -1187 -1183 -1194 0
-1192 1187 1183 -1194 0
-1192 1187 -1183 -1194 0
-1192 -1187 1183 -1194 0
-1192 -1187 -1183 -1194 0
1184 1190 1193 1194 -1195 0
1184 1190 1193 -1194 1195 0
1184 1190 -1193 1194 1195 0
1184 1190 -1193 -1194 1195 0
1184 -1190 1193 1194 1195 0
1184 -1190 1193 -1194 1195 0
1184 -1190 -1193 1194 1195 0
1184 -1190 -1193 -1194 1195 0
-1184 1190 1193 1194 1195 0
-1184 1190 1193 -1194 1195 0
-1184 1190 -1193 1194 1195 0
-1184 1190 -1193 -1194 1195 0
-1184 -1190 1193 1194 1195 0
-1184 -1190 1193 -1194 1195 0
-1184 -1190 -1193 1194 1195 0
-1184 -1190 -1193 -1194 1195 0
299 1196 0
-299 -1196 0
1196 1197 0
-1196 -1197 0
1197 1198 0
-1197 -1198 0
1198 1199 0
-1198 -1199 0
393 1200 0
-393 -1200 0
1200 1201 0
-1200 -1201 0
1201 1202 0
-1201 -1202 0
1202 1203 0
-1202 -1203 0
300 1204 0
-300 -1204 0
1204 1205 0
-1204 -1205 0
1205 1206 0
-1205 -1206 0
1206 1207 0
-1206 -1207 0
1199 1203 1207 1208 0
1199 1203 -1207 -1208 0
1199 -1203 1207 -1208 0
1199 -1203 -1207 -1208 0
-1199 1203 1207 -1208 0
-1199 1203 -1207 -1208 0
-1199 -1203 1207 -1208 0
-1199 -1203 -1207 -1208 0
393 1209 0
-393 -1209 0
1209 1210 0
-1209 -1210 0
1210 1211 0
-1210 -1211 0
300 1212 0
-300 -1212 0
1212 1213 0
-1212 -1213 0
1213 1214 0
-1213 -1214 0
1199 1211 1214 1215 0
1199 1211 -1214 -1215 0
1199 -1211 1214 -1215 0
1199 -1211 -1214 -1215 0
-1199 1211 1214 -1215 0
-1199 1211 -1214 -1215 0
-1199 -1211 1214 -1215 0
-1199 -1211 -1214 -1215 0
299 1216 0
-299 -1216 0
1216 1217 0
-1216 -1217 0
1217 1218 0
-1217 -1218 0
1218 1203 1214 1219 0
1218 1203 -1214 -1219 0
1218 -1203 1214 -1219 0
1218 -1203 -1214 -1219 0
-1218 1203 1214 -1219 0
-1218 1203 -1214 -1219 0
-1218 -1203 1214 -1219 0
-1218 -1203 -1214 -1219 0
1218 1211 1207 1220 0
1218 1211 -1207 -1220 0
1218 -1211 1207 -1220 0
1218 -1211 -1207 -1220 0
-1218 1211 1207 -1220 0
-1218 1211 -1207 -1220 0
-1218 -1211 1207 -1220 0
-1218 -1211 -1207 -1220 0
1208 1215 1219 1220 -1221 0
1208 1215 1219 -1220 1221 0
1208 1215 -1219 1220 1221 0
1208 1215 -1219 -1220 1221 0
1208 -1215 1219 1220 1221 0
1208 -1215 1219 -1220 1221 0
1208 -1215 -1219 1220 1221 0
1208 -1215 -1219 -1220 1221 0
-1208 1215 1219 1220 1221 0
-1208 1215 1219 -1220 1221 0
-1208 1215 -1219 1220 1221 0
-1208 1215 -1219 -1220 1221 0
-1208 -1215 1219 1220 1221 0
-1208 -1215 1219 -1220 1221 0
-1208 -1215 -1219 1220 1221 0
-1208 -1215 -1219 -1220 1221 0
1221 1222 0
-1221 -1222 0
1222 1223 0
-1222 -1223 0
1223 1224 0
-1223 -1224 0
221 1225 0
-221 -1225 0
1225 1226 0
-1225 -1226 0
1226 1227 0
-1226 -1227 0
1227 1228 0
-1227 -1228 0
428 1229 0
-428 -1229 0
1229 1230 0
-1229 -1230 0
1230 1231 0
-1230 -1231 0
1231 1232 0
-1231 -1232 0
217 1233 0
-217 -1233 0
1233 1234 0
-1233 -1234 0
1234 1235 0
-1234 -1235 0
1235 1236 0
-1235 -1236 0
1228 1232 1236 1237 0
1228 1232 -1236 -1237 0
1228 -1232 1236 -1237 0
1228 -1232 -1236 -1237 0
-1228 1232 1236 -1237 0
-1228 1232 -1236 -1237 0
-1228 -1232 1236 -1237 0
-1228 -1232 -1236 -1237 0
428 1238 0
-428 -1238 0
1238 1239 0
-1238 -1239 0
1239 1240 0
-1239 -1240 0
217 1241 0
-217 -1241 0
1241 1242 0
-1241 -1242 0
1242 1243 0
-1242 -1243 0
1228 1240 1243 1244 0
1228 1240 -1243 -1244 0
1228 -1240 1243 -1244 0
1228 -1240 -1243 -1244 0
-1228 1240 1243 -1244 0
-1228 1240 -1243 -1244 0
-1228 -1240 1243 -1244 0
-1228 -1240 -1243 -1244 0
221 1245 0
-221 -1245 0
1245 1246 0
-1245 -1246 0
1246 1247 0
-1246 -1247 0
1247 1232 1243 1248 0
1247 1232 -1243 -1248 0
1247 -1232 1243 -1248 0
1247 -1232 -1243 -1248 0
-1247 1232 1243 -1248 0
-1247 1232 -1243 -1248 0
-1247 -1232 1243 -1248 0
-1247 -1232 -1243 -1248 0
1247 1240 1236 1249 0
1247 1240 -1236 -1249 0
1247 -1240 1236 -1249 0
1247 -1240 -1236 -1249 0
-1247 1240 1236 -1249 0
-1247 1240 -1236 -1249 0
-1247 -1240 1236 -1249 0
-1247 -1240 -1236 -1249 0
1237 1244 1248 1249 -1250 0
1237 1244 1248 -1249 1250 0
1237 1244 -1248 1249 1250 0
1237 1244 -1248 -1249 1250 0
1237 -1244 1248 1249 1250 0
1237 -1244 1248 -1249 1250 0
1237 -1244 -1248 1249 1250 0
1237 -1244 -1248 -1249 1250 0
-1237 1244 1248 1249 1250 0
-1237 1244 1248 -1249 1250 0
-1237 1244 -1248 1249 1250 0
-1237 1244 -1248 -1249 1250 0
-1237 -1244 1248 1249 1250 0
-1237 -1244 1248 -1249 1250 0
-1237 -1244 -1248 1249 1250 0
-1237 -1244 -1248 -1249 1250 0
1250 1251 0
-1250 -1251 0
1251 1252 0
-1251 -1252 0
301 1253 0
-301 -1253 0
1253 1254 0
-1253 -1254 0
1254 1255 0
-1254 -1255 0
1255 1256 0
-1255 -1256 0
251 1257 0
-251 -1257 0
1257 1258 0
-1257 -1258 0
1258 1259 0
-1258 -1259 0
1259 1260 0
-1259 -1260 0
252 1261 0
-252 -1261 0
1261 1262 0
-1261 -1262 0
1262 1263 0
-1262 -1263 0
1263 1264 0
-1263 -1264 0
1256 1260 1264 1265 0
1256 1260 -1264 -1265 0
1256 -1260 1264 -1265 0
1256 -1260 -1264 -1265 0
-1256 1260 1264 -1265 0
-1256 1260 -1264 -1265 0
-1256 -1260 1264 -1265 0
-1256 -1260 -1264 -1265 0
251 1266 0
-251 -1266 0
1266 1267 0
-1266 -1267 0
1267 1268 0
-1267 -1268 0
252 1269 0
-252 -1269 0
1269 1270 0
-1269 -1270 0
1270 1271 0
-1270 -1271 0
1256 1268 1271 1272 0
1256 1268 -1271 -1272 0
1256 -1268 1271 -1272 0
1256 -1268 -1271 -1272 0
-1256 1268 1271 -1272 0
-1256 1268 -1271 -1272 0
-1256 -1268 1271 -1272 0
-1256 -1268 -1271 -1272 0
301 1273 0
-301 -1273 0
1273 1274 0
-1273 -1274 0
1274 1275 0
-1274 -1275 0
1275 1260 1271 1276 0
1275 1260 -1271 -1276 0
1275 -1260 1271 -1276 0
1275 -1260 -1271 -1276 0
-1275 1260 1271 -1276 0
-1275 1260 -1271 -1276 0
-1275 -1260 1271 -1276 0
-1275 -1260 -1271 -1276 0
1275 1268 1264 1277 0
1275 1268 -1264 -1277 0
1275 -1268 1264 -1277 0
1275 -1268 -1264 -1277 0
-1275 1268 1264 -1277 0
-1275 1268 -1264 -1277 0
-1275 -1268 1264 -1277 0
-1275 -1268 -1264 -1277 0
1265 1272 1276 1277 -1278 0
1265 1272 1276 -1277 1278 0
1265 1272 -1276 1277 1278 0
1265 1272 -1276 -1277 1278 0
1265 -1272 1276 1277 1278 0
1265 -1272 1276 -1277 1278 0
1265 -1272 -1276 1277 1278 0
1265 -1272 -1276 -1277 1278 0
-1265 1272 1276 1277 1278 0
-1265 1272 1276 -1277 1278 0
-1265 1272 -1276 1277 1278 0
-1265 1272 -1276 -1277 1278 0
-1265 -1272 1276 1277 1278 0
-1265 -1272 1276 -1277 1278 0
-1265 -1272 -1276 1277 1278 0
-1265 -1272 -1276 -1277 1278 0
1278 1279 0
-1278 -1279 0
1279 1280 0
-1279 -1280 0
1280 1281 0
-1280 -1281 0
1224 1252 1281 1282 0
1224 1252 -1281 -1282 0
1224 -1252 1281 -1282 0
1224 -1252 -1281 -1282 0
-1224 1252 1281 -1282 0
-1224 1252 -1281 -1282 0
-1224 -1252 1281 -1282 0
-1224 -1252 -1281 -1282 0
1250 1283 0
-1250 -1283 0
1283 1284 0
-1283 -1284 0
1284 1285 0
-1284 -1285 0
1278 1286 0
-1278 -1286 0
1286 1287 0
-1286 -1287 0
1224 1285 1287 1288 0
1224 1285 -1287 -1288 0
1224 -1285 1287 -1288 0
1224 -1285 -1287 -1288 0
-1224 1285 1287 -1288 0
-1224 1285 -1287 -1288 0
-1224 -1285 1287 -1288 0
-1224 -1285 -1287 -1288 0
1221 1289 0
-1221 -1289 0
1289 1290 0
-1289 -1290 0
1290 1252 1287 1291 0
1290 1252 -1287 -1291 0
1290 -1252 1287 -1291 0
1290 -1252 -1287 -1291 0
-1290 1252 1287 -1291 0
-1290 1252 -1287 -1291 0
-1290 -1252 1287 -1291 0
-1290 -1252 -1287 -1291 0
1290 1285 1281 1292 0
1290 1285 -1281 -1292 0
1290 -1285 1281 -1292 0
1290 -1285 -1281 -1292 0
-1290 1285 1281 -1292 0
-1290 1285 -1281 -1292 0
-1290 -1285 1281 -1292 0
-1290 -1285 -1281 -1292 0
1282 1288 1291 1292 -1293 0
1282 1288 1291 -1292 1293 0
1282 1288 -1291 1292 1293 0
1282 1288 -1291 -1292 1293 0
1282 -1288 1291 1292 1293 0
1282 -1288 1291 -1292 1293 0
1282 -1288 -1291 1292 1293 0
1282 -1288 -1291 -1292 1293 0
-1282 1288 1291 1292 1293 0
-1282 1288 1291 -1292 1293 0
-1282 1288 -1291 1292 1293 0
-1282 1288 -1291 -1292 1293 0
-1282 -1288 1291 1292 1293 0
-1282 -1288 1291 -1292 1293 0
-1282 -1288 -1291 1292 1293 0
-1282 -1288 -1291 -1292 1293 0
1195 1293 -1294 0
1195 -1293 1294 0
-1195 1293 1294 0
-1195 -1293 -1294 0
224 1295 0
-224 -1295 0
1295 1296 0
-1295 -1296 0
1296 1297 0
-1296 -1297 0
1297 1298 0
-1297 -1298 0
232 1299 0
-232 -1299 0
1299 1300 0
-1299 -1300 0
1300 1301 0
-1300 -1301 0
1301 1302 0
-1301 -1302 0
223 1303 0
-223 -1303 0
1303 1304 0
-1303 -1304 0
1304 1305 0
-1304 -1305 0
1305 1306 0
-1305 -1306 0
1298 1302 1306 1307 0
1298 1302 -1306 -1307 0
1298 -1302 1306 -1307 0
1298 -1302 -1306 -1307 0
-1298 1302 1306 -1307 0
-1298 1302 -1306 -1307 0
-1298 -1302 1306 -1307 0
-1298 -1302 -1306 -1307 0
899 1308 0
-899 -1308 0
1308 1309 0
-1308 -1309 0
630 1310 0
-630 -1310 0
1310 1311 0
-1310 -1311 0
1298 1309 1311 1312 0
1298 1309 -1311 -1312 0
1298 -1309 1311 -1312 0
1298 -1309 -1311 -1312 0
-1298 1309 1311 -1312 0
-1298 1309 -1311 -1312 0
-1298 -1309 1311 -1312 0
-1298 -1309 -1311 -1312 0
633 1313 0
-633 -1313 0
1313 1314 0
-1313 -1314 0
1314 1302 1311 1315 0
1314 1302 -1311 -1315 0
1314 -1302 1311 -1315 0
1314 -1302 -1311 -1315 0
-1314 1302 1311 -1315 0
-1314 1302 -1311 -1315 0
-1314 -1302 1311 -1315 0
-1314 -1302 -1311 -1315 0
1314 1309 1306 1316 0
1314 1309 -1306 -1316 0
1314 -1309 1306 -1316 0
1314 -1309 -1306 -1316 0
-1314 1309 1306 -1316 0
-1314 1309 -1306 -1316 0
-1314 -1309 1306 -1316 0
-1314 -1309 -1306 -1316 0
1307 1312 1315 1316 -1317 0
1307 1312 1315 -1316 1317 0
1307 1312 -1315 1316 1317 0
1307 1312 -1315 -1316 1317 0
1307 -1312 1315 1316 1317 0
1307 -1312 1315 -1316 1317 0
1307 -1312 -1315 1316 1317 0
1307 -1312 -1315 -1316 1317 0
-1307 1312 1315 1316 1317 0
-1307 1312 1315 -1316 1317 0
-1307 1312 -1315 1316 1317 0
-1307 1312 -1315 -1316 1317 0
-1307 -1312 1315 1316 1317 0
-1307 -1312 1315 -1316 1317 0
-1307 -1312 -1315 1316 1317 0
-1307 -1312 -1315 -1316 1317 0
1317 1318 0
-1317 -1318 0
1318 1319 0
-1318 -1319 0
1319 1320 0
-1319 -1320 0
241 1321 0
-241 -1321 0
1321 1322 0
-1321 -1322 0
1322 1323 0
-1322 -1323 0
1323 1324 0
-1323 -1324 0
225 1325 0
-225 -1325 0
1325 1326 0
-1325 -1326 0
1326 1327 0
-1326 -1327 0
1327 1328 0
-1327 -1328 0
240 1329 0
-240 -1329 0
1329 1330 0
-1329 -1330 0
1330 1331 0
-1330 -1331 0
1331 1332 0
-1331 -1332 0
1324 1328 1332 1333 0
1324 1328 -1332 -1333 0
1324 -1328 1332 -1333 0
1324 -1328 -1332 -1333 0
-1324 1328 1332 -1333 0
-1324 1328 -1332 -1333 0
-1324 -1328 1332 -1333 0
-1324 -1328 -1332 -1333 0
636 1334 0
-636 -1334 0
1334 1335 0
-1334 -1335 0
240 1336 0
-240 -1336 0
1336 1337 0
-1336 -1337 0
1337 1338 0
-1337 -1338 0
1324 1335 1338 1339 0
1324 1335 -1338 -1339 0
1324 -1335 1338 -1339 0
1324 -1335 -1338 -1339 0
-1324 1335 1338 -1339 0
-1324 1335 -1338 -1339 0
-1324 -1335 1338 -1339 0
-1324 -1335 -1338 -1339 0
241 1340 0
-241 -1340 0
1340 1341 0
-1340 -1341 0
1341 1342 0
-1341 -1342 0
1342 1328 1338 1343 0
1342 1328 -1338 -1343 0
1342 -1328 1338 -1343 0
1342 -1328 -1338 -1343 0
-1342 1328 1338 -1343 0
-1342 1328 -1338 -1343 0
-1342 -1328 1338 -1343 0
-1342 -1328 -1338 -1343 0
1342 1335 1332 1344 0
1342 1335 -1332 -1344 0
1342 -1335 1332 -1344 0
1342 -1335 -1332 -1344 0
-1342 1335 1332 -1344 0
-1342 1335 -1332 -1344 0
-1342 -1335 1332 -1344 0
-1342 -1335 -1332 -1344 0
1333 1339 1343 1344 -1345 0
1333 1339 1343 -1344 1345 0
1333 1339 -1343 1344 1345 0
1333 1339 -1343 -1344 1345 0
1333 -1339 1343 1344 1345 0
1333 -1339 1343 -1344 1345 0
1333 -1339 -1343 1344 1345 0
1333 -1339 -1343 -1344 1345 0
-1333 1339 1343 1344 1345 0
-1333 1339 1343 -1344 1345 0
-1333 1339 -1343 1344 1345 0
-1333 1339 -1343 -1344 1345 0
-1333 -1339 1343 1344 1345 0
-1333 -1339 1343 -1344 1345 0
-1333 -1339 -1343 1344 1345 0
-1333 -1339 -1343 -1344 1345 0
1345 1346 0
-1345 -1346 0
1346 1347 0
-1346 -1347 0
243 1348 0
-243 -1348 0
1348 1349 0
-1348 -1349 0
1349 1350 0
-1349 -1350 0
1350 1351 0
-1350 -1351 0
242 1352 0
-242 -1352 0
1352 1353 0
-1352 -1353 0
1353 1354 0
-1353 -1354 0
1354 1355 0
-1354 -1355 0
248 1356 0
-248 -1356 0
1356 1357 0
-1356 -1357 0
1357 1358 0
-1357 -1358 0
1358 1359 0
-1358 -1359 0
1351 1355 1359 1360 0
1351 1355 -1359 -1360 0
1351 -1355 1359 -1360 0
1351 -1355 -1359 -1360 0
-1351 1355 1359 -1360 0
-1351 1355 -1359 -1360 0
-1351 -1355 1359 -1360 0
-1351 -1355 -1359 -1360 0
242 1361 0
-242 -1361 0
1361 1362 0
-1361 -1362 0
1362 1363 0
-1362 -1363 0
248 1364 0
-248 -1364 0
1364 1365 0
-1364 -1365 0
1365 1366 0
-1365 -1366 0
1351 1363 1366 1367 0
1351 1363 -1366 -1367 0
1351 -1363 1366 -1367 0
1351 -1363 -1366 -1367 0
-1351 1363 1366 -1367 0
-1351 1363 -1366 -1367 0
-1351 -1363 1366 -1367 0
-1351 -1363 -1366 -1367 0
908 1368 0
-908 -1368 0
1368 1369 0
-1368 -1369 0
1369 1355 1366 1370 0
1369 1355 -1366 -1370 0
1369 -1355 1366 -1370 0
1369 -1355 -1366 -1370 0
-1369 1355 1366 -1370 0
-1369 1355 -1366 -1370 0
-1369 -1355 1366 -1370 0
-1369 -1355 -1366 -1370 0
1369 1363 1359 1371 0
1369 1363 -1359 -1371 0
1369 -1363 1359 -1371 0
1369 -1363 -1359 -1371 0
-1369 1363 1359 -1371 0
-1369 1363 -1359 -1371 0
-1369 -1363 1359 -1371 0
-1369 -1363 -1359 -1371 0
1360 1367 1370 1371 -1372 0
1360 1367 1370 -1371 1372 0
1360 1367 -1370 1371 1372 0
1360 1367 -1370 -1371 1372 0
1360 -1367 1370 1371 1372 0
1360 -1367 1370 -1371 1372 0
1360 -1367 -1370 1371 1372 0
1360 -1367 -1370 -1371 1372 0
-1360 1367 1370 1371 1372 0
-1360 1367 1370 -1371 1372 0
-1360 1367 -1370 1371 1372 0
-1360 1367 -1370 -1371 1372 0
-1360 -1367 1370 1371 1372 0
-1360 -1367 1370 -1371 1372 0
-1360 -1367 -1370 1371 1372 0
-1360 -1367 -1370 -1371 1372 0
1372 1373 0
-1372 -1373 0
1373 1374 0
-1373 -1374 0
1374 1375 0
-1374 -1375 0
1320 1347 1375 1376 0
1320 1347 -1375 -1376 0
1320 -1347 1375 -1376 0
1320 -1347 -1375 -1376 0
-1320 1347 1375 -1376 0
-1320 1347 -1375 -1376 0
-1320 -1347 1375 -1376 0
-1320 -1347 -1375 -1376 0
1345 1377 0
-1345 -1377 0
1377 1378 0
-1377 -1378 0
1378 1379 0
-1378 -1379 0
1372 1380 0
-1372 -1380 0
1380 1381 0
-1380 -1381 0
1320 1379 1381 1382 0
1320 1379 -1381 -1382 0
1320 -1379 1381 -1382 0
1320 -1379 -1381 -1382 0
-1320 1379 1381 -1382 0
-1320 1379 -1381 -1382 0
-1320 -1379 1381 -1382 0
-1320 -1379 -1381 -1382 0
1317 1383 0
-1317 -1383 0
1383 1384 0
-1383 -1384 0
1384 1347 1381 1385 0
1384 1347 -1381 -1385 0
1384 -1347 1381 -1385 0
1384 -1347 -1381 -1385 0
-1384 1347 1381 -1385 0
-1384 1347 -1381 -1385 0
-1384 -1347 1381 -1385 0
-1384 -1347 -1381 -1385 0
1384 1379 1375 1386 0
1384 1379 -1375 -1386 0
1384 -1379 1375 -1386 0
1384 -1379 -1375 -1386 0
-1384 1379 1375 -1386 0
-1384 1379 -1375 -1386 0
-1384 -1379 1375 -1386 0
-1384 -1379 -1375 -1386 0
1376 1382 1385 1386 -1387 0
1376 1382 1385 -1386 1387 0
1376 1382 -1385 1386 1387 0
1376 1382 -1385 -1386 1387 0
1376 -1382 1385 1386 1387 0
1376 -1382 1385 -1386 1387 0
1376 -1382 -1385 1386 1387 0
1376 -1382 -1385 -1386 1387 0
-1376 1382 1385 1386 1387 0
-1376 1382 1385 -1386 1387 0
-1376 1382 -1385 1386 1387 0
-1376 1382 -1385 -1386 1387 0
-1376 -1382 1385 1386 1387 0
-1376 -1382 1385 -1386 1387 0
-1376 -1382 -1385 1386 1387 0
-1376 -1382 -1385 -1386 1387 0
224 1388 0
-224 -1388 0
1388 1389 0
-1388 -1389 0
1389 1390 0
-1389 -1390 0
1390 1391 0
-1390 -1391 0
232 1392 0
-232 -1392 0
1392 1393 0
-1392 -1393 0
1393 1394 0
-1393 -1394 0
1394 1395 0
-1394 -1395 0
223 1396 0
-223 -1396 0
1396 1397 0
-1396 -1397 0
1397 1398 0
-1397 -1398 0
1398 1399 0
-1398 -1399 0
1391 1395 1399 1400 0
1391 1395 -1399 -1400 0
1391 -1395 1399 -1400 0
1391 -1395 -1399 -1400 0
-1391 1395 1399 -1400 0
-1391 1395 -1399 -1400 0
-1391 -1395 1399 -1400 0
-1391 -1395 -1399 -1400 0
900 1401 0
-900 -1401 0
1401 1402 0
-1401 -1402 0
631 1403 0
-631 -1403 0
1403 1404 0
-1403 -1404 0
1391 1402 1404 1405 0
1391 1402 -1404 -1405 0
1391 -1402 1404 -1405 0
1391 -1402 -1404 -1405 0
-1391 1402 1404 -1405 0
-1391 1402 -1404 -1405 0
-1391 -1402 1404 -1405 0
-1391 -1402 -1404 -1405 0
634 1406 0
-634 -1406 0
1406 1407 0
-1406 -1407 0
1407 1395 1404 1408 0
1407 1395 -1404 -1408 0
1407 -1395 1404 -1408 0
1407 -1395 -1404 -1408 0
-1407 1395 1404 -1408 0
-1407 1395 -1404 -1408 0
-1407 -1395 1404 -1408 0
-1407 -1395 -1404 -1408 0
1407 1402 1399 1409 0
1407 1402 -1399 -1409 0
1407 -1402 1399 -1409 0
1407 -1402 -1399 -1409 0
-1407 1402 1399 -1409 0
-1407 1402 -1399 -1409 0
-1407 -1402 1399 -1409 0
-1407 -1402 -1399 -1409 0
1400 1405 1408 1409 -1410 0
1400 1405 1408 -1409 1410 0
1400 1405 -1408 1409 1410 0
1400 1405 -1408 -1409 1410 0
1400 -1405 1408 1409 1410 0
1400 -1405 1408 -1409 1410 0
1400 -1405 -1408 1409 1410 0
1400 -1405 -1408 -1409 1410 0
-1400 1405 1408 1409 1410 0
-1400 1405 1408 -1409 1410 0
-1400 1405 -1408 1409 1410 0
-1400 1405 -1408 -1409 1410 0
-1400 -1405 1408 1409 1410 0
-1400 -1405 1408 -1409 1410 0
-1400 -1405 -1408 1409 1410 0
-1400 -1405 -1408 -1409 1410 0
1410 1411 0
-1410 -1411 0
1411 1412 0
-1411 -1412 0
1412 1413 0
-1412 -1413 0
241 1414 0
-241 -1414 0
1414 1415 0
-1414 -1415 0
1415 1416 0
-1415 -1416 0
1416 1417 0
-1416 -1417 0
225 1418 0
-225 -1418 0
1418 1419 0
-1418 -1419 0
1419 1420 0
-1419 -1420 0
1420 1421 0
-1420 -1421 0
240 1422 0
-240 -1422 0
1422 1423 0
-1422 -1423 0
1423 1424 0
-1423 -1424 0
1424 1425 0
-1424 -1425 0
1417 1421 1425 1426 0
1417 1421 -1425 -1426 0
1417 -1421 1425 -1426 0
1417 -1421 -1425 -1426 0
-1417 1421 1425 -1426 0
-1417 1421 -1425 -1426 0
-1417 -1421 1425 -1426 0
-1417 -1421 -1425 -1426 0
637 1427 0
-637 -1427 0
1427 1428 0
-1427 -1428 0
240 1429 0
-240 -1429 0
1429 1430 0
-1429 -1430 0
1430 1431 0
-1430 -1431 0
1417 1428 1431 1432 0
1417 1428 -1431 -1432 0
1417 -1428 1431 -1432 0
1417 -1428 -1431 -1432 0
-1417 1428 1431 -1432 0
-1417 1428 -1431 -1432 0
-1417 -1428 1431 -1432 0
-1417 -1428 -1431 -1432 0
241 1433 0
-241 -1433 0
1433 1434 0
-1433 -1434 0
1434 1435 0
-1434 -1435 0
1435 1421 1431 1436 0
1435 1421 -1431 -1436 0
1435 -1421 1431 -1436 0
1435 -1421 -1431 -1436 0
-1435 1421 1431 -1436 0
-1435 1421 -1431 -1436 0
-1435 -1421 1431 -1436 0
-1435 -1421 -1431 -1436 0
1435 1428 1425 1437 0
1435 1428 -1425 -1437 0
1435 -1428 1425 -1437 0
1435 -1428 -1425 -1437 0
-1435 1428 1425 -1437 0
-1435 1428 -1425 -1437 0
-1435 -1428 1425 -1437 0
-1435 -1428 -1425 -1437 0
1426 1432 1436 1437 -1438 0
1426 1432 1436 -1437 1438 0
1426 1432 -1436 1437 1438 0
1426 1432 -1436 -1437 1438 0
1426 -1432 1436 1437 1438 0
1426 -1432 1436 -1437 1438 0
1426 -1432 -1436 1437 1438 0
1426 -1432 -1436 -1437 1438 0
-1426 1432 1436 1437 1438 0
-1426 1432 1436 -1437 1438 0
-1426 1432 -1436 1437 1438 0
-1426 1432 -1436 -1437 1438 0
-1426 -1432 1436 1437 1438 0
-1426 -1432 1436 -1437 1438 0
-1426 -1432 -1436 1437 1438 0
-1426 -1432 -1436 -1437 1438 0
1438 1439 0
-1438 -1439 0
1439 1440 0
-1439 -1440 0
243 1441 0
-243 -1441 0
1441 1442 0
-1441 -1442 0
1442 1443 0
-1442 -1443 0
1443 1444 0
-1443 -1444 0
242 1445 0
-242 -1445 0
1445 1446 0
-1445 -1446 0
1446 1447 0
-1446 -1447 0
1447 1448 0
-1447 -1448 0
248 1449 0
-248 -1449 0
1449 1450 0
-1449 -1450 0
1450 1451 0
-1450 -1451 0
1451 1452 0
-1451 -1452 0
1444 1448 1452 1453 0
1444 1448 -1452 -1453 0
1444 -1448 1452 -1453 0
1444 -1448 -1452 -1453 0
-1444 1448 1452 -1453 0
-1444 1448 -1452 -1453 0
-1444 -1448 1452 -1453 0
-1444 -1448 -1452 -1453 0
242 1454 0
-242 -1454 0
1454 1455 0
-1454 -1455 0
1455 1456 0
-1455 -1456 0
248 1457 0
-248 -1457 0
1457 1458 0
-1457 -1458 0
1458 1459 0
-1458 -1459 0
1444 1456 1459 1460 0
1444 1456 -1459 -1460 0
1444 -1456 1459 -1460 0
1444 -1456 -1459 -1460 0
-1444 1456 1459 -1460 0
-1444 1456 -1459 -1460 0
-1444 -1456 1459 -1460 0
-1444 -1456 -1459 -1460 0
909 1461 0
-909 -1461 0
1461 1462 0
-1461 -1462 0
1462 1448 1459 1463 0
1462 1448 -1459 -1463 0
1462 -1448 1459 -1463 0
1462 -1448 -1459 -1463 0
-1462 1448 1459 -1463 0
-1462 1448 -1459 -1463 0
-1462 -1448 1459 -1463 0
-1462 -1448 -1459 -1463 0
1462 1456 1452 1464 0
1462 1456 -1452 -1464 0
1462 -1456 1452 -1464 0
1462 -1456 -1452 -1464 0
-1462 1456 1452 -1464 0
-1462 1456 -1452 -1464 0
-1462 -1456 1452 -1464 0
-1462 -1456 -1452 -1464 0
1453 1460 1463 1464 -1465 0
1453 1460 1463 -1464 1465 0
1453 1460 -1463 1464 1465 0
1453 1460 -1463 -1464 1465 0
1453 -1460 1463 1464 1465 0
1453 -1460 1463 -1464 1465 0
1453 -1460 -1463 1464 1465 0
1453 -1460 -1463 -1464 1465 0
-1453 1460 1463 1464 1465 0
-1453 1460 1463 -1464 1465 0
-1453 1460 -1463 1464 1465 0
-1453 1460 -1463 -1464 1465 0
-1453 -1460 1463 1464 1465 0
-1453 -1460 1463 -1464 1465 0
-1453 -1460 -1463 1464 1465 0
-1453 -1460 -1463 -1464 1465 0
1465 1466 0
-1465 -1466 0
1466 1467 0
-1466 -1467 0
1467 1468 0
-1467 -1468 0
1413 1440 1468 1469 0
1413 1440 -1468 -1469 0
1413 -1440 1468 -1469 0
1413 -1440 -1468 -1469 0
-1413 1440 1468 -1469 0
-1413 1440 -1468 -1469 0
-1413 -1440 1468 -1469 0
-1413 -1440 -1468 -1469 0
1438 1470 0
-1438 -1470 0
1470 1471 0
-1470 -1471 0
1471 1472 0
-1471 -1472 0
1465 1473 0
-1465 -1473 0
1473 1474 0
-1473 -1474 0
1413 1472 1474 1475 0
1413 1472 -1474 -1475 0
1413 -1472 1474 -1475 0
1413 -1472 -1474 -1475 0
-1413 1472 1474 -1475 0
-1413 1472 -1474 -1475 0
-1413 -1472 1474 -1475 0
-1413 -1472 -1474 -1475 0
1410 1476 0
-1410 -1476 0
1476 1477 0
-1476 -1477 0
1477 1440 1474 1478 0
1477 1440 -1474 -1478 0
1477 -1440 1474 -1478 0
1477 -1440 -1474 -1478 0
-1477 1440 1474 -1478 0
-1477 1440 -1474 -1478 0
-1477 -1440 1474 -1478 0
-1477 -1440 -1474 -1478 0
1477 1472 1468 1479 0
1477 1472 -1468 -1479 0
1477 -1472 1468 -1479 0
1477 -1472 -1468 -1479 0
-1477 1472 1468 -1479 0
-1477 1472 -1468 -1479 0
-1477 -1472 1468 -1479 0
-1477 -1472 -1468 -1479 0
1469 1475 1478 1479 -1480 0
1469 1475 1478 -1479 1480 0
1469 1475 -1478 1479 1480 0
1469 1475 -1478 -1479 1480 0
1469 -1475 1478 1479 1480 0
1469 -1475 1478 -1479 1480 0
1469 -1475 -1478 1479 1480 0
1469 -1475 -1478 -1479 1480 0
-1469 1475 1478 1479 1480 0
-1469 1475 1478 -1479 1480 0
-1469 1475 -1478 1479 1480 0
-1469 1475 -1478 -1479 1480 0
-1469 -1475 1478 1479 1480 0
-1469 -1475 1478 -1479 1480 0
-1469 -1475 -1478 1479 1480 0
-1469 -1475 -1478 -1479 1480 0
1387 1480 -1481 0
1387 -1480 1481 0
-1387 1480 1481 0
-1387 -1480 -1481 0
302 1482 0
-302 -1482 0
1482 1483 0
-1482 -1483 0
1483 1484 0
-1483 -1484 0
1484 1485 0
-1484 -1485 0
394 1486 0
-394 -1486 0
1486 1487 0
-1486 -1487 0
1487 1488 0
-1487 -1488 0
1488 1489 0
-1488 -1489 0
258 1490 0
-258 -1490 0
1490 1491 0
-1490 -1491 0
1491 1492 0
-1491 -1492 0
1492 1493 0
-1492 -1493 0
1485 1489 1493 1494 0
1485 1489 -1493 -1494 0
1485 -1489 1493 -1494 0
1485 -1489 -1493 -1494 0
-1485 1489 1493 -1494 0
-1485 1489 -1493 -1494 0
-1485 -1489 1493 -1494 0
-1485 -1489 -1493 -1494 0
394 1495 0
-394 -1495 0
1495 1496 0
-1495 -1496 0
1496 1497 0
-1496 -1497 0
258 1498 0
-258 -1498 0
1498 1499 0
-1498 -1499 0
1499 1500 0
-1499 -1500 0
1485 1497 1500 1501 0
1485 1497 -1500 -1501 0
1485 -1497 1500 -1501 0
1485 -1497 -1500 -1501 0
-1485 1497 1500 -1501 0
-1485 1497 -1500 -1501 0
-1485 -1497 1500 -1501 0
-1485 -1497 -1500 -1501 0
302 1502 0
-302 -1502 0
1502 1503 0
-1502 -1503 0
1503 1504 0
-1503 -1504 0
1504 1489 1500 1505 0
1504 1489 -1500 -1505 0
1504 -1489 1500 -1505 0
1504 -1489 -1500 -1505 0
-1504 1489 1500 -1505 0
-1504 1489 -1500 -1505 0
-1504 -1489 1500 -1505 0
-1504 -1489 -1500 -1505 0
1504 1497 1493 1506 0
1504 1497 -1493 -1506 0
1504 -1497 1493 -1506 0
1504 -1497 -1493 -1506 0
-1504 1497 1493 -1506 0
-1504 1497 -1493 -1506 0
-1504 -1497 1493 -1506 0
-1504 -1497 -1493 -1506 0
1494 1501 1505 1506 -1507 0
1494 1501 1505 -1506 1507 0
1494 1501 -1505 1506 1507 0
1494 1501 -1505 -1506 1507 0
1494 -1501 1505 1506 1507 0
1494 -1501 1505 -1506 1507 0
1494 -1501 -1505 1506 1507 0
1494 -1501 -1505 -1506 1507 0
-1494 1501 1505 1506 1507 0
-1494 1501 1505 -1506 1507 0
-1494 1501 -1505 1506 1507 0
-1494 1501 -1505 -1506 1507 0
-1494 -1501 1505 1506 1507 0
-1494 -1501 1505 -1506 1507 0
-1494 -1501 -1505 1506 1507 0
-1494 -1501 -1505 -1506 1507 0
1507 1508 0
-1507 -1508 0
1508 1509 0
-1508 -1509 0
1509 1510 0
-1509 -1510 0
230 1511 0
-230 -1511 0
1511 1512 0
-1511 -1512 0
1512 1513 0
-1512 -1513 0
1513 1514 0
-1513 -1514 0
222 1515 0
-222 -1515 0
1515 1516 0
-1515 -1516 0
1516 1517 0
-1516 -1517 0
1517 1518 0
-1517 -1518 0
231 1519 0
-231 -1519 0
1519 1520 0
-1519 -1520 0
1520 1521 0
-1520 -1521 0
1521 1522 0
-1521 -1522 0
1514 1518 1522 1523 0
1514 1518 -1522 -1523 0
1514 -1518 1522 -1523 0
1514 -1518 -1522 -1523 0
-1514 1518 1522 -1523 0
-1514 1518 -1522 -1523 0
-1514 -1518 1522 -1523 0
-1514 -1518 -1522 -1523 0
222 1524 0
-222 -1524 0
1524 1525 0
-1524 -1525 0
1525 1526 0
-1525 -1526 0
231 1527 0
-231 -1527 0
1527 1528 0
-1527 -1528 0
1528 1529 0
-1528 -1529 0
1514 1526 1529 1530 0
1514 1526 -1529 -1530 0
1514 -1526 1529 -1530 0
1514 -1526 -1529 -1530 0
-1514 1526 1529 -1530 0
-1514 1526 -1529 -1530 0
-1514 -1526 1529 -1530 0
-1514 -1526 -1529 -1530 0
230 1531 0
-230 -1531 0
1531 1532 0
-1531 -1532 0
1532 1533 0
-1532 -1533 0
1533 1518 1529 1534 0
1533 1518 -1529 -1534 0
1533 -1518 1529 -1534 0
1533 -1518 -1529 -1534 0
-1533 1518 1529 -1534 0
-1533 1518 -1529 -1534 0
-1533 -1518 1529 -1534 0
-1533 -1518 -1529 -1534 0
1533 1526 1522 1535 0
1533 1526 -1522 -1535 0
1533 -1526 1522 -1535 0
1533 -1526 -1522 -1535 0
-1533 1526 1522 -1535 0
-1533 1526 -1522 -1535 0
-1533 -1526 1522 -1535 0
-1533 -1526 -1522 -1535 0
1523 1530 1534 1535 -1536 0
1523 1530 1534 -1535 1536 0
1523 1530 -1534 1535 1536 0
1523 1530 -1534 -1535 1536 0
1523 -1530 1534 1535 1536 0
1523 -1530 1534 -1535 1536 0
1523 -1530 -1534 1535 1536 0
1523 -1530 -1534 -1535 1536 0
-1523 1530 1534 1535 1536 0
-1523 1530 1534 -1535 1536 0
-1523 1530 -1534 1535 1536 0
-1523 1530 -1534 -1535 1536 0
-1523 -1530 1534 1535 1536 0
-1523 -1530 1534 -1535 1536 0
-1523 -1530 -1534 1535 1536 0
-1523 -1530 -1534 -1535 1536 0
1536 1537 0
-1536 -1537 0
1537 1538 0
-1537 -1538 0
257 1539 0
-257 -1539 0
1539 1540 0
-1539 -1540 0
1540 1541 0
-1540 -1541 0
1541 1542 0
-1541 -1542 0
233 1543 0
-233 -1543 0
1543 1544 0
-1543 -1544 0
1544 1545 0
-1544 -1545 0
1545 1546 0
-1545 -1546 0
253 1547 0
-253 -1547 0
1547 1548 0
-1547 -1548 0
1548 1549 0
-1548 -1549 0
1549 1550 0
-1549 -1550 0
1542 1546 1550 1551 0
1542 1546 -1550 -1551 0
1542 -1546 1550 -1551 0
1542 -1546 -1550 -1551 0
-1542 1546 1550 -1551 0
-1542 1546 -1550 -1551 0
-1542 -1546 1550 -1551 0
-1542 -1546 -1550 -1551 0
233 1552 0
-233 -1552 0
1552 1553 0
-1552 -1553 0
1553 1554 0
-1553 -1554 0
253 1555 0
-253 -1555 0
1555 1556 0
-1555 -1556 0
1556 1557 0
-1556 -1557 0
1542 1554 1557 1558 0
1542 1554 -1557 -1558 0
1542 -1554 1557 -1558 0
1542 -1554 -1557 -1558 0
-1542 1554 1557 -1558 0
-1542 1554 -1557 -1558 0
-1542 -1554 1557 -1558 0
-1542 -1554 -1557 -1558 0
257 1559 0
-257 -1559 0
1559 1560 0
-1559 -1560 0
1560 1561 0
-1560 -1561 0
1561 1546 1557 1562 0
1561 1546 -1557 -1562 0
1561 -1546 1557 -1562 0
1561 -1546 -1557 -1562 0
-1561 1546 1557 -1562 0
-1561 1546 -1557 -1562 0
-1561 -1546 1557 -1562 0
-1561 -1546 -1557 -1562 0
1561 1554 1550 1563 0
1561 1554 -1550 -1563 0
1561 -1554 1550 -1563 0
1561 -1554 -1550 -1563 0
-1561 1554 1550 -1563 0
-1561 1554 -1550 -1563 0
-1561 -1554 1550 -1563 0
-1561 -1554 -1550 -1563 0
1551 1558 1562 1563 -1564 0
1551 1558 1562 -1563 1564 0
1551 1558 -1562 1563 1564 0
1551 1558 -1562 -1563 1564 0
1551 -1558 1562 1563 1564 0
1551 -1558 1562 -1563 1564 0
1551 -1558 -1562 1563 1564 0
1551 -1558 -1562 -1563 1564 0
-1551 1558 1562 1563 1564 0
-1551 1558 1562 -1563 1564 0
-1551 1558 -1562 1563 1564 0
-1551 1558 -1562 -1563 1564 0
-1551 -1558 1562 1563 1564 0
-1551 -1558 1562 -1563 1564 0
-1551 -1558 -1562 1563 1564 0
-1551 -1558 -1562 -1563 1564 0
1564 1565 0
-1564 -1565 0
1565 1566 0
-1565 -1566 0
1566 1567 0
-1566 -1567 0
1510 1538 1567 1568 0
1510 1538 -1567 -1568 0
1510 -1538 1567 -1568 0
1510 -1538 -1567 -1568 0
-1510 1538 1567 -1568 0
-1510 1538 -1567 -1568 0
-1510 -1538 1567 -1568 0
-1510 -1538 -1567 -1568 0
1536 1569 0
-1536 -1569 0
1569 1570 0
-1569 -1570 0
1570 1571 0
-1570 -1571 0
1564 1572 0
-1564 -1572 0
1572 1573 0
-1572 -1573 0
1510 1571 1573 1574 0
1510 1571 -1573 -1574 0
1510 -1571 1573 -1574 0
1510 -1571 -1573 -1574 0
-1510 1571 1573 -1574 0
-1510 1571 -1573 -1574 0
-1510 -1571 1573 -1574 0
-1510 -1571 -1573 -1574 0
1507 1575 0
-1507 -1575 0
1575 1576 0
-1575 -1576 0
1576 1538 1573 1577 0
1576 1538 -1573 -1577 0
1576 -1538 1573 -1577 0
1576 -1538 -1573 -1577 0
-1576 1538 1573 -1577 0
-1576 1538 -1573 -1577 0
-1576 -1538 1573 -1577 0
-1576 -1538 -1573 -1577 0
1576 1571 1567 1578 0
1576 1571 -1567 -1578 0
1576 -1571 1567 -1578 0
1576 -1571 -1567 -1578 0
-1576 1571 1567 -1578 0
-1576 1571 -1567 -1578 0
-1576 -1571 1567 -1578 0
-1576 -1571 -1567 -1578 0
1568 1574 1577 1578 -1579 0
1568 1574 1577 -1578 1579 0
1568 1574 -1577 1578 1579 0
1568 1574 -1577 -1578 1579 0
1568 -1574 1577 1578 1579 0
1568 -1574 1577 -1578 1579 0
1568 -1574 -1577 1578 1579 0
1568 -1574 -1577 -1578 1579 0
-1568 1574 1577 1578 1579 0
-1568 1574 1577 -1578 1579 0
-1568 1574 -1577 1578 1579 0
-1568 1574 -1577 -1578 1579 0
-1568 -1574 1577 1578 1579 0
-1568 -1574 1577 -1578 1579 0
-1568 -1574 -1577 1578 1579 0
-1568 -1574 -1577 -1578 1579 0
302 1580 0
-302 -1580 0
1580 1581 0
-1580 -1581 0
1581 1582 0
-1581 -1582 0
1582 1583 0
-1582 -1583 0
394 1584 0
-394 -1584 0
1584 1585 0
-1584 -1585 0
1585 1586 0
-1585 -1586 0
1586 1587 0
-1586 -1587 0
258 1588 0
-258 -1588 0
1588 1589 0
-1588 -1589 0
1589 1590 0
-1589 -1590 0
1590 1591 0
-1590 -1591 0
1583 1587 1591 1592 0
1583 1587 -1591 -1592 0
1583 -1587 1591 -1592 0
1583 -1587 -1591 -1592 0
-1583 1587 1591 -1592 0
-1583 1587 -1591 -1592 0
-1583 -1587 1591 -1592 0
-1583 -1587 -1591 -1592 0
394 1593 0
-394 -1593 0
1593 1594 0
-1593 -1594 0
1594 1595 0
-1594 -1595 0
258 1596 0
-258 -1596 0
1596 1597 0
-1596 -1597 0
1597 1598 0
-1597 -1598 0
1583 1595 1598 1599 0
1583 1595 -1598 -1599 0
1583 -1595 1598 -1599 0
1583 -1595 -1598 -1599 0
-1583 1595 1598 -1599 0
-1583 1595 -1598 -1599 0
-1583 -1595 1598 -1599 0
-1583 -1595 -1598 -1599 0
302 1600 0
-302 -1600 0
1600 1601 0
-1600 -1601 0
1601 1602 0
-1601 -1602 0
1602 1587 1598 1603 0
1602 1587 -1598 -1603 0
1602 -1587 1598 -1603 0
1602 -1587 -1598 -1603 0
-1602 1587 1598 -1603 0
-1602 1587 -1598 -1603 0
-1602 -1587 1598 -1603 0
-1602 -1587 -1598 -1603 0
1602 1595 1591 1604 0
1602 1595 -1591 -1604 0
1602 -1595 1591 -1604 0
1602 -1595 -1591 -1604 0
-1602 1595 1591 -1604 0
-1602 1595 -1591 -1604 0
-1602 -1595 1591 -1604 0
-1602 -1595 -1591 -1604 0
1592 1599 1603 1604 -1605 0
1592 1599 1603 -1604 1605 0
1592 1599 -1603 1604 1605 0
1592 1599 -1603 -1604 1605 0
1592 -1599 1603 1604 1605 0
1592 -1599 1603 -1604 1605 0
1592 -1599 -1603 1604 1605 0
1592 -1599 -1603 -1604 1605 0
-1592 1599 1603 1604 1605 0
-1592 1599 1603 -1604 1605 0
-1592 1599 -1603 1604 1605 0
-1592 1599 -1603 -1604 1605 0
-1592 -1599 1603 1604 1605 0
-1592 -1599 1603 -1604 1605 0
-1592 -1599 -1603 1604 1605 0
-1592 -1599 -1603 -1604 1605 0
1605 1606 0
-1605 -1606 0
1606 1607 0
-1606 -1607 0
1607 1608 0
-1607 -1608 0
230 1609 0
-230 -1609 0
1609 1610 0
-1609 -1610 0
1610 1611 0
-1610 -1611 0
1611 1612 0
-1611 -1612 0
222 1613 0
-222 -1613 0
1613 1614 0
-1613 -1614 0
1614 1615 0
-1614 -1615 0
1615 1616 0
-1615 -1616 0
231 1617 0
-231 -1617 0
1617 1618 0
-1617 -1618 0
1618 1619 0
-1618 -1619 0
1619 1620 0
-1619 -1620 0
1612 1616 1620 1621 0
1612 1616 -1620 -1621 0
1612 -1616 1620 -1621 0
1612 -1616 -1620 -1621 0
-1612 1616 1620 -1621 0
-1612 1616 -1620 -1621 0
-1612 -1616 1620 -1621 0
-1612 -1616 -1620 -1621 0
222 1622 0
-222 -1622 0
1622 1623 0
-1622 -1623 0
1623 1624 0
-1623 -1624 0
231 1625 0
-231 -1625 0
1625 1626 0
-1625 -1626 0
1626 1627 0
-1626 -1627 0
1612 1624 1627 1628 0
1612 1624 -1627 -1628 0
1612 -1624 1627 -1628 0
1612 -1624 -1627 -1628 0
-1612 1624 1627 -1628 0
-1612 1624 -1627 -1628 0
-1612 -1624 1627 -1628 0
-1612 -1624 -1627 -1628 0
230 1629 0
-230 -1629 0
1629 1630 0
-1629 -1630 0
1630 1631 0
-1630 -1631 0
1631 1616 1627 1632 0
1631 1616 -1627 -1632 0
1631 -1616 1627 -1632 0
1631 -1616 -1627 -1632 0
-1631 1616 1627 -1632 0
-1631 1616 -1627 -1632 0
-1631 -1616 1627 -1632 0
-1631 -1616 -1627 -1632 0
1631 1624 1620 1633 0
1631 1624 -1620 -1633 0
1631 -1624 1620 -1633 0
1631 -1624 -1620 -1633 0
-1631 1624 1620 -1633 0
-1631 1624 -1620 -1633 0
-1631 -1624 1620 -1633 0
-1631 -1624 -1620 -1633 0
1621 1628 1632 1633 -1634 0
1621 1628 1632 -1633 1634 0
1621 1628 -1632 1633 1634 0
1621 1628 -1632 -1633 1634 0
1621 -1628 1632 1633 1634 0
1621 -1628 1632 -1633 1634 0
1621 -1628 -1632 1633 1634 0
1621 -1628 -1632 -1633 1634 0
-1621 1628 1632 1633 1634 0
-1621 1628 1632 -1633 1634 0
-1621 1628 -1632 1633 1634 0
-1621 1628 -1632 -1633 1634 0
-1621 -1628 1632 1633 1634 0
-1621 -1628 1632 -1633 1634 0
-1621 -1628 -1632 1633 1634 0
-1621 -1628 -1632 -1633 1634 0
1634 1635 0
-1634 -1635 0
1635 1636 0
-1635 -1636 0
257 1637 0
-257 -1637 0
1637 1638 0
-1637 -1638 0
1638 1639 0
-1638 -1639 0
1639 1640 0
-1639 -1640 0
233 1641 0
-233 -1641 0
1641 1642 0
-1641 -1642 0
1642 1643 0
-1642 -1643 0
1643 1644 0
-1643 -1644 0
253 1645 0
-253 -1645 0
1645 1646 0
-1645 -1646 0
1646 1647 0
-1646 -1647 0
1647 1648 0
-1647 -1648 0
1640 1644 1648 1649 0
1640 1644 -1648 -1649 0
1640 -1644 1648 -1649 0
1640 -1644 -1648 -1649 0
-1640 1644 1648 -1649 0
-1640 1644 -1648 -1649 0
-1640 -1644 1648 -1649 0
-1640 -1644 -1648 -1649 0
233 1650 0
-233 -1650 0
1650 1651 0
-1650 -1651 0
1651 1652 0
-1651 -1652 0
253 1653 0
-253 -1653 0
1653 1654 0
-1653 -1654 0
1654 1655 0
-1654 -1655 0
1640 1652 1655 1656 0
1640 1652 -1655 -1656 0
1640 -1652 1655 -1656 0
1640 -1652 -1655 -1656 0
-1640 1652 1655 -1656 0
-1640 1652 -1655 -1656 0
-1640 -1652 1655 -1656 0
-1640 -1652 -1655 -1656 0
257 1657 0
-257 -1657 0
1657 1658 0
-1657 -1658 0
1658 1659 0
-1658 -1659 0
1659 1644 1655 1660 0
1659 1644 -1655 -1660 0
1659 -1644 1655 -1660 0
1659 -1644 -1655 -1660 0
-1659 1644 1655 -1660 0
-1659 1644 -1655 -1660 0
-1659 -1644 1655 -1660 0
-1659 -1644 -1655 -1660 0
1659 1652 1648 1661 0
1659 1652 -1648 -1661 0
1659 -1652 1648 -1661 0
1659 -1652 -1648 -1661 0
-1659 1652 1648 -1661 0
-1659 1652 -1648 -1661 0
-1659 -1652 1648 -1661 0
-1659 -1652 -1648 -1661 0
1649 1656 1660 1661 -1662 0
1649 1656 1660 -1661 1662 0
1649 1656 -1660 1661 1662 0
1649 1656 -1660 -1661 1662 0
1649 -1656 1660 1661 1662 0
1649 -1656 1660 -1661 1662 0
1649 -1656 -1660 1661 1662 0
1649 -1656 -1660 -1661 1662 0
-1649 1656 1660 1661 1662 0
-1649 1656 1660 -1661 1662 0
-1649 1656 -1660 1661 1662 0
-1649 1656 -1660 -1661 1662 0
-1649 -1656 1660 1661 1662 0
-1649 -1656 1660 -1661 1662 0
-1649 -1656 -1660 1661 1662 0
-1649 -1656 -1660 -1661 1662 0
1662 1663 0
-1662 -1663 0
1663 1664 0
-1663 -1664 0
1664 1665 0
-1664 -1665 0
1608 1636 1665 1666 0
1608 1636 -1665 -1666 0
1608 -1636 1665 -1666 0
1608 -1636 -1665 -1666 0
-1608 1636 1665 -1666 0
-1608 1636 -1665 -1666 0
-1608 -1636 1665 -1666 0
-1608 -1636 -1665 -1666 0
1634 1667 0
-1634 -1667 0
1667 1668 0
-1667 -1668 0
1668 1669 0
-1668 -1669 0
1662 1670 0
-1662 -1670 0
1670 1671 0
-1670 -1671 0
1608 1669 1671 1672 0
1608 1669 -1671 -1672 0
1608 -1669 1671 -1672 0
1608 -1669 -1671 -1672 0
-1608 1669 1671 -1672 0
-1608 1669 -1671 -1672 0
-1608 -1669 1671 -1672 0
-1608 -1669 -1671 -1672 0
1605 1673 0
-1605 -1673 0
1673 1674 0
-1673 -1674 0
1674 1636 1671 1675 0
1674 1636 -1671 -1675 0
1674 -1636 1671 -1675 0
1674 -1636 -1671 -1675 0
-1674 1636 1671 -1675 0
-1674 1636 -1671 -1675 0
-1674 -1636 1671 -1675 0
-1674 -1636 -1671 -1675 0
1674 1669 1665 1676 0
1674 1669 -1665 -1676 0
1674 -1669 1665 -1676 0
1674 -1669 -1665 -1676 0
-1674 1669 1665 -1676 0
-1674 1669 -1665 -1676 0
-1674 -1669 1665 -1676 0
-1674 -1669 -1665 -1676 0
1666 1672 1675 1676 -1677 0
1666 1672 1675 -1676 1677 0
1666 1672 -1675 1676 1677 0
1666 1672 -1675 -1676 1677 0
1666 -1672 1675 1676 1677 0
1666 -1672 1675 -1676 1677 0
1666 -1672 -1675 1676 1677 0
1666 -1672 -1675 -1676 1677 0
-1666 1672 1675 1676 1677 0
-1666 1672 1675 -1676 1677 0
-1666 1672 -1675 1676 1677 0
-1666 1672 -1675 -1676 1677 0
-1666 -1672 1675 1676 1677 0
-1666 -1672 1675 -1676 1677 0
-1666 -1672 -1675 1676 1677 0
-1666 -1672 -1675 -1676 1677 0
1579 1677 -1678 0
1579 -1677 1678 0
-1579 1677 1678 0
-1579 -1677 -1678 0
668 826 1679 0
668 -826 -1679 0
-668 826 -1679 0
-668 -826 -1679 0
1679 1680 0
-1679 -1680 0
823 703 1681 0
823 -703 -1681 0
-823 703 -1681 0
-823 -703 -1681 0
1681 1682 0
-1681 -1682 0
665 1680 1682 1683 0
665 1680 -1682 -1683 0
665 -1680 1682 -1683 0
665 -1680 -1682 -1683 0
-665 1680 1682 -1683 0
-665 1680 -1682 -1683 0
-665 -1680 1682 -1683 0
-665 -1680 -1682 -1683 0
699 702 704 1684 0
699 702 -704 -1684 0
699 -702 704 -1684 0
699 -702 -704 -1684 0
-699 702 704 -1684 0
-699 702 -704 -1684 0
-699 -702 704 -1684 0
-699 -702 -704 -1684 0
1683 1684 1685 0
1683 -1684 -1685 0
-1683 1684 -1685 0
-1683 -1684 -1685 0
1685 1686 0
-1685 -1686 0
376 1687 0
-376 -1687 0
1687 1688 0
-1687 -1688 0
1688 1689 0
-1688 -1689 0
1689 1690 0
-1689 -1690 0
1690 1691 0
-1690 -1691 0
1691 1692 0
-1691 -1692 0
376 1693 0
-376 -1693 0
1693 1694 0
-1693 -1694 0
1694 1695 0
-1694 -1695 0
1695 1696 0
-1695 -1696 0
1696 1697 0
-1696 -1697 0
1692 1697 -1698 0
1692 -1697 1698 0
-1692 1697 1698 0
-1692 -1697 1698 0
1698 1699 0
-1698 -1699 0
1699 1700 0
-1699 -1700 0
1686 1700 -1701 0
1686 -1700 1701 0
-1686 1700 1701 0
-1686 -1700 1701 0
1701 1702 0
-1701 -1702 0
1702 1703 0
-1702 -1703 0
1703 1704 0
-1703 -1704 0
1704 1705 0
-1704 -1705 0
740 880 1706 0
740 -880 -1706 0
-740 880 -1706 0
-740 -880 -1706 0
1706 1707 0
-1706 -1707 0
877 775 1708 0
877 -775 -1708 0
-877 775 -1708 0
-877 -775 -1708 0
1708 1709 0
-1708 -1709 0
737 1707 1709 1710 0
737 1707 -1709 -1710 0
737 -1707 1709 -1710 0
737 -1707 -1709 -1710 0
-737 1707 1709 -1710 0
-737 1707 -1709 -1710 0
-737 -1707 1709 -1710 0
-737 -1707 -1709 -1710 0
771 774 776 1711 0
771 774 -776 -1711 0
771 -774 776 -1711 0
771 -774 -776 -1711 0
-771 774 776 -1711 0
-771 774 -776 -1711 0
-771 -774 776 -1711 0
-771 -774 -776 -1711 0
1710 1711 1712 0
1710 -1711 -1712 0
-1710 1711 -1712 0
-1710 -1711 -1712 0
1712 1713 0
-1712 -1713 0
376 1714 0
-376 -1714 0
1714 1715 0
-1714 -1715 0
1715 1716 0
-1715 -1716 0
1716 1717 0
-1716 -1717 0
1717 1718 0
-1717 -1718 0
1718 1719 0
-1718 -1719 0
376 1720 0
-376 -1720 0
1720 1721 0
-1720 -1721 0
1721 1722 0
-1721 -1722 0
1722 1723 0
-1722 -1723 0
1723 1724 0
-1723 -1724 0
1719 1724 -1725 0
1719 -1724 1725 0
-1719 1724 1725 0
-1719 -1724 1725 0
1725 1726 0
-1725 -1726 0
1726 1727 0
-1726 -1727 0
1713 1727 -1728 0
1713 -1727 1728 0
-1713 1727 1728 0
-1713 -1727 1728 0
1728 1729 0
-1728 -1729 0
1729 1730 0
-1729 -1730 0
1730 1731 0
-1730 -1731 0
1731 1732 0
-1731 -1732 0
1705 1732 -1733 0
1705 -1732 1733 0
-1705 1732 1733 0
-1705 -1732 -1733 0
700 704 701 1734 0
700 704 -701 -1734 0
700 -704 701 -1734 0
700 -704 -701 -1734 0
-700 704 701 -1734 0
-700 704 -701 -1734 0
-700 -704 701 -1734 0
-700 -704 -701 -1734 0
664 1735 0
-664 -1735 0
671 694 1736 0
671 -694 -1736 0
-671 694 -1736 0
-671 -694 -1736 0
1736 1737 0
-1736 -1737 0
1735 1737 1682 1738 0
1735 1737 -1682 -1738 0
1735 -1737 1682 -1738 0
1735 -1737 -1682 -1738 0
-1735 1737 1682 -1738 0
-1735 1737 -1682 -1738 0
-1735 -1737 1682 -1738 0
-1735 -1737 -1682 -1738 0
1734 1738 1739 0
1734 -1738 -1739 0
-1734 1738 -1739 0
-1734 -1738 -1739 0
1739 1740 0
-1739 -1740 0
356 1741 0
-356 -1741 0
1741 1742 0
-1741 -1742 0
1742 1743 0
-1742 -1743 0
1743 1744 0
-1743 -1744 0
1744 1745 0
-1744 -1745 0
1689 1742 1746 0
1689 -1742 -1746 0
-1689 1742 -1746 0
-1689 -1742 -1746 0
356 1747 0
-356 -1747 0
1747 1748 0
-1747 -1748 0
1748 1749 0
-1748 -1749 0
1694 1749 1750 0
1694 -1749 -1750 0
-1694 1749 -1750 0
-1694 -1749 -1750 0
1745 1746 1750 -1751 0
1745 1746 -1750 1751 0
1745 -1746 1750 1751 0
1745 -1746 -1750 1751 0
-1745 1746 1750 1751 0
-1745 1746 -1750 1751 0
-1745 -1746 1750 1751 0
-1745 -1746 -1750 1751 0
1751 1752 0
-1751 -1752 0
1752 1753 0
-1752 -1753 0
1740 1753 -1754 0
1740 -1753 1754 0
-1740 1753 1754 0
-1740 -1753 1754 0
1754 1755 0
-1754 -1755 0
1755 1756 0
-1755 -1756 0
1756 1757 0
-1756 -1757 0
1757 1758 0
-1757 -1758 0
772 776 773 1759 0
772 776 -773 -1759 0
772 -776 773 -1759 0
772 -776 -773 -1759 0
-772 776 773 -1759 0
-772 776 -773 -1759 0
-772 -776 773 -1759 0
-772 -776 -773 -1759 0
736 1760 0
-736 -1760 0
743 766 1761 0
743 -766 -1761 0
-743 766 -1761 0
-743 -766 -1761 0
1761 1762 0
-1761 -1762 0
1760 1762 1709 1763 0
1760 1762 -1709 -1763 0
1760 -1762 1709 -1763 0
1760 -1762 -1709 -1763 0
-1760 1762 1709 -1763 0
-1760 1762 -1709 -1763 0
-1760 -1762 1709 -1763 0
-1760 -1762 -1709 -1763 0
1759 1763 1764 0
1759 -1763 -1764 0
-1759 1763 -1764 0
-1759 -1763 -1764 0
1764 1765 0
-1764 -1765 0
356 1766 0
-356 -1766 0
1766 1767 0
-1766 -1767 0
1767 1768 0
-1767 -1768 0
1768 1769 0
-1768 -1769 0
1769 1770 0
-1769 -1770 0
1716 1767 1771 0
1716 -1767 -1771 0
-1716 1767 -1771 0
-1716 -1767 -1771 0
356 1772 0
-356 -1772 0
1772 1773 0
-1772 -1773 0
1773 1774 0
-1773 -1774 0
1721 1774 1775 0
1721 -1774 -1775 0
-1721 1774 -1775 0
-1721 -1774 -1775 0
1770 1771 1775 -1776 0
1770 1771 -1775 1776 0
1770 -1771 1775 1776 0
1770 -1771 -1775 1776 0
-1770 1771 1775 1776 0
-1770 1771 -1775 1776 0
-1770 -1771 1775 1776 0
-1770 -1771 -1775 1776 0
1776 1777 0
-1776 -1777 0
1777 1778 0
-1777 -1778 0
1765 1778 -1779 0
1765 -1778 1779 0
-1765 1778 1779 0
-1765 -1778 1779 0
1779 1780 0
-1779 -1780 0
1780 1781 0
-1780 -1781 0
1781 1782 0
-1781 -1782 0
1782 1783 0
-1782 -1783 0
1758 1783 -1784 0
1758 -1783 1784 0
-1758 1783 1784 0
-1758 -1783 -1784 0
330 1785 0
-330 -1785 0
1785 1786 0
-1785 -1786 0
1786 1491 1787 0
1786 -1491 -1787 0
-1786 1491 -1787 0
-1786 -1491 -1787 0
367 1788 0
-367 -1788 0
1788 1789 0
-1788 -1789 0
1742 1694 1790 0
1742 -1694 -1790 0
-1742 1694 -1790 0
-1742 -1694 -1790 0
1789 1790 1791 0
1789 -1790 -1791 0
-1789 1790 -1791 0
-1789 -1790 -1791 0
367 1792 0
-367 -1792 0
1792 1793 0
-1792 -1793 0
1793 1794 0
-1793 -1794 0
1790 1795 0
-1790 -1795 0
1794 1795 1796 0
1794 -1795 -1796 0
-1794 1795 -1796 0
-1794 -1795 -1796 0
1791 1796 -1797 0
1791 -1796 1797 0
-1791 1796 1797 0
-1791 -1796 1797 0
1797 1798 0
-1797 -1798 0
1798 1799 0
-1798 -1799 0
1787 1799 -1800 0
1787 -1799 1800 0
-1787 1799 1800 0
-1787 -1799 1800 0
1800 1801 0
-1800 -1801 0
1801 1802 0
-1801 -1802 0
1802 1803 0
-1802 -1803 0
1803 1804 0
-1803 -1804 0
330 1805 0
-330 -1805 0
1805 1806 0
-1805 -1806 0
1806 1589 1807 0
1806 -1589 -1807 0
-1806 1589 -1807 0
-1806 -1589 -1807 0
367 1808 0
-367 -1808 0
1808 1809 0
-1808 -1809 0
1767 1721 1810 0
1767 -1721 -1810 0
-1767 1721 -1810 0
-1767 -1721 -1810 0
1809 1810 1811 0
1809 -1810 -1811 0
-1809 1810 -1811 0
-1809 -1810 -1811 0
367 1812 0
-367 -1812 0
1812 1813 0
-1812 -1813 0
1813 1814 0
-1813 -1814 0
1810 1815 0
-1810 -1815 0
1814 1815 1816 0
1814 -1815 -1816 0
-1814 1815 -1816 0
-1814 -1815 -1816 0
1811 1816 -1817 0
1811 -1816 1817 0
-1811 1816 1817 0
-1811 -1816 1817 0
1817 1818 0
-1817 -1818 0
1818 1819 0
-1818 -1819 0
1807 1819 -1820 0
1807 -1819 1820 0
-1807 1819 1820 0
-1807 -1819 1820 0
1820 1821 0
-1820 -1821 0
1821 1822 0
-1821 -1822 0
1822 1823 0
-1822 -1823 0
1823 1824 0
-1823 -1824 0
1804 1824 -1825 0
1804 -1824 1825 0
-1804 1824 1825 0
-1804 -1824 -1825 0
380 1826 0
-380 -1826 0
387 1827 0
-387 -1827 0
377 1828 0
-377 -1828 0
1826 1827 1828 1829 0
1826 1827 -1828 -1829 0
1826 -1827 1828 -1829 0
1826 -1827 -1828 -1829 0
-1826 1827 1828 -1829 0
-1826 1827 -1828 -1829 0
-1826 -1827 1828 -1829 0
-1826 -1827 -1828 -1829 0
1829 1830 0
-1829 -1830 0
1830 1831 0
-1830 -1831 0
1831 1832 0
-1831 -1832 0
1832 1833 0
-1832 -1833 0
1833 1834 0
-1833 -1834 0
1834 1835 0
-1834 -1835 0
1835 1836 0
-1835 -1836 0
380 1837 0
-380 -1837 0
387 1838 0
-387 -1838 0
377 1839 0
-377 -1839 0
1837 1838 1839 1840 0
1837 1838 -1839 -1840 0
1837 -1838 1839 -1840 0
1837 -1838 -1839 -1840 0
-1837 1838 1839 -1840 0
-1837 1838 -1839 -1840 0
-1837 -1838 1839 -1840 0
-1837 -1838 -1839 -1840 0
1840 1841 0
-1840 -1841 0
1841 1842 0
-1841 -1842 0
1842 1843 0
-1842 -1843 0
1843 1844 0
-1843 -1844 0
1844 1845 0
-1844 -1845 0
1845 1846 0
-1845 -1846 0
1846 1847 0
-1846 -1847 0
1836 1847 -1848 0
1836 -1847 1848 0
-1836 1847 1848 0
-1836 -1847 -1848 0
331 1849 0
-331 -1849 0
1849 1850 0
-1849 -1850 0
1850 1851 0
-1850 -1851 0
1851 1852 0
-1851 -1852 0
1852 1853 0
-1852 -1853 0
1853 1854 0
-1853 -1854 0
1854 1855 0
-1854 -1855 0
331 1856 0
-331 -1856 0
1856 1857 0
-1856 -1857 0
1857 1858 0
-1857 -1858 0
1858 1859 0
-1858 -1859 0
1859 1860 0
-1859 -1860 0
1860 1861 0
-1860 -1861 0
1861 1862 0
-1861 -1862 0
1855 1862 -1863 0
1855 -1862 1863 0
-1855 1862 1863 0
-1855 -1862 -1863 0
332 1864 0
-332 -1864 0
331 1865 0
-331 -1865 0
1865 1866 0
-1865 -1866 0
1866 1867 0
-1866 -1867 0
1864 1867 -1868 0
1864 -1867 1868 0
-1864 1867 1868 0
-1864 -1867 1868 0
1868 1869 0
-1868 -1869 0
1869 1870 0
-1869 -1870 0
1870 1871 0
-1870 -1871 0
1871 1872 0
-1871 -1872 0
332 1873 0
-332 -1873 0
331 1874 0
-331 -1874 0
1874 1875 0
-1874 -1875 0
1875 1876 0
-1875 -1876 0
1873 1876 -1877 0
1873 -1876 1877 0
-1873 1876 1877 0
-1873 -1876 1877 0
1877 1878 0
-1877 -1878 0
1878 1879 0
-1878 -1879 0
1879 1880 0
-1879 -1880 0
1880 1881 0
-1880 -1881 0
1872 1881 -1882 0
1872 -1881 1882 0
-1872 1881 1882 0
-1872 -1881 -1882 0
319 1883 0
-319 -1883 0
386 1884 0
-386 -1884 0
385 1885 0
-385 -1885 0
1883 1884 1885 1886 0
1883 1884 -1885 -1886 0
1883 -1884 1885 -1886 0
1883 -1884 -1885 -1886 0
-1883 1884 1885 -1886 0
-1883 1884 -1885 -1886 0
-1883 -1884 1885 -1886 0
-1883 -1884 -1885 -1886 0
1886 1887 0
-1886 -1887 0
648 1887 1888 0
648 -1887 -1888 0
-648 1887 -1888 0
-648 -1887 -1888 0
361 1889 0
-361 -1889 0
364 1890 0
-364 -1890 0
370 1891 0
-370 -1891 0
353 1892 0
-353 -1892 0
371 1893 0
-371 -1893 0
352 1894 0
-352 -1894 0
1892 1893 1894 -1895 0
1892 1893 -1894 1895 0
1892 -1893 1894 1895 0
1892 -1893 -1894 1895 0
-1892 1893 1894 1895 0
-1892 1893 -1894 1895 0
-1892 -1893 1894 1895 0
-1892 -1893 -1894 1895 0
1889 1890 1891 1895 -1896 0
1889 1890 1891 -1895 1896 0
1889 1890 -1891 1895 1896 0
1889 1890 -1891 -1895 1896 0
1889 -1890 1891 1895 1896 0
1889 -1890 1891 -1895 1896 0
1889 -1890 -1891 1895 1896 0
1889 -1890 -1891 -1895 1896 0
-1889 1890 1891 1895 1896 0
-1889 1890 1891 -1895 1896 0
-1889 1890 -1891 1895 1896 0
-1889 1890 -1891 -1895 1896 0
-1889 -1890 1891 1895 1896 0
-1889 -1890 1891 -1895 1896 0
-1889 -1890 -1891 1895 1896 0
-1889 -1890 -1891 -1895 1896 0
1896 1897 0
-1896 -1897 0
1897 1898 0
-1897 -1898 0
1888 1898 -1899 0
1888 -1898 1899 0
-1888 1898 1899 0
-1888 -1898 1899 0
1899 1900 0
-1899 -1900 0
1900 1901 0
-1900 -1901 0
1901 1902 0
-1901 -1902 0
319 1903 0
-319 -1903 0
386 1904 0
-386 -1904 0
385 1905 0
-385 -1905 0
1903 1904 1905 1906 0
1903 1904 -1905 -1906 0
1903 -1904 1905 -1906 0
1903 -1904 -1905 -1906 0
-1903 1904 1905 -1906 0
-1903 1904 -1905 -1906 0
-1903 -1904 1905 -1906 0
-1903 -1904 -1905 -1906 0
1906 1907 0
-1906 -1907 0
720 1907 1908 0
720 -1907 -1908 0
-720 1907 -1908 0
-720 -1907 -1908 0
361 1909 0
-361 -1909 0
364 1910 0
-364 -1910 0
370 1911 0
-370 -1911 0
353 1912 0
-353 -1912 0
371 1913 0
-371 -1913 0
352 1914 0
-352 -1914 0
1912 1913 1914 -1915 0
1912 1913 -1914 1915 0
1912 -1913 1914 1915 0
1912 -1913 -1914 1915 0
-1912 1913 1914 1915 0
-1912 1913 -1914 1915 0
-1912 -1913 1914 1915 0
-1912 -1913 -1914 1915 0
1909 1910 1911 1915 -1916 0
1909 1910 1911 -1915 1916 0
1909 1910 -1911 1915 1916 0
1909 1910 -1911 -1915 1916 0
1909 -1910 1911 1915 1916 0
1909 -1910 1911 -1915 1916 0
1909 -1910 -1911 1915 1916 0
1909 -1910 -1911 -1915 1916 0
-1909 1910 1911 1915 1916 0
-1909 1910 1911 -1915 1916 0
-1909 1910 -1911 1915 1916 0
-1909 1910 -1911 -1915 1916 0
-1909 -1910 1911 1915 1916 0
-1909 -1910 1911 -1915 1916 0
-1909 -1910 -1911 1915 1916 0
-1909 -1910 -1911 -1915 1916 0
1916 1917 0
-1916 -1917 0
1917 1918 0
-1917 -1918 0
1908 1918 -1919 0
1908 -1918 1919 0
-1908 1918 1919 0
-1908 -1918 1919 0
1919 1920 0
-1919 -1920 0
1920 1921 0
-1920 -1921 0
1921 1922 0
-1921 -1922 0
1902 1922 -1923 0
1902 -1922 1923 0
-1902 1922 1923 0
-1902 -1922 -1923 0
1884 1885 1883 1924 0
1884 1885 -1883 -1924 0
1884 -1885 1883 -1924 0
1884 -1885 -1883 -1924 0
-1884 1885 1883 -1924 0
-1884 1885 -1883 -1924 0
-1884 -1885 1883 -1924 0
-1884 -1885 -1883 -1924 0
1531 1527 1925 0
1531 -1527 -1925 0
-1531 1527 -1925 0
-1531 -1527 -1925 0
1925 1926 0
-1925 -1926 0
1548 1552 1927 0
1548 -1552 -1927 0
-1548 1552 -1927 0
-1548 -1552 -1927 0
1927 1928 0
-1927 -1928 0
1926 1928 1929 0
1926 -1928 -1929 0
-1926 1928 -1929 0
-1926 -1928 -1929 0
1929 1930 0
-1929 -1930 0
1786 1931 0
-1786 -1931 0
1931 1932 0
-1931 -1932 0
1930 1932 1933 0
1930 -1932 -1933 0
-1930 1932 -1933 0
-1930 -1932 -1933 0
1785 1934 0
-1785 -1934 0
1934 1935 0
-1934 -1935 0
1935 1936 0
-1935 -1936 0
1555 1544 1937 0
1555 -1544 -1937 0
-1555 1544 -1937 0
-1555 -1544 -1937 0
1937 1938 0
-1937 -1938 0
1531 1520 1939 0
1531 -1520 -1939 0
-1531 1520 -1939 0
-1531 -1520 -1939 0
1939 1940 0
-1939 -1940 0
1938 1940 1941 0
1938 -1940 -1941 0
-1938 1940 -1941 0
-1938 -1940 -1941 0
1941 1942 0
-1941 -1942 0
1936 1942 1943 0
1936 -1942 -1943 0
-1936 1942 -1943 0
-1936 -1942 -1943 0
1938 1926 1944 0
1938 -1926 -1944 0
-1938 1926 -1944 0
-1938 -1926 -1944 0
1944 1945 0
-1944 -1945 0
1934 1946 0
-1934 -1946 0
1946 1947 0
-1946 -1947 0
1945 1947 1948 0
1945 -1947 -1948 0
-1945 1947 -1948 0
-1945 -1947 -1948 0
1527 1512 1949 0
1527 -1512 -1949 0
-1527 1512 -1949 0
-1527 -1512 -1949 0
1949 1950 0
-1949 -1950 0
1555 1552 1951 0
1555 -1552 -1951 0
-1555 1552 -1951 0
-1555 -1552 -1951 0
1951 1952 0
-1951 -1952 0
1950 1952 1953 0
1950 -1952 -1953 0
-1950 1952 -1953 0
-1950 -1952 -1953 0
1953 1954 0
-1953 -1954 0
1934 1955 0
-1934 -1955 0
1955 1956 0
-1955 -1956 0
1954 1956 1957 0
1954 -1956 -1957 0
-1954 1956 -1957 0
-1954 -1956 -1957 0
1934 1958 0
-1934 -1958 0
1958 1959 0
-1958 -1959 0
1512 1520 1960 0
1512 -1520 -1960 0
-1512 1520 -1960 0
-1512 -1520 -1960 0
1960 1961 0
-1960 -1961 0
1961 1952 1962 0
1961 -1952 -1962 0
-1961 1952 -1962 0
-1961 -1952 -1962 0
1962 1963 0
-1962 -1963 0
1959 1963 1964 0
1959 -1963 -1964 0
-1959 1963 -1964 0
-1959 -1963 -1964 0
1934 1965 0
-1934 -1965 0
1965 1966 0
-1965 -1966 0
1940 1952 1967 0
1940 -1952 -1967 0
-1940 1952 -1967 0
-1940 -1952 -1967 0
1967 1968 0
-1967 -1968 0
1966 1968 1969 0
1966 -1968 -1969 0
-1966 1968 -1969 0
-1966 -1968 -1969 0
1957 1964 1969 -1970 0
1957 1964 -1969 1970 0
1957 -1964 1969 1970 0
1957 -1964 -1969 1970 0
-1957 1964 1969 1970 0
-1957 1964 -1969 1970 0
-1957 -1964 1969 1970 0
-1957 -1964 -1969 1970 0
1933 1943 1948 1970 -1971 0
1933 1943 1948 -1970 1971 0
1933 1943 -1948 1970 1971 0
1933 1943 -1948 -1970 1971 0
1933 -1943 1948 1970 1971 0
1933 -1943 1948 -1970 1971 0
1933 -1943 -1948 1970 1971 0
1933 -1943 -1948 -1970 1971 0
-1933 1943 1948 1970 1971 0
-1933 1943 1948 -1970 1971 0
-1933 1943 -1948 1970 1971 0
-1933 1943 -1948 -1970 1971 0
-1933 -1943 1948 1970 1971 0
-1933 -1943 1948 -1970 1971 0
-1933 -1943 -1948 1970 1971 0
-1933 -1943 -1948 -1970 1971 0
1971 1972 0
-1971 -1972 0
1972 1973 0
-1972 -1973 0
1924 1973 -1974 0
1924 -1973 1974 0
-1924 1973 1974 0
-1924 -1973 1974 0
1974 1975 0
-1974 -1975 0
1975 1976 0
-1975 -1976 0
1976 1977 0
-1976 -1977 0
1904 1905 1903 1978 0
1904 1905 -1903 -1978 0
1904 -1905 1903 -1978 0
1904 -1905 -1903 -1978 0
-1904 1905 1903 -1978 0
-1904 1905 -1903 -1978 0
-1904 -1905 1903 -1978 0
-1904 -1905 -1903 -1978 0
1629 1625 1979 0
1629 -1625 -1979 0
-1629 1625 -1979 0
-1629 -1625 -1979 0
1979 1980 0
-1979 -1980 0
1646 1650 1981 0
1646 -1650 -1981 0
-1646 1650 -1981 0
-1646 -1650 -1981 0
1981 1982 0
-1981 -1982 0
1980 1982 1983 0
1980 -1982 -1983 0
-1980 1982 -1983 0
-1980 -1982 -1983 0
1983 1984 0
-1983 -1984 0
1806 1985 0
-1806 -1985 0
1985 1986 0
-1985 -1986 0
1984 1986 1987 0
1984 -1986 -1987 0
-1984 1986 -1987 0
-1984 -1986 -1987 0
1805 1988 0
-1805 -1988 0
1988 1989 0
-1988 -1989 0
1989 1990 0
-1989 -1990 0
1653 1642 1991 0
1653 -1642 -1991 0
-1653 1642 -1991 0
-1653 -1642 -1991 0
1991 1992 0
-1991 -1992 0
1629 1618 1993 0
1629 -1618 -1993 0
-1629 1618 -1993 0
-1629 -1618 -1993 0
1993 1994 0
-1993 -1994 0
1992 1994 1995 0
1992 -1994 -1995 0
-1992 1994 -1995 0
-1992 -1994 -1995 0
1995 1996 0
-1995 -1996 0
1990 1996 1997 0
1990 -1996 -1997 0
-1990 1996 -1997 0
-1990 -1996 -1997 0
1992 1980 1998 0
1992 -1980 -1998 0
-1992 1980 -1998 0
-1992 -1980 -1998 0
1998 1999 0
-1998 -1999 0
1988 2000 0
-1988 -2000 0
2000 2001 0
-2000 -2001 0
1999 2001 2002 0
1999 -2001 -2002 0
-1999 2001 -2002 0
-1999 -2001 -2002 0
1625 1610 2003 0
1625 -1610 -2003 0
-1625 1610 -2003 0
-1625 -1610 -2003 0
2003 2004 0
-2003 -2004 0
1653 1650 2005 0
1653 -1650 -2005 0
-1653 1650 -2005 0
-1653 -1650 -2005 0
2005 2006 0
-2005 -2006 0
2004 2006 2007 0
2004 -2006 -2007 0
-2004 2006 -2007 0
-2004 -2006 -2007 0
2007 2008 0
-2007 -2008 0
1988 2009 0
-1988 -2009 0
2009 2010 0
-2009 -2010 0
2008 2010 2011 0
2008 -2010 -2011 0
-2008 2010 -2011 0
-2008 -2010 -2011 0
1988 2012 0
-1988 -2012 0
2012 2013 0
-2012 -2013 0
1610 1618 2014 0
1610 -1618 -2014 0
-1610 1618 -2014 0
-1610 -1618 -2014 0
2014 2015 0
-2014 -2015 0
2015 2006 2016 0
2015 -2006 -2016 0
-2015 2006 -2016 0
-2015 -2006 -2016 0
2016 2017 0
-2016 -2017 0
2013 2017 2018 0
2013 -2017 -2018 0
-2013 2017 -2018 0
-2013 -2017 -2018 0
1988 2019 0
-1988 -2019 0
2019 2020 0
-2019 -2020 0
1994 2006 2021 0
1994 -2006 -2021 0
-1994 2006 -2021 0
-1994 -2006 -2021 0
2021 2022 0
-2021 -2022 0
2020 2022 2023 0
2020 -2022 -2023 0
-2020 2022 -2023 0
-2020 -2022 -2023 0
2011 2018 2023 -2024 0
2011 2018 -2023 2024 0
2011 -2018 2023 2024 0
2011 -2018 -2023 2024 0
-2011 2018 2023 2024 0
-2011 2018 -2023 2024 0
-2011 -2018 2023 2024 0
-2011 -2018 -2023 2024 0
1987 1997 2002 2024 -2025 0
1987 1997 2002 -2024 2025 0
1987 1997 -2002 2024 2025 0
1987 1997 -2002 -2024 2025 0
1987 -1997 2002 2024 2025 0
1987 -1997 2002 -2024 2025 0
1987 -1997 -2002 2024 2025 0
1987 -1997 -2002 -2024 2025 0
-1987 1997 2002 2024 2025 0
-1987 1997 2002 -2024 2025 0
-1987 1997 -2002 2024 2025 0
-1987 1997 -2002 -2024 2025 0
-1987 -1997 2002 2024 2025 0
-1987 -1997 2002 -2024 2025 0
-1987 -1997 -2002 2024 2025 0
-1987 -1997 -2002 -2024 2025 0
2025 2026 0
-2025 -2026 0
2026 2027 0
-2026 -2027 0
1978 2027 -2028 0
1978 -2027 2028 0
-1978 2027 2028 0
-1978 -2027 2028 0
2028 2029 0
-2028 -2029 0
2029 2030 0
-2029 -2030 0
2030 2031 0
-2030 -2031 0
1977 2031 -2032 0
1977 -2031 2032 0
-1977 2031 2032 0
-1977 -2031 -2032 0
336 2033 0
-336 -2033 0
2033 2034 0
-2033 -2034 0
2034 2035 0
-2034 -2035 0
340 2036 0
-340 -2036 0
2036 2037 0
-2036 -2037 0
2037 2038 0
-2037 -2038 0
314 2039 0
-314 -2039 0
2039 2040 0
-2039 -2040 0
2040 2041 0
-2040 -2041 0
2035 2038 2041 2042 0
2035 2038 -2041 -2042 0
2035 -2038 2041 -2042 0
2035 -2038 -2041 -2042 0
-2035 2038 2041 -2042 0
-2035 2038 -2041 -2042 0
-2035 -2038 2041 -2042 0
-2035 -2038 -2041 -2042 0
2042 2043 0
-2042 -2043 0
348 2044 0
-348 -2044 0
2044 2045 0
-2044 -2045 0
347 2046 0
-347 -2046 0
2046 2047 0
-2046 -2047 0
2045 2047 2048 0
2045 -2047 -2048 0
-2045 2047 -2048 0
-2045 -2047 -2048 0
2048 2049 0
-2048 -2049 0
2043 2049 2050 0
2043 -2049 -2050 0
-2043 2049 -2050 0
-2043 -2049 -2050 0
2050 2051 0
-2050 -2051 0
239 2052 0
-239 -2052 0
2052 2053 0
-2052 -2053 0
2053 2054 0
-2053 -2054 0
2054 2055 0
-2054 -2055 0
247 2056 0
-247 -2056 0
2056 2057 0
-2056 -2057 0
2057 2058 0
-2057 -2058 0
2058 2059 0
-2058 -2059 0
229 2060 0
-229 -2060 0
2060 2061 0
-2060 -2061 0
2061 2062 0
-2061 -2062 0
2062 2063 0
-2062 -2063 0
2055 2059 2063 2064 0
2055 2059 -2063 -2064 0
2055 -2059 2063 -2064 0
2055 -2059 -2063 -2064 0
-2055 2059 2063 -2064 0
-2055 2059 -2063 -2064 0
-2055 -2059 2063 -2064 0
-2055 -2059 -2063 -2064 0
247 2065 0
-247 -2065 0
2065 2066 0
-2065 -2066 0
2066 2067 0
-2066 -2067 0
229 2068 0
-229 -2068 0
2068 2069 0
-2068 -2069 0
2069 2070 0
-2069 -2070 0
2055 2067 2070 2071 0
2055 2067 -2070 -2071 0
2055 -2067 2070 -2071 0
2055 -2067 -2070 -2071 0
-2055 2067 2070 -2071 0
-2055 2067 -2070 -2071 0
-2055 -2067 2070 -2071 0
-2055 -2067 -2070 -2071 0
239 2072 0
-239 -2072 0
2072 2073 0
-2072 -2073 0
2073 2074 0
-2073 -2074 0
2074 2059 2070 2075 0
2074 2059 -2070 -2075 0
2074 -2059 2070 -2075 0
2074 -2059 -2070 -2075 0
-2074 2059 2070 -2075 0
-2074 2059 -2070 -2075 0
-2074 -2059 2070 -2075 0
-2074 -2059 -2070 -2075 0
2074 2067 2063 2076 0
2074 2067 -2063 -2076 0
2074 -2067 2063 -2076 0
2074 -2067 -2063 -2076 0
-2074 2067 2063 -2076 0
-2074 2067 -2063 -2076 0
-2074 -2067 2063 -2076 0
-2074 -2067 -2063 -2076 0
2064 2071 2075 2076 -2077 0
2064 2071 2075 -2076 2077 0
2064 2071 -2075 2076 2077 0
2064 2071 -2075 -2076 2077 0
2064 -2071 2075 2076 2077 0
2064 -2071 2075 -2076 2077 0
2064 -2071 -2075 2076 2077 0
2064 -2071 -2075 -2076 2077 0
-2064 2071 2075 2076 2077 0
-2064 2071 2075 -2076 2077 0
-2064 2071 -2075 2076 2077 0
-2064 2071 -2075 -2076 2077 0
-2064 -2071 2075 2076 2077 0
-2064 -2071 2075 -2076 2077 0
-2064 -2071 -2075 2076 2077 0
-2064 -2071 -2075 -2076 2077 0
2077 2078 0
-2077 -2078 0
2078 2079 0
-2078 -2079 0
2079 2080 0
-2079 -2080 0
246 2081 0
-246 -2081 0
256 2082 0
-256 -2082 0
2082 2083 0
-2082 -2083 0
2081 2083 2084 0
2081 -2083 -2084 0
-2081 2083 -2084 0
-2081 -2083 -2084 0
246 2085 0
-246 -2085 0
2085 2086 0
-2085 -2086 0
256 2087 0
-256 -2087 0
2086 2087 2088 0
2086 -2087 -2088 0
-2086 2087 -2088 0
-2086 -2087 -2088 0
2084 2088 -2089 0
2084 -2088 2089 0
-2084 2088 2089 0
-2084 -2088 2089 0
2089 2090 0
-2089 -2090 0
2090 2091 0
-2090 -2091 0
261 2092 0
-261 -2092 0
2092 2093 0
-2092 -2093 0
2093 2094 0
-2093 -2094 0
2094 2095 0
-2094 -2095 0
262 2096 0
-262 -2096 0
2096 2097 0
-2096 -2097 0
2097 2098 0
-2097 -2098 0
2098 2099 0
-2098 -2099 0
263 2100 0
-263 -2100 0
2100 2101 0
-2100 -2101 0
2101 2102 0
-2101 -2102 0
2102 2103 0
-2102 -2103 0
2095 2099 2103 2104 0
2095 2099 -2103 -2104 0
2095 -2099 2103 -2104 0
2095 -2099 -2103 -2104 0
-2095 2099 2103 -2104 0
-2095 2099 -2103 -2104 0
-2095 -2099 2103 -2104 0
-2095 -2099 -2103 -2104 0
262 2105 0
-262 -2105 0
2105 2106 0
-2105 -2106 0
2106 2107 0
-2106 -2107 0
263 2108 0
-263 -2108 0
2108 2109 0
-2108 -2109 0
2109 2110 0
-2109 -2110 0
2095 2107 2110 2111 0
2095 2107 -2110 -2111 0
2095 -2107 2110 -2111 0
2095 -2107 -2110 -2111 0
-2095 2107 2110 -2111 0
-2095 2107 -2110 -2111 0
-2095 -2107 2110 -2111 0
-2095 -2107 -2110 -2111 0
261 2112 0
-261 -2112 0
2112 2113 0
-2112 -2113 0
2113 2114 0
-2113 -2114 0
2114 2099 2110 2115 0
2114 2099 -2110 -2115 0
2114 -2099 2110 -2115 0
2114 -2099 -2110 -2115 0
-2114 2099 2110 -2115 0
-2114 2099 -2110 -2115 0
-2114 -2099 2110 -2115 0
-2114 -2099 -2110 -2115 0
2114 2107 2103 2116 0
2114 2107 -2103 -2116 0
2114 -2107 2103 -2116 0
2114 -2107 -2103 -2116 0
-2114 2107 2103 -2116 0
-2114 2107 -2103 -2116 0
-2114 -2107 2103 -2116 0
-2114 -2107 -2103 -2116 0
2104 2111 2115 2116 -2117 0
2104 2111 2115 -2116 2117 0
2104 2111 -2115 2116 2117 0
2104 2111 -2115 -2116 2117 0
2104 -2111 2115 2116 2117 0
2104 -2111 2115 -2116 2117 0
2104 -2111 -2115 2116 2117 0
2104 -2111 -2115 -2116 2117 0
-2104 2111 2115 2116 2117 0
-2104 2111 2115 -2116 2117 0
-2104 2111 -2115 2116 2117 0
-2104 2111 -2115 -2116 2117 0
-2104 -2111 2115 2116 2117 0
-2104 -2111 2115 -2116 2117 0
-2104 -2111 -2115 2116 2117 0
-2104 -2111 -2115 -2116 2117 0
2117 2118 0
-2117 -2118 0
2118 2119 0
-2118 -2119 0
2119 2120 0
-2119 -2120 0
2080 2091 2120 2121 0
2080 2091 -2120 -2121 0
2080 -2091 2120 -2121 0
2080 -2091 -2120 -2121 0
-2080 2091 2120 -2121 0
-2080 2091 -2120 -2121 0
-2080 -2091 2120 -2121 0
-2080 -2091 -2120 -2121 0
2089 2122 0
-2089 -2122 0
2122 2123 0
-2122 -2123 0
2123 2124 0
-2123 -2124 0
2117 2125 0
-2117 -2125 0
2125 2126 0
-2125 -2126 0
2080 2124 2126 2127 0
2080 2124 -2126 -2127 0
2080 -2124 2126 -2127 0
2080 -2124 -2126 -2127 0
-2080 2124 2126 -2127 0
-2080 2124 -2126 -2127 0
-2080 -2124 2126 -2127 0
-2080 -2124 -2126 -2127 0
2077 2128 0
-2077 -2128 0
2128 2129 0
-2128 -2129 0
2129 2091 2126 2130 0
2129 2091 -2126 -2130 0
2129 -2091 2126 -2130 0
2129 -2091 -2126 -2130 0
-2129 2091 2126 -2130 0
-2129 2091 -2126 -2130 0
-2129 -2091 2126 -2130 0
-2129 -2091 -2126 -2130 0
2129 2124 2120 2131 0
2129 2124 -2120 -2131 0
2129 -2124 2120 -2131 0
2129 -2124 -2120 -2131 0
-2129 2124 2120 -2131 0
-2129 2124 -2120 -2131 0
-2129 -2124 2120 -2131 0
-2129 -2124 -2120 -2131 0
2121 2127 2130 2131 -2132 0
2121 2127 2130 -2131 2132 0
2121 2127 -2130 2131 2132 0
2121 2127 -2130 -2131 2132 0
2121 -2127 2130 2131 2132 0
2121 -2127 2130 -2131 2132 0
2121 -2127 -2130 2131 2132 0
2121 -2127 -2130 -2131 2132 0
-2121 2127 2130 2131 2132 0
-2121 2127 2130 -2131 2132 0
-2121 2127 -2130 2131 2132 0
-2121 2127 -2130 -2131 2132 0
-2121 -2127 2130 2131 2132 0
-2121 -2127 2130 -2131 2132 0
-2121 -2127 -2130 2131 2132 0
-2121 -2127 -2130 -2131 2132 0
1964 2133 0
-1964 -2133 0
2132 2133 2134 0
2132 -2133 -2134 0
-2132 2133 -2134 0
-2132 -2133 -2134 0
2132 2135 0
-2132 -2135 0
2135 1964 2136 0
2135 -1964 -2136 0
-2135 1964 -2136 0
-2135 -1964 -2136 0
2134 2136 -2137 0
2134 -2136 2137 0
-2134 2136 2137 0
-2134 -2136 2137 0
2137 2138 0
-2137 -2138 0
2051 2138 2139 0
2051 -2138 -2139 0
-2051 2138 -2139 0
-2051 -2138 -2139 0
348 2140 0
-348 -2140 0
2140 2141 0
-2140 -2141 0
2141 2142 0
-2141 -2142 0
2047 2142 2143 0
2047 -2142 -2143 0
-2047 2142 -2143 0
-2047 -2142 -2143 0
2143 2144 0
-2143 -2144 0
336 2145 0
-336 -2145 0
2145 2146 0
-2145 -2146 0
314 2147 0
-314 -2147 0
2147 2148 0
-2147 -2148 0
340 2149 0
-340 -2149 0
2149 2150 0
-2149 -2150 0
2146 2148 2150 2151 0
2146 2148 -2150 -2151 0
2146 -2148 2150 -2151 0
2146 -2148 -2150 -2151 0
-2146 2148 2150 -2151 0
-2146 2148 -2150 -2151 0
-2146 -2148 2150 -2151 0
-2146 -2148 -2150 -2151 0
2151 2152 0
-2151 -2152 0
2144 2152 2153 0
2144 -2152 -2153 0
-2144 2152 -2153 0
-2144 -2152 -2153 0
2153 2154 0
-2153 -2154 0
2087 2155 0
-2087 -2155 0
2154 2155 2156 0
2154 -2155 -2156 0
-2154 2155 -2156 0
-2154 -2155 -2156 0
2041 2038 2146 2157 0
2041 2038 -2146 -2157 0
2041 -2038 2146 -2157 0
2041 -2038 -2146 -2157 0
-2041 2038 2146 -2157 0
-2041 2038 -2146 -2157 0
-2041 -2038 2146 -2157 0
-2041 -2038 -2146 -2157 0
2157 2158 0
-2157 -2158 0
2144 2158 2159 0
2144 -2158 -2159 0
-2144 2158 -2159 0
-2144 -2158 -2159 0
2159 2160 0
-2159 -2160 0
2108 2161 0
-2108 -2161 0
2160 2161 2162 0
2160 -2161 -2162 0
-2160 2161 -2162 0
-2160 -2161 -2162 0
2105 2163 0
-2105 -2163 0
2148 2038 2146 2164 0
2148 2038 -2146 -2164 0
2148 -2038 2146 -2164 0
2148 -2038 -2146 -2164 0
-2148 2038 2146 -2164 0
-2148 2038 -2146 -2164 0
-2148 -2038 2146 -2164 0
-2148 -2038 -2146 -2164 0
2164 2165 0
-2164 -2165 0
2144 2165 2166 0
2144 -2165 -2166 0
-2144 2165 -2166 0
-2144 -2165 -2166 0
2166 2167 0
-2166 -2167 0
2163 2167 2168 0
2163 -2167 -2168 0
-2163 2167 -2168 0
-2163 -2167 -2168 0
2081 2169 0
-2081 -2169 0
2146 2150 2041 2170 0
2146 2150 -2041 -2170 0
2146 -2150 2041 -2170 0
2146 -2150 -2041 -2170 0
-2146 2150 2041 -2170 0
-2146 2150 -2041 -2170 0
-2146 -2150 2041 -2170 0
-2146 -2150 -2041 -2170 0
2170 2171 0
-2170 -2171 0
2144 2171 2172 0
2144 -2171 -2172 0
-2144 2171 -2172 0
-2144 -2171 -2172 0
2172 2173 0
-2172 -2173 0
2169 2173 2174 0
2169 -2173 -2174 0
-2169 2173 -2174 0
-2169 -2173 -2174 0
2156 2162 2168 2174 -2175 0
2156 2162 2168 -2174 2175 0
2156 2162 -2168 2174 2175 0
2156 2162 -2168 -2174 2175 0
2156 -2162 2168 2174 2175 0
2156 -2162 2168 -2174 2175 0
2156 -2162 -2168 2174 2175 0
2156 -2162 -2168 -2174 2175 0
-2156 2162 2168 2174 2175 0
-2156 2162 2168 -2174 2175 0
-2156 2162 -2168 2174 2175 0
-2156 2162 -2168 -2174 2175 0
-2156 -2162 2168 2174 2175 0
-2156 -2162 2168 -2174 2175 0
-2156 -2162 -2168 2174 2175 0
-2156 -2162 -2168 -2174 2175 0
2144 2043 2176 0
2144 -2043 -2176 0
-2144 2043 -2176 0
-2144 -2043 -2176 0
2176 2177 0
-2176 -2177 0
2072 2178 0
-2072 -2178 0
2177 2178 2179 0
2177 -2178 -2179 0
-2177 2178 -2179 0
-2177 -2178 -2179 0
2112 2180 0
-2112 -2180 0
2035 2148 2150 2181 0
2035 2148 -2150 -2181 0
2035 -2148 2150 -2181 0
2035 -2148 -2150 -2181 0
-2035 2148 2150 -2181 0
-2035 2148 -2150 -2181 0
-2035 -2148 2150 -2181 0
-2035 -2148 -2150 -2181 0
2181 2182 0
-2181 -2182 0
2144 2182 2183 0
2144 -2182 -2183 0
-2144 2182 -2183 0
-2144 -2182 -2183 0
2183 2184 0
-2183 -2184 0
2180 2184 2185 0
2180 -2184 -2185 0
-2180 2184 -2185 0
-2180 -2184 -2185 0
2068 2186 0
-2068 -2186 0
2035 2038 2148 2187 0
2035 2038 -2148 -2187 0
2035 -2038 2148 -2187 0
2035 -2038 -2148 -2187 0
-2035 2038 2148 -2187 0
-2035 2038 -2148 -2187 0
-2035 -2038 2148 -2187 0
-2035 -2038 -2148 -2187 0
2187 2188 0
-2187 -2188 0
2144 2188 2189 0
2144 -2188 -2189 0
-2144 2188 -2189 0
-2144 -2188 -2189 0
2189 2190 0
-2189 -2190 0
2186 2190 2191 0
2186 -2190 -2191 0
-2186 2190 -2191 0
-2186 -2190 -2191 0
2065 2192 0
-2065 -2192 0
2035 2150 2041 2193 0
2035 2150 -2041 -2193 0
2035 -2150 2041 -2193 0
2035 -2150 -2041 -2193 0
-2035 2150 2041 -2193 0
-2035 2150 -2041 -2193 0
-2035 -2150 2041 -2193 0
-2035 -2150 -2041 -2193 0
2193 2194 0
-2193 -2194 0
2194 2144 2195 0
2194 -2144 -2195 0
-2194 2144 -2195 0
-2194 -2144 -2195 0
2195 2196 0
-2195 -2196 0
2192 2196 2197 0
2192 -2196 -2197 0
-2192 2196 -2197 0
-2192 -2196 -2197 0
2179 2185 2191 2197 -2198 0
2179 2185 2191 -2197 2198 0
2179 2185 -2191 2197 2198 0
2179 2185 -2191 -2197 2198 0
2179 -2185 2191 2197 2198 0
2179 -2185 2191 -2197 2198 0
2179 -2185 -2191 2197 2198 0
2179 -2185 -2191 -2197 2198 0
-2179 2185 2191 2197 2198 0
-2179 2185 2191 -2197 2198 0
-2179 2185 -2191 2197 2198 0
-2179 2185 -2191 -2197 2198 0
-2179 -2185 2191 2197 2198 0
-2179 -2185 2191 -2197 2198 0
-2179 -2185 -2191 2197 2198 0
-2179 -2185 -2191 -2197 2198 0
2139 2175 2198 2199 0
2139 2175 -2198 -2199 0
2139 -2175 2198 -2199 0
2139 -2175 -2198 -2199 0
-2139 2175 2198 -2199 0
-2139 2175 -2198 -2199 0
-2139 -2175 2198 -2199 0
-2139 -2175 -2198 -2199 0
1964 1957 2200 0
1964 -1957 -2200 0
-1964 1957 -2200 0
-1964 -1957 -2200 0
2199 2200 2201 0
2199 -2200 -2201 0
-2199 2200 -2201 0
-2199 -2200 -2201 0
347 2202 0
-347 -2202 0
2202 2203 0
-2202 -2203 0
2203 2204 0
-2203 -2204 0
2045 2204 2205 0
2045 -2204 -2205 0
-2045 2204 -2205 0
-2045 -2204 -2205 0
2205 2206 0
-2205 -2206 0
2206 2158 2207 0
2206 -2158 -2207 0
-2206 2158 -2207 0
-2206 -2158 -2207 0
2207 2208 0
-2207 -2208 0
1829 2209 0
-1829 -2209 0
2209 1300 2210 0
2209 -1300 -2210 0
-2209 1300 -2210 0
-2209 -1300 -2210 0
2209 2211 0
-2209 -2211 0
2211 1103 2212 0
2211 -1103 -2212 0
-2211 1103 -2212 0
-2211 -1103 -2212 0
2210 2212 -2213 0
2210 -2212 2213 0
-2210 2212 2213 0
-2210 -2212 2213 0
2213 2214 0
-2213 -2214 0
2208 2214 2215 0
2208 -2214 -2215 0
-2208 2214 -2215 0
-2208 -2214 -2215 0
2209 1304 2216 0
2209 -1304 -2216 0
-2209 1304 -2216 0
-2209 -1304 -2216 0
2211 1107 2217 0
2211 -1107 -2217 0
-2211 1107 -2217 0
-2211 -1107 -2217 0
2216 2217 -2218 0
2216 -2217 2218 0
-2216 2217 2218 0
-2216 -2217 2218 0
2218 2219 0
-2218 -2219 0
2182 2206 2220 0
2182 -2206 -2220 0
-2182 2206 -2220 0
-2182 -2206 -2220 0
2220 2221 0
-2220 -2221 0
2219 2221 2222 0
2219 -2221 -2222 0
-2219 2221 -2222 0
-2219 -2221 -2222 0
2165 2206 2223 0
2165 -2206 -2223 0
-2165 2206 -2223 0
-2165 -2206 -2223 0
2223 2224 0
-2223 -2224 0
2209 1349 2225 0
2209 -1349 -2225 0
-2209 1349 -2225 0
-2209 -1349 -2225 0
1156 2211 2226 0
1156 -2211 -2226 0
-1156 2211 -2226 0
-1156 -2211 -2226 0
2225 2226 -2227 0
2225 -2226 2227 0
-2225 2226 2227 0
-2225 -2226 2227 0
2227 2228 0
-2227 -2228 0
2224 2228 2229 0
2224 -2228 -2229 0
-2224 2228 -2229 0
-2224 -2228 -2229 0
2194 2206 2230 0
2194 -2206 -2230 0
-2194 2206 -2230 0
-2194 -2206 -2230 0
2230 2231 0
-2230 -2231 0
1296 2209 2232 0
1296 -2209 -2232 0
-1296 2209 -2232 0
-1296 -2209 -2232 0
1099 2211 2233 0
1099 -2211 -2233 0
-1099 2211 -2233 0
-1099 -2211 -2233 0
2232 2233 -2234 0
2232 -2233 2234 0
-2232 2233 2234 0
-2232 -2233 2234 0
2234 2235 0
-2234 -2235 0
2231 2235 2236 0
2231 -2235 -2236 0
-2231 2235 -2236 0
-2231 -2235 -2236 0
2215 2222 2229 2236 -2237 0
2215 2222 2229 -2236 2237 0
2215 2222 -2229 2236 2237 0
2215 2222 -2229 -2236 2237 0
2215 -2222 2229 2236 2237 0
2215 -2222 2229 -2236 2237 0
2215 -2222 -2229 2236 2237 0
2215 -2222 -2229 -2236 2237 0
-2215 2222 2229 2236 2237 0
-2215 2222 2229 -2236 2237 0
-2215 2222 -2229 2236 2237 0
-2215 2222 -2229 -2236 2237 0
-2215 -2222 2229 2236 2237 0
-2215 -2222 2229 -2236 2237 0
-2215 -2222 -2229 2236 2237 0
-2215 -2222 -2229 -2236 2237 0
2142 2204 2238 0
2142 -2204 -2238 0
-2142 2204 -2238 0
-2142 -2204 -2238 0
2238 2239 0
-2238 -2239 0
2239 2188 2240 0
2239 -2188 -2240 0
-2239 2188 -2240 0
-2239 -2188 -2240 0
2240 2241 0
-2240 -2241 0
2200 2242 0
-2200 -2242 0
1933 2242 2243 0
1933 -2242 -2243 0
-1933 2242 -2243 0
-1933 -2242 -2243 0
2241 2243 2244 0
2241 -2243 -2244 0
-2241 2243 -2244 0
-2241 -2243 -2244 0
366 2245 0
-366 -2245 0
2245 1933 2246 0
2245 -1933 -2246 0
-2245 1933 -2246 0
-2245 -1933 -2246 0
2043 2239 2247 0
2043 -2239 -2247 0
-2043 2239 -2247 0
-2043 -2239 -2247 0
2247 2248 0
-2247 -2248 0
2246 2248 2249 0
2246 -2248 -2249 0
-2246 2248 -2249 0
-2246 -2248 -2249 0
2244 2249 -2250 0
2244 -2249 2250 0
-2244 2249 2250 0
-2244 -2249 2250 0
1829 2251 0
-1829 -2251 0
2251 916 2252 0
2251 -916 -2252 0
-2251 916 -2252 0
-2251 -916 -2252 0
2251 2253 0
-2251 -2253 0
435 2253 2254 0
435 -2253 -2254 0
-435 2253 -2254 0
-435 -2253 -2254 0
2252 2254 -2255 0
2252 -2254 2255 0
-2252 2254 2255 0
-2252 -2254 2255 0
2255 2256 0
-2255 -2256 0
2239 2158 2257 0
2239 -2158 -2257 0
-2239 2158 -2257 0
-2239 -2158 -2257 0
2257 2258 0
-2257 -2258 0
2256 2258 2259 0
2256 -2258 -2259 0
-2256 2258 -2259 0
-2256 -2258 -2259 0
2253 431 2260 0
2253 -431 -2260 0
-2253 431 -2260 0
-2253 -431 -2260 0
912 2251 2261 0
912 -2251 -2261 0
-912 2251 -2261 0
-912 -2251 -2261 0
2260 2261 -2262 0
2260 -2261 2262 0
-2260 2261 2262 0
-2260 -2261 2262 0
2262 2263 0
-2262 -2263 0
2239 2194 2264 0
2239 -2194 -2264 0
-2239 2194 -2264 0
-2239 -2194 -2264 0
2264 2265 0
-2264 -2265 0
2263 2265 2266 0
2263 -2265 -2266 0
-2263 2265 -2266 0
-2263 -2265 -2266 0
488 2253 2267 0
488 -2253 -2267 0
-488 2253 -2267 0
-488 -2253 -2267 0
966 2251 2268 0
966 -2251 -2268 0
-966 2251 -2268 0
-966 -2251 -2268 0
2267 2268 -2269 0
2267 -2268 2269 0
-2267 2268 2269 0
-2267 -2268 2269 0
2269 2270 0
-2269 -2270 0
2165 2239 2271 0
2165 -2239 -2271 0
-2165 2239 -2271 0
-2165 -2239 -2271 0
2271 2272 0
-2271 -2272 0
2270 2272 2273 0
2270 -2272 -2273 0
-2270 2272 -2273 0
-2270 -2272 -2273 0
2251 920 2274 0
2251 -920 -2274 0
-2251 920 -2274 0
-2251 -920 -2274 0
2253 439 2275 0
2253 -439 -2275 0
-2253 439 -2275 0
-2253 -439 -2275 0
2274 2275 -2276 0
2274 -2275 2276 0
-2274 2275 2276 0
-2274 -2275 2276 0
2276 2277 0
-2276 -2277 0
2182 2239 2278 0
2182 -2239 -2278 0
-2182 2239 -2278 0
-2182 -2239 -2278 0
2278 2279 0
-2278 -2279 0
2277 2279 2280 0
2277 -2279 -2280 0
-2277 2279 -2280 0
-2277 -2279 -2280 0
2259 2266 2273 2280 -2281 0
2259 2266 2273 -2280 2281 0
2259 2266 -2273 2280 2281 0
2259 2266 -2273 -2280 2281 0
2259 -2266 2273 2280 2281 0
2259 -2266 2273 -2280 2281 0
2259 -2266 -2273 2280 2281 0
2259 -2266 -2273 -2280 2281 0
-2259 2266 2273 2280 2281 0
-2259 2266 2273 -2280 2281 0
-2259 2266 -2273 2280 2281 0
-2259 2266 -2273 -2280 2281 0
-2259 -2266 2273 2280 2281 0
-2259 -2266 2273 -2280 2281 0
-2259 -2266 -2273 2280 2281 0
-2259 -2266 -2273 -2280 2281 0
949 2251 2282 0
949 -2251 -2282 0
-949 2251 -2282 0
-949 -2251 -2282 0
468 2253 2283 0
468 -2253 -2283 0
-468 2253 -2283 0
-468 -2253 -2283 0
2282 2283 -2284 0
2282 -2283 2284 0
-2282 2283 2284 0
-2282 -2283 2284 0
2284 2285 0
-2284 -2285 0
2206 2188 2286 0
2206 -2188 -2286 0
-2206 2188 -2286 0
-2206 -2188 -2286 0
2286 2287 0
-2286 -2287 0
2285 2287 2288 0
2285 -2287 -2288 0
-2285 2287 -2288 0
-2285 -2287 -2288 0
2206 2043 2289 0
2206 -2043 -2289 0
-2206 2043 -2289 0
-2206 -2043 -2289 0
2289 2290 0
-2289 -2290 0
2253 460 2291 0
2253 -460 -2291 0
-2253 460 -2291 0
-2253 -460 -2291 0
2251 941 2292 0
2251 -941 -2292 0
-2251 941 -2292 0
-2251 -941 -2292 0
2291 2292 -2293 0
2291 -2292 2293 0
-2291 2292 2293 0
-2291 -2292 2293 0
2293 2294 0
-2293 -2294 0
2290 2294 2295 0
2290 -2294 -2295 0
-2290 2294 -2295 0
-2290 -2294 -2295 0
2239 2152 2296 0
2239 -2152 -2296 0
-2239 2152 -2296 0
-2239 -2152 -2296 0
2296 2297 0
-2296 -2297 0
492 2253 2298 0
492 -2253 -2298 0
-492 2253 -2298 0
-492 -2253 -2298 0
2251 970 2299 0
2251 -970 -2299 0
-2251 970 -2299 0
-2251 -970 -2299 0
2298 2299 -2300 0
2298 -2299 2300 0
-2298 2299 2300 0
-2298 -2299 2300 0
2300 2301 0
-2300 -2301 0
2297 2301 2302 0
2297 -2301 -2302 0
-2297 2301 -2302 0
-2297 -2301 -2302 0
2171 2239 2303 0
2171 -2239 -2303 0
-2171 2239 -2303 0
-2171 -2239 -2303 0
2303 2304 0
-2303 -2304 0
496 2253 2305 0
496 -2253 -2305 0
-496 2253 -2305 0
-496 -2253 -2305 0
974 2251 2306 0
974 -2251 -2306 0
-974 2251 -2306 0
-974 -2251 -2306 0
2305 2306 -2307 0
2305 -2306 2307 0
-2305 2306 2307 0
-2305 -2306 2307 0
2307 2308 0
-2307 -2308 0
2304 2308 2309 0
2304 -2308 -2309 0
-2304 2308 -2309 0
-2304 -2308 -2309 0
2288 2295 2302 2309 -2310 0
2288 2295 2302 -2309 2310 0
2288 2295 -2302 2309 2310 0
2288 2295 -2302 -2309 2310 0
2288 -2295 2302 2309 2310 0
2288 -2295 2302 -2309 2310 0
2288 -2295 -2302 2309 2310 0
2288 -2295 -2302 -2309 2310 0
-2288 2295 2302 2309 2310 0
-2288 2295 2302 -2309 2310 0
-2288 2295 -2302 2309 2310 0
-2288 2295 -2302 -2309 2310 0
-2288 -2295 2302 2309 2310 0
-2288 -2295 2302 -2309 2310 0
-2288 -2295 -2302 2309 2310 0
-2288 -2295 -2302 -2309 2310 0
2237 2250 2281 2310 2311 0
2237 2250 2281 -2310 -2311 0
2237 2250 -2281 2310 -2311 0
2237 2250 -2281 -2310 -2311 0
2237 -2250 2281 2310 -2311 0
2237 -2250 2281 -2310 -2311 0
2237 -2250 -2281 2310 -2311 0
2237 -2250 -2281 -2310 -2311 0
-2237 2250 2281 2310 -2311 0
-2237 2250 2281 -2310 -2311 0
-2237 2250 -2281 2310 -2311 0
-2237 2250 -2281 -2310 -2311 0
-2237 -2250 2281 2310 -2311 0
-2237 -2250 2281 -2310 -2311 0
-2237 -2250 -2281 2310 -2311 0
-2237 -2250 -2281 -2310 -2311 0
407 2312 0
-407 -2312 0
2311 2312 2313 0
2311 -2312 -2313 0
-2311 2312 -2313 0
-2311 -2312 -2313 0
237 2314 0
-237 -2314 0
2314 2315 0
-2314 -2315 0
311 2316 0
-311 -2316 0
2316 2317 0
-2316 -2317 0
648 2315 2317 2318 0
648 2315 -2317 -2318 0
648 -2315 2317 -2318 0
648 -2315 -2317 -2318 0
-648 2315 2317 -2318 0
-648 2315 -2317 -2318 0
-648 -2315 2317 -2318 0
-648 -2315 -2317 -2318 0
400 2319 0
-400 -2319 0
2319 2320 0
-2319 -2320 0
362 2321 0
-362 -2321 0
2321 2322 0
-2321 -2322 0
2322 2323 0
-2322 -2323 0
377 2324 0
-377 -2324 0
2324 2325 0
-2324 -2325 0
388 2326 0
-388 -2326 0
2326 2327 0
-2326 -2327 0
2325 2327 2328 0
2325 -2327 -2328 0
-2325 2327 -2328 0
-2325 -2327 -2328 0
2323 2328 -2329 0
2323 -2328 2329 0
-2323 2328 2329 0
-2323 -2328 2329 0
2329 2330 0
-2329 -2330 0
2330 2253 2331 0
2330 -2253 -2331 0
-2330 2253 -2331 0
-2330 -2253 -2331 0
2331 2332 0
-2331 -2332 0
406 2333 0
-406 -2333 0
2333 2334 0
-2333 -2334 0
2320 2332 2334 2335 0
2320 2332 -2334 -2335 0
2320 -2332 2334 -2335 0
2320 -2332 -2334 -2335 0
-2320 2332 2334 -2335 0
-2320 2332 -2334 -2335 0
-2320 -2332 2334 -2335 0
-2320 -2332 -2334 -2335 0
2329 2336 0
-2329 -2336 0
2336 2337 0
-2336 -2337 0
2337 2253 2338 0
2337 -2253 -2338 0
-2337 2253 -2338 0
-2337 -2253 -2338 0
2338 2339 0
-2338 -2339 0
391 2340 0
-391 -2340 0
2340 2341 0
-2340 -2341 0
2334 2339 2341 2342 0
2334 2339 -2341 -2342 0
2334 -2339 2341 -2342 0
2334 -2339 -2341 -2342 0
-2334 2339 2341 -2342 0
-2334 2339 -2341 -2342 0
-2334 -2339 2341 -2342 0
-2334 -2339 -2341 -2342 0
2318 2335 2342 -2343 0
2318 2335 -2342 2343 0
2318 -2335 2342 2343 0
2318 -2335 -2342 2343 0
-2318 2335 2342 2343 0
-2318 2335 -2342 2343 0
-2318 -2335 2342 2343 0
-2318 -2335 -2342 2343 0
2201 2313 2343 2344 0
2201 2313 -2343 -2344 0
2201 -2313 2343 -2344 0
2201 -2313 -2343 -2344 0
-2201 2313 2343 -2344 0
-2201 2313 -2343 -2344 0
-2201 -2313 2343 -2344 0
-2201 -2313 -2343 -2344 0
2344 2345 0
-2344 -2345 0
2037 2346 0
-2037 -2346 0
2346 2347 0
-2346 -2347 0
305 2348 0
-305 -2348 0
2348 2349 0
-2348 -2349 0
2349 2350 0
-2349 -2350 0
2040 2351 0
-2040 -2351 0
2351 2352 0
-2351 -2352 0
2347 2350 2352 2353 0
2347 2350 -2352 -2353 0
2347 -2350 2352 -2353 0
2347 -2350 -2352 -2353 0
-2347 2350 2352 -2353 0
-2347 2350 -2352 -2353 0
-2347 -2350 2352 -2353 0
-2347 -2350 -2352 -2353 0
305 2354 0
-305 -2354 0
2354 2355 0
-2354 -2355 0
2355 2356 0
-2355 -2356 0
2356 2357 0
-2356 -2357 0
2147 2358 0
-2147 -2358 0
2358 2359 0
-2358 -2359 0
2347 2357 2359 2360 0
2347 2357 -2359 -2360 0
2347 -2357 2359 -2360 0
2347 -2357 -2359 -2360 0
-2347 2357 2359 -2360 0
-2347 2357 -2359 -2360 0
-2347 -2357 2359 -2360 0
-2347 -2357 -2359 -2360 0
2149 2361 0
-2149 -2361 0
2361 2362 0
-2361 -2362 0
2362 2350 2359 2363 0
2362 2350 -2359 -2363 0
2362 -2350 2359 -2363 0
2362 -2350 -2359 -2363 0
-2362 2350 2359 -2363 0
-2362 2350 -2359 -2363 0
-2362 -2350 2359 -2363 0
-2362 -2350 -2359 -2363 0
2362 2357 2352 2364 0
2362 2357 -2352 -2364 0
2362 -2357 2352 -2364 0
2362 -2357 -2352 -2364 0
-2362 2357 2352 -2364 0
-2362 2357 -2352 -2364 0
-2362 -2357 2352 -2364 0
-2362 -2357 -2352 -2364 0
2353 2360 2363 2364 -2365 0
2353 2360 2363 -2364 2365 0
2353 2360 -2363 2364 2365 0
2353 2360 -2363 -2364 2365 0
2353 -2360 2363 2364 2365 0
2353 -2360 2363 -2364 2365 0
2353 -2360 -2363 2364 2365 0
2353 -2360 -2363 -2364 2365 0
-2353 2360 2363 2364 2365 0
-2353 2360 2363 -2364 2365 0
-2353 2360 -2363 2364 2365 0
-2353 2360 -2363 -2364 2365 0
-2353 -2360 2363 2364 2365 0
-2353 -2360 2363 -2364 2365 0
-2353 -2360 -2363 2364 2365 0
-2353 -2360 -2363 -2364 2365 0
2365 2366 0
-2365 -2366 0
2366 2367 0
-2366 -2367 0
2203 2368 0
-2203 -2368 0
2368 2369 0
-2368 -2369 0
2034 2370 0
-2034 -2370 0
2370 2371 0
-2370 -2371 0
2141 2372 0
-2141 -2372 0
2372 2373 0
-2372 -2373 0
2369 2371 2373 2374 0
2369 2371 -2373 -2374 0
2369 -2371 2373 -2374 0
2369 -2371 -2373 -2374 0
-2369 2371 2373 -2374 0
-2369 2371 -2373 -2374 0
-2369 -2371 2373 -2374 0
-2369 -2371 -2373 -2374 0
2145 2375 0
-2145 -2375 0
2375 2376 0
-2375 -2376 0
2044 2377 0
-2044 -2377 0
2377 2378 0
-2377 -2378 0
2369 2376 2378 2379 0
2369 2376 -2378 -2379 0
2369 -2376 2378 -2379 0
2369 -2376 -2378 -2379 0
-2369 2376 2378 -2379 0
-2369 2376 -2378 -2379 0
-2369 -2376 2378 -2379 0
-2369 -2376 -2378 -2379 0
2046 2380 0
-2046 -2380 0
2380 2381 0
-2380 -2381 0
2381 2371 2378 2382 0
2381 2371 -2378 -2382 0
2381 -2371 2378 -2382 0
2381 -2371 -2378 -2382 0
-2381 2371 2378 -2382 0
-2381 2371 -2378 -2382 0
-2381 -2371 2378 -2382 0
-2381 -2371 -2378 -2382 0
2381 2376 2373 2383 0
2381 2376 -2373 -2383 0
2381 -2376 2373 -2383 0
2381 -2376 -2373 -2383 0
-2381 2376 2373 -2383 0
-2381 2376 -2373 -2383 0
-2381 -2376 2373 -2383 0
-2381 -2376 -2373 -2383 0
2374 2379 2382 2383 -2384 0
2374 2379 2382 -2383 2384 0
2374 2379 -2382 2383 2384 0
2374 2379 -2382 -2383 2384 0
2374 -2379 2382 2383 2384 0
2374 -2379 2382 -2383 2384 0
2374 -2379 -2382 2383 2384 0
2374 -2379 -2382 -2383 2384 0
-2374 2379 2382 2383 2384 0
-2374 2379 2382 -2383 2384 0
-2374 2379 -2382 2383 2384 0
-2374 2379 -2382 -2383 2384 0
-2374 -2379 2382 2383 2384 0
-2374 -2379 2382 -2383 2384 0
-2374 -2379 -2382 2383 2384 0
-2374 -2379 -2382 -2383 2384 0
2384 2385 0
-2384 -2385 0
2385 2386 0
-2385 -2386 0
2367 2386 2387 0
2367 -2386 -2387 0
-2367 2386 -2387 0
-2367 -2386 -2387 0
2367 2387 2388 0
2367 -2387 -2388 0
-2367 2387 -2388 0
-2367 -2387 -2388 0
2387 2386 2389 0
2387 -2386 -2389 0
-2387 2386 -2389 0
-2387 -2386 -2389 0
2388 2389 -2390 0
2388 -2389 2390 0
-2388 2389 2390 0
-2388 -2389 2390 0
2390 2391 0
-2390 -2391 0
2345 2391 -2392 0
2345 -2391 2392 0
-2345 2391 2392 0
-2345 -2391 2392 0
2392 2393 0
-2392 -2393 0
2393 2394 0
-2393 -2394 0
2394 2395 0
-2394 -2395 0
2395 2396 0
-2395 -2396 0
336 2397 0
-336 -2397 0
2397 2398 0
-2397 -2398 0
2398 2399 0
-2398 -2399 0
340 2400 0
-340 -2400 0
2400 2401 0
-2400 -2401 0
2401 2402 0
-2401 -2402 0
314 2403 0
-314 -2403 0
2403 2404 0
-2403 -2404 0
2404 2405 0
-2404 -2405 0
2399 2402 2405 2406 0
2399 2402 -2405 -2406 0
2399 -2402 2405 -2406 0
2399 -2402 -2405 -2406 0
-2399 2402 2405 -2406 0
-2399 2402 -2405 -2406 0
-2399 -2402 2405 -2406 0
-2399 -2402 -2405 -2406 0
2406 2407 0
-2406 -2407 0
348 2408 0
-348 -2408 0
2408 2409 0
-2408 -2409 0
347 2410 0
-347 -2410 0
2410 2411 0
-2410 -2411 0
2409 2411 2412 0
2409 -2411 -2412 0
-2409 2411 -2412 0
-2409 -2411 -2412 0
2412 2413 0
-2412 -2413 0
2407 2413 2414 0
2407 -2413 -2414 0
-2407 2413 -2414 0
-2407 -2413 -2414 0
2414 2415 0
-2414 -2415 0
239 2416 0
-239 -2416 0
2416 2417 0
-2416 -2417 0
2417 2418 0
-2417 -2418 0
2418 2419 0
-2418 -2419 0
247 2420 0
-247 -2420 0
2420 2421 0
-2420 -2421 0
2421 2422 0
-2421 -2422 0
2422 2423 0
-2422 -2423 0
229 2424 0
-229 -2424 0
2424 2425 0
-2424 -2425 0
2425 2426 0
-2425 -2426 0
2426 2427 0
-2426 -2427 0
2419 2423 2427 2428 0
2419 2423 -2427 -2428 0
2419 -2423 2427 -2428 0
2419 -2423 -2427 -2428 0
-2419 2423 2427 -2428 0
-2419 2423 -2427 -2428 0
-2419 -2423 2427 -2428 0
-2419 -2423 -2427 -2428 0
247 2429 0
-247 -2429 0
2429 2430 0
-2429 -2430 0
2430 2431 0
-2430 -2431 0
229 2432 0
-229 -2432 0
2432 2433 0
-2432 -2433 0
2433 2434 0
-2433 -2434 0
2419 2431 2434 2435 0
2419 2431 -2434 -2435 0
2419 -2431 2434 -2435 0
2419 -2431 -2434 -2435 0
-2419 2431 2434 -2435 0
-2419 2431 -2434 -2435 0
-2419 -2431 2434 -2435 0
-2419 -2431 -2434 -2435 0
239 2436 0
-239 -2436 0
2436 2437 0
-2436 -2437 0
2437 2438 0
-2437 -2438 0
2438 2423 2434 2439 0
2438 2423 -2434 -2439 0
2438 -2423 2434 -2439 0
2438 -2423 -2434 -2439 0
-2438 2423 2434 -2439 0
-2438 2423 -2434 -2439 0
-2438 -2423 2434 -2439 0
-2438 -2423 -2434 -2439 0
2438 2431 2427 2440 0
2438 2431 -2427 -2440 0
2438 -2431 2427 -2440 0
2438 -2431 -2427 -2440 0
-2438 2431 2427 -2440 0
-2438 2431 -2427 -2440 0
-2438 -2431 2427 -2440 0
-2438 -2431 -2427 -2440 0
2428 2435 2439 2440 -2441 0
2428 2435 2439 -2440 2441 0
2428 2435 -2439 2440 2441 0
2428 2435 -2439 -2440 2441 0
2428 -2435 2439 2440 2441 0
2428 -2435 2439 -2440 2441 0
2428 -2435 -2439 2440 2441 0
2428 -2435 -2439 -2440 2441 0
-2428 2435 2439 2440 2441 0
-2428 2435 2439 -2440 2441 0
-2428 2435 -2439 2440 2441 0
-2428 2435 -2439 -2440 2441 0
-2428 -2435 2439 2440 2441 0
-2428 -2435 2439 -2440 2441 0
-2428 -2435 -2439 2440 2441 0
-2428 -2435 -2439 -2440 2441 0
2441 2442 0
-2441 -2442 0
2442 2443 0
-2442 -2443 0
2443 2444 0
-2443 -2444 0
246 2445 0
-246 -2445 0
256 2446 0
-256 -2446 0
2446 2447 0
-2446 -2447 0
2445 2447 2448 0
2445 -2447 -2448 0
-2445 2447 -2448 0
-2445 -2447 -2448 0
246 2449 0
-246 -2449 0
2449 2450 0
-2449 -2450 0
256 2451 0
-256 -2451 0
2450 2451 2452 0
2450 -2451 -2452 0
-2450 2451 -2452 0
-2450 -2451 -2452 0
2448 2452 -2453 0
2448 -2452 2453 0
-2448 2452 2453 0
-2448 -2452 2453 0
2453 2454 0
-2453 -2454 0
2454 2455 0
-2454 -2455 0
261 2456 0
-261 -2456 0
2456 2457 0
-2456 -2457 0
2457 2458 0
-2457 -2458 0
2458 2459 0
-2458 -2459 0
262 2460 0
-262 -2460 0
2460 2461 0
-2460 -2461 0
2461 2462 0
-2461 -2462 0
2462 2463 0
-2462 -2463 0
263 2464 0
-263 -2464 0
2464 2465 0
-2464 -2465 0
2465 2466 0
-2465 -2466 0
2466 2467 0
-2466 -2467 0
2459 2463 2467 2468 0
2459 2463 -2467 -2468 0
2459 -2463 2467 -2468 0
2459 -2463 -2467 -2468 0
-2459 2463 2467 -2468 0
-2459 2463 -2467 -2468 0
-2459 -2463 2467 -2468 0
-2459 -2463 -2467 -2468 0
262 2469 0
-262 -2469 0
2469 2470 0
-2469 -2470 0
2470 2471 0
-2470 -2471 0
263 2472 0
-263 -2472 0
2472 2473 0
-2472 -2473 0
2473 2474 0
-2473 -2474 0
2459 2471 2474 2475 0
2459 2471 -2474 -2475 0
2459 -2471 2474 -2475 0
2459 -2471 -2474 -2475 0
-2459 2471 2474 -2475 0
-2459 2471 -2474 -2475 0
-2459 -2471 2474 -2475 0
-2459 -2471 -2474 -2475 0
261 2476 0
-261 -2476 0
2476 2477 0
-2476 -2477 0
2477 2478 0
-2477 -2478 0
2478 2463 2474 2479 0
2478 2463 -2474 -2479 0
2478 -2463 2474 -2479 0
2478 -2463 -2474 -2479 0
-2478 2463 2474 -2479 0
-2478 2463 -2474 -2479 0
-2478 -2463 2474 -2479 0
-2478 -2463 -2474 -2479 0
2478 2471 2467 2480 0
2478 2471 -2467 -2480 0
2478 -2471 2467 -2480 0
2478 -2471 -2467 -2480 0
-2478 2471 2467 -2480 0
-2478 2471 -2467 -2480 0
-2478 -2471 2467 -2480 0
-2478 -2471 -2467 -2480 0
2468 2475 2479 2480 -2481 0
2468 2475 2479 -2480 2481 0
2468 2475 -2479 2480 2481 0
2468 2475 -2479 -2480 2481 0
2468 -2475 2479 2480 2481 0
2468 -2475 2479 -2480 2481 0
2468 -2475 -2479 2480 2481 0
2468 -2475 -2479 -2480 2481 0
-2468 2475 2479 2480 2481 0
-2468 2475 2479 -2480 2481 0
-2468 2475 -2479 2480 2481 0
-2468 2475 -2479 -2480 2481 0
-2468 -2475 2479 2480 2481 0
-2468 -2475 2479 -2480 2481 0
-2468 -2475 -2479 2480 2481 0
-2468 -2475 -2479 -2480 2481 0
2481 2482 0
-2481 -2482 0
2482 2483 0
-2482 -2483 0
2483 2484 0
-2483 -2484 0
2444 2455 2484 2485 0
2444 2455 -2484 -2485 0
2444 -2455 2484 -2485 0
2444 -2455 -2484 -2485 0
-2444 2455 2484 -2485 0
-2444 2455 -2484 -2485 0
-2444 -2455 2484 -2485 0
-2444 -2455 -2484 -2485 0
2453 2486 0
-2453 -2486 0
2486 2487 0
-2486 -2487 0
2487 2488 0
-2487 -2488 0
2481 2489 0
-2481 -2489 0
2489 2490 0
-2489 -2490 0
2444 2488 2490 2491 0
2444 2488 -2490 -2491 0
2444 -2488 2490 -2491 0
2444 -2488 -2490 -2491 0
-2444 2488 2490 -2491 0
-2444 2488 -2490 -2491 0
-2444 -2488 2490 -2491 0
-2444 -2488 -2490 -2491 0
2441 2492 0
-2441 -2492 0
2492 2493 0
-2492 -2493 0
2493 2455 2490 2494 0
2493 2455 -2490 -2494 0
2493 -2455 2490 -2494 0
2493 -2455 -2490 -2494 0
-2493 2455 2490 -2494 0
-2493 2455 -2490 -2494 0
-2493 -2455 2490 -2494 0
-2493 -2455 -2490 -2494 0
2493 2488 2484 2495 0
2493 2488 -2484 -2495 0
2493 -2488 2484 -2495 0
2493 -2488 -2484 -2495 0
-2493 2488 2484 -2495 0
-2493 2488 -2484 -2495 0
-2493 -2488 2484 -2495 0
-2493 -2488 -2484 -2495 0
2485 2491 2494 2495 -2496 0
2485 2491 2494 -2495 2496 0
2485 2491 -2494 2495 2496 0
2485 2491 -2494 -2495 2496 0
2485 -2491 2494 2495 2496 0
2485 -2491 2494 -2495 2496 0
2485 -2491 -2494 2495 2496 0
2485 -2491 -2494 -2495 2496 0
-2485 2491 2494 2495 2496 0
-2485 2491 2494 -2495 2496 0
-2485 2491 -2494 2495 2496 0
-2485 2491 -2494 -2495 2496 0
-2485 -2491 2494 2495 2496 0
-2485 -2491 2494 -2495 2496 0
-2485 -2491 -2494 2495 2496 0
-2485 -2491 -2494 -2495 2496 0
2018 2497 0
-2018 -2497 0
2496 2497 2498 0
2496 -2497 -2498 0
-2496 2497 -2498 0
-2496 -2497 -2498 0
2496 2499 0
-2496 -2499 0
2499 2018 2500 0
2499 -2018 -2500 0
-2499 2018 -2500 0
-2499 -2018 -2500 0
2498 2500 -2501 0
2498 -2500 2501 0
-2498 2500 2501 0
-2498 -2500 2501 0
2501 2502 0
-2501 -2502 0
2415 2502 2503 0
2415 -2502 -2503 0
-2415 2502 -2503 0
-2415 -2502 -2503 0
348 2504 0
-348 -2504 0
2504 2505 0
-2504 -2505 0
2505 2506 0
-2505 -2506 0
2411 2506 2507 0
2411 -2506 -2507 0
-2411 2506 -2507 0
-2411 -2506 -2507 0
2507 2508 0
-2507 -2508 0
336 2509 0
-336 -2509 0
2509 2510 0
-2509 -2510 0
314 2511 0
-314 -2511 0
2511 2512 0
-2511 -2512 0
340 2513 0
-340 -2513 0
2513 2514 0
-2513 -2514 0
2510 2512 2514 2515 0
2510 2512 -2514 -2515 0
2510 -2512 2514 -2515 0
2510 -2512 -2514 -2515 0
-2510 2512 2514 -2515 0
-2510 2512 -2514 -2515 0
-2510 -2512 2514 -2515 0
-2510 -2512 -2514 -2515 0
2515 2516 0
-2515 -2516 0
2508 2516 2517 0
2508 -2516 -2517 0
-2508 2516 -2517 0
-2508 -2516 -2517 0
2517 2518 0
-2517 -2518 0
2451 2519 0
-2451 -2519 0
2518 2519 2520 0
2518 -2519 -2520 0
-2518 2519 -2520 0
-2518 -2519 -2520 0
2405 2402 2510 2521 0
2405 2402 -2510 -2521 0
2405 -2402 2510 -2521 0
2405 -2402 -2510 -2521 0
-2405 2402 2510 -2521 0
-2405 2402 -2510 -2521 0
-2405 -2402 2510 -2521 0
-2405 -2402 -2510 -2521 0
2521 2522 0
-2521 -2522 0
2508 2522 2523 0
2508 -2522 -2523 0
-2508 2522 -2523 0
-2508 -2522 -2523 0
2523 2524 0
-2523 -2524 0
2472 2525 0
-2472 -2525 0
2524 2525 2526 0
2524 -2525 -2526 0
-2524 2525 -2526 0
-2524 -2525 -2526 0
2469 2527 0
-2469 -2527 0
2512 2402 2510 2528 0
2512 2402 -2510 -2528 0
2512 -2402 2510 -2528 0
2512 -2402 -2510 -2528 0
-2512 2402 2510 -2528 0
-2512 2402 -2510 -2528 0
-2512 -2402 2510 -2528 0
-2512 -2402 -2510 -2528 0
2528 2529 0
-2528 -2529 0
2508 2529 2530 0
2508 -2529 -2530 0
-2508 2529 -2530 0
-2508 -2529 -2530 0
2530 2531 0
-2530 -2531 0
2527 2531 2532 0
2527 -2531 -2532 0
-2527 2531 -2532 0
-2527 -2531 -2532 0
2445 2533 0
-2445 -2533 0
2510 2514 2405 2534 0
2510 2514 -2405 -2534 0
2510 -2514 2405 -2534 0
2510 -2514 -2405 -2534 0
-2510 2514 2405 -2534 0
-2510 2514 -2405 -2534 0
-2510 -2514 2405 -2534 0
-2510 -2514 -2405 -2534 0
2534 2535 0
-2534 -2535 0
2508 2535 2536 0
2508 -2535 -2536 0
-2508 2535 -2536 0
-2508 -2535 -2536 0
2536 2537 0
-2536 -2537 0
2533 2537 2538 0
2533 -2537 -2538 0
-2533 2537 -2538 0
-2533 -2537 -2538 0
2520 2526 2532 2538 -2539 0
2520 2526 2532 -2538 2539 0
2520 2526 -2532 2538 2539 0
2520 2526 -2532 -2538 2539 0
2520 -2526 2532 2538 2539 0
2520 -2526 2532 -2538 2539 0
2520 -2526 -2532 2538 2539 0
2520 -2526 -2532 -2538 2539 0
-2520 2526 2532 2538 2539 0
-2520 2526 2532 -2538 2539 0
-2520 2526 -2532 2538 2539 0
-2520 2526 -2532 -2538 2539 0
-2520 -2526 2532 2538 2539 0
-2520 -2526 2532 -2538 2539 0
-2520 -2526 -2532 2538 2539 0
-2520 -2526 -2532 -2538 2539 0
2508 2407 2540 0
2508 -2407 -2540 0
-2508 2407 -2540 0
-2508 -2407 -2540 0
2540 2541 0
-2540 -2541 0
2436 2542 0
-2436 -2542 0
2541 2542 2543 0
2541 -2542 -2543 0
-2541 2542 -2543 0
-2541 -2542 -2543 0
2476 2544 0
-2476 -2544 0
2399 2512 2514 2545 0
2399 2512 -2514 -2545 0
2399 -2512 2514 -2545 0
2399 -2512 -2514 -2545 0
-2399 2512 2514 -2545 0
-2399 2512 -2514 -2545 0
-2399 -2512 2514 -2545 0
-2399 -2512 -2514 -2545 0
2545 2546 0
-2545 -2546 0
2508 2546 2547 0
2508 -2546 -2547 0
-2508 2546 -2547 0
-2508 -2546 -2547 0
2547 2548 0
-2547 -2548 0
2544 2548 2549 0
2544 -2548 -2549 0
-2544 2548 -2549 0
-2544 -2548 -2549 0
2432 2550 0
-2432 -2550 0
2399 2402 2512 2551 0
2399 2402 -2512 -2551 0
2399 -2402 2512 -2551 0
2399 -2402 -2512 -2551 0
-2399 2402 2512 -2551 0
-2399 2402 -2512 -2551 0
-2399 -2402 2512 -2551 0
-2399 -2402 -2512 -2551 0
2551 2552 0
-2551 -2552 0
2508 2552 2553 0
2508 -2552 -2553 0
-2508 2552 -2553 0
-2508 -2552 -2553 0
2553 2554 0
-2553 -2554 0
2550 2554 2555 0
2550 -2554 -2555 0
-2550 2554 -2555 0
-2550 -2554 -2555 0
2429 2556 0
-2429 -2556 0
2399 2514 2405 2557 0
2399 2514 -2405 -2557 0
2399 -2514 2405 -2557 0
2399 -2514 -2405 -2557 0
-2399 2514 2405 -2557 0
-2399 2514 -2405 -2557 0
-2399 -2514 2405 -2557 0
-2399 -2514 -2405 -2557 0
2557 2558 0
-2557 -2558 0
2558 2508 2559 0
2558 -2508 -2559 0
-2558 2508 -2559 0
-2558 -2508 -2559 0
2559 2560 0
-2559 -2560 0
2556 2560 2561 0
2556 -2560 -2561 0
-2556 2560 -2561 0
-2556 -2560 -2561 0
2543 2549 2555 2561 -2562 0
2543 2549 2555 -2561 2562 0
2543 2549 -2555 2561 2562 0
2543 2549 -2555 -2561 2562 0
2543 -2549 2555 2561 2562 0
2543 -2549 2555 -2561 2562 0
2543 -2549 -2555 2561 2562 0
2543 -2549 -2555 -2561 2562 0
-2543 2549 2555 2561 2562 0
-2543 2549 2555 -2561 2562 0
-2543 2549 -2555 2561 2562 0
-2543 2549 -2555 -2561 2562 0
-2543 -2549 2555 2561 2562 0
-2543 -2549 2555 -2561 2562 0
-2543 -2549 -2555 2561 2562 0
-2543 -2549 -2555 -2561 2562 0
2503 2539 2562 2563 0
2503 2539 -2562 -2563 0
2503 -2539 2562 -2563 0
2503 -2539 -2562 -2563 0
-2503 2539 2562 -2563 0
-2503 2539 -2562 -2563 0
-2503 -2539 2562 -2563 0
-2503 -2539 -2562 -2563 0
2018 2011 2564 0
2018 -2011 -2564 0
-2018 2011 -2564 0
-2018 -2011 -2564 0
2563 2564 2565 0
2563 -2564 -2565 0
-2563 2564 -2565 0
-2563 -2564 -2565 0
347 2566 0
-347 -2566 0
2566 2567 0
-2566 -2567 0
2567 2568 0
-2567 -2568 0
2409 2568 2569 0
2409 -2568 -2569 0
-2409 2568 -2569 0
-2409 -2568 -2569 0
2569 2570 0
-2569 -2570 0
2570 2522 2571 0
2570 -2522 -2571 0
-2570 2522 -2571 0
-2570 -2522 -2571 0
2571 2572 0
-2571 -2572 0
1840 2573 0
-1840 -2573 0
2573 1393 2574 0
2573 -1393 -2574 0
-2573 1393 -2574 0
-2573 -1393 -2574 0
2573 2575 0
-2573 -2575 0
2575 1201 2576 0
2575 -1201 -2576 0
-2575 1201 -2576 0
-2575 -1201 -2576 0
2574 2576 -2577 0
2574 -2576 2577 0
-2574 2576 2577 0
-2574 -2576 2577 0
2577 2578 0
-2577 -2578 0
2572 2578 2579 0
2572 -2578 -2579 0
-2572 2578 -2579 0
-2572 -2578 -2579 0
2573 1397 2580 0
2573 -1397 -2580 0
-2573 1397 -2580 0
-2573 -1397 -2580 0
2575 1205 2581 0
2575 -1205 -2581 0
-2575 1205 -2581 0
-2575 -1205 -2581 0
2580 2581 -2582 0
2580 -2581 2582 0
-2580 2581 2582 0
-2580 -2581 2582 0
2582 2583 0
-2582 -2583 0
2546 2570 2584 0
2546 -2570 -2584 0
-2546 2570 -2584 0
-2546 -2570 -2584 0
2584 2585 0
-2584 -2585 0
2583 2585 2586 0
2583 -2585 -2586 0
-2583 2585 -2586 0
-2583 -2585 -2586 0
2529 2570 2587 0
2529 -2570 -2587 0
-2529 2570 -2587 0
-2529 -2570 -2587 0
2587 2588 0
-2587 -2588 0
2573 1442 2589 0
2573 -1442 -2589 0
-2573 1442 -2589 0
-2573 -1442 -2589 0
1254 2575 2590 0
1254 -2575 -2590 0
-1254 2575 -2590 0
-1254 -2575 -2590 0
2589 2590 -2591 0
2589 -2590 2591 0
-2589 2590 2591 0
-2589 -2590 2591 0
2591 2592 0
-2591 -2592 0
2588 2592 2593 0
2588 -2592 -2593 0
-2588 2592 -2593 0
-2588 -2592 -2593 0
2558 2570 2594 0
2558 -2570 -2594 0
-2558 2570 -2594 0
-2558 -2570 -2594 0
2594 2595 0
-2594 -2595 0
1389 2573 2596 0
1389 -2573 -2596 0
-1389 2573 -2596 0
-1389 -2573 -2596 0
1197 2575 2597 0
1197 -2575 -2597 0
-1197 2575 -2597 0
-1197 -2575 -2597 0
2596 2597 -2598 0
2596 -2597 2598 0
-2596 2597 2598 0
-2596 -2597 2598 0
2598 2599 0
-2598 -2599 0
2595 2599 2600 0
2595 -2599 -2600 0
-2595 2599 -2600 0
-2595 -2599 -2600 0
2579 2586 2593 2600 -2601 0
2579 2586 2593 -2600 2601 0
2579 2586 -2593 2600 2601 0
2579 2586 -2593 -2600 2601 0
2579 -2586 2593 2600 2601 0
2579 -2586 2593 -2600 2601 0
2579 -2586 -2593 2600 2601 0
2579 -2586 -2593 -2600 2601 0
-2579 2586 2593 2600 2601 0
-2579 2586 2593 -2600 2601 0
-2579 2586 -2593 2600 2601 0
-2579 2586 -2593 -2600 2601 0
-2579 -2586 2593 2600 2601 0
-2579 -2586 2593 -2600 2601 0
-2579 -2586 -2593 2600 2601 0
-2579 -2586 -2593 -2600 2601 0
2506 2568 2602 0
2506 -2568 -2602 0
-2506 2568 -2602 0
-2506 -2568 -2602 0
2602 2603 0
-2602 -2603 0
2603 2552 2604 0
2603 -2552 -2604 0
-2603 2552 -2604 0
-2603 -2552 -2604 0
2604 2605 0
-2604 -2605 0
2564 2606 0
-2564 -2606 0
1987 2606 2607 0
1987 -2606 -2607 0
-1987 2606 -2607 0
-1987 -2606 -2607 0
2605 2607 2608 0
2605 -2607 -2608 0
-2605 2607 -2608 0
-2605 -2607 -2608 0
366 2609 0
-366 -2609 0
2609 1987 2610 0
2609 -1987 -2610 0
-2609 1987 -2610 0
-2609 -1987 -2610 0
2407 2603 2611 0
2407 -2603 -2611 0
-2407 2603 -2611 0
-2407 -2603 -2611 0
2611 2612 0
-2611 -2612 0
2610 2612 2613 0
2610 -2612 -2613 0
-2610 2612 -2613 0
-2610 -2612 -2613 0
2608 2613 -2614 0
2608 -2613 2614 0
-2608 2613 2614 0
-2608 -2613 2614 0
1840 2615 0
-1840 -2615 0
2615 1009 2616 0
2615 -1009 -2616 0
-2615 1009 -2616 0
-2615 -1009 -2616 0
2615 2617 0
-2615 -2617 0
533 2617 2618 0
533 -2617 -2618 0
-533 2617 -2618 0
-533 -2617 -2618 0
2616 2618 -2619 0
2616 -2618 2619 0
-2616 2618 2619 0
-2616 -2618 2619 0
2619 2620 0
-2619 -2620 0
2603 2522 2621 0
2603 -2522 -2621 0
-2603 2522 -2621 0
-2603 -2522 -2621 0
2621 2622 0
-2621 -2622 0
2620 2622 2623 0
2620 -2622 -2623 0
-2620 2622 -2623 0
-2620 -2622 -2623 0
2617 529 2624 0
2617 -529 -2624 0
-2617 529 -2624 0
-2617 -529 -2624 0
1005 2615 2625 0
1005 -2615 -2625 0
-1005 2615 -2625 0
-1005 -2615 -2625 0
2624 2625 -2626 0
2624 -2625 2626 0
-2624 2625 2626 0
-2624 -2625 2626 0
2626 2627 0
-2626 -2627 0
2603 2558 2628 0
2603 -2558 -2628 0
-2603 2558 -2628 0
-2603 -2558 -2628 0
2628 2629 0
-2628 -2629 0
2627 2629 2630 0
2627 -2629 -2630 0
-2627 2629 -2630 0
-2627 -2629 -2630 0
586 2617 2631 0
586 -2617 -2631 0
-586 2617 -2631 0
-586 -2617 -2631 0
1059 2615 2632 0
1059 -2615 -2632 0
-1059 2615 -2632 0
-1059 -2615 -2632 0
2631 2632 -2633 0
2631 -2632 2633 0
-2631 2632 2633 0
-2631 -2632 2633 0
2633 2634 0
-2633 -2634 0
2529 2603 2635 0
2529 -2603 -2635 0
-2529 2603 -2635 0
-2529 -2603 -2635 0
2635 2636 0
-2635 -2636 0
2634 2636 2637 0
2634 -2636 -2637 0
-2634 2636 -2637 0
-2634 -2636 -2637 0
2615 1013 2638 0
2615 -1013 -2638 0
-2615 1013 -2638 0
-2615 -1013 -2638 0
2617 537 2639 0
2617 -537 -2639 0
-2617 537 -2639 0
-2617 -537 -2639 0
2638 2639 -2640 0
2638 -2639 2640 0
-2638 2639 2640 0
-2638 -2639 2640 0
2640 2641 0
-2640 -2641 0
2546 2603 2642 0
2546 -2603 -2642 0
-2546 2603 -2642 0
-2546 -2603 -2642 0
2642 2643 0
-2642 -2643 0
2641 2643 2644 0
2641 -2643 -2644 0
-2641 2643 -2644 0
-2641 -2643 -2644 0
2623 2630 2637 2644 -2645 0
2623 2630 2637 -2644 2645 0
2623 2630 -2637 2644 2645 0
2623 2630 -2637 -2644 2645 0
2623 -2630 2637 2644 2645 0
2623 -2630 2637 -2644 2645 0
2623 -2630 -2637 2644 2645 0
2623 -2630 -2637 -2644 2645 0
-2623 2630 2637 2644 2645 0
-2623 2630 2637 -2644 2645 0
-2623 2630 -2637 2644 2645 0
-2623 2630 -2637 -2644 2645 0
-2623 -2630 2637 2644 2645 0
-2623 -2630 2637 -2644 2645 0
-2623 -2630 -2637 2644 2645 0
-2623 -2630 -2637 -2644 2645 0
1042 2615 2646 0
1042 -2615 -2646 0
-1042 2615 -2646 0
-1042 -2615 -2646 0
566 2617 2647 0
566 -2617 -2647 0
-566 2617 -2647 0
-566 -2617 -2647 0
2646 2647 -2648 0
2646 -2647 2648 0
-2646 2647 2648 0
-2646 -2647 2648 0
2648 2649 0
-2648 -2649 0
2570 2552 2650 0
2570 -2552 -2650 0
-2570 2552 -2650 0
-2570 -2552 -2650 0
2650 2651 0
-2650 -2651 0
2649 2651 2652 0
2649 -2651 -2652 0
-2649 2651 -2652 0
-2649 -2651 -2652 0
2570 2407 2653 0
2570 -2407 -2653 0
-2570 2407 -2653 0
-2570 -2407 -2653 0
2653 2654 0
-2653 -2654 0
2617 558 2655 0
2617 -558 -2655 0
-2617 558 -2655 0
-2617 -558 -2655 0
2615 1034 2656 0
2615 -1034 -2656 0
-2615 1034 -2656 0
-2615 -1034 -2656 0
2655 2656 -2657 0
2655 -2656 2657 0
-2655 2656 2657 0
-2655 -2656 2657 0
2657 2658 0
-2657 -2658 0
2654 2658 2659 0
2654 -2658 -2659 0
-2654 2658 -2659 0
-2654 -2658 -2659 0
2603 2516 2660 0
2603 -2516 -2660 0
-2603 2516 -2660 0
-2603 -2516 -2660 0
2660 2661 0
-2660 -2661 0
590 2617 2662 0
590 -2617 -2662 0
-590 2617 -2662 0
-590 -2617 -2662 0
2615 1063 2663 0
2615 -1063 -2663 0
-2615 1063 -2663 0
-2615 -1063 -2663 0
2662 2663 -2664 0
2662 -2663 2664 0
-2662 2663 2664 0
-2662 -2663 2664 0
2664 2665 0
-2664 -2665 0
2661 2665 2666 0
2661 -2665 -2666 0
-2661 2665 -2666 0
-2661 -2665 -2666 0
2535 2603 2667 0
2535 -2603 -2667 0
-2535 2603 -2667 0
-2535 -2603 -2667 0
2667 2668 0
-2667 -2668 0
594 2617 2669 0
594 -2617 -2669 0
-594 2617 -2669 0
-594 -2617 -2669 0
1067 2615 2670 0
1067 -2615 -2670 0
-1067 2615 -2670 0
-1067 -2615 -2670 0
2669 2670 -2671 0
2669 -2670 2671 0
-2669 2670 2671 0
-2669 -2670 2671 0
2671 2672 0
-2671 -2672 0
2668 2672 2673 0
2668 -2672 -2673 0
-2668 2672 -2673 0
-2668 -2672 -2673 0
2652 2659 2666 2673 -2674 0
2652 2659 2666 -2673 2674 0
2652 2659 -2666 2673 2674 0
2652 2659 -2666 -2673 2674 0
2652 -2659 2666 2673 2674 0
2652 -2659 2666 -2673 2674 0
2652 -2659 -2666 2673 2674 0
2652 -2659 -2666 -2673 2674 0
-2652 2659 2666 2673 2674 0
-2652 2659 2666 -2673 2674 0
-2652 2659 -2666 2673 2674 0
-2652 2659 -2666 -2673 2674 0
-2652 -2659 2666 2673 2674 0
-2652 -2659 2666 -2673 2674 0
-2652 -2659 -2666 2673 2674 0
-2652 -2659 -2666 -2673 2674 0
2601 2614 2645 2674 2675 0
2601 2614 2645 -2674 -2675 0
2601 2614 -2645 2674 -2675 0
2601 2614 -2645 -2674 -2675 0
2601 -2614 2645 2674 -2675 0
2601 -2614 2645 -2674 -2675 0
2601 -2614 -2645 2674 -2675 0
2601 -2614 -2645 -2674 -2675 0
-2601 2614 2645 2674 -2675 0
-2601 2614 2645 -2674 -2675 0
-2601 2614 -2645 2674 -2675 0
-2601 2614 -2645 -2674 -2675 0
-2601 -2614 2645 2674 -2675 0
-2601 -2614 2645 -2674 -2675 0
-2601 -2614 -2645 2674 -2675 0
-2601 -2614 -2645 -2674 -2675 0
407 2676 0
-407 -2676 0
2675 2676 2677 0
2675 -2676 -2677 0
-2675 2676 -2677 0
-2675 -2676 -2677 0
237 2678 0
-237 -2678 0
2678 2679 0
-2678 -2679 0
311 2680 0
-311 -2680 0
2680 2681 0
-2680 -2681 0
720 2679 2681 2682 0
720 2679 -2681 -2682 0
720 -2679 2681 -2682 0
720 -2679 -2681 -2682 0
-720 2679 2681 -2682 0
-720 2679 -2681 -2682 0
-720 -2679 2681 -2682 0
-720 -2679 -2681 -2682 0
400 2683 0
-400 -2683 0
2683 2684 0
-2683 -2684 0
362 2685 0
-362 -2685 0
2685 2686 0
-2685 -2686 0
2686 2687 0
-2686 -2687 0
377 2688 0
-377 -2688 0
2688 2689 0
-2688 -2689 0
388 2690 0
-388 -2690 0
2690 2691 0
-2690 -2691 0
2689 2691 2692 0
2689 -2691 -2692 0
-2689 2691 -2692 0
-2689 -2691 -2692 0
2687 2692 -2693 0
2687 -2692 2693 0
-2687 2692 2693 0
-2687 -2692 2693 0
2693 2694 0
-2693 -2694 0
2694 2617 2695 0
2694 -2617 -2695 0
-2694 2617 -2695 0
-2694 -2617 -2695 0
2695 2696 0
-2695 -2696 0
406 2697 0
-406 -2697 0
2697 2698 0
-2697 -2698 0
2684 2696 2698 2699 0
2684 2696 -2698 -2699 0
2684 -2696 2698 -2699 0
2684 -2696 -2698 -2699 0
-2684 2696 2698 -2699 0
-2684 2696 -2698 -2699 0
-2684 -2696 2698 -2699 0
-2684 -2696 -2698 -2699 0
2693 2700 0
-2693 -2700 0
2700 2701 0
-2700 -2701 0
2701 2617 2702 0
2701 -2617 -2702 0
-2701 2617 -2702 0
-2701 -2617 -2702 0
2702 2703 0
-2702 -2703 0
391 2704 0
-391 -2704 0
2704 2705 0
-2704 -2705 0
2698 2703 2705 2706 0
2698 2703 -2705 -2706 0
2698 -2703 2705 -2706 0
2698 -2703 -2705 -2706 0
-2698 2703 2705 -2706 0
-2698 2703 -2705 -2706 0
-2698 -2703 2705 -2706 0
-2698 -2703 -2705 -2706 0
2682 2699 2706 -2707 0
2682 2699 -2706 2707 0
2682 -2699 2706 2707 0
2682 -2699 -2706 2707 0
-2682 2699 2706 2707 0
-2682 2699 -2706 2707 0
-2682 -2699 2706 2707 0
-2682 -2699 -2706 2707 0
2565 2677 2707 2708 0
2565 2677 -2707 -2708 0
2565 -2677 2707 -2708 0
2565 -2677 -2707 -2708 0
-2565 2677 2707 -2708 0
-2565 2677 -2707 -2708 0
-2565 -2677 2707 -2708 0
-2565 -2677 -2707 -2708 0
2708 2709 0
-2708 -2709 0
2401 2710 0
-2401 -2710 0
2710 2711 0
-2710 -2711 0
305 2712 0
-305 -2712 0
2712 2713 0
-2712 -2713 0
2713 2714 0
-2713 -2714 0
2404 2715 0
-2404 -2715 0
2715 2716 0
-2715 -2716 0
2711 2714 2716 2717 0
2711 2714 -2716 -2717 0
2711 -2714 2716 -2717 0
2711 -2714 -2716 -2717 0
-2711 2714 2716 -2717 0
-2711 2714 -2716 -2717 0
-2711 -2714 2716 -2717 0
-2711 -2714 -2716 -2717 0
305 2718 0
-305 -2718 0
2718 2719 0
-2718 -2719 0
2719 2720 0
-2719 -2720 0
2720 2721 0
-2720 -2721 0
2511 2722 0
-2511 -2722 0
2722 2723 0
-2722 -2723 0
2711 2721 2723 2724 0
2711 2721 -2723 -2724 0
2711 -2721 2723 -2724 0
2711 -2721 -2723 -2724 0
-2711 2721 2723 -2724 0
-2711 2721 -2723 -2724 0
-2711 -2721 2723 -2724 0
-2711 -2721 -2723 -2724 0
2513 2725 0
-2513 -2725 0
2725 2726 0
-2725 -2726 0
2726 2714 2723 2727 0
2726 2714 -2723 -2727 0
2726 -2714 2723 -2727 0
2726 -2714 -2723 -2727 0
-2726 2714 2723 -2727 0
-2726 2714 -2723 -2727 0
-2726 -2714 2723 -2727 0
-2726 -2714 -2723 -2727 0
2726 2721 2716 2728 0
2726 2721 -2716 -2728 0
2726 -2721 2716 -2728 0
2726 -2721 -2716 -2728 0
-2726 2721 2716 -2728 0
-2726 2721 -2716 -2728 0
-2726 -2721 2716 -2728 0
-2726 -2721 -2716 -2728 0
2717 2724 2727 2728 -2729 0
2717 2724 2727 -2728 2729 0
2717 2724 -2727 2728 2729 0
2717 2724 -2727 -2728 2729 0
2717 -2724 2727 2728 2729 0
2717 -2724 2727 -2728 2729 0
2717 -2724 -2727 2728 2729 0
2717 -2724 -2727 -2728 2729 0
-2717 2724 2727 2728 2729 0
-2717 2724 2727 -2728 2729 0
-2717 2724 -2727 2728 2729 0
-2717 2724 -2727 -2728 2729 0
-2717 -2724 2727 2728 2729 0
-2717 -2724 2727 -2728 2729 0
-2717 -2724 -2727 2728 2729 0
-2717 -2724 -2727 -2728 2729 0
2729 2730 0
-2729 -2730 0
2730 2731 0
-2730 -2731 0
2567 2732 0
-2567 -2732 0
2732 2733 0
-2732 -2733 0
2398 2734 0
-2398 -2734 0
2734 2735 0
-2734 -2735 0
2505 2736 0
-2505 -2736 0
2736 2737 0
-2736 -2737 0
2733 2735 2737 2738 0
2733 2735 -2737 -2738 0
2733 -2735 2737 -2738 0
2733 -2735 -2737 -2738 0
-2733 2735 2737 -2738 0
-2733 2735 -2737 -2738 0
-2733 -2735 2737 -2738 0
-2733 -2735 -2737 -2738 0
2509 2739 0
-2509 -2739 0
2739 2740 0
-2739 -2740 0
2408 2741 0
-2408 -2741 0
2741 2742 0
-2741 -2742 0
2733 2740 2742 2743 0
2733 2740 -2742 -2743 0
2733 -2740 2742 -2743 0
2733 -2740 -2742 -2743 0
-2733 2740 2742 -2743 0
-2733 2740 -2742 -2743 0
-2733 -2740 2742 -2743 0
-2733 -2740 -2742 -2743 0
2410 2744 0
-2410 -2744 0
2744 2745 0
-2744 -2745 0
2745 2735 2742 2746 0
2745 2735 -2742 -2746 0
2745 -2735 2742 -2746 0
2745 -2735 -2742 -2746 0
-2745 2735 2742 -2746 0
-2745 2735 -2742 -2746 0
-2745 -2735 2742 -2746 0
-2745 -2735 -2742 -2746 0
2745 2740 2737 2747 0
2745 2740 -2737 -2747 0
2745 -2740 2737 -2747 0
2745 -2740 -2737 -2747 0
-2745 2740 2737 -2747 0
-2745 2740 -2737 -2747 0
-2745 -2740 2737 -2747 0
-2745 -2740 -2737 -2747 0
2738 2743 2746 2747 -2748 0
2738 2743 2746 -2747 2748 0
2738 2743 -2746 2747 2748 0
2738 2743 -2746 -2747 2748 0
2738 -2743 2746 2747 2748 0
2738 -2743 2746 -2747 2748 0
2738 -2743 -2746 2747 2748 0
2738 -2743 -2746 -2747 2748 0
-2738 2743 2746 2747 2748 0
-2738 2743 2746 -2747 2748 0
-2738 2743 -2746 2747 2748 0
-2738 2743 -2746 -2747 2748 0
-2738 -2743 2746 2747 2748 0
-2738 -2743 2746 -2747 2748 0
-2738 -2743 -2746 2747 2748 0
-2738 -2743 -2746 -2747 2748 0
2748 2749 0
-2748 -2749 0
2749 2750 0
-2749 -2750 0
2731 2750 2751 0
2731 -2750 -2751 0
-2731 2750 -2751 0
-2731 -2750 -2751 0
2731 2751 2752 0
2731 -2751 -2752 0
-2731 2751 -2752 0
-2731 -2751 -2752 0
2751 2750 2753 0
2751 -2750 -2753 0
-2751 2750 -2753 0
-2751 -2750 -2753 0
2752 2753 -2754 0
2752 -2753 2754 0
-2752 2753 2754 0
-2752 -2753 2754 0
2754 2755 0
-2754 -2755 0
2709 2755 -2756 0
2709 -2755 2756 0
-2709 2755 2756 0
-2709 -2755 2756 0
2756 2757 0
-2756 -2757 0
2757 2758 0
-2757 -2758 0
2758 2759 0
-2758 -2759 0
2759 2760 0
-2759 -2760 0
2396 2760 -2761 0
2396 -2760 2761 0
-2396 2760 2761 0
-2396 -2760 -2761 0
2344 2762 0
-2344 -2762 0
309 2763 0
-309 -2763 0
2763 2764 0
-2763 -2764 0
2764 2765 0
-2764 -2765 0
2765 2766 0
-2765 -2766 0
308 2767 0
-308 -2767 0
2767 2768 0
-2767 -2768 0
2768 2769 0
-2768 -2769 0
2769 2770 0
-2769 -2770 0
2770 2771 0
-2770 -2771 0
324 2772 0
-324 -2772 0
2772 2773 0
-2772 -2773 0
2773 2774 0
-2773 -2774 0
2774 2775 0
-2774 -2775 0
2766 2771 2775 2776 0
2766 2771 -2775 -2776 0
2766 -2771 2775 -2776 0
2766 -2771 -2775 -2776 0
-2766 2771 2775 -2776 0
-2766 2771 -2775 -2776 0
-2766 -2771 2775 -2776 0
-2766 -2771 -2775 -2776 0
308 2777 0
-308 -2777 0
2777 2778 0
-2777 -2778 0
2778 2779 0
-2778 -2779 0
2779 2780 0
-2779 -2780 0
324 2781 0
-324 -2781 0
2781 2782 0
-2781 -2782 0
2782 2783 0
-2782 -2783 0
2783 2784 0
-2783 -2784 0
2784 2785 0
-2784 -2785 0
2766 2780 2785 2786 0
2766 2780 -2785 -2786 0
2766 -2780 2785 -2786 0
2766 -2780 -2785 -2786 0
-2766 2780 2785 -2786 0
-2766 2780 -2785 -2786 0
-2766 -2780 2785 -2786 0
-2766 -2780 -2785 -2786 0
309 2787 0
-309 -2787 0
2787 2788 0
-2787 -2788 0
2788 2789 0
-2788 -2789 0
2789 2790 0
-2789 -2790 0
2790 2791 0
-2790 -2791 0
2791 2771 2785 2792 0
2791 2771 -2785 -2792 0
2791 -2771 2785 -2792 0
2791 -2771 -2785 -2792 0
-2791 2771 2785 -2792 0
-2791 2771 -2785 -2792 0
-2791 -2771 2785 -2792 0
-2791 -2771 -2785 -2792 0
2791 2780 2775 2793 0
2791 2780 -2775 -2793 0
2791 -2780 2775 -2793 0
2791 -2780 -2775 -2793 0
-2791 2780 2775 -2793 0
-2791 2780 -2775 -2793 0
-2791 -2780 2775 -2793 0
-2791 -2780 -2775 -2793 0
2776 2786 2792 2793 -2794 0
2776 2786 2792 -2793 2794 0
2776 2786 -2792 2793 2794 0
2776 2786 -2792 -2793 2794 0
2776 -2786 2792 2793 2794 0
2776 -2786 2792 -2793 2794 0
2776 -2786 -2792 2793 2794 0
2776 -2786 -2792 -2793 2794 0
-2776 2786 2792 2793 2794 0
-2776 2786 2792 -2793 2794 0
-2776 2786 -2792 2793 2794 0
-2776 2786 -2792 -2793 2794 0
-2776 -2786 2792 2793 2794 0
-2776 -2786 2792 -2793 2794 0
-2776 -2786 -2792 2793 2794 0
-2776 -2786 -2792 -2793 2794 0
2794 2795 0
-2794 -2795 0
2795 2796 0
-2795 -2796 0
307 2797 0
-307 -2797 0
2797 2798 0
-2797 -2798 0
2798 2799 0
-2798 -2799 0
2799 2800 0
-2799 -2800 0
306 2801 0
-306 -2801 0
2801 2802 0
-2801 -2802 0
2802 2803 0
-2802 -2803 0
2803 2804 0
-2803 -2804 0
315 2805 0
-315 -2805 0
2805 2806 0
-2805 -2806 0
2806 2807 0
-2806 -2807 0
2807 2808 0
-2807 -2808 0
2800 2804 2808 2809 0
2800 2804 -2808 -2809 0
2800 -2804 2808 -2809 0
2800 -2804 -2808 -2809 0
-2800 2804 2808 -2809 0
-2800 2804 -2808 -2809 0
-2800 -2804 2808 -2809 0
-2800 -2804 -2808 -2809 0
306 2810 0
-306 -2810 0
2810 2811 0
-2810 -2811 0
2811 2812 0
-2811 -2812 0
315 2813 0
-315 -2813 0
2813 2814 0
-2813 -2814 0
2814 2815 0
-2814 -2815 0
2800 2812 2815 2816 0
2800 2812 -2815 -2816 0
2800 -2812 2815 -2816 0
2800 -2812 -2815 -2816 0
-2800 2812 2815 -2816 0
-2800 2812 -2815 -2816 0
-2800 -2812 2815 -2816 0
-2800 -2812 -2815 -2816 0
307 2817 0
-307 -2817 0
2817 2818 0
-2817 -2818 0
2818 2819 0
-2818 -2819 0
2819 2804 2815 2820 0
2819 2804 -2815 -2820 0
2819 -2804 2815 -2820 0
2819 -2804 -2815 -2820 0
-2819 2804 2815 -2820 0
-2819 2804 -2815 -2820 0
-2819 -2804 2815 -2820 0
-2819 -2804 -2815 -2820 0
2819 2812 2808 2821 0
2819 2812 -2808 -2821 0
2819 -2812 2808 -2821 0
2819 -2812 -2808 -2821 0
-2819 2812 2808 -2821 0
-2819 2812 -2808 -2821 0
-2819 -2812 2808 -2821 0
-2819 -2812 -2808 -2821 0
2809 2816 2820 2821 -2822 0
2809 2816 2820 -2821 2822 0
2809 2816 -2820 2821 2822 0
2809 2816 -2820 -2821 2822 0
2809 -2816 2820 2821 2822 0
2809 -2816 2820 -2821 2822 0
2809 -2816 -2820 2821 2822 0
2809 -2816 -2820 -2821 2822 0
-2809 2816 2820 2821 2822 0
-2809 2816 2820 -2821 2822 0
-2809 2816 -2820 2821 2822 0
-2809 2816 -2820 -2821 2822 0
-2809 -2816 2820 2821 2822 0
-2809 -2816 2820 -2821 2822 0
-2809 -2816 -2820 2821 2822 0
-2809 -2816 -2820 -2821 2822 0
2822 2823 0
-2822 -2823 0
2823 2824 0
-2823 -2824 0
2796 2824 2825 0
2796 -2824 -2825 0
-2796 2824 -2825 0
-2796 -2824 -2825 0
2796 2825 2826 0
2796 -2825 -2826 0
-2796 2825 -2826 0
-2796 -2825 -2826 0
2825 2824 2827 0
2825 -2824 -2827 0
-2825 2824 -2827 0
-2825 -2824 -2827 0
2826 2827 -2828 0
2826 -2827 2828 0
-2826 2827 2828 0
-2826 -2827 2828 0
2828 2829 0
-2828 -2829 0
2762 2829 -2830 0
2762 -2829 2830 0
-2762 2829 2830 0
-2762 -2829 2830 0
2830 2831 0
-2830 -2831 0
2831 2832 0
-2831 -2832 0
2832 2833 0
-2832 -2833 0
2833 2834 0
-2833 -2834 0
2708 2835 0
-2708 -2835 0
309 2836 0
-309 -2836 0
2836 2837 0
-2836 -2837 0
2837 2838 0
-2837 -2838 0
2838 2839 0
-2838 -2839 0
308 2840 0
-308 -2840 0
2840 2841 0
-2840 -2841 0
2841 2842 0
-2841 -2842 0
2842 2843 0
-2842 -2843 0
2843 2844 0
-2843 -2844 0
324 2845 0
-324 -2845 0
2845 2846 0
-2845 -2846 0
2846 2847 0
-2846 -2847 0
2847 2848 0
-2847 -2848 0
2839 2844 2848 2849 0
2839 2844 -2848 -2849 0
2839 -2844 2848 -2849 0
2839 -2844 -2848 -2849 0
-2839 2844 2848 -2849 0
-2839 2844 -2848 -2849 0
-2839 -2844 2848 -2849 0
-2839 -2844 -2848 -2849 0
308 2850 0
-308 -2850 0
2850 2851 0
-2850 -2851 0
2851 2852 0
-2851 -2852 0
2852 2853 0
-2852 -2853 0
324 2854 0
-324 -2854 0
2854 2855 0
-2854 -2855 0
2855 2856 0
-2855 -2856 0
2856 2857 0
-2856 -2857 0
2857 2858 0
-2857 -2858 0
2839 2853 2858 2859 0
2839 2853 -2858 -2859 0
2839 -2853 2858 -2859 0
2839 -2853 -2858 -2859 0
-2839 2853 2858 -2859 0
-2839 2853 -2858 -2859 0
-2839 -2853 2858 -2859 0
-2839 -2853 -2858 -2859 0
309 2860 0
-309 -2860 0
2860 2861 0
-2860 -2861 0
2861 2862 0
-2861 -2862 0
2862 2863 0
-2862 -2863 0
2863 2864 0
-2863 -2864 0
2864 2844 2858 2865 0
2864 2844 -2858 -2865 0
2864 -2844 2858 -2865 0
2864 -2844 -2858 -2865 0
-2864 2844 2858 -2865 0
-2864 2844 -2858 -2865 0
-2864 -2844 2858 -2865 0
-2864 -2844 -2858 -2865 0
2864 2853 2848 2866 0
2864 2853 -2848 -2866 0
2864 -2853 2848 -2866 0
2864 -2853 -2848 -2866 0
-2864 2853 2848 -2866 0
-2864 2853 -2848 -2866 0
-2864 -2853 2848 -2866 0
-2864 -2853 -2848 -2866 0
2849 2859 2865 2866 -2867 0
2849 2859 2865 -2866 2867 0
2849 2859 -2865 2866 2867 0
2849 2859 -2865 -2866 2867 0
2849 -2859 2865 2866 2867 0
2849 -2859 2865 -2866 2867 0
2849 -2859 -2865 2866 2867 0
2849 -2859 -2865 -2866 2867 0
-2849 2859 2865 2866 2867 0
-2849 2859 2865 -2866 2867 0
-2849 2859 -2865 2866 2867 0
-2849 2859 -2865 -2866 2867 0
-2849 -2859 2865 2866 2867 0
-2849 -2859 2865 -2866 2867 0
-2849 -2859 -2865 2866 2867 0
-2849 -2859 -2865 -2866 2867 0
2867 2868 0
-2867 -2868 0
2868 2869 0
-2868 -2869 0
307 2870 0
-307 -2870 0
2870 2871 0
-2870 -2871 0
2871 2872 0
-2871 -2872 0
2872 2873 0
-2872 -2873 0
306 2874 0
-306 -2874 0
2874 2875 0
-2874 -2875 0
2875 2876 0
-2875 -2876 0
2876 2877 0
-2876 -2877 0
315 2878 0
-315 -2878 0
2878 2879 0
-2878 -2879 0
2879 2880 0
-2879 -2880 0
2880 2881 0
-2880 -2881 0
2873 2877 2881 2882 0
2873 2877 -2881 -2882 0
2873 -2877 2881 -2882 0
2873 -2877 -2881 -2882 0
-2873 2877 2881 -2882 0
-2873 2877 -2881 -2882 0
-2873 -2877 2881 -2882 0
-2873 -2877 -2881 -2882 0
306 2883 0
-306 -2883 0
2883 2884 0
-2883 -2884 0
2884 2885 0
-2884 -2885 0
315 2886 0
-315 -2886 0
2886 2887 0
-2886 -2887 0
2887 2888 0
-2887 -2888 0
2873 2885 2888 2889 0
2873 2885 -2888 -2889 0
2873 -2885 2888 -2889 0
2873 -2885 -2888 -2889 0
-2873 2885 2888 -2889 0
-2873 2885 -2888 -2889 0
-2873 -2885 2888 -2889 0
-2873 -2885 -2888 -2889 0
307 2890 0
-307 -2890 0
2890 2891 0
-2890 -2891 0
2891 2892 0
-2891 -2892 0
2892 2877 2888 2893 0
2892 2877 -2888 -2893 0
2892 -2877 2888 -2893 0
2892 -2877 -2888 -2893 0
-2892 2877 2888 -2893 0
-2892 2877 -2888 -2893 0
-2892 -2877 2888 -2893 0
-2892 -2877 -2888 -2893 0
2892 2885 2881 2894 0
2892 2885 -2881 -2894 0
2892 -2885 2881 -2894 0
2892 -2885 -2881 -2894 0
-2892 2885 2881 -2894 0
-2892 2885 -2881 -2894 0
-2892 -2885 2881 -2894 0
-2892 -2885 -2881 -2894 0
2882 2889 2893 2894 -2895 0
2882 2889 2893 -2894 2895 0
2882 2889 -2893 2894 2895 0
2882 2889 -2893 -2894 2895 0
2882 -2889 2893 2894 2895 0
2882 -2889 2893 -2894 2895 0
2882 -2889 -2893 2894 2895 0
2882 -2889 -2893 -2894 2895 0
-2882 2889 2893 2894 2895 0
-2882 2889 2893 -2894 2895 0
-2882 2889 -2893 2894 2895 0
-2882 2889 -2893 -2894 2895 0
-2882 -2889 2893 2894 2895 0
-2882 -2889 2893 -2894 2895 0
-2882 -2889 -2893 2894 2895 0
-2882 -2889 -2893 -2894 2895 0
2895 2896 0
-2895 -2896 0
2896 2897 0
-2896 -2897 0
2869 2897 2898 0
2869 -2897 -2898 0
-2869 2897 -2898 0
-2869 -2897 -2898 0
2869 2898 2899 0
2869 -2898 -2899 0
-2869 2898 -2899 0
-2869 -2898 -2899 0
2898 2897 2900 0
2898 -2897 -2900 0
-2898 2897 -2900 0
-2898 -2897 -2900 0
2899 2900 -2901 0
2899 -2900 2901 0
-2899 2900 2901 0
-2899 -2900 2901 0
2901 2902 0
-2901 -2902 0
2835 2902 -2903 0
2835 -2902 2903 0
-2835 2902 2903 0
-2835 -2902 2903 0
2903 2904 0
-2903 -2904 0
2904 2905 0
-2904 -2905 0
2905 2906 0
-2905 -2906 0
2906 2907 0
-2906 -2907 0
2834 2907 -2908 0
2834 -2907 2908 0
-2834 2907 2908 0
-2834 -2907 -2908 0
410 2909 0
-410 -2909 0
1969 1933 1943 1948 2910 0
1969 1933 1943 -1948 -2910 0
1969 1933 -1943 1948 -2910 0
1969 1933 -1943 -1948 -2910 0
1969 -1933 1943 1948 -2910 0
1969 -1933 1943 -1948 -2910 0
1969 -1933 -1943 1948 -2910 0
1969 -1933 -1943 -1948 -2910 0
-1969 1933 1943 1948 -2910 0
-1969 1933 1943 -1948 -2910 0
-1969 1933 -1943 1948 -2910 0
-1969 1933 -1943 -1948 -2910 0
-1969 -1933 1943 1948 -2910 0
-1969 -1933 1943 -1948 -2910 0
-1969 -1933 -1943 1948 -2910 0
-1969 -1933 -1943 -1948 -2910 0
2909 2337 2910 2911 0
2909 2337 -2910 -2911 0
2909 -2337 2910 -2911 0
2909 -2337 -2910 -2911 0
-2909 2337 2910 -2911 0
-2909 2337 -2910 -2911 0
-2909 -2337 2910 -2911 0
-2909 -2337 -2910 -2911 0
2337 2200 2912 0
2337 -2200 -2912 0
-2337 2200 -2912 0
-2337 -2200 -2912 0
2338 2911 2912 2913 0
2338 2911 -2912 -2913 0
2338 -2911 2912 -2913 0
2338 -2911 -2912 -2913 0
-2338 2911 2912 -2913 0
-2338 2911 -2912 -2913 0
-2338 -2911 2912 -2913 0
-2338 -2911 -2912 -2913 0
389 2914 0
-389 -2914 0
2914 2915 0
-2914 -2915 0
2913 2915 2916 0
2913 -2915 -2916 0
-2913 2915 -2916 0
-2913 -2915 -2916 0
392 2917 0
-392 -2917 0
2917 2918 0
-2917 -2918 0
2337 2334 2910 2919 0
2337 2334 -2910 -2919 0
2337 -2334 2910 -2919 0
2337 -2334 -2910 -2919 0
-2337 2334 2910 -2919 0
-2337 2334 -2910 -2919 0
-2337 -2334 2910 -2919 0
-2337 -2334 -2910 -2919 0
2919 2920 0
-2919 -2920 0
2918 2920 2921 0
2918 -2920 -2921 0
-2918 2920 -2921 0
-2918 -2920 -2921 0
384 2922 0
-384 -2922 0
2922 2923 0
-2922 -2923 0
409 2924 0
-409 -2924 0
2923 2924 2330 2925 0
2923 2924 -2330 -2925 0
2923 -2924 2330 -2925 0
2923 -2924 -2330 -2925 0
-2923 2924 2330 -2925 0
-2923 2924 -2330 -2925 0
-2923 -2924 2330 -2925 0
-2923 -2924 -2330 -2925 0
404 2926 0
-404 -2926 0
2926 2927 0
-2926 -2927 0
409 2928 0
-409 -2928 0
2928 2929 0
-2928 -2929 0
2910 2930 0
-2910 -2930 0
2930 2242 2931 0
2930 -2242 -2931 0
-2930 2242 -2931 0
-2930 -2242 -2931 0
2330 2929 2931 2932 0
2330 2929 -2931 -2932 0
2330 -2929 2931 -2932 0
2330 -2929 -2931 -2932 0
-2330 2929 2931 -2932 0
-2330 2929 -2931 -2932 0
-2330 -2929 2931 -2932 0
-2330 -2929 -2931 -2932 0
2932 2331 2933 0
2932 -2331 -2933 0
-2932 2331 -2933 0
-2932 -2331 -2933 0
2927 2933 2934 0
2927 -2933 -2934 0
-2927 2933 -2934 0
-2927 -2933 -2934 0
2916 2921 2925 2934 -2935 0
2916 2921 2925 -2934 2935 0
2916 2921 -2925 2934 2935 0
2916 2921 -2925 -2934 2935 0
2916 -2921 2925 2934 2935 0
2916 -2921 2925 -2934 2935 0
2916 -2921 -2925 2934 2935 0
2916 -2921 -2925 -2934 2935 0
-2916 2921 2925 2934 2935 0
-2916 2921 2925 -2934 2935 0
-2916 2921 -2925 2934 2935 0
-2916 2921 -2925 -2934 2935 0
-2916 -2921 2925 2934 2935 0
-2916 -2921 2925 -2934 2935 0
-2916 -2921 -2925 2934 2935 0
-2916 -2921 -2925 -2934 2935 0
2935 2936 0
-2935 -2936 0
2936 2937 0
-2936 -2937 0
2937 2938 0
-2937 -2938 0
2938 2939 0
-2938 -2939 0
2939 2940 0
-2939 -2940 0
2940 2941 0
-2940 -2941 0
410 2942 0
-410 -2942 0
2023 1987 1997 2002 2943 0
2023 1987 1997 -2002 -2943 0
2023 1987 -1997 2002 -2943 0
2023 1987 -1997 -2002 -2943 0
2023 -1987 1997 2002 -2943 0
2023 -1987 1997 -2002 -2943 0
2023 -1987 -1997 2002 -2943 0
2023 -1987 -1997 -2002 -2943 0
-2023 1987 1997 2002 -2943 0
-2023 1987 1997 -2002 -2943 0
-2023 1987 -1997 2002 -2943 0
-2023 1987 -1997 -2002 -2943 0
-2023 -1987 1997 2002 -2943 0
-2023 -1987 1997 -2002 -2943 0
-2023 -1987 -1997 2002 -2943 0
-2023 -1987 -1997 -2002 -2943 0
2942 2701 2943 2944 0
2942 2701 -2943 -2944 0
2942 -2701 2943 -2944 0
2942 -2701 -2943 -2944 0
-2942 2701 2943 -2944 0
-2942 2701 -2943 -2944 0
-2942 -2701 2943 -2944 0
-2942 -2701 -2943 -2944 0
2701 2564 2945 0
2701 -2564 -2945 0
-2701 2564 -2945 0
-2701 -2564 -2945 0
2702 2944 2945 2946 0
2702 2944 -2945 -2946 0
2702 -2944 2945 -2946 0
2702 -2944 -2945 -2946 0
-2702 2944 2945 -2946 0
-2702 2944 -2945 -2946 0
-2702 -2944 2945 -2946 0
-2702 -2944 -2945 -2946 0
389 2947 0
-389 -2947 0
2947 2948 0
-2947 -2948 0
2946 2948 2949 0
2946 -2948 -2949 0
-2946 2948 -2949 0
-2946 -2948 -2949 0
392 2950 0
-392 -2950 0
2950 2951 0
-2950 -2951 0
2701 2698 2943 2952 0
2701 2698 -2943 -2952 0
2701 -2698 2943 -2952 0
2701 -2698 -2943 -2952 0
-2701 2698 2943 -2952 0
-2701 2698 -2943 -2952 0
-2701 -2698 2943 -2952 0
-2701 -2698 -2943 -2952 0
2952 2953 0
-2952 -2953 0
2951 2953 2954 0
2951 -2953 -2954 0
-2951 2953 -2954 0
-2951 -2953 -2954 0
384 2955 0
-384 -2955 0
2955 2956 0
-2955 -2956 0
409 2957 0
-409 -2957 0
2956 2957 2694 2958 0
2956 2957 -2694 -2958 0
2956 -2957 2694 -2958 0
2956 -2957 -2694 -2958 0
-2956 2957 2694 -2958 0
-2956 2957 -2694 -2958 0
-2956 -2957 2694 -2958 0
-2956 -2957 -2694 -2958 0
404 2959 0
-404 -2959 0
2959 2960 0
-2959 -2960 0
409 2961 0
-409 -2961 0
2961 2962 0
-2961 -2962 0
2943 2963 0
-2943 -2963 0
2963 2606 2964 0
2963 -2606 -2964 0
-2963 2606 -2964 0
-2963 -2606 -2964 0
2694 2962 2964 2965 0
2694 2962 -2964 -2965 0
2694 -2962 2964 -2965 0
2694 -2962 -2964 -2965 0
-2694 2962 2964 -2965 0
-2694 2962 -2964 -2965 0
-2694 -2962 2964 -2965 0
-2694 -2962 -2964 -2965 0
2965 2695 2966 0
2965 -2695 -2966 0
-2965 2695 -2966 0
-2965 -2695 -2966 0
2960 2966 2967 0
2960 -2966 -2967 0
-2960 2966 -2967 0
-2960 -2966 -2967 0
2949 2954 2958 2967 -2968 0
2949 2954 2958 -2967 2968 0
2949 2954 -2958 2967 2968 0
2949 2954 -2958 -2967 2968 0
2949 -2954 2958 2967 2968 0
2949 -2954 2958 -2967 2968 0
2949 -2954 -2958 2967 2968 0
2949 -2954 -2958 -2967 2968 0
-2949 2954 2958 2967 2968 0
-2949 2954 2958 -2967 2968 0
-2949 2954 -2958 2967 2968 0
-2949 2954 -2958 -2967 2968 0
-2949 -2954 2958 2967 2968 0
-2949 -2954 2958 -2967 2968 0
-2949 -2954 -2958 2967 2968 0
-2949 -2954 -2958 -2967 2968 0
2968 2969 0
-2968 -2969 0
2969 2970 0
-2969 -2970 0
2970 2971 0
-2970 -2971 0
2971 2972 0
-2971 -2972 0
2972 2973 0
-2972 -2973 0
2973 2974 0
-2973 -2974 0
2941 2974 -2975 0
2941 -2974 2975 0
-2941 2974 2975 0
-2941 -2974 -2975 0
2935 2976 0
-2935 -2976 0
2976 2977 0
-2976 -2977 0
2977 2978 0
-2977 -2978 0
2978 2979 0
-2978 -2979 0
2979 2980 0
-2979 -2980 0
2980 2981 0
-2980 -2981 0
2968 2982 0
-2968 -2982 0
2982 2983 0
-2982 -2983 0
2983 2984 0
-2983 -2984 0
2984 2985 0
-2984 -2985 0
2985 2986 0
-2985 -2986 0
2986 2987 0
-2986 -2987 0
2981 2987 -2988 0
2981 -2987 2988 0
-2981 2987 2988 0
-2981 -2987 -2988 0
385 2989 0
-385 -2989 0
2989 2990 0
-2989 -2990 0
382 2991 0
-382 -2991 0
374 2992 0
-374 -2992 0
2992 1828 2993 0
2992 -1828 -2993 0
-2992 1828 -2993 0
-2992 -1828 -2993 0
2993 2994 0
-2993 -2994 0
2994 2990 2995 0
2994 -2990 -2995 0
-2994 2990 -2995 0
-2994 -2990 -2995 0
2995 2996 0
-2995 -2996 0
267 2997 0
-267 -2997 0
2997 2998 0
-2997 -2998 0
2998 2999 0
-2998 -2999 0
2996 2999 3000 0
2996 -2999 -3000 0
-2996 2999 -3000 0
-2996 -2999 -3000 0
2991 3000 3001 0
2991 -3000 -3001 0
-2991 3000 -3001 0
-2991 -3000 -3001 0
383 3002 0
-383 -3002 0
3002 2991 3003 0
3002 -2991 -3003 0
-3002 2991 -3003 0
-3002 -2991 -3003 0
3003 3004 0
-3003 -3004 0
381 3005 0
-381 -3005 0
3005 3006 0
-3005 -3006 0
3004 3006 3007 0
3004 -3006 -3007 0
-3004 3006 -3007 0
-3004 -3006 -3007 0
266 3008 0
-266 -3008 0
3008 3009 0
-3008 -3009 0
3009 3010 0
-3009 -3010 0
3010 3011 0
-3010 -3011 0
3001 3007 3011 3012 0
3001 3007 -3011 -3012 0
3001 -3007 3011 -3012 0
3001 -3007 -3011 -3012 0
-3001 3007 3011 -3012 0
-3001 3007 -3011 -3012 0
-3001 -3007 3011 -3012 0
-3001 -3007 -3011 -3012 0
3012 3013 0
-3012 -3013 0
2990 648 3013 3014 0
2990 648 -3013 -3014 0
2990 -648 3013 -3014 0
2990 -648 -3013 -3014 0
-2990 648 3013 -3014 0
-2990 648 -3013 -3014 0
-2990 -648 3013 -3014 0
-2990 -648 -3013 -3014 0
399 3015 0
-399 -3015 0
3015 3016 0
-3015 -3016 0
3016 2920 3017 0
3016 -2920 -3017 0
-3016 2920 -3017 0
-3016 -2920 -3017 0
403 3018 0
-403 -3018 0
2330 3018 3019 0
2330 -3018 -3019 0
-2330 3018 -3019 0
-2330 -3018 -3019 0
395 3020 0
-395 -3020 0
3020 3021 0
-3020 -3021 0
2912 3022 0
-2912 -3022 0
3021 3022 3023 0
3021 -3022 -3023 0
-3021 3022 -3023 0
-3021 -3022 -3023 0
3019 3023 3024 0
3019 -3023 -3024 0
-3019 3023 -3024 0
-3019 -3023 -3024 0
2341 3024 3025 0
2341 -3024 -3025 0
-2341 3024 -3025 0
-2341 -3024 -3025 0
2045 2035 2047 -3026 0
2045 2035 -2047 3026 0
2045 -2035 2047 3026 0
2045 -2035 -2047 3026 0
-2045 2035 2047 3026 0
-2045 2035 -2047 3026 0
-2045 -2035 2047 3026 0
-2045 -2035 -2047 3026 0
2150 2041 3026 -3027 0
2150 2041 -3026 3027 0
2150 -2041 3026 3027 0
2150 -2041 -3026 3027 0
-2150 2041 3026 3027 0
-2150 2041 -3026 3027 0
-2150 -2041 3026 3027 0
-2150 -2041 -3026 3027 0
3027 3028 0
-3027 -3028 0
2932 3029 0
-2932 -3029 0
3028 3029 3030 0
3028 -3029 -3030 0
-3028 3029 -3030 0
-3028 -3029 -3030 0
406 3031 0
-406 -3031 0
403 3032 0
-403 -3032 0
3032 3033 0
-3032 -3033 0
3031 3033 2332 3034 0
3031 3033 -2332 -3034 0
3031 -3033 2332 -3034 0
3031 -3033 -2332 -3034 0
-3031 3033 2332 -3034 0
-3031 3033 -2332 -3034 0
-3031 -3033 2332 -3034 0
-3031 -3033 -2332 -3034 0
3030 3034 -3035 0
3030 -3034 3035 0
-3030 3034 3035 0
-3030 -3034 3035 0
3035 3036 0
-3035 -3036 0
2320 3036 3037 0
2320 -3036 -3037 0
-2320 3036 -3037 0
-2320 -3036 -3037 0
3014 3017 3025 3037 -3038 0
3014 3017 3025 -3037 3038 0
3014 3017 -3025 3037 3038 0
3014 3017 -3025 -3037 3038 0
3014 -3017 3025 3037 3038 0
3014 -3017 3025 -3037 3038 0
3014 -3017 -3025 3037 3038 0
3014 -3017 -3025 -3037 3038 0
-3014 3017 3025 3037 3038 0
-3014 3017 3025 -3037 3038 0
-3014 3017 -3025 3037 3038 0
-3014 3017 -3025 -3037 3038 0
-3014 -3017 3025 3037 3038 0
-3014 -3017 3025 -3037 3038 0
-3014 -3017 -3025 3037 3038 0
-3014 -3017 -3025 -3037 3038 0
395 3039 0
-395 -3039 0
396 3040 0
-396 -3040 0
3040 3041 0
-3040 -3041 0
3039 3041 2329 3042 0
3039 3041 -2329 -3042 0
3039 -3041 2329 -3042 0
3039 -3041 -2329 -3042 0
-3039 3041 2329 -3042 0
-3039 3041 -2329 -3042 0
-3039 -3041 2329 -3042 0
-3039 -3041 -2329 -3042 0
2242 3021 2341 -3043 0
2242 3021 -2341 3043 0
2242 -3021 2341 3043 0
2242 -3021 -2341 3043 0
-2242 3021 2341 3043 0
-2242 3021 -2341 3043 0
-2242 -3021 2341 3043 0
-2242 -3021 -2341 3043 0
3031 2329 3043 -3044 0
3031 2329 -3043 3044 0
3031 -2329 3043 3044 0
3031 -2329 -3043 3044 0
-3031 2329 3043 3044 0
-3031 2329 -3043 3044 0
-3031 -2329 3043 3044 0
-3031 -2329 -3043 3044 0
3044 3045 0
-3044 -3045 0
3038 3042 3045 3046 0
3038 3042 -3045 -3046 0
3038 -3042 3045 -3046 0
3038 -3042 -3045 -3046 0
-3038 3042 3045 -3046 0
-3038 3042 -3045 -3046 0
-3038 -3042 3045 -3046 0
-3038 -3042 -3045 -3046 0
3046 3047 0
-3046 -3047 0
3047 3048 0
-3047 -3048 0
3048 3049 0
-3048 -3049 0
3049 3050 0
-3049 -3050 0
3050 3051 0
-3050 -3051 0
385 3052 0
-385 -3052 0
3052 3053 0
-3052 -3053 0
382 3054 0
-382 -3054 0
374 3055 0
-374 -3055 0
3055 1839 3056 0
3055 -1839 -3056 0
-3055 1839 -3056 0
-3055 -1839 -3056 0
3056 3057 0
-3056 -3057 0
3057 3053 3058 0
3057 -3053 -3058 0
-3057 3053 -3058 0
-3057 -3053 -3058 0
3058 3059 0
-3058 -3059 0
267 3060 0
-267 -3060 0
3060 3061 0
-3060 -3061 0
3061 3062 0
-3061 -3062 0
3059 3062 3063 0
3059 -3062 -3063 0
-3059 3062 -3063 0
-3059 -3062 -3063 0
3054 3063 3064 0
3054 -3063 -3064 0
-3054 3063 -3064 0
-3054 -3063 -3064 0
383 3065 0
-383 -3065 0
3065 3054 3066 0
3065 -3054 -3066 0
-3065 3054 -3066 0
-3065 -3054 -3066 0
3066 3067 0
-3066 -3067 0
381 3068 0
-381 -3068 0
3068 3069 0
-3068 -3069 0
3067 3069 3070 0
3067 -3069 -3070 0
-3067 3069 -3070 0
-3067 -3069 -3070 0
266 3071 0
-266 -3071 0
3071 3072 0
-3071 -3072 0
3072 3073 0
-3072 -3073 0
3073 3074 0
-3073 -3074 0
3064 3070 3074 3075 0
3064 3070 -3074 -3075 0
3064 -3070 3074 -3075 0
3064 -3070 -3074 -3075 0
-3064 3070 3074 -3075 0
-3064 3070 -3074 -3075 0
-3064 -3070 3074 -3075 0
-3064 -3070 -3074 -3075 0
3075 3076 0
-3075 -3076 0
3053 720 3076 3077 0
3053 720 -3076 -3077 0
3053 -720 3076 -3077 0
3053 -720 -3076 -3077 0
-3053 720 3076 -3077 0
-3053 720 -3076 -3077 0
-3053 -720 3076 -3077 0
-3053 -720 -3076 -3077 0
399 3078 0
-399 -3078 0
3078 3079 0
-3078 -3079 0
3079 2953 3080 0
3079 -2953 -3080 0
-3079 2953 -3080 0
-3079 -2953 -3080 0
403 3081 0
-403 -3081 0
2694 3081 3082 0
2694 -3081 -3082 0
-2694 3081 -3082 0
-2694 -3081 -3082 0
395 3083 0
-395 -3083 0
3083 3084 0
-3083 -3084 0
2945 3085 0
-2945 -3085 0
3084 3085 3086 0
3084 -3085 -3086 0
-3084 3085 -3086 0
-3084 -3085 -3086 0
3082 3086 3087 0
3082 -3086 -3087 0
-3082 3086 -3087 0
-3082 -3086 -3087 0
2705 3087 3088 0
2705 -3087 -3088 0
-2705 3087 -3088 0
-2705 -3087 -3088 0
2409 2399 2411 -3089 0
2409 2399 -2411 3089 0
2409 -2399 2411 3089 0
2409 -2399 -2411 3089 0
-2409 2399 2411 3089 0
-2409 2399 -2411 3089 0
-2409 -2399 2411 3089 0
-2409 -2399 -2411 3089 0
2514 2405 3089 -3090 0
2514 2405 -3089 3090 0
2514 -2405 3089 3090 0
2514 -2405 -3089 3090 0
-2514 2405 3089 3090 0
-2514 2405 -3089 3090 0
-2514 -2405 3089 3090 0
-2514 -2405 -3089 3090 0
3090 3091 0
-3090 -3091 0
2965 3092 0
-2965 -3092 0
3091 3092 3093 0
3091 -3092 -3093 0
-3091 3092 -3093 0
-3091 -3092 -3093 0
406 3094 0
-406 -3094 0
403 3095 0
-403 -3095 0
3095 3096 0
-3095 -3096 0
3094 3096 2696 3097 0
3094 3096 -2696 -3097 0
3094 -3096 2696 -3097 0
3094 -3096 -2696 -3097 0
-3094 3096 2696 -3097 0
-3094 3096 -2696 -3097 0
-3094 -3096 2696 -3097 0
-3094 -3096 -2696 -3097 0
3093 3097 -3098 0
3093 -3097 3098 0
-3093 3097 3098 0
-3093 -3097 3098 0
3098 3099 0
-3098 -3099 0
2684 3099 3100 0
2684 -3099 -3100 0
-2684 3099 -3100 0
-2684 -3099 -3100 0
3077 3080 3088 3100 -3101 0
3077 3080 3088 -3100 3101 0
3077 3080 -3088 3100 3101 0
3077 3080 -3088 -3100 3101 0
3077 -3080 3088 3100 3101 0
3077 -3080 3088 -3100 3101 0
3077 -3080 -3088 3100 3101 0
3077 -3080 -3088 -3100 3101 0
-3077 3080 3088 3100 3101 0
-3077 3080 3088 -3100 3101 0
-3077 3080 -3088 3100 3101 0
-3077 3080 -3088 -3100 3101 0
-3077 -3080 3088 3100 3101 0
-3077 -3080 3088 -3100 3101 0
-3077 -3080 -3088 3100 3101 0
-3077 -3080 -3088 -3100 3101 0
395 3102 0
-395 -3102 0
396 3103 0
-396 -3103 0
3103 3104 0
-3103 -3104 0
3102 3104 2693 3105 0
3102 3104 -2693 -3105 0
3102 -3104 2693 -3105 0
3102 -3104 -2693 -3105 0
-3102 3104 2693 -3105 0
-3102 3104 -2693 -3105 0
-3102 -3104 2693 -3105 0
-3102 -3104 -2693 -3105 0
2606 3084 2705 -3106 0
2606 3084 -2705 3106 0
2606 -3084 2705 3106 0
2606 -3084 -2705 3106 0
-2606 3084 2705 3106 0
-2606 3084 -2705 3106 0
-2606 -3084 2705 3106 0
-2606 -3084 -2705 3106 0
3094 2693 3106 -3107 0
3094 2693 -3106 3107 0
3094 -2693 3106 3107 0
3094 -2693 -3106 3107 0
-3094 2693 3106 3107 0
-3094 2693 -3106 3107 0
-3094 -2693 3106 3107 0
-3094 -2693 -3106 3107 0
3107 3108 0
-3107 -3108 0
3101 3105 3108 3109 0
3101 3105 -3108 -3109 0
3101 -3105 3108 -3109 0
3101 -3105 -3108 -3109 0
-3101 3105 3108 -3109 0
-3101 3105 -3108 -3109 0
-3101 -3105 3108 -3109 0
-3101 -3105 -3108 -3109 0
3109 3110 0
-3109 -3110 0
3110 3111 0
-3110 -3111 0
3111 3112 0
-3111 -3112 0
3112 3113 0
-3112 -3113 0
3113 3114 0
-3113 -3114 0
3051 3114 -3115 0
3051 -3114 3115 0
-3051 3114 3115 0
-3051 -3114 -3115 0
3045 3042 3038 3116 0
3045 3042 -3038 -3116 0
3045 -3042 3038 -3116 0
3045 -3042 -3038 -3116 0
-3045 3042 3038 -3116 0
-3045 3042 -3038 -3116 0
-3045 -3042 3038 -3116 0
-3045 -3042 -3038 -3116 0
3116 3117 0
-3116 -3117 0
3117 3118 0
-3117 -3118 0
3118 3119 0
-3118 -3119 0
3119 3120 0
-3119 -3120 0
3120 3121 0
-3120 -3121 0
3108 3105 3101 3122 0
3108 3105 -3101 -3122 0
3108 -3105 3101 -3122 0
3108 -3105 -3101 -3122 0
-3108 3105 3101 -3122 0
-3108 3105 -3101 -3122 0
-3108 -3105 3101 -3122 0
-3108 -3105 -3101 -3122 0
3122 3123 0
-3122 -3123 0
3123 3124 0
-3123 -3124 0
3124 3125 0
-3124 -3125 0
3125 3126 0
-3125 -3126 0
3126 3127 0
-3126 -3127 0
3121 3127 -3128 0
3121 -3127 3128 0
-3121 3127 3128 0
-3121 -3127 -3128 0
2763 2768 2772 3129 0
2763 2768 -2772 -3129 0
2763 -2768 2772 -3129 0
2763 -2768 -2772 -3129 0
-2763 2768 2772 -3129 0
-2763 2768 -2772 -3129 0
-2763 -2768 2772 -3129 0
-2763 -2768 -2772 -3129 0
3129 3130 0
-3129 -3130 0
2806 3131 0
-2806 -3131 0
2798 3132 0
-2798 -3132 0
3130 3131 3132 3133 0
3130 3131 -3132 -3133 0
3130 -3131 3132 -3133 0
3130 -3131 -3132 -3133 0
-3130 3131 3132 -3133 0
-3130 3131 -3132 -3133 0
-3130 -3131 3132 -3133 0
-3130 -3131 -3132 -3133 0
3133 3134 0
-3133 -3134 0
1948 1943 3135 0
1948 -1943 -3135 0
-1948 1943 -3135 0
-1948 -1943 -3135 0
2035 2038 2045 -3136 0
2035 2038 -2045 3136 0
2035 -2038 2045 3136 0
2035 -2038 -2045 3136 0
-2035 2038 2045 3136 0
-2035 2038 -2045 3136 0
-2035 -2038 2045 3136 0
-2035 -2038 -2045 3136 0
2148 2047 3136 -3137 0
2148 2047 -3136 3137 0
2148 -2047 3136 3137 0
2148 -2047 -3136 3137 0
-2148 2047 3136 3137 0
-2148 2047 -3136 3137 0
-2148 -2047 3136 3137 0
-2148 -2047 -3136 3137 0
3137 3138 0
-3137 -3138 0
3138 3139 0
-3138 -3139 0
3134 3135 3139 3140 0
3134 3135 -3139 -3140 0
3134 -3135 3139 -3140 0
3134 -3135 -3139 -3140 0
-3134 3135 3139 -3140 0
-3134 3135 -3139 -3140 0
-3134 -3135 3139 -3140 0
-3134 -3135 -3139 -3140 0
3140 3141 0
-3140 -3141 0
3141 3142 0
-3141 -3142 0
3142 3143 0
-3142 -3143 0
3143 3144 0
-3143 -3144 0
3144 3145 0
-3144 -3145 0
3145 3146 0
-3145 -3146 0
2836 2841 2845 3147 0
2836 2841 -2845 -3147 0
2836 -2841 2845 -3147 0
2836 -2841 -2845 -3147 0
-2836 2841 2845 -3147 0
-2836 2841 -2845 -3147 0
-2836 -2841 2845 -3147 0
-2836 -2841 -2845 -3147 0
3147 3148 0
-3147 -3148 0
2879 3149 0
-2879 -3149 0
2871 3150 0
-2871 -3150 0
3148 3149 3150 3151 0
3148 3149 -3150 -3151 0
3148 -3149 3150 -3151 0
3148 -3149 -3150 -3151 0
-3148 3149 3150 -3151 0
-3148 3149 -3150 -3151 0
-3148 -3149 3150 -3151 0
-3148 -3149 -3150 -3151 0
3151 3152 0
-3151 -3152 0
2002 1997 3153 0
2002 -1997 -3153 0
-2002 1997 -3153 0
-2002 -1997 -3153 0
2399 2402 2409 -3154 0
2399 2402 -2409 3154 0
2399 -2402 2409 3154 0
2399 -2402 -2409 3154 0
-2399 2402 2409 3154 0
-2399 2402 -2409 3154 0
-2399 -2402 2409 3154 0
-2399 -2402 -2409 3154 0
2512 2411 3154 -3155 0
2512 2411 -3154 3155 0
2512 -2411 3154 3155 0
2512 -2411 -3154 3155 0
-2512 2411 3154 3155 0
-2512 2411 -3154 3155 0
-2512 -2411 3154 3155 0
-2512 -2411 -3154 3155 0
3155 3156 0
-3155 -3156 0
3156 3157 0
-3156 -3157 0
3152 3153 3157 3158 0
3152 3153 -3157 -3158 0
3152 -3153 3157 -3158 0
3152 -3153 -3157 -3158 0
-3152 3153 3157 -3158 0
-3152 3153 -3157 -3158 0
-3152 -3153 3157 -3158 0
-3152 -3153 -3157 -3158 0
3158 3159 0
-3158 -3159 0
3159 3160 0
-3159 -3160 0
3160 3161 0
-3160 -3161 0
3161 3162 0
-3161 -3162 0
3162 3163 0
-3162 -3163 0
3163 3164 0
-3163 -3164 0
3146 3164 -3165 0
3146 -3164 3165 0
-3146 3164 3165 0
-3146 -3164 -3165 0
663 703 3166 0
663 -703 -3166 0
-663 703 -3166 0
-663 -703 -3166 0
663 795 3167 0
663 -795 -3167 0
-663 795 -3167 0
-663 -795 -3167 0
790 663 3168 0
790 -663 -3168 0
-790 663 -3168 0
-790 -663 -3168 0
3167 3168 3169 0
3167 -3168 -3169 0
-3167 3168 -3169 0
-3167 -3168 -3169 0
3169 3170 0
-3169 -3170 0
663 645 3171 0
663 -645 -3171 0
-663 645 -3171 0
-663 -645 -3171 0
3171 3172 0
-3171 -3172 0
663 671 3173 0
663 -671 -3173 0
-663 671 -3173 0
-663 -671 -3173 0
3173 3174 0
-3173 -3174 0
663 668 3175 0
663 -668 -3175 0
-663 668 -3175 0
-663 -668 -3175 0
3175 3176 0
-3175 -3176 0
3166 3177 0
-3166 -3177 0
3172 3174 3176 3177 3178 0
3172 3174 3176 -3177 -3178 0
3172 3174 -3176 3177 -3178 0
3172 3174 -3176 -3177 -3178 0
3172 -3174 3176 3177 -3178 0
3172 -3174 3176 -3177 -3178 0
3172 -3174 -3176 3177 -3178 0
3172 -3174 -3176 -3177 -3178 0
-3172 3174 3176 3177 -3178 0
-3172 3174 3176 -3177 -3178 0
-3172 3174 -3176 3177 -3178 0
-3172 3174 -3176 -3177 -3178 0
-3172 -3174 3176 3177 -3178 0
-3172 -3174 3176 -3177 -3178 0
-3172 -3174 -3176 3177 -3178 0
-3172 -3174 -3176 -3177 -3178 0
3173 3175 3179 0
3173 -3175 -3179 0
-3173 3175 -3179 0
-3173 -3175 -3179 0
3170 3178 3179 3180 0
3170 3178 -3179 -3180 0
3170 -3178 3179 -3180 0
3170 -3178 -3179 -3180 0
-3170 3178 3179 -3180 0
-3170 3178 -3179 -3180 0
-3170 -3178 3179 -3180 0
-3170 -3178 -3179 -3180 0
3180 3181 0
-3180 -3181 0
3166 3181 3182 0
3166 -3181 -3182 0
-3166 3181 -3182 0
-3166 -3181 -3182 0
668 690 3183 0
668 -690 -3183 0
-668 690 -3183 0
-668 -690 -3183 0
690 790 3184 0
690 -790 -3184 0
-690 790 -3184 0
-690 -790 -3184 0
795 690 3185 0
795 -690 -3185 0
-795 690 -3185 0
-795 -690 -3185 0
3183 3184 3185 3186 0
3183 3184 -3185 -3186 0
3183 -3184 3185 -3186 0
3183 -3184 -3185 -3186 0
-3183 3184 3185 -3186 0
-3183 3184 -3185 -3186 0
-3183 -3184 3185 -3186 0
-3183 -3184 -3185 -3186 0
3186 3187 0
-3186 -3187 0
671 690 3188 0
671 -690 -3188 0
-671 690 -3188 0
-671 -690 -3188 0
3188 3189 0
-3188 -3189 0
645 690 3190 0
645 -690 -3190 0
-645 690 -3190 0
-645 -690 -3190 0
3190 3191 0
-3190 -3191 0
690 703 3192 0
690 -703 -3192 0
-690 703 -3192 0
-690 -703 -3192 0
3192 3193 0
-3192 -3193 0
3189 3191 3193 3194 0
3189 3191 -3193 -3194 0
3189 -3191 3193 -3194 0
3189 -3191 -3193 -3194 0
-3189 3191 3193 -3194 0
-3189 3191 -3193 -3194 0
-3189 -3191 3193 -3194 0
-3189 -3191 -3193 -3194 0
3194 3195 0
-3194 -3195 0
3187 3195 3196 0
3187 -3195 -3196 0
-3187 3195 -3196 0
-3187 -3195 -3196 0
3182 3196 3197 0
3182 -3196 -3197 0
-3182 3196 -3197 0
-3182 -3196 -3197 0
3175 3188 3198 0
3175 -3188 -3198 0
-3175 3188 -3198 0
-3175 -3188 -3198 0
3198 3199 0
-3198 -3199 0
3171 3192 3200 0
3171 -3192 -3200 0
-3171 3192 -3200 0
-3171 -3192 -3200 0
3173 3190 3201 0
3173 -3190 -3201 0
-3173 3190 -3201 0
-3173 -3190 -3201 0
3199 3200 3201 3202 0
3199 3200 -3201 -3202 0
3199 -3200 3201 -3202 0
3199 -3200 -3201 -3202 0
-3199 3200 3201 -3202 0
-3199 3200 -3201 -3202 0
-3199 -3200 3201 -3202 0
-3199 -3200 -3201 -3202 0
3202 3203 0
-3202 -3203 0
468 3203 3204 0
468 -3203 -3204 0
-468 3203 -3204 0
-468 -3203 -3204 0
3201 3205 0
-3201 -3205 0
3200 3198 3205 3206 0
3200 3198 -3205 -3206 0
3200 -3198 3205 -3206 0
3200 -3198 -3205 -3206 0
-3200 3198 3205 -3206 0
-3200 3198 -3205 -3206 0
-3200 -3198 3205 -3206 0
-3200 -3198 -3205 -3206 0
3206 3207 0
-3206 -3207 0
3207 949 3208 0
3207 -949 -3208 0
-3207 949 -3208 0
-3207 -949 -3208 0
3201 3200 3198 3209 0
3201 3200 -3198 -3209 0
3201 -3200 3198 -3209 0
3201 -3200 -3198 -3209 0
-3201 3200 3198 -3209 0
-3201 3200 -3198 -3209 0
-3201 -3200 3198 -3209 0
-3201 -3200 -3198 -3209 0
3209 3210 0
-3209 -3210 0
1520 3210 3211 0
1520 -3210 -3211 0
-1520 3210 -3211 0
-1520 -3210 -3211 0
3200 3212 0
-3200 -3212 0
3201 3198 3212 3213 0
3201 3198 -3212 -3213 0
3201 -3198 3212 -3213 0
3201 -3198 -3212 -3213 0
-3201 3198 3212 -3213 0
-3201 3198 -3212 -3213 0
-3201 -3198 3212 -3213 0
-3201 -3198 -3212 -3213 0
3213 3214 0
-3213 -3214 0
3214 2155 3215 0
3214 -2155 -3215 0
-3214 2155 -3215 0
-3214 -2155 -3215 0
3204 3208 3211 3215 -3216 0
3204 3208 3211 -3215 3216 0
3204 3208 -3211 3215 3216 0
3204 3208 -3211 -3215 3216 0
3204 -3208 3211 3215 3216 0
3204 -3208 3211 -3215 3216 0
3204 -3208 -3211 3215 3216 0
3204 -3208 -3211 -3215 3216 0
-3204 3208 3211 3215 3216 0
-3204 3208 3211 -3215 3216 0
-3204 3208 -3211 3215 3216 0
-3204 3208 -3211 -3215 3216 0
-3204 -3208 3211 3215 3216 0
-3204 -3208 3211 -3215 3216 0
-3204 -3208 -3211 3215 3216 0
-3204 -3208 -3211 -3215 3216 0
3201 3212 3199 3217 0
3201 3212 -3199 -3217 0
3201 -3212 3199 -3217 0
3201 -3212 -3199 -3217 0
-3201 3212 3199 -3217 0
-3201 3212 -3199 -3217 0
-3201 -3212 3199 -3217 0
-3201 -3212 -3199 -3217 0
3217 3218 0
-3217 -3218 0
2315 3218 3219 0
2315 -3218 -3219 0
-2315 3218 -3219 0
-2315 -3218 -3219 0
3216 3219 3220 0
3216 -3219 -3220 0
-3216 3219 -3220 0
-3216 -3219 -3220 0
3197 3220 3221 0
3197 -3220 -3221 0
-3197 3220 -3221 0
-3197 -3220 -3221 0
3213 3222 0
-3213 -3222 0
418 3223 0
-418 -3223 0
3223 3224 0
-3223 -3224 0
3222 3224 3225 0
3222 -3224 -3225 0
-3222 3224 -3225 0
-3222 -3224 -3225 0
3202 3226 0
-3202 -3226 0
3226 1136 3227 0
3226 -1136 -3227 0
-3226 1136 -3227 0
-3226 -1136 -3227 0
3206 3228 0
-3206 -3228 0
1330 3228 3229 0
1330 -3228 -3229 0
-1330 3228 -3229 0
-1330 -3228 -3229 0
3227 3229 -3230 0
3227 -3229 3230 0
-3227 3229 3230 0
-3227 -3229 3230 0
3225 3230 3231 0
3225 -3230 -3231 0
-3225 3230 -3231 0
-3225 -3230 -3231 0
3177 3181 3232 0
3177 -3181 -3232 0
-3177 3181 -3232 0
-3177 -3181 -3232 0
3190 3188 3233 0
3190 -3188 -3233 0
-3190 3188 -3233 0
-3190 -3188 -3233 0
3187 3233 3234 0
3187 -3233 -3234 0
-3187 3233 -3234 0
-3187 -3233 -3234 0
3232 3234 3235 0
3232 -3234 -3235 0
-3232 3234 -3235 0
-3232 -3234 -3235 0
3231 3235 3236 0
3231 -3235 -3236 0
-3231 3235 -3236 0
-3231 -3235 -3236 0
3221 3236 -3237 0
3221 -3236 3237 0
-3221 3236 3237 0
-3221 -3236 3237 0
3237 3238 0
-3237 -3238 0
3238 3239 0
-3238 -3239 0
3239 3240 0
-3239 -3240 0
3240 3241 0
-3240 -3241 0
3241 3242 0
-3241 -3242 0
3242 3243 0
-3242 -3243 0
735 775 3244 0
735 -775 -3244 0
-735 775 -3244 0
-735 -775 -3244 0
735 849 3245 0
735 -849 -3245 0
-735 849 -3245 0
-735 -849 -3245 0
844 735 3246 0
844 -735 -3246 0
-844 735 -3246 0
-844 -735 -3246 0
3245 3246 3247 0
3245 -3246 -3247 0
-3245 3246 -3247 0
-3245 -3246 -3247 0
3247 3248 0
-3247 -3248 0
735 717 3249 0
735 -717 -3249 0
-735 717 -3249 0
-735 -717 -3249 0
3249 3250 0
-3249 -3250 0
735 743 3251 0
735 -743 -3251 0
-735 743 -3251 0
-735 -743 -3251 0
3251 3252 0
-3251 -3252 0
735 740 3253 0
735 -740 -3253 0
-735 740 -3253 0
-735 -740 -3253 0
3253 3254 0
-3253 -3254 0
3244 3255 0
-3244 -3255 0
3250 3252 3254 3255 3256 0
3250 3252 3254 -3255 -3256 0
3250 3252 -3254 3255 -3256 0
3250 3252 -3254 -3255 -3256 0
3250 -3252 3254 3255 -3256 0
3250 -3252 3254 -3255 -3256 0
3250 -3252 -3254 3255 -3256 0
3250 -3252 -3254 -3255 -3256 0
-3250 3252 3254 3255 -3256 0
-3250 3252 3254 -3255 -3256 0
-3250 3252 -3254 3255 -3256 0
-3250 3252 -3254 -3255 -3256 0
-3250 -3252 3254 3255 -3256 0
-3250 -3252 3254 -3255 -3256 0
-3250 -3252 -3254 3255 -3256 0
-3250 -3252 -3254 -3255 -3256 0
3251 3253 3257 0
3251 -3253 -3257 0
-3251 3253 -3257 0
-3251 -3253 -3257 0
3248 3256 3257 3258 0
3248 3256 -3257 -3258 0
3248 -3256 3257 -3258 0
3248 -3256 -3257 -3258 0
-3248 3256 3257 -3258 0
-3248 3256 -3257 -3258 0
-3248 -3256 3257 -3258 0
-3248 -3256 -3257 -3258 0
3258 3259 0
-3258 -3259 0
3244 3259 3260 0
3244 -3259 -3260 0
-3244 3259 -3260 0
-3244 -3259 -3260 0
740 762 3261 0
740 -762 -3261 0
-740 762 -3261 0
-740 -762 -3261 0
762 844 3262 0
762 -844 -3262 0
-762 844 -3262 0
-762 -844 -3262 0
849 762 3263 0
849 -762 -3263 0
-849 762 -3263 0
-849 -762 -3263 0
3261 3262 3263 3264 0
3261 3262 -3263 -3264 0
3261 -3262 3263 -3264 0
3261 -3262 -3263 -3264 0
-3261 3262 3263 -3264 0
-3261 3262 -3263 -3264 0
-3261 -3262 3263 -3264 0
-3261 -3262 -3263 -3264 0
3264 3265 0
-3264 -3265 0
743 762 3266 0
743 -762 -3266 0
-743 762 -3266 0
-743 -762 -3266 0
3266 3267 0
-3266 -3267 0
717 762 3268 0
717 -762 -3268 0
-717 762 -3268 0
-717 -762 -3268 0
3268 3269 0
-3268 -3269 0
762 775 3270 0
762 -775 -3270 0
-762 775 -3270 0
-762 -775 -3270 0
3270 3271 0
-3270 -3271 0
3267 3269 3271 3272 0
3267 3269 -3271 -3272 0
3267 -3269 3271 -3272 0
3267 -3269 -3271 -3272 0
-3267 3269 3271 -3272 0
-3267 3269 -3271 -3272 0
-3267 -3269 3271 -3272 0
-3267 -3269 -3271 -3272 0
3272 3273 0
-3272 -3273 0
3265 3273 3274 0
3265 -3273 -3274 0
-3265 3273 -3274 0
-3265 -3273 -3274 0
3260 3274 3275 0
3260 -3274 -3275 0
-3260 3274 -3275 0
-3260 -3274 -3275 0
3253 3266 3276 0
3253 -3266 -3276 0
-3253 3266 -3276 0
-3253 -3266 -3276 0
3276 3277 0
-3276 -3277 0
3249 3270 3278 0
3249 -3270 -3278 0
-3249 3270 -3278 0
-3249 -3270 -3278 0
3251 3268 3279 0
3251 -3268 -3279 0
-3251 3268 -3279 0
-3251 -3268 -3279 0
3277 3278 3279 3280 0
3277 3278 -3279 -3280 0
3277 -3278 3279 -3280 0
3277 -3278 -3279 -3280 0
-3277 3278 3279 -3280 0
-3277 3278 -3279 -3280 0
-3277 -3278 3279 -3280 0
-3277 -3278 -3279 -3280 0
3280 3281 0
-3280 -3281 0
566 3281 3282 0
566 -3281 -3282 0
-566 3281 -3282 0
-566 -3281 -3282 0
3279 3283 0
-3279 -3283 0
3278 3276 3283 3284 0
3278 3276 -3283 -3284 0
3278 -3276 3283 -3284 0
3278 -3276 -3283 -3284 0
-3278 3276 3283 -3284 0
-3278 3276 -3283 -3284 0
-3278 -3276 3283 -3284 0
-3278 -3276 -3283 -3284 0
3284 3285 0
-3284 -3285 0
3285 1042 3286 0
3285 -1042 -3286 0
-3285 1042 -3286 0
-3285 -1042 -3286 0
3279 3278 3276 3287 0
3279 3278 -3276 -3287 0
3279 -3278 3276 -3287 0
3279 -3278 -3276 -3287 0
-3279 3278 3276 -3287 0
-3279 3278 -3276 -3287 0
-3279 -3278 3276 -3287 0
-3279 -3278 -3276 -3287 0
3287 3288 0
-3287 -3288 0
1618 3288 3289 0
1618 -3288 -3289 0
-1618 3288 -3289 0
-1618 -3288 -3289 0
3278 3290 0
-3278 -3290 0
3279 3276 3290 3291 0
3279 3276 -3290 -3291 0
3279 -3276 3290 -3291 0
3279 -3276 -3290 -3291 0
-3279 3276 3290 -3291 0
-3279 3276 -3290 -3291 0
-3279 -3276 3290 -3291 0
-3279 -3276 -3290 -3291 0
3291 3292 0
-3291 -3292 0
3292 2519 3293 0
3292 -2519 -3293 0
-3292 2519 -3293 0
-3292 -2519 -3293 0
3282 3286 3289 3293 -3294 0
3282 3286 3289 -3293 3294 0
3282 3286 -3289 3293 3294 0
3282 3286 -3289 -3293 3294 0
3282 -3286 3289 3293 3294 0
3282 -3286 3289 -3293 3294 0
3282 -3286 -3289 3293 3294 0
3282 -3286 -3289 -3293 3294 0
-3282 3286 3289 3293 3294 0
-3282 3286 3289 -3293 3294 0
-3282 3286 -3289 3293 3294 0
-3282 3286 -3289 -3293 3294 0
-3282 -3286 3289 3293 3294 0
-3282 -3286 3289 -3293 3294 0
-3282 -3286 -3289 3293 3294 0
-3282 -3286 -3289 -3293 3294 0
3279 3290 3277 3295 0
3279 3290 -3277 -3295 0
3279 -3290 3277 -3295 0
3279 -3290 -3277 -3295 0
-3279 3290 3277 -3295 0
-3279 3290 -3277 -3295 0
-3279 -3290 3277 -3295 0
-3279 -3290 -3277 -3295 0
3295 3296 0
-3295 -3296 0
2679 3296 3297 0
2679 -3296 -3297 0
-2679 3296 -3297 0
-2679 -3296 -3297 0
3294 3297 3298 0
3294 -3297 -3298 0
-3294 3297 -3298 0
-3294 -3297 -3298 0
3275 3298 3299 0
3275 -3298 -3299 0
-3275 3298 -3299 0
-3275 -3298 -3299 0
3291 3300 0
-3291 -3300 0
418 3301 0
-418 -3301 0
3301 3302 0
-3301 -3302 0
3300 3302 3303 0
3300 -3302 -3303 0
-3300 3302 -3303 0
-3300 -3302 -3303 0
3280 3304 0
-3280 -3304 0
3304 1234 3305 0
3304 -1234 -3305 0
-3304 1234 -3305 0
-3304 -1234 -3305 0
3284 3306 0
-3284 -3306 0
1423 3306 3307 0
1423 -3306 -3307 0
-1423 3306 -3307 0
-1423 -3306 -3307 0
3305 3307 -3308 0
3305 -3307 3308 0
-3305 3307 3308 0
-3305 -3307 3308 0
3303 3308 3309 0
3303 -3308 -3309 0
-3303 3308 -3309 0
-3303 -3308 -3309 0
3255 3259 3310 0
3255 -3259 -3310 0
-3255 3259 -3310 0
-3255 -3259 -3310 0
3268 3266 3311 0
3268 -3266 -3311 0
-3268 3266 -3311 0
-3268 -3266 -3311 0
3265 3311 3312 0
3265 -3311 -3312 0
-3265 3311 -3312 0
-3265 -3311 -3312 0
3310 3312 3313 0
3310 -3312 -3313 0
-3310 3312 -3313 0
-3310 -3312 -3313 0
3309 3313 3314 0
3309 -3313 -3314 0
-3309 3313 -3314 0
-3309 -3313 -3314 0
3299 3314 -3315 0
3299 -3314 3315 0
-3299 3314 3315 0
-3299 -3314 3315 0
3315 3316 0
-3315 -3316 0
3316 3317 0
-3316 -3317 0
3317 3318 0
-3317 -3318 0
3318 3319 0
-3318 -3319 0
3319 3320 0
-3319 -3320 0
3320 3321 0
-3320 -3321 0
3243 3321 -3322 0
3243 -3321 3322 0
-3243 3321 3322 0
-3243 -3321 -3322 0
3203 460 3323 0
3203 -460 -3323 0
-3203 460 -3323 0
-3203 -460 -3323 0
1512 3210 3324 0
1512 -3210 -3324 0
-1512 3210 -3324 0
-1512 -3210 -3324 0
941 3207 3325 0
941 -3207 -3325 0
-941 3207 -3325 0
-941 -3207 -3325 0
2169 3214 3326 0
2169 -3214 -3326 0
-2169 3214 -3326 0
-2169 -3214 -3326 0
3323 3324 3325 3326 -3327 0
3323 3324 3325 -3326 3327 0
3323 3324 -3325 3326 3327 0
3323 3324 -3325 -3326 3327 0
3323 -3324 3325 3326 3327 0
3323 -3324 3325 -3326 3327 0
3323 -3324 -3325 3326 3327 0
3323 -3324 -3325 -3326 3327 0
-3323 3324 3325 3326 3327 0
-3323 3324 3325 -3326 3327 0
-3323 3324 -3325 3326 3327 0
-3323 3324 -3325 -3326 3327 0
-3323 -3324 3325 3326 3327 0
-3323 -3324 3325 -3326 3327 0
-3323 -3324 -3325 3326 3327 0
-3323 -3324 -3325 -3326 3327 0
3327 3328 0
-3327 -3328 0
3197 3328 3329 0
3197 -3328 -3329 0
-3197 3328 -3329 0
-3197 -3328 -3329 0
1322 3228 3330 0
1322 -3228 -3330 0
-1322 3228 -3330 0
-1322 -3228 -3330 0
1128 3226 3331 0
1128 -3226 -3331 0
-1128 3226 -3331 0
-1128 -3226 -3331 0
3330 3331 -3332 0
3330 -3331 3332 0
-3330 3331 3332 0
-3330 -3331 3332 0
416 3333 0
-416 -3333 0
3333 3334 0
-3333 -3334 0
3334 3222 3335 0
3334 -3222 -3335 0
-3334 3222 -3335 0
-3334 -3222 -3335 0
3332 3335 3336 0
3332 -3335 -3336 0
-3332 3335 -3336 0
-3332 -3335 -3336 0
3235 3336 3337 0
3235 -3336 -3337 0
-3235 3336 -3337 0
-3235 -3336 -3337 0
3329 3337 -3338 0
3329 -3337 3338 0
-3329 3337 3338 0
-3329 -3337 3338 0
3338 3339 0
-3338 -3339 0
3339 3340 0
-3339 -3340 0
3340 3341 0
-3340 -3341 0
3341 3342 0
-3341 -3342 0
3342 3343 0
-3342 -3343 0
3343 3344 0
-3343 -3344 0
3281 558 3345 0
3281 -558 -3345 0
-3281 558 -3345 0
-3281 -558 -3345 0
1610 3288 3346 0
1610 -3288 -3346 0
-1610 3288 -3346 0
-1610 -3288 -3346 0
1034 3285 3347 0
1034 -3285 -3347 0
-1034 3285 -3347 0
-1034 -3285 -3347 0
2533 3292 3348 0
2533 -3292 -3348 0
-2533 3292 -3348 0
-2533 -3292 -3348 0
3345 3346 3347 3348 -3349 0
3345 3346 3347 -3348 3349 0
3345 3346 -3347 3348 3349 0
3345 3346 -3347 -3348 3349 0
3345 -3346 3347 3348 3349 0
3345 -3346 3347 -3348 3349 0
3345 -3346 -3347 3348 3349 0
3345 -3346 -3347 -3348 3349 0
-3345 3346 3347 3348 3349 0
-3345 3346 3347 -3348 3349 0
-3345 3346 -3347 3348 3349 0
-3345 3346 -3347 -3348 3349 0
-3345 -3346 3347 3348 3349 0
-3345 -3346 3347 -3348 3349 0
-3345 -3346 -3347 3348 3349 0
-3345 -3346 -3347 -3348 3349 0
3349 3350 0
-3349 -3350 0
3275 3350 3351 0
3275 -3350 -3351 0
-3275 3350 -3351 0
-3275 -3350 -3351 0
1415 3306 3352 0
1415 -3306 -3352 0
-1415 3306 -3352 0
-1415 -3306 -3352 0
1226 3304 3353 0
1226 -3304 -3353 0
-1226 3304 -3353 0
-1226 -3304 -3353 0
3352 3353 -3354 0
3352 -3353 3354 0
-3352 3353 3354 0
-3352 -3353 3354 0
416 3355 0
-416 -3355 0
3355 3356 0
-3355 -3356 0
3356 3300 3357 0
3356 -3300 -3357 0
-3356 3300 -3357 0
-3356 -3300 -3357 0
3354 3357 3358 0
3354 -3357 -3358 0
-3354 3357 -3358 0
-3354 -3357 -3358 0
3313 3358 3359 0
3313 -3358 -3359 0
-3313 3358 -3359 0
-3313 -3358 -3359 0
3351 3359 -3360 0
3351 -3359 3360 0
-3351 3359 3360 0
-3351 -3359 3360 0
3360 3361 0
-3360 -3361 0
3361 3362 0
-3361 -3362 0
3362 3363 0
-3362 -3363 0
3363 3364 0
-3363 -3364 0
3364 3365 0
-3364 -3365 0
3365 3366 0
-3365 -3366 0
3344 3366 -3367 0
3344 -3366 3367 0
-3344 3366 3367 0
-3344 -3366 -3367 0
421 3368 0
-421 -3368 0
3368 3369 0
-3368 -3369 0
3222 3369 3370 0
3222 -3369 -3370 0
-3222 3369 -3370 0
-3222 -3369 -3370 0
3226 1160 3371 0
3226 -1160 -3371 0
-3226 1160 -3371 0
-3226 -1160 -3371 0
3228 1353 3372 0
3228 -1353 -3372 0
-3228 1353 -3372 0
-3228 -1353 -3372 0
3371 3372 -3373 0
3371 -3372 3373 0
-3371 3372 3373 0
-3371 -3372 3373 0
3370 3373 3374 0
3370 -3373 -3374 0
-3370 3373 -3374 0
-3370 -3373 -3374 0
3235 3374 3375 0
3235 -3374 -3375 0
-3235 3374 -3375 0
-3235 -3374 -3375 0
3214 2163 3376 0
3214 -2163 -3376 0
-3214 2163 -3376 0
-3214 -2163 -3376 0
3210 1544 3377 0
3210 -1544 -3377 0
-3210 1544 -3377 0
-3210 -1544 -3377 0
3203 492 3378 0
3203 -492 -3378 0
-3203 492 -3378 0
-3203 -492 -3378 0
970 3207 3379 0
970 -3207 -3379 0
-970 3207 -3379 0
-970 -3207 -3379 0
3376 3377 3378 3379 -3380 0
3376 3377 3378 -3379 3380 0
3376 3377 -3378 3379 3380 0
3376 3377 -3378 -3379 3380 0
3376 -3377 3378 3379 3380 0
3376 -3377 3378 -3379 3380 0
3376 -3377 -3378 3379 3380 0
3376 -3377 -3378 -3379 3380 0
-3376 3377 3378 3379 3380 0
-3376 3377 3378 -3379 3380 0
-3376 3377 -3378 3379 3380 0
-3376 3377 -3378 -3379 3380 0
-3376 -3377 3378 3379 3380 0
-3376 -3377 3378 -3379 3380 0
-3376 -3377 -3378 3379 3380 0
-3376 -3377 -3378 -3379 3380 0
3380 3381 0
-3380 -3381 0
3197 3381 3382 0
3197 -3381 -3382 0
-3197 3381 -3382 0
-3197 -3381 -3382 0
3375 3382 -3383 0
3375 -3382 3383 0
-3375 3382 3383 0
-3375 -3382 3383 0
3383 3384 0
-3383 -3384 0
3384 3385 0
-3384 -3385 0
3385 3386 0
-3385 -3386 0
3386 3387 0
-3386 -3387 0
3387 3388 0
-3387 -3388 0
3388 3389 0
-3388 -3389 0
421 3390 0
-421 -3390 0
3390 3391 0
-3390 -3391 0
3300 3391 3392 0
3300 -3391 -3392 0
-3300 3391 -3392 0
-3300 -3391 -3392 0
3304 1258 3393 0
3304 -1258 -3393 0
-3304 1258 -3393 0
-3304 -1258 -3393 0
3306 1446 3394 0
3306 -1446 -3394 0
-3306 1446 -3394 0
-3306 -1446 -3394 0
3393 3394 -3395 0
3393 -3394 3395 0
-3393 3394 3395 0
-3393 -3394 3395 0
3392 3395 3396 0
3392 -3395 -3396 0
-3392 3395 -3396 0
-3392 -3395 -3396 0
3313 3396 3397 0
3313 -3396 -3397 0
-3313 3396 -3397 0
-3313 -3396 -3397 0
3292 2527 3398 0
3292 -2527 -3398 0
-3292 2527 -3398 0
-3292 -2527 -3398 0
3288 1642 3399 0
3288 -1642 -3399 0
-3288 1642 -3399 0
-3288 -1642 -3399 0
3281 590 3400 0
3281 -590 -3400 0
-3281 590 -3400 0
-3281 -590 -3400 0
1063 3285 3401 0
1063 -3285 -3401 0
-1063 3285 -3401 0
-1063 -3285 -3401 0
3398 3399 3400 3401 -3402 0
3398 3399 3400 -3401 3402 0
3398 3399 -3400 3401 3402 0
3398 3399 -3400 -3401 3402 0
3398 -3399 3400 3401 3402 0
3398 -3399 3400 -3401 3402 0
3398 -3399 -3400 3401 3402 0
3398 -3399 -3400 -3401 3402 0
-3398 3399 3400 3401 3402 0
-3398 3399 3400 -3401 3402 0
-3398 3399 -3400 3401 3402 0
-3398 3399 -3400 -3401 3402 0
-3398 -3399 3400 3401 3402 0
-3398 -3399 3400 -3401 3402 0
-3398 -3399 -3400 3401 3402 0
-3398 -3399 -3400 -3401 3402 0
3402 3403 0
-3402 -3403 0
3275 3403 3404 0
3275 -3403 -3404 0
-3275 3403 -3404 0
-3275 -3403 -3404 0
3397 3404 -3405 0
3397 -3404 3405 0
-3397 3404 3405 0
-3397 -3404 3405 0
3405 3406 0
-3405 -3406 0
3406 3407 0
-3406 -3407 0
3407 3408 0
-3407 -3408 0
3408 3409 0
-3408 -3409 0
3409 3410 0
-3409 -3410 0
3410 3411 0
-3410 -3411 0
3389 3411 -3412 0
3389 -3411 3412 0
-3389 3411 3412 0
-3389 -3411 -3412 0
3228 1357 3413 0
3228 -1357 -3413 0
-3228 1357 -3413 0
-3228 -1357 -3413 0
3226 1164 3414 0
3226 -1164 -3414 0
-3226 1164 -3414 0
-3226 -1164 -3414 0
3413 3414 -3415 0
3413 -3414 3415 0
-3413 3414 3415 0
-3413 -3414 3415 0
426 3416 0
-426 -3416 0
3416 3417 0
-3416 -3417 0
3222 3417 3418 0
3222 -3417 -3418 0
-3222 3417 -3418 0
-3222 -3417 -3418 0
3415 3418 3419 0
3415 -3418 -3419 0
-3415 3418 -3419 0
-3415 -3418 -3419 0
3235 3419 3420 0
3235 -3419 -3420 0
-3235 3419 -3420 0
-3235 -3419 -3420 0
3214 2161 3421 0
3214 -2161 -3421 0
-3214 2161 -3421 0
-3214 -2161 -3421 0
496 3203 3422 0
496 -3203 -3422 0
-496 3203 -3422 0
-496 -3203 -3422 0
3210 1548 3423 0
3210 -1548 -3423 0
-3210 1548 -3423 0
-3210 -1548 -3423 0
3207 974 3424 0
3207 -974 -3424 0
-3207 974 -3424 0
-3207 -974 -3424 0
3421 3422 3423 3424 -3425 0
3421 3422 3423 -3424 3425 0
3421 3422 -3423 3424 3425 0
3421 3422 -3423 -3424 3425 0
3421 -3422 3423 3424 3425 0
3421 -3422 3423 -3424 3425 0
3421 -3422 -3423 3424 3425 0
3421 -3422 -3423 -3424 3425 0
-3421 3422 3423 3424 3425 0
-3421 3422 3423 -3424 3425 0
-3421 3422 -3423 3424 3425 0
-3421 3422 -3423 -3424 3425 0
-3421 -3422 3423 3424 3425 0
-3421 -3422 3423 -3424 3425 0
-3421 -3422 -3423 3424 3425 0
-3421 -3422 -3423 -3424 3425 0
3425 3426 0
-3425 -3426 0
3197 3426 3427 0
3197 -3426 -3427 0
-3197 3426 -3427 0
-3197 -3426 -3427 0
3420 3427 -3428 0
3420 -3427 3428 0
-3420 3427 3428 0
-3420 -3427 3428 0
3428 3429 0
-3428 -3429 0
3429 3430 0
-3429 -3430 0
3430 3431 0
-3430 -3431 0
3431 3432 0
-3431 -3432 0
3432 3433 0
-3432 -3433 0
3433 3434 0
-3433 -3434 0
3306 1450 3435 0
3306 -1450 -3435 0
-3306 1450 -3435 0
-3306 -1450 -3435 0
3304 1262 3436 0
3304 -1262 -3436 0
-3304 1262 -3436 0
-3304 -1262 -3436 0
3435 3436 -3437 0
3435 -3436 3437 0
-3435 3436 3437 0
-3435 -3436 3437 0
426 3438 0
-426 -3438 0
3438 3439 0
-3438 -3439 0
3300 3439 3440 0
3300 -3439 -3440 0
-3300 3439 -3440 0
-3300 -3439 -3440 0
3437 3440 3441 0
3437 -3440 -3441 0
-3437 3440 -3441 0
-3437 -3440 -3441 0
3313 3441 3442 0
3313 -3441 -3442 0
-3313 3441 -3442 0
-3313 -3441 -3442 0
3292 2525 3443 0
3292 -2525 -3443 0
-3292 2525 -3443 0
-3292 -2525 -3443 0
594 3281 3444 0
594 -3281 -3444 0
-594 3281 -3444 0
-594 -3281 -3444 0
3288 1646 3445 0
3288 -1646 -3445 0
-3288 1646 -3445 0
-3288 -1646 -3445 0
3285 1067 3446 0
3285 -1067 -3446 0
-3285 1067 -3446 0
-3285 -1067 -3446 0
3443 3444 3445 3446 -3447 0
3443 3444 3445 -3446 3447 0
3443 3444 -3445 3446 3447 0
3443 3444 -3445 -3446 3447 0
3443 -3444 3445 3446 3447 0
3443 -3444 3445 -3446 3447 0
3443 -3444 -3445 3446 3447 0
3443 -3444 -3445 -3446 3447 0
-3443 3444 3445 3446 3447 0
-3443 3444 3445 -3446 3447 0
-3443 3444 -3445 3446 3447 0
-3443 3444 -3445 -3446 3447 0
-3443 -3444 3445 3446 3447 0
-3443 -3444 3445 -3446 3447 0
-3443 -3444 -3445 3446 3447 0
-3443 -3444 -3445 -3446 3447 0
3447 3448 0
-3447 -3448 0
3275 3448 3449 0
3275 -3448 -3449 0
-3275 3448 -3449 0
-3275 -3448 -3449 0
3442 3449 -3450 0
3442 -3449 3450 0
-3442 3449 3450 0
-3442 -3449 3450 0
3450 3451 0
-3450 -3451 0
3451 3452 0
-3451 -3452 0
3452 3453 0
-3452 -3453 0
3453 3454 0
-3453 -3454 0
3454 3455 0
-3454 -3455 0
3455 3456 0
-3455 -3456 0
3434 3456 -3457 0
3434 -3456 3457 0
-3434 3456 3457 0
-3434 -3456 -3457 0
3207 966 3458 0
3207 -966 -3458 0
-3207 966 -3458 0
-3207 -966 -3458 0
3203 488 3459 0
3203 -488 -3459 0
-3203 488 -3459 0
-3203 -488 -3459 0
1540 3210 3460 0
1540 -3210 -3460 0
-1540 3210 -3460 0
-1540 -3210 -3460 0
3214 2180 3461 0
3214 -2180 -3461 0
-3214 2180 -3461 0
-3214 -2180 -3461 0
3458 3459 3460 3461 -3462 0
3458 3459 3460 -3461 3462 0
3458 3459 -3460 3461 3462 0
3458 3459 -3460 -3461 3462 0
3458 -3459 3460 3461 3462 0
3458 -3459 3460 -3461 3462 0
3458 -3459 -3460 3461 3462 0
3458 -3459 -3460 -3461 3462 0
-3458 3459 3460 3461 3462 0
-3458 3459 3460 -3461 3462 0
-3458 3459 -3460 3461 3462 0
-3458 3459 -3460 -3461 3462 0
-3458 -3459 3460 3461 3462 0
-3458 -3459 3460 -3461 3462 0
-3458 -3459 -3460 3461 3462 0
-3458 -3459 -3460 -3461 3462 0
3462 3463 0
-3462 -3463 0
3197 3463 3464 0
3197 -3463 -3464 0
-3197 3463 -3464 0
-3197 -3463 -3464 0
1349 3228 3465 0
1349 -3228 -3465 0
-1349 3228 -3465 0
-1349 -3228 -3465 0
3226 1156 3466 0
3226 -1156 -3466 0
-3226 1156 -3466 0
-3226 -1156 -3466 0
3465 3466 -3467 0
3465 -3466 3467 0
-3465 3466 3467 0
-3465 -3466 3467 0
216 3468 0
-216 -3468 0
3468 3469 0
-3468 -3469 0
3469 3222 3470 0
3469 -3222 -3470 0
-3469 3222 -3470 0
-3469 -3222 -3470 0
3467 3470 3471 0
3467 -3470 -3471 0
-3467 3470 -3471 0
-3467 -3470 -3471 0
3235 3471 3472 0
3235 -3471 -3472 0
-3235 3471 -3472 0
-3235 -3471 -3472 0
3464 3472 -3473 0
3464 -3472 3473 0
-3464 3472 3473 0
-3464 -3472 3473 0
3473 3474 0
-3473 -3474 0
3474 3475 0
-3474 -3475 0
3475 3476 0
-3475 -3476 0
3476 3477 0
-3476 -3477 0
3477 3478 0
-3477 -3478 0
3478 3479 0
-3478 -3479 0
3285 1059 3480 0
3285 -1059 -3480 0
-3285 1059 -3480 0
-3285 -1059 -3480 0
3281 586 3481 0
3281 -586 -3481 0
-3281 586 -3481 0
-3281 -586 -3481 0
1638 3288 3482 0
1638 -3288 -3482 0
-1638 3288 -3482 0
-1638 -3288 -3482 0
3292 2544 3483 0
3292 -2544 -3483 0
-3292 2544 -3483 0
-3292 -2544 -3483 0
3480 3481 3482 3483 -3484 0
3480 3481 3482 -3483 3484 0
3480 3481 -3482 3483 3484 0
3480 3481 -3482 -3483 3484 0
3480 -3481 3482 3483 3484 0
3480 -3481 3482 -3483 3484 0
3480 -3481 -3482 3483 3484 0
3480 -3481 -3482 -3483 3484 0
-3480 3481 3482 3483 3484 0
-3480 3481 3482 -3483 3484 0
-3480 3481 -3482 3483 3484 0
-3480 3481 -3482 -3483 3484 0
-3480 -3481 3482 3483 3484 0
-3480 -3481 3482 -3483 3484 0
-3480 -3481 -3482 3483 3484 0
-3480 -3481 -3482 -3483 3484 0
3484 3485 0
-3484 -3485 0
3275 3485 3486 0
3275 -3485 -3486 0
-3275 3485 -3486 0
-3275 -3485 -3486 0
1442 3306 3487 0
1442 -3306 -3487 0
-1442 3306 -3487 0
-1442 -3306 -3487 0
3304 1254 3488 0
3304 -1254 -3488 0
-3304 1254 -3488 0
-3304 -1254 -3488 0
3487 3488 -3489 0
3487 -3488 3489 0
-3487 3488 3489 0
-3487 -3488 3489 0
216 3490 0
-216 -3490 0
3490 3491 0
-3490 -3491 0
3491 3300 3492 0
3491 -3300 -3492 0
-3491 3300 -3492 0
-3491 -3300 -3492 0
3489 3492 3493 0
3489 -3492 -3493 0
-3489 3492 -3493 0
-3489 -3492 -3493 0
3313 3493 3494 0
3313 -3493 -3494 0
-3313 3493 -3494 0
-3313 -3493 -3494 0
3486 3494 -3495 0
3486 -3494 3495 0
-3486 3494 3495 0
-3486 -3494 3495 0
3495 3496 0
-3495 -3496 0
3496 3497 0
-3496 -3497 0
3497 3498 0
-3497 -3498 0
3498 3499 0
-3498 -3499 0
3499 3500 0
-3499 -3500 0
3500 3501 0
-3500 -3501 0
3479 3501 -3502 0
3479 -3501 3502 0
-3479 3501 3502 0
-3479 -3501 -3502 0
3228 1300 3503 0
3228 -1300 -3503 0
-3228 1300 -3503 0
-3228 -1300 -3503 0
1103 3226 3504 0
1103 -3226 -3504 0
-1103 3226 -3504 0
-1103 -3226 -3504 0
3503 3504 -3505 0
3503 -3504 3505 0
-3503 3504 3505 0
-3503 -3504 3505 0
422 3506 0
-422 -3506 0
3506 3507 0
-3506 -3507 0
3507 3222 3508 0
3507 -3222 -3508 0
-3507 3222 -3508 0
-3507 -3222 -3508 0
3505 3508 3509 0
3505 -3508 -3509 0
-3505 3508 -3509 0
-3505 -3508 -3509 0
3235 3509 3510 0
3235 -3509 -3510 0
-3235 3509 -3510 0
-3235 -3509 -3510 0
3203 435 3511 0
3203 -435 -3511 0
-3203 435 -3511 0
-3203 -435 -3511 0
2192 3214 3512 0
2192 -3214 -3512 0
-2192 3214 -3512 0
-2192 -3214 -3512 0
916 3207 3513 0
916 -3207 -3513 0
-916 3207 -3513 0
-916 -3207 -3513 0
3210 1487 3514 0
3210 -1487 -3514 0
-3210 1487 -3514 0
-3210 -1487 -3514 0
3511 3512 3513 3514 -3515 0
3511 3512 3513 -3514 3515 0
3511 3512 -3513 3514 3515 0
3511 3512 -3513 -3514 3515 0
3511 -3512 3513 3514 3515 0
3511 -3512 3513 -3514 3515 0
3511 -3512 -3513 3514 3515 0
3511 -3512 -3513 -3514 3515 0
-3511 3512 3513 3514 3515 0
-3511 3512 3513 -3514 3515 0
-3511 3512 -3513 3514 3515 0
-3511 3512 -3513 -3514 3515 0
-3511 -3512 3513 3514 3515 0
-3511 -3512 3513 -3514 3515 0
-3511 -3512 -3513 3514 3515 0
-3511 -3512 -3513 -3514 3515 0
3515 3516 0
-3515 -3516 0
3516 3197 3517 0
3516 -3197 -3517 0
-3516 3197 -3517 0
-3516 -3197 -3517 0
3510 3517 -3518 0
3510 -3517 3518 0
-3510 3517 3518 0
-3510 -3517 3518 0
3518 3519 0
-3518 -3519 0
3519 3520 0
-3519 -3520 0
3520 3521 0
-3520 -3521 0
3521 3522 0
-3521 -3522 0
3522 3523 0
-3522 -3523 0
3523 3524 0
-3523 -3524 0
3306 1393 3525 0
3306 -1393 -3525 0
-3306 1393 -3525 0
-3306 -1393 -3525 0
1201 3304 3526 0
1201 -3304 -3526 0
-1201 3304 -3526 0
-1201 -3304 -3526 0
3525 3526 -3527 0
3525 -3526 3527 0
-3525 3526 3527 0
-3525 -3526 3527 0
422 3528 0
-422 -3528 0
3528 3529 0
-3528 -3529 0
3529 3300 3530 0
3529 -3300 -3530 0
-3529 3300 -3530 0
-3529 -3300 -3530 0
3527 3530 3531 0
3527 -3530 -3531 0
-3527 3530 -3531 0
-3527 -3530 -3531 0
3313 3531 3532 0
3313 -3531 -3532 0
-3313 3531 -3532 0
-3313 -3531 -3532 0
3281 533 3533 0
3281 -533 -3533 0
-3281 533 -3533 0
-3281 -533 -3533 0
2556 3292 3534 0
2556 -3292 -3534 0
-2556 3292 -3534 0
-2556 -3292 -3534 0
1009 3285 3535 0
1009 -3285 -3535 0
-1009 3285 -3535 0
-1009 -3285 -3535 0
3288 1585 3536 0
3288 -1585 -3536 0
-3288 1585 -3536 0
-3288 -1585 -3536 0
3533 3534 3535 3536 -3537 0
3533 3534 3535 -3536 3537 0
3533 3534 -3535 3536 3537 0
3533 3534 -3535 -3536 3537 0
3533 -3534 3535 3536 3537 0
3533 -3534 3535 -3536 3537 0
3533 -3534 -3535 3536 3537 0
3533 -3534 -3535 -3536 3537 0
-3533 3534 3535 3536 3537 0
-3533 3534 3535 -3536 3537 0
-3533 3534 -3535 3536 3537 0
-3533 3534 -3535 -3536 3537 0
-3533 -3534 3535 3536 3537 0
-3533 -3534 3535 -3536 3537 0
-3533 -3534 -3535 3536 3537 0
-3533 -3534 -3535 -3536 3537 0
3537 3538 0
-3537 -3538 0
3538 3275 3539 0
3538 -3275 -3539 0
-3538 3275 -3539 0
-3538 -3275 -3539 0
3532 3539 -3540 0
3532 -3539 3540 0
-3532 3539 3540 0
-3532 -3539 3540 0
3540 3541 0
-3540 -3541 0
3541 3542 0
-3541 -3542 0
3542 3543 0
-3542 -3543 0
3543 3544 0
-3543 -3544 0
3544 3545 0
-3544 -3545 0
3545 3546 0
-3545 -3546 0
3524 3546 -3547 0
3524 -3546 3547 0
-3524 3546 3547 0
-3524 -3546 -3547 0
1304 3228 3548 0
1304 -3228 -3548 0
-1304 3228 -3548 0
-1304 -3228 -3548 0
3226 1107 3549 0
3226 -1107 -3549 0
-3226 1107 -3549 0
-3226 -1107 -3549 0
3548 3549 -3550 0
3548 -3549 3550 0
-3548 3549 3550 0
-3548 -3549 3550 0
424 3551 0
-424 -3551 0
3551 3552 0
-3551 -3552 0
3222 3552 3553 0
3222 -3552 -3553 0
-3222 3552 -3553 0
-3222 -3552 -3553 0
3550 3553 3554 0
3550 -3553 -3554 0
-3550 3553 -3554 0
-3550 -3553 -3554 0
3235 3554 3555 0
3235 -3554 -3555 0
-3235 3554 -3555 0
-3235 -3554 -3555 0
1491 3210 3556 0
1491 -3210 -3556 0
-1491 3210 -3556 0
-1491 -3210 -3556 0
3203 439 3557 0
3203 -439 -3557 0
-3203 439 -3557 0
-3203 -439 -3557 0
2186 3214 3558 0
2186 -3214 -3558 0
-2186 3214 -3558 0
-2186 -3214 -3558 0
920 3207 3559 0
920 -3207 -3559 0
-920 3207 -3559 0
-920 -3207 -3559 0
3556 3557 3558 3559 -3560 0
3556 3557 3558 -3559 3560 0
3556 3557 -3558 3559 3560 0
3556 3557 -3558 -3559 3560 0
3556 -3557 3558 3559 3560 0
3556 -3557 3558 -3559 3560 0
3556 -3557 -3558 3559 3560 0
3556 -3557 -3558 -3559 3560 0
-3556 3557 3558 3559 3560 0
-3556 3557 3558 -3559 3560 0
-3556 3557 -3558 3559 3560 0
-3556 3557 -3558 -3559 3560 0
-3556 -3557 3558 3559 3560 0
-3556 -3557 3558 -3559 3560 0
-3556 -3557 -3558 3559 3560 0
-3556 -3557 -3558 -3559 3560 0
3560 3561 0
-3560 -3561 0
3561 3197 3562 0
3561 -3197 -3562 0
-3561 3197 -3562 0
-3561 -3197 -3562 0
3555 3562 -3563 0
3555 -3562 3563 0
-3555 3562 3563 0
-3555 -3562 3563 0
3563 3564 0
-3563 -3564 0
3564 3565 0
-3564 -3565 0
3565 3566 0
-3565 -3566 0
3566 3567 0
-3566 -3567 0
3567 3568 0
-3567 -3568 0
3568 3569 0
-3568 -3569 0
1397 3306 3570 0
1397 -3306 -3570 0
-1397 3306 -3570 0
-1397 -3306 -3570 0
3304 1205 3571 0
3304 -1205 -3571 0
-3304 1205 -3571 0
-3304 -1205 -3571 0
3570 3571 -3572 0
3570 -3571 3572 0
-3570 3571 3572 0
-3570 -3571 3572 0
424 3573 0
-424 -3573 0
3573 3574 0
-3573 -3574 0
3300 3574 3575 0
3300 -3574 -3575 0
-3300 3574 -3575 0
-3300 -3574 -3575 0
3572 3575 3576 0
3572 -3575 -3576 0
-3572 3575 -3576 0
-3572 -3575 -3576 0
3313 3576 3577 0
3313 -3576 -3577 0
-3313 3576 -3577 0
-3313 -3576 -3577 0
1589 3288 3578 0
1589 -3288 -3578 0
-1589 3288 -3578 0
-1589 -3288 -3578 0
3281 537 3579 0
3281 -537 -3579 0
-3281 537 -3579 0
-3281 -537 -3579 0
2550 3292 3580 0
2550 -3292 -3580 0
-2550 3292 -3580 0
-2550 -3292 -3580 0
1013 3285 3581 0
1013 -3285 -3581 0
-1013 3285 -3581 0
-1013 -3285 -3581 0
3578 3579 3580 3581 -3582 0
3578 3579 3580 -3581 3582 0
3578 3579 -3580 3581 3582 0
3578 3579 -3580 -3581 3582 0
3578 -3579 3580 3581 3582 0
3578 -3579 3580 -3581 3582 0
3578 -3579 -3580 3581 3582 0
3578 -3579 -3580 -3581 3582 0
-3578 3579 3580 3581 3582 0
-3578 3579 3580 -3581 3582 0
-3578 3579 -3580 3581 3582 0
-3578 3579 -3580 -3581 3582 0
-3578 -3579 3580 3581 3582 0
-3578 -3579 3580 -3581 3582 0
-3578 -3579 -3580 3581 3582 0
-3578 -3579 -3580 -3581 3582 0
3582 3583 0
-3582 -3583 0
3583 3275 3584 0
3583 -3275 -3584 0
-3583 3275 -3584 0
-3583 -3275 -3584 0
3577 3584 -3585 0
3577 -3584 3585 0
-3577 3584 3585 0
-3577 -3584 3585 0
3585 3586 0
-3585 -3586 0
3586 3587 0
-3586 -3587 0
3587 3588 0
-3587 -3588 0
3588 3589 0
-3588 -3589 0
3589 3590 0
-3589 -3590 0
3590 3591 0
-3590 -3591 0
3569 3591 -3592 0
3569 -3591 3592 0
-3569 3591 3592 0
-3569 -3591 -3592 0
1483 3210 3593 0
1483 -3210 -3593 0
-1483 3210 -3593 0
-1483 -3210 -3593 0
431 3203 3594 0
431 -3203 -3594 0
-431 3203 -3594 0
-431 -3203 -3594 0
3214 2178 3595 0
3214 -2178 -3595 0
-3214 2178 -3595 0
-3214 -2178 -3595 0
3207 912 3596 0
3207 -912 -3596 0
-3207 912 -3596 0
-3207 -912 -3596 0
3593 3594 3595 3596 -3597 0
3593 3594 3595 -3596 3597 0
3593 3594 -3595 3596 3597 0
3593 3594 -3595 -3596 3597 0
3593 -3594 3595 3596 3597 0
3593 -3594 3595 -3596 3597 0
3593 -3594 -3595 3596 3597 0
3593 -3594 -3595 -3596 3597 0
-3593 3594 3595 3596 3597 0
-3593 3594 3595 -3596 3597 0
-3593 3594 -3595 3596 3597 0
-3593 3594 -3595 -3596 3597 0
-3593 -3594 3595 3596 3597 0
-3593 -3594 3595 -3596 3597 0
-3593 -3594 -3595 3596 3597 0
-3593 -3594 -3595 -3596 3597 0
3597 3598 0
-3597 -3598 0
3598 3197 3599 0
3598 -3197 -3599 0
-3598 3197 -3599 0
-3598 -3197 -3599 0
427 3600 0
-427 -3600 0
3600 3601 0
-3600 -3601 0
3222 3601 3602 0
3222 -3601 -3602 0
-3222 3601 -3602 0
-3222 -3601 -3602 0
3226 1099 3603 0
3226 -1099 -3603 0
-3226 1099 -3603 0
-3226 -1099 -3603 0
1296 3228 3604 0
1296 -3228 -3604 0
-1296 3228 -3604 0
-1296 -3228 -3604 0
3603 3604 -3605 0
3603 -3604 3605 0
-3603 3604 3605 0
-3603 -3604 3605 0
3602 3605 3606 0
3602 -3605 -3606 0
-3602 3605 -3606 0
-3602 -3605 -3606 0
3606 3235 3607 0
3606 -3235 -3607 0
-3606 3235 -3607 0
-3606 -3235 -3607 0
3599 3607 -3608 0
3599 -3607 3608 0
-3599 3607 3608 0
-3599 -3607 3608 0
3608 3609 0
-3608 -3609 0
3609 3610 0
-3609 -3610 0
3610 3611 0
-3610 -3611 0
3611 3612 0
-3611 -3612 0
3612 3613 0
-3612 -3613 0
3613 3614 0
-3613 -3614 0
1581 3288 3615 0
1581 -3288 -3615 0
-1581 3288 -3615 0
-1581 -3288 -3615 0
529 3281 3616 0
529 -3281 -3616 0
-529 3281 -3616 0
-529 -3281 -3616 0
3292 2542 3617 0
3292 -2542 -3617 0
-3292 2542 -3617 0
-3292 -2542 -3617 0
3285 1005 3618 0
3285 -1005 -3618 0
-3285 1005 -3618 0
-3285 -1005 -3618 0
3615 3616 3617 3618 -3619 0
3615 3616 3617 -3618 3619 0
3615 3616 -3617 3618 3619 0
3615 3616 -3617 -3618 3619 0
3615 -3616 3617 3618 3619 0
3615 -3616 3617 -3618 3619 0
3615 -3616 -3617 3618 3619 0
3615 -3616 -3617 -3618 3619 0
-3615 3616 3617 3618 3619 0
-3615 3616 3617 -3618 3619 0
-3615 3616 -3617 3618 3619 0
-3615 3616 -3617 -3618 3619 0
-3615 -3616 3617 3618 3619 0
-3615 -3616 3617 -3618 3619 0
-3615 -3616 -3617 3618 3619 0
-3615 -3616 -3617 -3618 3619 0
3619 3620 0
-3619 -3620 0
3620 3275 3621 0
3620 -3275 -3621 0
-3620 3275 -3621 0
-3620 -3275 -3621 0
427 3622 0
-427 -3622 0
3622 3623 0
-3622 -3623 0
3300 3623 3624 0
3300 -3623 -3624 0
-3300 3623 -3624 0
-3300 -3623 -3624 0
3304 1197 3625 0
3304 -1197 -3625 0
-3304 1197 -3625 0
-3304 -1197 -3625 0
1389 3306 3626 0
1389 -3306 -3626 0
-1389 3306 -3626 0
-1389 -3306 -3626 0
3625 3626 -3627 0
3625 -3626 3627 0
-3625 3626 3627 0
-3625 -3626 3627 0
3624 3627 3628 0
3624 -3627 -3628 0
-3624 3627 -3628 0
-3624 -3627 -3628 0
3628 3313 3629 0
3628 -3313 -3629 0
-3628 3313 -3629 0
-3628 -3313 -3629 0
3621 3629 -3630 0
3621 -3629 3630 0
-3621 3629 3630 0
-3621 -3629 3630 0
3630 3631 0
-3630 -3631 0
3631 3632 0
-3631 -3632 0
3632 3633 0
-3632 -3633 0
3633 3634 0
-3633 -3634 0
3634 3635 0
-3634 -3635 0
3635 3636 0
-3635 -3636 0
3614 3636 -3637 0
3614 -3636 3637 0
-3614 3636 3637 0
-3614 -3636 -3637 0
237 3638 0
-237 -3638 0
3218 3638 3639 0
3218 -3638 -3639 0
-3218 3638 -3639 0
-3218 -3638 -3639 0
3198 3212 3205 3640 0
3198 3212 -3205 -3640 0
3198 -3212 3205 -3640 0
3198 -3212 -3205 -3640 0
-3198 3212 3205 -3640 0
-3198 3212 -3205 -3640 0
-3198 -3212 3205 -3640 0
-3198 -3212 -3205 -3640 0
3640 3641 0
-3640 -3641 0
3641 3642 0
-3641 -3642 0
3639 3642 -3643 0
3639 -3642 3643 0
-3639 3642 3643 0
-3639 -3642 3643 0
945 3207 3644 0
945 -3207 -3644 0
-945 3207 -3644 0
-945 -3207 -3644 0
464 3203 3645 0
464 -3203 -3645 0
-464 3203 -3645 0
-464 -3203 -3645 0
1516 3210 3646 0
1516 -3210 -3646 0
-1516 3210 -3646 0
-1516 -3210 -3646 0
2135 3214 3647 0
2135 -3214 -3647 0
-2135 3214 -3647 0
-2135 -3214 -3647 0
3644 3645 3646 3647 -3648 0
3644 3645 3646 -3647 3648 0
3644 3645 -3646 3647 3648 0
3644 3645 -3646 -3647 3648 0
3644 -3645 3646 3647 3648 0
3644 -3645 3646 -3647 3648 0
3644 -3645 -3646 3647 3648 0
3644 -3645 -3646 -3647 3648 0
-3644 3645 3646 3647 3648 0
-3644 3645 3646 -3647 3648 0
-3644 3645 -3646 3647 3648 0
-3644 3645 -3646 -3647 3648 0
-3644 -3645 3646 3647 3648 0
-3644 -3645 3646 -3647 3648 0
-3644 -3645 -3646 3647 3648 0
-3644 -3645 -3646 -3647 3648 0
3643 3648 3649 0
3643 -3648 -3649 0
-3643 3648 -3649 0
-3643 -3648 -3649 0
3649 3197 3650 0
3649 -3197 -3650 0
-3649 3197 -3650 0
-3649 -3197 -3650 0
3601 3651 0
-3601 -3651 0
3651 3652 0
-3651 -3652 0
3507 3653 0
-3507 -3653 0
3653 3654 0
-3653 -3654 0
3552 3655 0
-3552 -3655 0
3655 3656 0
-3655 -3656 0
3652 3654 3656 3657 0
3652 3654 -3656 -3657 0
3652 -3654 3656 -3657 0
3652 -3654 -3656 -3657 0
-3652 3654 3656 -3657 0
-3652 3654 -3656 -3657 0
-3652 -3654 3656 -3657 0
-3652 -3654 -3656 -3657 0
422 3658 0
-422 -3658 0
3658 3659 0
-3658 -3659 0
3659 3660 0
-3659 -3660 0
424 3661 0
-424 -3661 0
3661 3662 0
-3661 -3662 0
3662 3663 0
-3662 -3663 0
3652 3660 3663 3664 0
3652 3660 -3663 -3664 0
3652 -3660 3663 -3664 0
3652 -3660 -3663 -3664 0
-3652 3660 3663 -3664 0
-3652 3660 -3663 -3664 0
-3652 -3660 3663 -3664 0
-3652 -3660 -3663 -3664 0
427 3665 0
-427 -3665 0
3665 3666 0
-3665 -3666 0
3666 3667 0
-3666 -3667 0
3667 3654 3663 3668 0
3667 3654 -3663 -3668 0
3667 -3654 3663 -3668 0
3667 -3654 -3663 -3668 0
-3667 3654 3663 -3668 0
-3667 3654 -3663 -3668 0
-3667 -3654 3663 -3668 0
-3667 -3654 -3663 -3668 0
3667 3660 3656 3669 0
3667 3660 -3656 -3669 0
3667 -3660 3656 -3669 0
3667 -3660 -3656 -3669 0
-3667 3660 3656 -3669 0
-3667 3660 -3656 -3669 0
-3667 -3660 3656 -3669 0
-3667 -3660 -3656 -3669 0
3657 3664 3668 3669 -3670 0
3657 3664 3668 -3669 3670 0
3657 3664 -3668 3669 3670 0
3657 3664 -3668 -3669 3670 0
3657 -3664 3668 3669 3670 0
3657 -3664 3668 -3669 3670 0
3657 -3664 -3668 3669 3670 0
3657 -3664 -3668 -3669 3670 0
-3657 3664 3668 3669 3670 0
-3657 3664 3668 -3669 3670 0
-3657 3664 -3668 3669 3670 0
-3657 3664 -3668 -3669 3670 0
-3657 -3664 3668 3669 3670 0
-3657 -3664 3668 -3669 3670 0
-3657 -3664 -3668 3669 3670 0
-3657 -3664 -3668 -3669 3670 0
3670 3671 0
-3670 -3671 0
3671 3672 0
-3671 -3672 0
3672 3673 0
-3672 -3673 0
416 3674 0
-416 -3674 0
3674 3224 3675 0
3674 -3224 -3675 0
-3674 3224 -3675 0
-3674 -3224 -3675 0
418 3676 0
-418 -3676 0
3334 3676 3677 0
3334 -3676 -3677 0
-3334 3676 -3677 0
-3334 -3676 -3677 0
3675 3677 -3678 0
3675 -3677 3678 0
-3675 3677 3678 0
-3675 -3677 3678 0
3678 3679 0
-3678 -3679 0
3679 3680 0
-3679 -3680 0
3469 3681 0
-3469 -3681 0
3681 3682 0
-3681 -3682 0
3369 3683 0
-3369 -3683 0
3683 3684 0
-3683 -3684 0
3417 3685 0
-3417 -3685 0
3685 3686 0
-3685 -3686 0
3682 3684 3686 3687 0
3682 3684 -3686 -3687 0
3682 -3684 3686 -3687 0
3682 -3684 -3686 -3687 0
-3682 3684 3686 -3687 0
-3682 3684 -3686 -3687 0
-3682 -3684 3686 -3687 0
-3682 -3684 -3686 -3687 0
421 3688 0
-421 -3688 0
3688 3689 0
-3688 -3689 0
3689 3690 0
-3689 -3690 0
426 3691 0
-426 -3691 0
3691 3692 0
-3691 -3692 0
3692 3693 0
-3692 -3693 0
3682 3690 3693 3694 0
3682 3690 -3693 -3694 0
3682 -3690 3693 -3694 0
3682 -3690 -3693 -3694 0
-3682 3690 3693 -3694 0
-3682 3690 -3693 -3694 0
-3682 -3690 3693 -3694 0
-3682 -3690 -3693 -3694 0
216 3695 0
-216 -3695 0
3695 3696 0
-3695 -3696 0
3696 3697 0
-3696 -3697 0
3697 3684 3693 3698 0
3697 3684 -3693 -3698 0
3697 -3684 3693 -3698 0
3697 -3684 -3693 -3698 0
-3697 3684 3693 -3698 0
-3697 3684 -3693 -3698 0
-3697 -3684 3693 -3698 0
-3697 -3684 -3693 -3698 0
3697 3690 3686 3699 0
3697 3690 -3686 -3699 0
3697 -3690 3686 -3699 0
3697 -3690 -3686 -3699 0
-3697 3690 3686 -3699 0
-3697 3690 -3686 -3699 0
-3697 -3690 3686 -3699 0
-3697 -3690 -3686 -3699 0
3687 3694 3698 3699 -3700 0
3687 3694 3698 -3699 3700 0
3687 3694 -3698 3699 3700 0
3687 3694 -3698 -3699 3700 0
3687 -3694 3698 3699 3700 0
3687 -3694 3698 -3699 3700 0
3687 -3694 -3698 3699 3700 0
3687 -3694 -3698 -3699 3700 0
-3687 3694 3698 3699 3700 0
-3687 3694 3698 -3699 3700 0
-3687 3694 -3698 3699 3700 0
-3687 3694 -3698 -3699 3700 0
-3687 -3694 3698 3699 3700 0
-3687 -3694 3698 -3699 3700 0
-3687 -3694 -3698 3699 3700 0
-3687 -3694 -3698 -3699 3700 0
3700 3701 0
-3700 -3701 0
3701 3702 0
-3701 -3702 0
3702 3703 0
-3702 -3703 0
3673 3680 3703 3704 0
3673 3680 -3703 -3704 0
3673 -3680 3703 -3704 0
3673 -3680 -3703 -3704 0
-3673 3680 3703 -3704 0
-3673 3680 -3703 -3704 0
-3673 -3680 3703 -3704 0
-3673 -3680 -3703 -3704 0
3678 3705 0
-3678 -3705 0
3705 3706 0
-3705 -3706 0
3706 3707 0
-3706 -3707 0
3700 3708 0
-3700 -3708 0
3708 3709 0
-3708 -3709 0
3673 3707 3709 3710 0
3673 3707 -3709 -3710 0
3673 -3707 3709 -3710 0
3673 -3707 -3709 -3710 0
-3673 3707 3709 -3710 0
-3673 3707 -3709 -3710 0
-3673 -3707 3709 -3710 0
-3673 -3707 -3709 -3710 0
3670 3711 0
-3670 -3711 0
3711 3712 0
-3711 -3712 0
3712 3680 3709 3713 0
3712 3680 -3709 -3713 0
3712 -3680 3709 -3713 0
3712 -3680 -3709 -3713 0
-3712 3680 3709 -3713 0
-3712 3680 -3709 -3713 0
-3712 -3680 3709 -3713 0
-3712 -3680 -3709 -3713 0
3712 3707 3703 3714 0
3712 3707 -3703 -3714 0
3712 -3707 3703 -3714 0
3712 -3707 -3703 -3714 0
-3712 3707 3703 -3714 0
-3712 3707 -3703 -3714 0
-3712 -3707 3703 -3714 0
-3712 -3707 -3703 -3714 0
3704 3710 3713 3714 -3715 0
3704 3710 3713 -3714 3715 0
3704 3710 -3713 3714 3715 0
3704 3710 -3713 -3714 3715 0
3704 -3710 3713 3714 3715 0
3704 -3710 3713 -3714 3715 0
3704 -3710 -3713 3714 3715 0
3704 -3710 -3713 -3714 3715 0
-3704 3710 3713 3714 3715 0
-3704 3710 3713 -3714 3715 0
-3704 3710 -3713 3714 3715 0
-3704 3710 -3713 -3714 3715 0
-3704 -3710 3713 3714 3715 0
-3704 -3710 3713 -3714 3715 0
-3704 -3710 -3713 3714 3715 0
-3704 -3710 -3713 -3714 3715 0
3715 3716 0
-3715 -3716 0
3222 3716 3717 0
3222 -3716 -3717 0
-3222 3716 -3717 0
-3222 -3716 -3717 0
1326 3228 3718 0
1326 -3228 -3718 0
-1326 3228 -3718 0
-1326 -3228 -3718 0
3226 1132 3719 0
3226 -1132 -3719 0
-3226 1132 -3719 0
-3226 -1132 -3719 0
3718 3719 -3720 0
3718 -3719 3720 0
-3718 3719 3720 0
-3718 -3719 3720 0
3717 3720 3721 0
3717 -3720 -3721 0
-3717 3720 -3721 0
-3717 -3720 -3721 0
3235 3721 3722 0
3235 -3721 -3722 0
-3235 3721 -3722 0
-3235 -3721 -3722 0
3650 3722 -3723 0
3650 -3722 3723 0
-3650 3722 3723 0
-3650 -3722 3723 0
3723 3724 0
-3723 -3724 0
3724 3725 0
-3724 -3725 0
3725 3726 0
-3725 -3726 0
3726 3727 0
-3726 -3727 0
3727 3728 0
-3727 -3728 0
3728 3729 0
-3728 -3729 0
237 3730 0
-237 -3730 0
3296 3730 3731 0
3296 -3730 -3731 0
-3296 3730 -3731 0
-3296 -3730 -3731 0
3276 3290 3283 3732 0
3276 3290 -3283 -3732 0
3276 -3290 3283 -3732 0
3276 -3290 -3283 -3732 0
-3276 3290 3283 -3732 0
-3276 3290 -3283 -3732 0
-3276 -3290 3283 -3732 0
-3276 -3290 -3283 -3732 0
3732 3733 0
-3732 -3733 0
3733 3734 0
-3733 -3734 0
3731 3734 -3735 0
3731 -3734 3735 0
-3731 3734 3735 0
-3731 -3734 3735 0
1038 3285 3736 0
1038 -3285 -3736 0
-1038 3285 -3736 0
-1038 -3285 -3736 0
562 3281 3737 0
562 -3281 -3737 0
-562 3281 -3737 0
-562 -3281 -3737 0
1614 3288 3738 0
1614 -3288 -3738 0
-1614 3288 -3738 0
-1614 -3288 -3738 0
2499 3292 3739 0
2499 -3292 -3739 0
-2499 3292 -3739 0
-2499 -3292 -3739 0
3736 3737 3738 3739 -3740 0
3736 3737 3738 -3739 3740 0
3736 3737 -3738 3739 3740 0
3736 3737 -3738 -3739 3740 0
3736 -3737 3738 3739 3740 0
3736 -3737 3738 -3739 3740 0
3736 -3737 -3738 3739 3740 0
3736 -3737 -3738 -3739 3740 0
-3736 3737 3738 3739 3740 0
-3736 3737 3738 -3739 3740 0
-3736 3737 -3738 3739 3740 0
-3736 3737 -3738 -3739 3740 0
-3736 -3737 3738 3739 3740 0
-3736 -3737 3738 -3739 3740 0
-3736 -3737 -3738 3739 3740 0
-3736 -3737 -3738 -3739 3740 0
3735 3740 3741 0
3735 -3740 -3741 0
-3735 3740 -3741 0
-3735 -3740 -3741 0
3741 3275 3742 0
3741 -3275 -3742 0
-3741 3275 -3742 0
-3741 -3275 -3742 0
3623 3743 0
-3623 -3743 0
3743 3744 0
-3743 -3744 0
3529 3745 0
-3529 -3745 0
3745 3746 0
-3745 -3746 0
3574 3747 0
-3574 -3747 0
3747 3748 0
-3747 -3748 0
3744 3746 3748 3749 0
3744 3746 -3748 -3749 0
3744 -3746 3748 -3749 0
3744 -3746 -3748 -3749 0
-3744 3746 3748 -3749 0
-3744 3746 -3748 -3749 0
-3744 -3746 3748 -3749 0
-3744 -3746 -3748 -3749 0
422 3750 0
-422 -3750 0
3750 3751 0
-3750 -3751 0
3751 3752 0
-3751 -3752 0
424 3753 0
-424 -3753 0
3753 3754 0
-3753 -3754 0
3754 3755 0
-3754 -3755 0
3744 3752 3755 3756 0
3744 3752 -3755 -3756 0
3744 -3752 3755 -3756 0
3744 -3752 -3755 -3756 0
-3744 3752 3755 -3756 0
-3744 3752 -3755 -3756 0
-3744 -3752 3755 -3756 0
-3744 -3752 -3755 -3756 0
427 3757 0
-427 -3757 0
3757 3758 0
-3757 -3758 0
3758 3759 0
-3758 -3759 0
3759 3746 3755 3760 0
3759 3746 -3755 -3760 0
3759 -3746 3755 -3760 0
3759 -3746 -3755 -3760 0
-3759 3746 3755 -3760 0
-3759 3746 -3755 -3760 0
-3759 -3746 3755 -3760 0
-3759 -3746 -3755 -3760 0
3759 3752 3748 3761 0
3759 3752 -3748 -3761 0
3759 -3752 3748 -3761 0
3759 -3752 -3748 -3761 0
-3759 3752 3748 -3761 0
-3759 3752 -3748 -3761 0
-3759 -3752 3748 -3761 0
-3759 -3752 -3748 -3761 0
3749 3756 3760 3761 -3762 0
3749 3756 3760 -3761 3762 0
3749 3756 -3760 3761 3762 0
3749 3756 -3760 -3761 3762 0
3749 -3756 3760 3761 3762 0
3749 -3756 3760 -3761 3762 0
3749 -3756 -3760 3761 3762 0
3749 -3756 -3760 -3761 3762 0
-3749 3756 3760 3761 3762 0
-3749 3756 3760 -3761 3762 0
-3749 3756 -3760 3761 3762 0
-3749 3756 -3760 -3761 3762 0
-3749 -3756 3760 3761 3762 0
-3749 -3756 3760 -3761 3762 0
-3749 -3756 -3760 3761 3762 0
-3749 -3756 -3760 -3761 3762 0
3762 3763 0
-3762 -3763 0
3763 3764 0
-3763 -3764 0
3764 3765 0
-3764 -3765 0
416 3766 0
-416 -3766 0
3766 3302 3767 0
3766 -3302 -3767 0
-3766 3302 -3767 0
-3766 -3302 -3767 0
418 3768 0
-418 -3768 0
3356 3768 3769 0
3356 -3768 -3769 0
-3356 3768 -3769 0
-3356 -3768 -3769 0
3767 3769 -3770 0
3767 -3769 3770 0
-3767 3769 3770 0
-3767 -3769 3770 0
3770 3771 0
-3770 -3771 0
3771 3772 0
-3771 -3772 0
3491 3773 0
-3491 -3773 0
3773 3774 0
-3773 -3774 0
3391 3775 0
-3391 -3775 0
3775 3776 0
-3775 -3776 0
3439 3777 0
-3439 -3777 0
3777 3778 0
-3777 -3778 0
3774 3776 3778 3779 0
3774 3776 -3778 -3779 0
3774 -3776 3778 -3779 0
3774 -3776 -3778 -3779 0
-3774 3776 3778 -3779 0
-3774 3776 -3778 -3779 0
-3774 -3776 3778 -3779 0
-3774 -3776 -3778 -3779 0
421 3780 0
-421 -3780 0
3780 3781 0
-3780 -3781 0
3781 3782 0
-3781 -3782 0
426 3783 0
-426 -3783 0
3783 3784 0
-3783 -3784 0
3784 3785 0
-3784 -3785 0
3774 3782 3785 3786 0
3774 3782 -3785 -3786 0
3774 -3782 3785 -3786 0
3774 -3782 -3785 -3786 0
-3774 3782 3785 -3786 0
-3774 3782 -3785 -3786 0
-3774 -3782 3785 -3786 0
-3774 -3782 -3785 -3786 0
216 3787 0
-216 -3787 0
3787 3788 0
-3787 -3788 0
3788 3789 0
-3788 -3789 0
3789 3776 3785 3790 0
3789 3776 -3785 -3790 0
3789 -3776 3785 -3790 0
3789 -3776 -3785 -3790 0
-3789 3776 3785 -3790 0
-3789 3776 -3785 -3790 0
-3789 -3776 3785 -3790 0
-3789 -3776 -3785 -3790 0
3789 3782 3778 3791 0
3789 3782 -3778 -3791 0
3789 -3782 3778 -3791 0
3789 -3782 -3778 -3791 0
-3789 3782 3778 -3791 0
-3789 3782 -3778 -3791 0
-3789 -3782 3778 -3791 0
-3789 -3782 -3778 -3791 0
3779 3786 3790 3791 -3792 0
3779 3786 3790 -3791 3792 0
3779 3786 -3790 3791 3792 0
3779 3786 -3790 -3791 3792 0
3779 -3786 3790 3791 3792 0
3779 -3786 3790 -3791 3792 0
3779 -3786 -3790 3791 3792 0
3779 -3786 -3790 -3791 3792 0
-3779 3786 3790 3791 3792 0
-3779 3786 3790 -3791 3792 0
-3779 3786 -3790 3791 3792 0
-3779 3786 -3790 -3791 3792 0
-3779 -3786 3790 3791 3792 0
-3779 -3786 3790 -3791 3792 0
-3779 -3786 -3790 3791 3792 0
-3779 -3786 -3790 -3791 3792 0
3792 3793 0
-3792 -3793 0
3793 3794 0
-3793 -3794 0
3794 3795 0
-3794 -3795 0
3765 3772 3795 3796 0
3765 3772 -3795 -3796 0
3765 -3772 3795 -3796 0
3765 -3772 -3795 -3796 0
-3765 3772 3795 -3796 0
-3765 3772 -3795 -3796 0
-3765 -3772 3795 -3796 0
-3765 -3772 -3795 -3796 0
3770 3797 0
-3770 -3797 0
3797 3798 0
-3797 -3798 0
3798 3799 0
-3798 -3799 0
3792 3800 0
-3792 -3800 0
3800 3801 0
-3800 -3801 0
3765 3799 3801 3802 0
3765 3799 -3801 -3802 0
3765 -3799 3801 -3802 0
3765 -3799 -3801 -3802 0
-3765 3799 3801 -3802 0
-3765 3799 -3801 -3802 0
-3765 -3799 3801 -3802 0
-3765 -3799 -3801 -3802 0
3762 3803 0
-3762 -3803 0
3803 3804 0
-3803 -3804 0
3804 3772 3801 3805 0
3804 3772 -3801 -3805 0
3804 -3772 3801 -3805 0
3804 -3772 -3801 -3805 0
-3804 3772 3801 -3805 0
-3804 3772 -3801 -3805 0
-3804 -3772 3801 -3805 0
-3804 -3772 -3801 -3805 0
3804 3799 3795 3806 0
3804 3799 -3795 -3806 0
3804 -3799 3795 -3806 0
3804 -3799 -3795 -3806 0
-3804 3799 3795 -3806 0
-3804 3799 -3795 -3806 0
-3804 -3799 3795 -3806 0
-3804 -3799 -3795 -3806 0
3796 3802 3805 3806 -3807 0
3796 3802 3805 -3806 3807 0
3796 3802 -3805 3806 3807 0
3796 3802 -3805 -3806 3807 0
3796 -3802 3805 3806 3807 0
3796 -3802 3805 -3806 3807 0
3796 -3802 -3805 3806 3807 0
3796 -3802 -3805 -3806 3807 0
-3796 3802 3805 3806 3807 0
-3796 3802 3805 -3806 3807 0
-3796 3802 -3805 3806 3807 0
-3796 3802 -3805 -3806 3807 0
-3796 -3802 3805 3806 3807 0
-3796 -3802 3805 -3806 3807 0
-3796 -3802 -3805 3806 3807 0
-3796 -3802 -3805 -3806 3807 0
3807 3808 0
-3807 -3808 0
3300 3808 3809 0
3300 -3808 -3809 0
-3300 3808 -3809 0
-3300 -3808 -3809 0
1419 3306 3810 0
1419 -3306 -3810 0
-1419 3306 -3810 0
-1419 -3306 -3810 0
3304 1230 3811 0
3304 -1230 -3811 0
-3304 1230 -3811 0
-3304 -1230 -3811 0
3810 3811 -3812 0
3810 -3811 3812 0
-3810 3811 3812 0
-3810 -3811 3812 0
3809 3812 3813 0
3809 -3812 -3813 0
-3809 3812 -3813 0
-3809 -3812 -3813 0
3313 3813 3814 0
3313 -3813 -3814 0
-3313 3813 -3814 0
-3313 -3813 -3814 0
3742 3814 -3815 0
3742 -3814 3815 0
-3742 3814 3815 0
-3742 -3814 3815 0
3815 3816 0
-3815 -3816 0
3816 3817 0
-3816 -3817 0
3817 3818 0
-3817 -3818 0
3818 3819 0
-3818 -3819 0
3819 3820 0
-3819 -3820 0
3820 3821 0
-3820 -3821 0
3729 3821 -3822 0
3729 -3821 3822 0
-3729 3821 3822 0
-3729 -3821 -3822 0
338 3823 0
-338 -3823 0
3823 3824 0
-3823 -3824 0
3824 3825 0
-3824 -3825 0
3825 3826 0
-3825 -3826 0
3826 3827 0
-3826 -3827 0
3827 3828 0
-3827 -3828 0
3828 3829 0
-3828 -3829 0
3829 3830 0
-3829 -3830 0
3830 3831 0
-3830 -3831 0
338 3832 0
-338 -3832 0
3832 3833 0
-3832 -3833 0
3833 3834 0
-3833 -3834 0
3834 3835 0
-3834 -3835 0
3835 3836 0
-3835 -3836 0
3836 3837 0
-3836 -3837 0
3837 3838 0
-3837 -3838 0
3838 3839 0
-3838 -3839 0
3839 3840 0
-3839 -3840 0
3831 3840 -3841 0
3831 -3840 3841 0
-3831 3840 3841 0
-3831 -3840 -3841 0
344 3842 0
-344 -3842 0
3842 3843 0
-3842 -3843 0
3843 3844 0
-3843 -3844 0
3844 3845 0
-3844 -3845 0
3845 3846 0
-3845 -3846 0
3846 3847 0
-3846 -3847 0
3847 3848 0
-3847 -3848 0
3848 3849 0
-3848 -3849 0
3849 3850 0
-3849 -3850 0
344 3851 0
-344 -3851 0
3851 3852 0
-3851 -3852 0
3852 3853 0
-3852 -3853 0
3853 3854 0
-3853 -3854 0
3854 3855 0
-3854 -3855 0
3855 3856 0
-3855 -3856 0
3856 3857 0
-3856 -3857 0
3857 3858 0
-3857 -3858 0
3858 3859 0
-3858 -3859 0
3850 3859 -3860 0
3850 -3859 3860 0
-3850 3859 3860 0
-3850 -3859 -3860 0
341 3861 0
-341 -3861 0
3861 3862 0
-3861 -3862 0
3862 3863 0
-3862 -3863 0
3863 3864 0
-3863 -3864 0
3864 3865 0
-3864 -3865 0
3865 3866 0
-3865 -3866 0
3866 3867 0
-3866 -3867 0
3867 3868 0
-3867 -3868 0
3868 3869 0
-3868 -3869 0
341 3870 0
-341 -3870 0
3870 3871 0
-3870 -3871 0
3871 3872 0
-3871 -3872 0
3872 3873 0
-3872 -3873 0
3873 3874 0
-3873 -3874 0
3874 3875 0
-3874 -3875 0
3875 3876 0
-3875 -3876 0
3876 3877 0
-3876 -3877 0
3877 3878 0
-3877 -3878 0
3869 3878 -3879 0
3869 -3878 3879 0
-3869 3878 3879 0
-3869 -3878 -3879 0
3234 3880 0
-3234 -3880 0
3649 3880 3881 0
3649 -3880 -3881 0
-3649 3880 -3881 0
-3649 -3880 -3881 0
323 3882 0
-323 -3882 0
338 3883 0
-338 -3883 0
3882 3883 3884 0
3882 -3883 -3884 0
-3882 3883 -3884 0
-3882 -3883 -3884 0
323 3885 0
-323 -3885 0
3885 3886 0
-3885 -3886 0
3824 3886 3887 0
3824 -3886 -3887 0
-3824 3886 -3887 0
-3824 -3886 -3887 0
3884 3887 -3888 0
3884 -3887 3888 0
-3884 3887 3888 0
-3884 -3887 3888 0
3888 3889 0
-3888 -3889 0
3889 3890 0
-3889 -3890 0
344 3891 0
-344 -3891 0
3891 3862 3892 0
3891 -3862 -3892 0
-3891 3862 -3892 0
-3891 -3862 -3892 0
341 3893 0
-341 -3893 0
3893 3843 3894 0
3893 -3843 -3894 0
-3893 3843 -3894 0
-3893 -3843 -3894 0
3892 3894 -3895 0
3892 -3894 3895 0
-3892 3894 3895 0
-3892 -3894 3895 0
3895 3896 0
-3895 -3896 0
3896 3897 0
-3896 -3897 0
3890 3897 3898 0
3890 -3897 -3898 0
-3890 3897 -3898 0
-3890 -3897 -3898 0
3890 3898 3899 0
3890 -3898 -3899 0
-3890 3898 -3899 0
-3890 -3898 -3899 0
3898 3897 3900 0
3898 -3897 -3900 0
-3898 3897 -3900 0
-3898 -3897 -3900 0
3899 3900 -3901 0
3899 -3900 3901 0
-3899 3900 3901 0
-3899 -3900 3901 0
3901 3902 0
-3901 -3902 0
3881 3902 -3903 0
3881 -3902 3903 0
-3881 3902 3903 0
-3881 -3902 3903 0
3903 3904 0
-3903 -3904 0
3904 3905 0
-3904 -3905 0
3905 3906 0
-3905 -3906 0
3906 3907 0
-3906 -3907 0
3312 3908 0
-3312 -3908 0
3741 3908 3909 0
3741 -3908 -3909 0
-3741 3908 -3909 0
-3741 -3908 -3909 0
323 3910 0
-323 -3910 0
338 3911 0
-338 -3911 0
3910 3911 3912 0
3910 -3911 -3912 0
-3910 3911 -3912 0
-3910 -3911 -3912 0
323 3913 0
-323 -3913 0
3913 3914 0
-3913 -3914 0
3833 3914 3915 0
3833 -3914 -3915 0
-3833 3914 -3915 0
-3833 -3914 -3915 0
3912 3915 -3916 0
3912 -3915 3916 0
-3912 3915 3916 0
-3912 -3915 3916 0
3916 3917 0
-3916 -3917 0
3917 3918 0
-3917 -3918 0
344 3919 0
-344 -3919 0
3919 3871 3920 0
3919 -3871 -3920 0
-3919 3871 -3920 0
-3919 -3871 -3920 0
341 3921 0
-341 -3921 0
3921 3852 3922 0
3921 -3852 -3922 0
-3921 3852 -3922 0
-3921 -3852 -3922 0
3920 3922 -3923 0
3920 -3922 3923 0
-3920 3922 3923 0
-3920 -3922 3923 0
3923 3924 0
-3923 -3924 0
3924 3925 0
-3924 -3925 0
3918 3925 3926 0
3918 -3925 -3926 0
-3918 3925 -3926 0
-3918 -3925 -3926 0
3918 3926 3927 0
3918 -3926 -3927 0
-3918 3926 -3927 0
-3918 -3926 -3927 0
3926 3925 3928 0
3926 -3925 -3928 0
-3926 3925 -3928 0
-3926 -3925 -3928 0
3927 3928 -3929 0
3927 -3928 3929 0
-3927 3928 3929 0
-3927 -3928 3929 0
3929 3930 0
-3929 -3930 0
3909 3930 -3931 0
3909 -3930 3931 0
-3909 3930 3931 0
-3909 -3930 3931 0
3931 3932 0
-3931 -3932 0
3932 3933 0
-3932 -3933 0
3933 3934 0
-3933 -3934 0
3934 3935 0
-3934 -3935 0
3907 3935 -3936 0
3907 -3935 3936 0
-3907 3935 3936 0
-3907 -3935 -3936 0
3880 3220 3937 0
3880 -3220 -3937 0
-3880 3220 -3937 0
-3880 -3220 -3937 0
419 3938 0
-419 -3938 0
3716 3938 3939 0
3716 -3938 -3939 0
-3716 3938 -3939 0
-3716 -3938 -3939 0
419 3940 0
-419 -3940 0
3940 3941 0
-3940 -3941 0
3941 3715 3942 0
3941 -3715 -3942 0
-3941 3715 -3942 0
-3941 -3715 -3942 0
3939 3942 -3943 0
3939 -3942 3943 0
-3939 3942 3943 0
-3939 -3942 3943 0
3943 3944 0
-3943 -3944 0
3937 3944 -3945 0
3937 -3944 3945 0
-3937 3944 3945 0
-3937 -3944 3945 0
3945 3946 0
-3945 -3946 0
3946 3947 0
-3946 -3947 0
3947 3948 0
-3947 -3948 0
3948 3949 0
-3948 -3949 0
3908 3298 3950 0
3908 -3298 -3950 0
-3908 3298 -3950 0
-3908 -3298 -3950 0
419 3951 0
-419 -3951 0
3808 3951 3952 0
3808 -3951 -3952 0
-3808 3951 -3952 0
-3808 -3951 -3952 0
419 3953 0
-419 -3953 0
3953 3954 0
-3953 -3954 0
3954 3807 3955 0
3954 -3807 -3955 0
-3954 3807 -3955 0
-3954 -3807 -3955 0
3952 3955 -3956 0
3952 -3955 3956 0
-3952 3955 3956 0
-3952 -3955 3956 0
3956 3957 0
-3956 -3957 0
3950 3957 -3958 0
3950 -3957 3958 0
-3950 3957 3958 0
-3950 -3957 3958 0
3958 3959 0
-3958 -3959 0
3959 3960 0
-3959 -3960 0
3960 3961 0
-3960 -3961 0
3961 3962 0
-3961 -3962 0
3949 3962 -3963 0
3949 -3962 3963 0
-3949 3962 3963 0
-3949 -3962 -3963 0
3328 3880 3964 0
3328 -3880 -3964 0
-3328 3880 -3964 0
-3328 -3880 -3964 0
238 3965 0
-238 -3965 0
3965 3966 0
-3965 -3966 0
3966 2132 3967 0
3966 -2132 -3967 0
-3966 2132 -3967 0
-3966 -2132 -3967 0
238 3968 0
-238 -3968 0
3968 2135 3969 0
3968 -2135 -3969 0
-3968 2135 -3969 0
-3968 -2135 -3969 0
3967 3969 -3970 0
3967 -3969 3970 0
-3967 3969 3970 0
-3967 -3969 3970 0
3970 3971 0
-3970 -3971 0
3964 3971 -3972 0
3964 -3971 3972 0
-3964 3971 3972 0
-3964 -3971 3972 0
3972 3973 0
-3972 -3973 0
3973 3974 0
-3973 -3974 0
3974 3975 0
-3974 -3975 0
3975 3976 0
-3975 -3976 0
3350 3908 3977 0
3350 -3908 -3977 0
-3350 3908 -3977 0
-3350 -3908 -3977 0
238 3978 0
-238 -3978 0
3978 3979 0
-3978 -3979 0
3979 2496 3980 0
3979 -2496 -3980 0
-3979 2496 -3980 0
-3979 -2496 -3980 0
238 3981 0
-238 -3981 0
3981 2499 3982 0
3981 -2499 -3982 0
-3981 2499 -3982 0
-3981 -2499 -3982 0
3980 3982 -3983 0
3980 -3982 3983 0
-3980 3982 3983 0
-3980 -3982 3983 0
3983 3984 0
-3983 -3984 0
3977 3984 -3985 0
3977 -3984 3985 0
-3977 3984 3985 0
-3977 -3984 3985 0
3985 3986 0
-3985 -3986 0
3986 3987 0
-3986 -3987 0
3987 3988 0
-3987 -3988 0
3988 3989 0
-3988 -3989 0
3976 3989 -3990 0
3976 -3989 3990 0
-3976 3989 3990 0
-3976 -3989 -3990 0
3880 3381 3991 0
3880 -3381 -3991 0
-3880 3381 -3991 0
-3880 -3381 -3991 0
1387 3992 0
-1387 -3992 0
3991 3992 -3993 0
3991 -3992 3993 0
-3991 3992 3993 0
-3991 -3992 3993 0
3993 3994 0
-3993 -3994 0
3994 3995 0
-3994 -3995 0
3995 3996 0
-3995 -3996 0
3996 3997 0
-3996 -3997 0
3908 3403 3998 0
3908 -3403 -3998 0
-3908 3403 -3998 0
-3908 -3403 -3998 0
1480 3999 0
-1480 -3999 0
3998 3999 -4000 0
3998 -3999 4000 0
-3998 3999 4000 0
-3998 -3999 4000 0
4000 4001 0
-4000 -4001 0
4001 4002 0
-4001 -4002 0
4002 4003 0
-4002 -4003 0
4003 4004 0
-4003 -4004 0
3997 4004 -4005 0
3997 -4004 4005 0
-3997 4004 4005 0
-3997 -4004 -4005 0
3880 3426 4006 0
3880 -3426 -4006 0
-3880 3426 -4006 0
-3880 -3426 -4006 0
1003 4007 0
-1003 -4007 0
4006 4007 -4008 0
4006 -4007 4008 0
-4006 4007 4008 0
-4006 -4007 4008 0
4008 4009 0
-4008 -4009 0
4009 4010 0
-4009 -4010 0
4010 4011 0
-4010 -4011 0
4011 4012 0
-4011 -4012 0
3908 3448 4013 0
3908 -3448 -4013 0
-3908 3448 -4013 0
-3908 -3448 -4013 0
1096 4014 0
-1096 -4014 0
4013 4014 -4015 0
4013 -4014 4015 0
-4013 4014 4015 0
-4013 -4014 4015 0
4015 4016 0
-4015 -4016 0
4016 4017 0
-4016 -4017 0
4017 4018 0
-4017 -4018 0
4018 4019 0
-4018 -4019 0
4012 4019 -4020 0
4012 -4019 4020 0
-4012 4019 4020 0
-4012 -4019 -4020 0
3880 3463 4021 0
3880 -3463 -4021 0
-3880 3463 -4021 0
-3880 -3463 -4021 0
1195 4022 0
-1195 -4022 0
4021 4022 -4023 0
4021 -4022 4023 0
-4021 4022 4023 0
-4021 -4022 4023 0
4023 4024 0
-4023 -4024 0
4024 4025 0
-4024 -4025 0
4025 4026 0
-4025 -4026 0
4026 4027 0
-4026 -4027 0
3908 3485 4028 0
3908 -3485 -4028 0
-3908 3485 -4028 0
-3908 -3485 -4028 0
1293 4029 0
-1293 -4029 0
4028 4029 -4030 0
4028 -4029 4030 0
-4028 4029 4030 0
-4028 -4029 4030 0
4030 4031 0
-4030 -4031 0
4031 4032 0
-4031 -4032 0
4032 4033 0
-4032 -4033 0
4033 4034 0
-4033 -4034 0
4027 4034 -4035 0
4027 -4034 4035 0
-4027 4034 4035 0
-4027 -4034 -4035 0
3516 3880 4036 0
3516 -3880 -4036 0
-3516 3880 -4036 0
-3516 -3880 -4036 0
527 4037 0
-527 -4037 0
4036 4037 -4038 0
4036 -4037 4038 0
-4036 4037 4038 0
-4036 -4037 4038 0
4038 4039 0
-4038 -4039 0
4039 4040 0
-4039 -4040 0
4040 4041 0
-4040 -4041 0
4041 4042 0
-4041 -4042 0
3538 3908 4043 0
3538 -3908 -4043 0
-3538 3908 -4043 0
-3538 -3908 -4043 0
625 4044 0
-625 -4044 0
4043 4044 -4045 0
4043 -4044 4045 0
-4043 4044 4045 0
-4043 -4044 4045 0
4045 4046 0
-4045 -4046 0
4046 4047 0
-4046 -4047 0
4047 4048 0
-4047 -4048 0
4048 4049 0
-4048 -4049 0
4042 4049 -4050 0
4042 -4049 4050 0
-4042 4049 4050 0
-4042 -4049 -4050 0
3561 3880 4051 0
3561 -3880 -4051 0
-3561 3880 -4051 0
-3561 -3880 -4051 0
1579 4052 0
-1579 -4052 0
4051 4052 -4053 0
4051 -4052 4053 0
-4051 4052 4053 0
-4051 -4052 4053 0
4053 4054 0
-4053 -4054 0
4054 4055 0
-4054 -4055 0
4055 4056 0
-4055 -4056 0
4056 4057 0
-4056 -4057 0
3583 3908 4058 0
3583 -3908 -4058 0
-3583 3908 -4058 0
-3583 -3908 -4058 0
1677 4059 0
-1677 -4059 0
4058 4059 -4060 0
4058 -4059 4060 0
-4058 4059 4060 0
-4058 -4059 4060 0
4060 4061 0
-4060 -4061 0
4061 4062 0
-4061 -4062 0
4062 4063 0
-4062 -4063 0
4063 4064 0
-4063 -4064 0
4057 4064 -4065 0
4057 -4064 4065 0
-4057 4064 4065 0
-4057 -4064 -4065 0
3598 3880 4066 0
3598 -3880 -4066 0
-3598 3880 -4066 0
-3598 -3880 -4066 0
843 4067 0
-843 -4067 0
4066 4067 -4068 0
4066 -4067 4068 0
-4066 4067 4068 0
-4066 -4067 4068 0
4068 4069 0
-4068 -4069 0
4069 4070 0
-4069 -4070 0
4070 4071 0
-4070 -4071 0
4071 4072 0
-4071 -4072 0
3620 3908 4073 0
3620 -3908 -4073 0
-3620 3908 -4073 0
-3620 -3908 -4073 0
897 4074 0
-897 -4074 0
4073 4074 -4075 0
4073 -4074 4075 0
-4073 4074 4075 0
-4073 -4074 4075 0
4075 4076 0
-4075 -4076 0
4076 4077 0
-4076 -4077 0
4077 4078 0
-4077 -4078 0
4078 4079 0
-4078 -4079 0
4072 4079 -4080 0
4072 -4079 4080 0
-4072 4079 4080 0
-4072 -4079 -4080 0
3715 4081 0
-3715 -4081 0
4081 4082 0
-4081 -4082 0
4082 4083 0
-4082 -4083 0
4083 4084 0
-4083 -4084 0
4084 4085 0
-4084 -4085 0
4085 4086 0
-4085 -4086 0
3807 4087 0
-3807 -4087 0
4087 4088 0
-4087 -4088 0
4088 4089 0
-4088 -4089 0
4089 4090 0
-4089 -4090 0
4090 4091 0
-4090 -4091 0
4091 4092 0
-4091 -4092 0
4086 4092 -4093 0
4086 -4092 4093 0
-4086 4092 4093 0
-4086 -4092 -4093 0
3676 4094 0
-3676 -4094 0
4094 4095 0
-4094 -4095 0
346 4096 0
-346 -4096 0
4096 4097 0
-4096 -4097 0
4097 4098 0
-4097 -4098 0
4098 4099 0
-4098 -4099 0
4099 4100 0
-4099 -4100 0
346 4101 0
-346 -4101 0
4101 4102 0
-4101 -4102 0
4102 4103 0
-4102 -4103 0
4103 4104 0
-4103 -4104 0
4100 4104 -4105 0
4100 -4104 4105 0
-4100 4104 4105 0
-4100 -4104 4105 0
4105 4106 0
-4105 -4106 0
4106 4107 0
-4106 -4107 0
4095 4107 -4108 0
4095 -4107 4108 0
-4095 4107 4108 0
-4095 -4107 4108 0
4108 4109 0
-4108 -4109 0
4109 4110 0
-4109 -4110 0
4110 4111 0
-4110 -4111 0
4111 4112 0
-4111 -4112 0
3768 4113 0
-3768 -4113 0
4113 4114 0
-4113 -4114 0
346 4115 0
-346 -4115 0
4115 4116 0
-4115 -4116 0
4116 4117 0
-4116 -4117 0
4117 4118 0
-4117 -4118 0
4118 4119 0
-4118 -4119 0
346 4120 0
-346 -4120 0
4120 4121 0
-4120 -4121 0
4121 4122 0
-4121 -4122 0
4122 4123 0
-4122 -4123 0
4119 4123 -4124 0
4119 -4123 4124 0
-4119 4123 4124 0
-4119 -4123 4124 0
4124 4125 0
-4124 -4125 0
4125 4126 0
-4125 -4126 0
4114 4126 -4127 0
4114 -4126 4127 0
-4114 4126 4127 0
-4114 -4126 4127 0
4127 4128 0
-4127 -4128 0
4128 4129 0
-4128 -4129 0
4129 4130 0
-4129 -4130 0
4130 4131 0
-4130 -4131 0
4112 4131 -4132 0
4112 -4131 4132 0
-4112 4131 4132 0
-4112 -4131 -4132 0
3674 4133 0
-3674 -4133 0
4133 4134 0
-4133 -4134 0
349 4135 0
-349 -4135 0
4135 4136 0
-4135 -4136 0
4101 4136 4137 0
4101 -4136 -4137 0
-4101 4136 -4137 0
-4101 -4136 -4137 0
4136 4138 0
-4136 -4138 0
349 4139 0
-349 -4139 0
4097 4139 4140 0
4097 -4139 -4140 0
-4097 4139 -4140 0
-4097 -4139 -4140 0
4137 4138 4140 -4141 0
4137 4138 -4140 4141 0
4137 -4138 4140 4141 0
4137 -4138 -4140 4141 0
-4137 4138 4140 4141 0
-4137 4138 -4140 4141 0
-4137 -4138 4140 4141 0
-4137 -4138 -4140 4141 0
4141 4142 0
-4141 -4142 0
4142 4143 0
-4142 -4143 0
4134 4143 -4144 0
4134 -4143 4144 0
-4134 4143 4144 0
-4134 -4143 4144 0
4144 4145 0
-4144 -4145 0
4145 4146 0
-4145 -4146 0
4146 4147 0
-4146 -4147 0
4147 4148 0
-4147 -4148 0
3766 4149 0
-3766 -4149 0
4149 4150 0
-4149 -4150 0
349 4151 0
-349 -4151 0
4151 4152 0
-4151 -4152 0
4120 4152 4153 0
4120 -4152 -4153 0
-4120 4152 -4153 0
-4120 -4152 -4153 0
4152 4154 0
-4152 -4154 0
349 4155 0
-349 -4155 0
4116 4155 4156 0
4116 -4155 -4156 0
-4116 4155 -4156 0
-4116 -4155 -4156 0
4153 4154 4156 -4157 0
4153 4154 -4156 4157 0
4153 -4154 4156 4157 0
4153 -4154 -4156 4157 0
-4153 4154 4156 4157 0
-4153 4154 -4156 4157 0
-4153 -4154 4156 4157 0
-4153 -4154 -4156 4157 0
4157 4158 0
-4157 -4158 0
4158 4159 0
-4158 -4159 0
4150 4159 -4160 0
4150 -4159 4160 0
-4150 4159 4160 0
-4150 -4159 4160 0
4160 4161 0
-4160 -4161 0
4161 4162 0
-4161 -4162 0
4162 4163 0
-4162 -4163 0
4163 4164 0
-4163 -4164 0
4148 4164 -4165 0
4148 -4164 4165 0
-4148 4164 4165 0
-4148 -4164 -4165 0
3688 4166 0
-3688 -4166 0
4166 4167 0
-4166 -4167 0
357 4168 0
-357 -4168 0
4097 4136 4169 0
4097 -4136 -4169 0
-4097 4136 -4169 0
-4097 -4136 -4169 0
4169 4170 0
-4169 -4170 0
4168 4170 4171 0
4168 -4170 -4171 0
-4168 4170 -4171 0
-4168 -4170 -4171 0
357 4172 0
-357 -4172 0
4172 4173 0
-4172 -4173 0
4173 4169 4174 0
4173 -4169 -4174 0
-4173 4169 -4174 0
-4173 -4169 -4174 0
4171 4174 -4175 0
4171 -4174 4175 0
-4171 4174 4175 0
-4171 -4174 4175 0
4175 4176 0
-4175 -4176 0
4176 4177 0
-4176 -4177 0
4167 4177 -4178 0
4167 -4177 4178 0
-4167 4177 4178 0
-4167 -4177 4178 0
4178 4179 0
-4178 -4179 0
4179 4180 0
-4179 -4180 0
4180 4181 0
-4180 -4181 0
4181 4182 0
-4181 -4182 0
3780 4183 0
-3780 -4183 0
4183 4184 0
-4183 -4184 0
357 4185 0
-357 -4185 0
4116 4152 4186 0
4116 -4152 -4186 0
-4116 4152 -4186 0
-4116 -4152 -4186 0
4186 4187 0
-4186 -4187 0
4185 4187 4188 0
4185 -4187 -4188 0
-4185 4187 -4188 0
-4185 -4187 -4188 0
357 4189 0
-357 -4189 0
4189 4190 0
-4189 -4190 0
4190 4186 4191 0
4190 -4186 -4191 0
-4190 4186 -4191 0
-4190 -4186 -4191 0
4188 4191 -4192 0
4188 -4191 4192 0
-4188 4191 4192 0
-4188 -4191 4192 0
4192 4193 0
-4192 -4193 0
4193 4194 0
-4193 -4194 0
4184 4194 -4195 0
4184 -4194 4195 0
-4184 4194 4195 0
-4184 -4194 4195 0
4195 4196 0
-4195 -4196 0
4196 4197 0
-4196 -4197 0
4197 4198 0
-4197 -4198 0
4198 4199 0
-4198 -4199 0
4182 4199 -4200 0
4182 -4199 4200 0
-4182 4199 4200 0
-4182 -4199 -4200 0
3691 4201 0
-3691 -4201 0
4201 4202 0
-4201 -4202 0
333 4203 0
-333 -4203 0
4203 4204 0
-4203 -4204 0
4204 4205 0
-4204 -4205 0
4205 4206 0
-4205 -4206 0
333 4207 0
-333 -4207 0
4207 4208 0
-4207 -4208 0
4208 4209 0
-4208 -4209 0
4209 4210 0
-4209 -4210 0
4210 4211 0
-4210 -4211 0
4206 4211 -4212 0
4206 -4211 4212 0
-4206 4211 4212 0
-4206 -4211 4212 0
4212 4213 0
-4212 -4213 0
4213 4214 0
-4213 -4214 0
4202 4214 -4215 0
4202 -4214 4215 0
-4202 4214 4215 0
-4202 -4214 4215 0
4215 4216 0
-4215 -4216 0
4216 4217 0
-4216 -4217 0
4217 4218 0
-4217 -4218 0
4218 4219 0
-4218 -4219 0
3783 4220 0
-3783 -4220 0
4220 4221 0
-4220 -4221 0
333 4222 0
-333 -4222 0
4222 4223 0
-4222 -4223 0
4223 4224 0
-4223 -4224 0
4224 4225 0
-4224 -4225 0
333 4226 0
-333 -4226 0
4226 4227 0
-4226 -4227 0
4227 4228 0
-4227 -4228 0
4228 4229 0
-4228 -4229 0
4229 4230 0
-4229 -4230 0
4225 4230 -4231 0
4225 -4230 4231 0
-4225 4230 4231 0
-4225 -4230 4231 0
4231 4232 0
-4231 -4232 0
4232 4233 0
-4232 -4233 0
4221 4233 -4234 0
4221 -4233 4234 0
-4221 4233 4234 0
-4221 -4233 4234 0
4234 4235 0
-4234 -4235 0
4235 4236 0
-4235 -4236 0
4236 4237 0
-4236 -4237 0
4237 4238 0
-4237 -4238 0
4219 4238 -4239 0
4219 -4238 4239 0
-4219 4238 4239 0
-4219 -4238 -4239 0
3695 4240 0
-3695 -4240 0
4240 4241 0
-4240 -4241 0
337 4242 0
-337 -4242 0
4242 4243 0
-4242 -4243 0
4243 4203 4244 0
4243 -4203 -4244 0
-4243 4203 -4244 0
-4243 -4203 -4244 0
4243 4245 0
-4243 -4245 0
337 4246 0
-337 -4246 0
4246 4208 4247 0
4246 -4208 -4247 0
-4246 4208 -4247 0
-4246 -4208 -4247 0
4244 4245 4247 -4248 0
4244 4245 -4247 4248 0
4244 -4245 4247 4248 0
4244 -4245 -4247 4248 0
-4244 4245 4247 4248 0
-4244 4245 -4247 4248 0
-4244 -4245 4247 4248 0
-4244 -4245 -4247 4248 0
4248 4249 0
-4248 -4249 0
4249 4250 0
-4249 -4250 0
4241 4250 -4251 0
4241 -4250 4251 0
-4241 4250 4251 0
-4241 -4250 4251 0
4251 4252 0
-4251 -4252 0
4252 4253 0
-4252 -4253 0
4253 4254 0
-4253 -4254 0
4254 4255 0
-4254 -4255 0
3787 4256 0
-3787 -4256 0
4256 4257 0
-4256 -4257 0
337 4258 0
-337 -4258 0
4258 4259 0
-4258 -4259 0
4259 4222 4260 0
4259 -4222 -4260 0
-4259 4222 -4260 0
-4259 -4222 -4260 0
4259 4261 0
-4259 -4261 0
337 4262 0
-337 -4262 0
4262 4227 4263 0
4262 -4227 -4263 0
-4262 4227 -4263 0
-4262 -4227 -4263 0
4260 4261 4263 -4264 0
4260 4261 -4263 4264 0
4260 -4261 4263 4264 0
4260 -4261 -4263 4264 0
-4260 4261 4263 4264 0
-4260 4261 -4263 4264 0
-4260 -4261 4263 4264 0
-4260 -4261 -4263 4264 0
4264 4265 0
-4264 -4265 0
4265 4266 0
-4265 -4266 0
4257 4266 -4267 0
4257 -4266 4267 0
-4257 4266 4267 0
-4257 -4266 4267 0
4267 4268 0
-4267 -4268 0
4268 4269 0
-4268 -4269 0
4269 4270 0
-4269 -4270 0
4270 4271 0
-4270 -4271 0
4255 4271 -4272 0
4255 -4271 4272 0
-4255 4271 4272 0
-4255 -4271 -4272 0
3658 4273 0
-3658 -4273 0
4273 4274 0
-4273 -4274 0
4243 4208 4275 0
4243 -4208 -4275 0
-4243 4208 -4275 0
-4243 -4208 -4275 0
335 4276 0
-335 -4276 0
4276 4277 0
-4276 -4277 0
4275 4277 4278 0
4275 -4277 -4278 0
-4275 4277 -4278 0
-4275 -4277 -4278 0
335 4279 0
-335 -4279 0
4275 4280 0
-4275 -4280 0
4279 4280 4281 0
4279 -4280 -4281 0
-4279 4280 -4281 0
-4279 -4280 -4281 0
4278 4281 -4282 0
4278 -4281 4282 0
-4278 4281 4282 0
-4278 -4281 4282 0
4282 4283 0
-4282 -4283 0
4283 4284 0
-4283 -4284 0
4274 4284 -4285 0
4274 -4284 4285 0
-4274 4284 4285 0
-4274 -4284 4285 0
4285 4286 0
-4285 -4286 0
4286 4287 0
-4286 -4287 0
4287 4288 0
-4287 -4288 0
4288 4289 0
-4288 -4289 0
3750 4290 0
-3750 -4290 0
4290 4291 0
-4290 -4291 0
4259 4227 4292 0
4259 -4227 -4292 0
-4259 4227 -4292 0
-4259 -4227 -4292 0
335 4293 0
-335 -4293 0
4293 4294 0
-4293 -4294 0
4292 4294 4295 0
4292 -4294 -4295 0
-4292 4294 -4295 0
-4292 -4294 -4295 0
335 4296 0
-335 -4296 0
4292 4297 0
-4292 -4297 0
4296 4297 4298 0
4296 -4297 -4298 0
-4296 4297 -4298 0
-4296 -4297 -4298 0
4295 4298 -4299 0
4295 -4298 4299 0
-4295 4298 4299 0
-4295 -4298 4299 0
4299 4300 0
-4299 -4300 0
4300 4301 0
-4300 -4301 0
4291 4301 -4302 0
4291 -4301 4302 0
-4291 4301 4302 0
-4291 -4301 4302 0
4302 4303 0
-4302 -4303 0
4303 4304 0
-4303 -4304 0
4304 4305 0
-4304 -4305 0
4305 4306 0
-4305 -4306 0
4289 4306 -4307 0
4289 -4306 4307 0
-4289 4306 4307 0
-4289 -4306 -4307 0
3661 4308 0
-3661 -4308 0
4308 4309 0
-4308 -4309 0
339 4310 0
-339 -4310 0
4277 4280 4310 4311 0
4277 4280 -4310 -4311 0
4277 -4280 4310 -4311 0
4277 -4280 -4310 -4311 0
-4277 4280 4310 -4311 0
-4277 4280 -4310 -4311 0
-4277 -4280 4310 -4311 0
-4277 -4280 -4310 -4311 0
339 4312 0
-339 -4312 0
4312 4313 0
-4312 -4313 0
4279 4313 4314 0
4279 -4313 -4314 0
-4279 4313 -4314 0
-4279 -4313 -4314 0
4275 4313 4315 0
4275 -4313 -4315 0
-4275 4313 -4315 0
-4275 -4313 -4315 0
4311 4314 4315 -4316 0
4311 4314 -4315 4316 0
4311 -4314 4315 4316 0
4311 -4314 -4315 4316 0
-4311 4314 4315 4316 0
-4311 4314 -4315 4316 0
-4311 -4314 4315 4316 0
-4311 -4314 -4315 4316 0
4316 4317 0
-4316 -4317 0
4317 4318 0
-4317 -4318 0
4309 4318 -4319 0
4309 -4318 4319 0
-4309 4318 4319 0
-4309 -4318 4319 0
4319 4320 0
-4319 -4320 0
4320 4321 0
-4320 -4321 0
4321 4322 0
-4321 -4322 0
4322 4323 0
-4322 -4323 0
3753 4324 0
-3753 -4324 0
4324 4325 0
-4324 -4325 0
339 4326 0
-339 -4326 0
4294 4297 4326 4327 0
4294 4297 -4326 -4327 0
4294 -4297 4326 -4327 0
4294 -4297 -4326 -4327 0
-4294 4297 4326 -4327 0
-4294 4297 -4326 -4327 0
-4294 -4297 4326 -4327 0
-4294 -4297 -4326 -4327 0
339 4328 0
-339 -4328 0
4328 4329 0
-4328 -4329 0
4296 4329 4330 0
4296 -4329 -4330 0
-4296 4329 -4330 0
-4296 -4329 -4330 0
4292 4329 4331 0
4292 -4329 -4331 0
-4292 4329 -4331 0
-4292 -4329 -4331 0
4327 4330 4331 -4332 0
4327 4330 -4331 4332 0
4327 -4330 4331 4332 0
4327 -4330 -4331 4332 0
-4327 4330 4331 4332 0
-4327 4330 -4331 4332 0
-4327 -4330 4331 4332 0
-4327 -4330 -4331 4332 0
4332 4333 0
-4332 -4333 0
4333 4334 0
-4333 -4334 0
4325 4334 -4335 0
4325 -4334 4335 0
-4325 4334 4335 0
-4325 -4334 4335 0
4335 4336 0
-4335 -4336 0
4336 4337 0
-4336 -4337 0
4337 4338 0
-4337 -4338 0
4338 4339 0
-4338 -4339 0
4323 4339 -4340 0
4323 -4339 4340 0
-4323 4339 4340 0
-4323 -4339 -4340 0
3665 4341 0
-3665 -4341 0
4341 4342 0
-4341 -4342 0
334 4343 0
-334 -4343 0
4313 4280 4277 4344 0
4313 4280 -4277 -4344 0
4313 -4280 4277 -4344 0
4313 -4280 -4277 -4344 0
-4313 4280 4277 -4344 0
-4313 4280 -4277 -4344 0
-4313 -4280 4277 -4344 0
-4313 -4280 -4277 -4344 0
4344 4345 0
-4344 -4345 0
4343 4345 4346 0
4343 -4345 -4346 0
-4343 4345 -4346 0
-4343 -4345 -4346 0
334 4347 0
-334 -4347 0
4347 4348 0
-4347 -4348 0
4348 4344 4349 0
4348 -4344 -4349 0
-4348 4344 -4349 0
-4348 -4344 -4349 0
4346 4349 -4350 0
4346 -4349 4350 0
-4346 4349 4350 0
-4346 -4349 4350 0
4350 4351 0
-4350 -4351 0
4351 4352 0
-4351 -4352 0
4342 4352 -4353 0
4342 -4352 4353 0
-4342 4352 4353 0
-4342 -4352 4353 0
4353 4354 0
-4353 -4354 0
4354 4355 0
-4354 -4355 0
4355 4356 0
-4355 -4356 0
4356 4357 0
-4356 -4357 0
3757 4358 0
-3757 -4358 0
4358 4359 0
-4358 -4359 0
334 4360 0
-334 -4360 0
4329 4297 4294 4361 0
4329 4297 -4294 -4361 0
4329 -4297 4294 -4361 0
4329 -4297 -4294 -4361 0
-4329 4297 4294 -4361 0
-4329 4297 -4294 -4361 0
-4329 -4297 4294 -4361 0
-4329 -4297 -4294 -4361 0
4361 4362 0
-4361 -4362 0
4360 4362 4363 0
4360 -4362 -4363 0
-4360 4362 -4363 0
-4360 -4362 -4363 0
334 4364 0
-334 -4364 0
4364 4365 0
-4364 -4365 0
4365 4361 4366 0
4365 -4361 -4366 0
-4365 4361 -4366 0
-4365 -4361 -4366 0
4363 4366 -4367 0
4363 -4366 4367 0
-4363 4366 4367 0
-4363 -4366 4367 0
4367 4368 0
-4367 -4368 0
4368 4369 0
-4368 -4369 0
4359 4369 -4370 0
4359 -4369 4370 0
-4359 4369 4370 0
-4359 -4369 4370 0
4370 4371 0
-4370 -4371 0
4371 4372 0
-4371 -4372 0
4372 4373 0
-4372 -4373 0
4373 4374 0
-4373 -4374 0
4357 4374 -4375 0
4357 -4374 4375 0
-4357 4374 4375 0
-4357 -4374 -4375 0
1885 1884 4376 0
1885 -1884 -4376 0
-1885 1884 -4376 0
-1885 -1884 -4376 0
648 4376 4377 0
648 -4376 -4377 0
-648 4376 -4377 0
-648 -4376 -4377 0
4377 4378 0
-4377 -4378 0
4378 4379 0
-4378 -4379 0
4379 4380 0
-4379 -4380 0
4380 4381 0
-4380 -4381 0
4381 4382 0
-4381 -4382 0
4382 4383 0
-4382 -4383 0
1905 1904 4384 0
1905 -1904 -4384 0
-1905 1904 -4384 0
-1905 -1904 -4384 0
720 4384 4385 0
720 -4384 -4385 0
-720 4384 -4385 0
-720 -4384 -4385 0
4385 4386 0
-4385 -4386 0
4386 4387 0
-4386 -4387 0
4387 4388 0
-4387 -4388 0
4388 4389 0
-4388 -4389 0
4389 4390 0
-4389 -4390 0
4390 4391 0
-4390 -4391 0
4383 4391 -4392 0
4383 -4391 4392 0
-4383 4391 4392 0
-4383 -4391 -4392 0
378 4393 0
-378 -4393 0
4393 4394 0
-4393 -4394 0
4394 4395 0
-4394 -4395 0
4395 4396 0
-4395 -4396 0
4396 4397 0
-4396 -4397 0
4397 4398 0
-4397 -4398 0
4398 4399 0
-4398 -4399 0
4399 4400 0
-4399 -4400 0
4400 4401 0
-4400 -4401 0
378 4402 0
-378 -4402 0
4402 4403 0
-4402 -4403 0
4403 4404 0
-4403 -4404 0
4404 4405 0
-4404 -4405 0
4405 4406 0
-4405 -4406 0
4406 4407 0
-4406 -4407 0
4407 4408 0
-4407 -4408 0
4408 4409 0
-4408 -4409 0
4409 4410 0
-4409 -4410 0
4401 4410 -4411 0
4401 -4410 4411 0
-4401 4410 4411 0
-4401 -4410 -4411 0
1683 4412 0
-1683 -4412 0
676 4413 0
-676 -4413 0
4412 4413 4414 0
4412 -4413 -4414 0
-4412 4413 -4414 0
-4412 -4413 -4414 0
1684 4415 0
-1684 -4415 0
682 4416 0
-682 -4416 0
4415 4416 4417 0
4415 -4416 -4417 0
-4415 4416 -4417 0
-4415 -4416 -4417 0
355 4418 0
-355 -4418 0
4418 4419 0
-4418 -4419 0
4419 4420 0
-4419 -4420 0
1795 1789 4420 4421 0
1795 1789 -4420 -4421 0
1795 -1789 4420 -4421 0
1795 -1789 -4420 -4421 0
-1795 1789 4420 -4421 0
-1795 1789 -4420 -4421 0
-1795 -1789 4420 -4421 0
-1795 -1789 -4420 -4421 0
355 4422 0
-355 -4422 0
4422 4423 0
-4422 -4423 0
1790 4423 4424 0
1790 -4423 -4424 0
-1790 4423 -4424 0
-1790 -4423 -4424 0
4423 1794 4425 0
4423 -1794 -4425 0
-4423 1794 -4425 0
-4423 -1794 -4425 0
4421 4424 4425 -4426 0
4421 4424 -4425 4426 0
4421 -4424 4425 4426 0
4421 -4424 -4425 4426 0
-4421 4424 4425 4426 0
-4421 4424 -4425 4426 0
-4421 -4424 4425 4426 0
-4421 -4424 -4425 4426 0
4426 4427 0
-4426 -4427 0
4427 4428 0
-4427 -4428 0
4414 4417 4428 -4429 0
4414 4417 -4428 4429 0
4414 -4417 4428 4429 0
4414 -4417 -4428 4429 0
-4414 4417 4428 4429 0
-4414 4417 -4428 4429 0
-4414 -4417 4428 4429 0
-4414 -4417 -4428 4429 0
4429 4430 0
-4429 -4430 0
4430 4431 0
-4430 -4431 0
4431 4432 0
-4431 -4432 0
4432 4433 0
-4432 -4433 0
1710 4434 0
-1710 -4434 0
748 4435 0
-748 -4435 0
4434 4435 4436 0
4434 -4435 -4436 0
-4434 4435 -4436 0
-4434 -4435 -4436 0
1711 4437 0
-1711 -4437 0
754 4438 0
-754 -4438 0
4437 4438 4439 0
4437 -4438 -4439 0
-4437 4438 -4439 0
-4437 -4438 -4439 0
355 4440 0
-355 -4440 0
4440 4441 0
-4440 -4441 0
4441 4442 0
-4441 -4442 0
1815 1809 4442 4443 0
1815 1809 -4442 -4443 0
1815 -1809 4442 -4443 0
1815 -1809 -4442 -4443 0
-1815 1809 4442 -4443 0
-1815 1809 -4442 -4443 0
-1815 -1809 4442 -4443 0
-1815 -1809 -4442 -4443 0
355 4444 0
-355 -4444 0
4444 4445 0
-4444 -4445 0
1810 4445 4446 0
1810 -4445 -4446 0
-1810 4445 -4446 0
-1810 -4445 -4446 0
4445 1814 4447 0
4445 -1814 -4447 0
-4445 1814 -4447 0
-4445 -1814 -4447 0
4443 4446 4447 -4448 0
4443 4446 -4447 4448 0
4443 -4446 4447 4448 0
4443 -4446 -4447 4448 0
-4443 4446 4447 4448 0
-4443 4446 -4447 4448 0
-4443 -4446 4447 4448 0
-4443 -4446 -4447 4448 0
4448 4449 0
-4448 -4449 0
4449 4450 0
-4449 -4450 0
4436 4439 4450 -4451 0
4436 4439 -4450 4451 0
4436 -4439 4450 4451 0
4436 -4439 -4450 4451 0
-4436 4439 4450 4451 0
-4436 4439 -4450 4451 0
-4436 -4439 4450 4451 0
-4436 -4439 -4450 4451 0
4451 4452 0
-4451 -4452 0
4452 4453 0
-4452 -4453 0
4453 4454 0
-4453 -4454 0
4454 4455 0
-4454 -4455 0
4433 4455 -4456 0
4433 -4455 4456 0
-4433 4455 4456 0
-4433 -4455 -4456 0
1738 4457 0
-1738 -4457 0
4457 4413 4458 0
4457 -4413 -4458 0
-4457 4413 -4458 0
-4457 -4413 -4458 0
1734 4459 0
-1734 -4459 0
4416 4459 4460 0
4416 -4459 -4460 0
-4416 4459 -4460 0
-4416 -4459 -4460 0
379 4461 0
-379 -4461 0
4461 4462 0
-4461 -4462 0
4462 4463 0
-4462 -4463 0
4423 1789 1795 4464 0
4423 1789 -1795 -4464 0
4423 -1789 1795 -4464 0
4423 -1789 -1795 -4464 0
-4423 1789 1795 -4464 0
-4423 1789 -1795 -4464 0
-4423 -1789 1795 -4464 0
-4423 -1789 -1795 -4464 0
4464 4465 0
-4464 -4465 0
4463 4465 4466 0
4463 -4465 -4466 0
-4463 4465 -4466 0
-4463 -4465 -4466 0
379 4467 0
-379 -4467 0
4467 4468 0
-4467 -4468 0
4464 4468 4469 0
4464 -4468 -4469 0
-4464 4468 -4469 0
-4464 -4468 -4469 0
4466 4469 -4470 0
4466 -4469 4470 0
-4466 4469 4470 0
-4466 -4469 4470 0
4470 4471 0
-4470 -4471 0
4471 4472 0
-4471 -4472 0
4458 4460 4472 -4473 0
4458 4460 -4472 4473 0
4458 -4460 4472 4473 0
4458 -4460 -4472 4473 0
-4458 4460 4472 4473 0
-4458 4460 -4472 4473 0
-4458 -4460 4472 4473 0
-4458 -4460 -4472 4473 0
4473 4474 0
-4473 -4474 0
4474 4475 0
-4474 -4475 0
4475 4476 0
-4475 -4476 0
4476 4477 0
-4476 -4477 0
1763 4478 0
-1763 -4478 0
4478 4435 4479 0
4478 -4435 -4479 0
-4478 4435 -4479 0
-4478 -4435 -4479 0
1759 4480 0
-1759 -4480 0
4438 4480 4481 0
4438 -4480 -4481 0
-4438 4480 -4481 0
-4438 -4480 -4481 0
379 4482 0
-379 -4482 0
4482 4483 0
-4482 -4483 0
4483 4484 0
-4483 -4484 0
4445 1809 1815 4485 0
4445 1809 -1815 -4485 0
4445 -1809 1815 -4485 0
4445 -1809 -1815 -4485 0
-4445 1809 1815 -4485 0
-4445 1809 -1815 -4485 0
-4445 -1809 1815 -4485 0
-4445 -1809 -1815 -4485 0
4485 4486 0
-4485 -4486 0
4484 4486 4487 0
4484 -4486 -4487 0
-4484 4486 -4487 0
-4484 -4486 -4487 0
379 4488 0
-379 -4488 0
4488 4489 0
-4488 -4489 0
4485 4489 4490 0
4485 -4489 -4490 0
-4485 4489 -4490 0
-4485 -4489 -4490 0
4487 4490 -4491 0
4487 -4490 4491 0
-4487 4490 4491 0
-4487 -4490 4491 0
4491 4492 0
-4491 -4492 0
4492 4493 0
-4492 -4493 0
4479 4481 4493 -4494 0
4479 4481 -4493 4494 0
4479 -4481 4493 4494 0
4479 -4481 -4493 4494 0
-4479 4481 4493 4494 0
-4479 4481 -4493 4494 0
-4479 -4481 4493 4494 0
-4479 -4481 -4493 4494 0
4494 4495 0
-4494 -4495 0
4495 4496 0
-4495 -4496 0
4496 4497 0
-4496 -4497 0
4497 4498 0
-4497 -4498 0
4477 4498 -4499 0
4477 -4498 4499 0
-4477 4498 4499 0
-4477 -4498 -4499 0
699 705 702 4500 0
699 705 -702 -4500 0
699 -705 702 -4500 0
699 -705 -702 -4500 0
-699 705 702 -4500 0
-699 705 -702 -4500 0
-699 -705 702 -4500 0
-699 -705 -702 -4500 0
4500 4501 0
-4500 -4501 0
4501 4416 4502 0
4501 -4416 -4502 0
-4501 4416 -4502 0
-4501 -4416 -4502 0
703 645 4503 0
703 -645 -4503 0
-703 645 -4503 0
-703 -645 -4503 0
4503 4504 0
-4503 -4504 0
4504 665 1680 4505 0
4504 665 -1680 -4505 0
4504 -665 1680 -4505 0
4504 -665 -1680 -4505 0
-4504 665 1680 -4505 0
-4504 665 -1680 -4505 0
-4504 -665 1680 -4505 0
-4504 -665 -1680 -4505 0
4505 4506 0
-4505 -4506 0
4506 4413 4507 0
4506 -4413 -4507 0
-4506 4413 -4507 0
-4506 -4413 -4507 0
4502 4507 4508 0
4502 -4507 -4508 0
-4502 4507 -4508 0
-4502 -4507 -4508 0
4508 4509 0
-4508 -4509 0
313 4510 0
-313 -4510 0
4510 4511 0
-4510 -4511 0
402 4512 0
-402 -4512 0
398 4513 0
-398 -4513 0
4513 4514 0
-4513 -4514 0
1943 4515 0
-1943 -4515 0
397 4516 0
-397 -4516 0
4516 4517 0
-4516 -4517 0
4514 4515 4517 4518 0
4514 4515 -4517 -4518 0
4514 -4515 4517 -4518 0
4514 -4515 -4517 -4518 0
-4514 4515 4517 -4518 0
-4514 4515 -4517 -4518 0
-4514 -4515 4517 -4518 0
-4514 -4515 -4517 -4518 0
4518 4519 0
-4518 -4519 0
4511 4512 4519 4520 0
4511 4512 -4519 -4520 0
4511 -4512 4519 -4520 0
4511 -4512 -4519 -4520 0
-4511 4512 4519 -4520 0
-4511 4512 -4519 -4520 0
-4511 -4512 4519 -4520 0
-4511 -4512 -4519 -4520 0
402 4521 0
-402 -4521 0
4521 4522 0
-4521 -4522 0
313 4523 0
-313 -4523 0
4522 4523 4524 0
4522 -4523 -4524 0
-4522 4523 -4524 0
-4522 -4523 -4524 0
4518 4522 4525 0
4518 -4522 -4525 0
-4518 4522 -4525 0
-4518 -4522 -4525 0
4520 4524 4525 -4526 0
4520 4524 -4525 4526 0
4520 -4524 4525 4526 0
4520 -4524 -4525 4526 0
-4520 4524 4525 4526 0
-4520 4524 -4525 4526 0
-4520 -4524 4525 4526 0
-4520 -4524 -4525 4526 0
4526 4527 0
-4526 -4527 0
4509 4527 4528 0
4509 -4527 -4528 0
-4509 4527 -4528 0
-4509 -4527 -4528 0
298 4529 0
-298 -4529 0
4529 4530 0
-4529 -4530 0
4530 4531 0
-4530 -4531 0
4531 4508 4532 0
4531 -4508 -4532 0
-4531 4508 -4532 0
-4531 -4508 -4532 0
4528 4532 -4533 0
4528 -4532 4533 0
-4528 4532 4533 0
-4528 -4532 4533 0
4533 4534 0
-4533 -4534 0
4534 4535 0
-4534 -4535 0
771 777 774 4536 0
771 777 -774 -4536 0
771 -777 774 -4536 0
771 -777 -774 -4536 0
-771 777 774 -4536 0
-771 777 -774 -4536 0
-771 -777 774 -4536 0
-771 -777 -774 -4536 0
4536 4537 0
-4536 -4537 0
4537 4438 4538 0
4537 -4438 -4538 0
-4537 4438 -4538 0
-4537 -4438 -4538 0
775 717 4539 0
775 -717 -4539 0
-775 717 -4539 0
-775 -717 -4539 0
4539 4540 0
-4539 -4540 0
4540 737 1707 4541 0
4540 737 -1707 -4541 0
4540 -737 1707 -4541 0
4540 -737 -1707 -4541 0
-4540 737 1707 -4541 0
-4540 737 -1707 -4541 0
-4540 -737 1707 -4541 0
-4540 -737 -1707 -4541 0
4541 4542 0
-4541 -4542 0
4542 4435 4543 0
4542 -4435 -4543 0
-4542 4435 -4543 0
-4542 -4435 -4543 0
4538 4543 4544 0
4538 -4543 -4544 0
-4538 4543 -4544 0
-4538 -4543 -4544 0
4544 4545 0
-4544 -4545 0
313 4546 0
-313 -4546 0
4546 4547 0
-4546 -4547 0
402 4548 0
-402 -4548 0
398 4549 0
-398 -4549 0
4549 4550 0
-4549 -4550 0
1997 4551 0
-1997 -4551 0
397 4552 0
-397 -4552 0
4552 4553 0
-4552 -4553 0
4550 4551 4553 4554 0
4550 4551 -4553 -4554 0
4550 -4551 4553 -4554 0
4550 -4551 -4553 -4554 0
-4550 4551 4553 -4554 0
-4550 4551 -4553 -4554 0
-4550 -4551 4553 -4554 0
-4550 -4551 -4553 -4554 0
4554 4555 0
-4554 -4555 0
4547 4548 4555 4556 0
4547 4548 -4555 -4556 0
4547 -4548 4555 -4556 0
4547 -4548 -4555 -4556 0
-4547 4548 4555 -4556 0
-4547 4548 -4555 -4556 0
-4547 -4548 4555 -4556 0
-4547 -4548 -4555 -4556 0
402 4557 0
-402 -4557 0
4557 4558 0
-4557 -4558 0
313 4559 0
-313 -4559 0
4558 4559 4560 0
4558 -4559 -4560 0
-4558 4559 -4560 0
-4558 -4559 -4560 0
4554 4558 4561 0
4554 -4558 -4561 0
-4554 4558 -4561 0
-4554 -4558 -4561 0
4556 4560 4561 -4562 0
4556 4560 -4561 4562 0
4556 -4560 4561 4562 0
4556 -4560 -4561 4562 0
-4556 4560 4561 4562 0
-4556 4560 -4561 4562 0
-4556 -4560 4561 4562 0
-4556 -4560 -4561 4562 0
4562 4563 0
-4562 -4563 0
4545 4563 4564 0
4545 -4563 -4564 0
-4545 4563 -4564 0
-4545 -4563 -4564 0
298 4565 0
-298 -4565 0
4565 4566 0
-4565 -4566 0
4566 4567 0
-4566 -4567 0
4567 4544 4568 0
4567 -4544 -4568 0
-4567 4544 -4568 0
-4567 -4544 -4568 0
4564 4568 -4569 0
4564 -4568 4569 0
-4564 4568 4569 0
-4564 -4568 4569 0
4569 4570 0
-4569 -4570 0
4570 4571 0
-4570 -4571 0
4535 4571 -4572 0
4535 -4571 4572 0
-4535 4571 4572 0
-4535 -4571 -4572 0
4523 4519 4573 0
4523 -4519 -4573 0
-4523 4519 -4573 0
-4523 -4519 -4573 0
4511 4518 4574 0
4511 -4518 -4574 0
-4511 4518 -4574 0
-4511 -4518 -4574 0
4573 4574 -4575 0
4573 -4574 4575 0
-4573 4574 4575 0
-4573 -4574 4575 0
4575 4576 0
-4575 -4576 0
4576 4509 4577 0
4576 -4509 -4577 0
-4576 4509 -4577 0
-4576 -4509 -4577 0
297 4578 0
-297 -4578 0
4578 4579 0
-4578 -4579 0
4579 4580 0
-4579 -4580 0
4508 4580 4581 0
4508 -4580 -4581 0
-4508 4580 -4581 0
-4508 -4580 -4581 0
4577 4581 -4582 0
4577 -4581 4582 0
-4577 4581 4582 0
-4577 -4581 4582 0
4582 4583 0
-4582 -4583 0
4583 4584 0
-4583 -4584 0
4559 4555 4585 0
4559 -4555 -4585 0
-4559 4555 -4585 0
-4559 -4555 -4585 0
4547 4554 4586 0
4547 -4554 -4586 0
-4547 4554 -4586 0
-4547 -4554 -4586 0
4585 4586 -4587 0
4585 -4586 4587 0
-4585 4586 4587 0
-4585 -4586 4587 0
4587 4588 0
-4587 -4588 0
4588 4545 4589 0
4588 -4545 -4589 0
-4588 4545 -4589 0
-4588 -4545 -4589 0
297 4590 0
-297 -4590 0
4590 4591 0
-4590 -4591 0
4591 4592 0
-4591 -4592 0
4544 4592 4593 0
4544 -4592 -4593 0
-4544 4592 -4593 0
-4544 -4592 -4593 0
4589 4593 -4594 0
4589 -4593 4594 0
-4589 4593 4594 0
-4589 -4593 4594 0
4594 4595 0
-4594 -4595 0
4595 4596 0
-4595 -4596 0
4584 4596 -4597 0
4584 -4596 4597 0
-4584 4596 4597 0
-4584 -4596 -4597 0
4515 4514 4523 4598 0
4515 4514 -4523 -4598 0
4515 -4514 4523 -4598 0
4515 -4514 -4523 -4598 0
-4515 4514 4523 -4598 0
-4515 4514 -4523 -4598 0
-4515 -4514 4523 -4598 0
-4515 -4514 -4523 -4598 0
397 4599 0
-397 -4599 0
4515 4599 4600 0
4515 -4599 -4600 0
-4515 4599 -4600 0
-4515 -4599 -4600 0
4598 4600 -4601 0
4598 -4600 4601 0
-4598 4600 4601 0
-4598 -4600 4601 0
4601 4602 0
-4601 -4602 0
249 4603 0
-249 -4603 0
4602 4603 4604 0
4602 -4603 -4604 0
-4602 4603 -4604 0
-4602 -4603 -4604 0
249 4605 0
-249 -4605 0
4605 4606 0
-4605 -4606 0
4606 4601 4607 0
4606 -4601 -4607 0
-4606 4601 -4607 0
-4606 -4601 -4607 0
4604 4607 -4608 0
4604 -4607 4608 0
-4604 4607 4608 0
-4604 -4607 4608 0
4608 4609 0
-4608 -4609 0
4609 4509 4610 0
4609 -4509 -4610 0
-4609 4509 -4610 0
-4609 -4509 -4610 0
290 4611 0
-290 -4611 0
4611 4612 0
-4611 -4612 0
4612 4613 0
-4612 -4613 0
4508 4613 4614 0
4508 -4613 -4614 0
-4508 4613 -4614 0
-4508 -4613 -4614 0
4610 4614 -4615 0
4610 -4614 4615 0
-4610 4614 4615 0
-4610 -4614 4615 0
4615 4616 0
-4615 -4616 0
4616 4617 0
-4616 -4617 0
4551 4550 4559 4618 0
4551 4550 -4559 -4618 0
4551 -4550 4559 -4618 0
4551 -4550 -4559 -4618 0
-4551 4550 4559 -4618 0
-4551 4550 -4559 -4618 0
-4551 -4550 4559 -4618 0
-4551 -4550 -4559 -4618 0
397 4619 0
-397 -4619 0
4551 4619 4620 0
4551 -4619 -4620 0
-4551 4619 -4620 0
-4551 -4619 -4620 0
4618 4620 -4621 0
4618 -4620 4621 0
-4618 4620 4621 0
-4618 -4620 4621 0
4621 4622 0
-4621 -4622 0
249 4623 0
-249 -4623 0
4622 4623 4624 0
4622 -4623 -4624 0
-4622 4623 -4624 0
-4622 -4623 -4624 0
249 4625 0
-249 -4625 0
4625 4626 0
-4625 -4626 0
4626 4621 4627 0
4626 -4621 -4627 0
-4626 4621 -4627 0
-4626 -4621 -4627 0
4624 4627 -4628 0
4624 -4627 4628 0
-4624 4627 4628 0
-4624 -4627 4628 0
4628 4629 0
-4628 -4629 0
4629 4545 4630 0
4629 -4545 -4630 0
-4629 4545 -4630 0
-4629 -4545 -4630 0
290 4631 0
-290 -4631 0
4631 4632 0
-4631 -4632 0
4632 4633 0
-4632 -4633 0
4544 4633 4634 0
4544 -4633 -4634 0
-4544 4633 -4634 0
-4544 -4633 -4634 0
4630 4634 -4635 0
4630 -4634 4635 0
-4630 4634 4635 0
-4630 -4634 4635 0
4635 4636 0
-4635 -4636 0
4636 4637 0
-4636 -4637 0
4617 4637 -4638 0
4617 -4637 4638 0
-4617 4637 4638 0
-4617 -4637 -4638 0
4502 4639 0
-4502 -4639 0
285 4640 0
-285 -4640 0
4640 4641 0
-4640 -4641 0
4641 4642 0
-4641 -4642 0
4639 4642 4643 0
4639 -4642 -4643 0
-4639 4642 -4643 0
-4639 -4642 -4643 0
255 4644 0
-255 -4644 0
260 4645 0
-260 -4645 0
4645 4646 0
-4645 -4646 0
1948 4647 0
-1948 -4647 0
254 4648 0
-254 -4648 0
4648 4649 0
-4648 -4649 0
259 4650 0
-259 -4650 0
4650 4651 0
-4650 -4651 0
4647 4649 4651 4652 0
4647 4649 -4651 -4652 0
4647 -4649 4651 -4652 0
4647 -4649 -4651 -4652 0
-4647 4649 4651 -4652 0
-4647 4649 -4651 -4652 0
-4647 -4649 4651 -4652 0
-4647 -4649 -4651 -4652 0
4652 4653 0
-4652 -4653 0
4644 4646 4653 4654 0
4644 4646 -4653 -4654 0
4644 -4646 4653 -4654 0
4644 -4646 -4653 -4654 0
-4644 4646 4653 -4654 0
-4644 4646 -4653 -4654 0
-4644 -4646 4653 -4654 0
-4644 -4646 -4653 -4654 0
260 4655 0
-260 -4655 0
255 4656 0
-255 -4656 0
4656 4657 0
-4656 -4657 0
4655 4657 4658 0
4655 -4657 -4658 0
-4655 4657 -4658 0
-4655 -4657 -4658 0
4657 4652 4659 0
4657 -4652 -4659 0
-4657 4652 -4659 0
-4657 -4652 -4659 0
4654 4658 4659 -4660 0
4654 4658 -4659 4660 0
4654 -4658 4659 4660 0
4654 -4658 -4659 4660 0
-4654 4658 4659 4660 0
-4654 4658 -4659 4660 0
-4654 -4658 4659 4660 0
-4654 -4658 -4659 4660 0
4660 4661 0
-4660 -4661 0
647 1680 665 4662 0
647 1680 -665 -4662 0
647 -1680 665 -4662 0
647 -1680 -665 -4662 0
-647 1680 665 -4662 0
-647 1680 -665 -4662 0
-647 -1680 665 -4662 0
-647 -1680 -665 -4662 0
4662 4663 0
-4662 -4663 0
4413 4663 4664 0
4413 -4663 -4664 0
-4413 4663 -4664 0
-4413 -4663 -4664 0
4502 4664 4665 0
4502 -4664 -4665 0
-4502 4664 -4665 0
-4502 -4664 -4665 0
4665 4666 0
-4665 -4666 0
4661 4666 4667 0
4661 -4666 -4667 0
-4661 4666 -4667 0
-4661 -4666 -4667 0
4664 4668 0
-4664 -4668 0
294 4669 0
-294 -4669 0
4669 4670 0
-4669 -4670 0
4670 4671 0
-4670 -4671 0
4668 4671 4672 0
4668 -4671 -4672 0
-4668 4671 -4672 0
-4668 -4671 -4672 0
4643 4667 4672 -4673 0
4643 4667 -4672 4673 0
4643 -4667 4672 4673 0
4643 -4667 -4672 4673 0
-4643 4667 4672 4673 0
-4643 4667 -4672 4673 0
-4643 -4667 4672 4673 0
-4643 -4667 -4672 4673 0
4673 4674 0
-4673 -4674 0
4674 4675 0
-4674 -4675 0
4538 4676 0
-4538 -4676 0
285 4677 0
-285 -4677 0
4677 4678 0
-4677 -4678 0
4678 4679 0
-4678 -4679 0
4676 4679 4680 0
4676 -4679 -4680 0
-4676 4679 -4680 0
-4676 -4679 -4680 0
255 4681 0
-255 -4681 0
260 4682 0
-260 -4682 0
4682 4683 0
-4682 -4683 0
2002 4684 0
-2002 -4684 0
254 4685 0
-254 -4685 0
4685 4686 0
-4685 -4686 0
259 4687 0
-259 -4687 0
4687 4688 0
-4687 -4688 0
4684 4686 4688 4689 0
4684 4686 -4688 -4689 0
4684 -4686 4688 -4689 0
4684 -4686 -4688 -4689 0
-4684 4686 4688 -4689 0
-4684 4686 -4688 -4689 0
-4684 -4686 4688 -4689 0
-4684 -4686 -4688 -4689 0
4689 4690 0
-4689 -4690 0
4681 4683 4690 4691 0
4681 4683 -4690 -4691 0
4681 -4683 4690 -4691 0
4681 -4683 -4690 -4691 0
-4681 4683 4690 -4691 0
-4681 4683 -4690 -4691 0
-4681 -4683 4690 -4691 0
-4681 -4683 -4690 -4691 0
260 4692 0
-260 -4692 0
255 4693 0
-255 -4693 0
4693 4694 0
-4693 -4694 0
4692 4694 4695 0
4692 -4694 -4695 0
-4692 4694 -4695 0
-4692 -4694 -4695 0
4694 4689 4696 0
4694 -4689 -4696 0
-4694 4689 -4696 0
-4694 -4689 -4696 0
4691 4695 4696 -4697 0
4691 4695 -4696 4697 0
4691 -4695 4696 4697 0
4691 -4695 -4696 4697 0
-4691 4695 4696 4697 0
-4691 4695 -4696 4697 0
-4691 -4695 4696 4697 0
-4691 -4695 -4696 4697 0
4697 4698 0
-4697 -4698 0
719 1707 737 4699 0
719 1707 -737 -4699 0
719 -1707 737 -4699 0
719 -1707 -737 -4699 0
-719 1707 737 -4699 0
-719 1707 -737 -4699 0
-719 -1707 737 -4699 0
-719 -1707 -737 -4699 0
4699 4700 0
-4699 -4700 0
4435 4700 4701 0
4435 -4700 -4701 0
-4435 4700 -4701 0
-4435 -4700 -4701 0
4538 4701 4702 0
4538 -4701 -4702 0
-4538 4701 -4702 0
-4538 -4701 -4702 0
4702 4703 0
-4702 -4703 0
4698 4703 4704 0
4698 -4703 -4704 0
-4698 4703 -4704 0
-4698 -4703 -4704 0
4701 4705 0
-4701 -4705 0
294 4706 0
-294 -4706 0
4706 4707 0
-4706 -4707 0
4707 4708 0
-4707 -4708 0
4705 4708 4709 0
4705 -4708 -4709 0
-4705 4708 -4709 0
-4705 -4708 -4709 0
4680 4704 4709 -4710 0
4680 4704 -4709 4710 0
4680 -4704 4709 4710 0
4680 -4704 -4709 4710 0
-4680 4704 4709 4710 0
-4680 4704 -4709 4710 0
-4680 -4704 4709 4710 0
-4680 -4704 -4709 4710 0
4710 4711 0
-4710 -4711 0
4711 4712 0
-4711 -4712 0
4675 4712 -4713 0
4675 -4712 4713 0
-4675 4712 4713 0
-4675 -4712 -4713 0
284 4714 0
-284 -4714 0
4714 4715 0
-4714 -4715 0
4715 4716 0
-4715 -4716 0
4639 4716 4717 0
4639 -4716 -4717 0
-4639 4716 -4717 0
-4639 -4716 -4717 0
4653 4655 4718 0
4653 -4655 -4718 0
-4653 4655 -4718 0
-4653 -4655 -4718 0
4646 4652 4719 0
4646 -4652 -4719 0
-4646 4652 -4719 0
-4646 -4652 -4719 0
4718 4719 -4720 0
4718 -4719 4720 0
-4718 4719 4720 0
-4718 -4719 4720 0
4720 4721 0
-4720 -4721 0
4666 4721 4722 0
4666 -4721 -4722 0
-4666 4721 -4722 0
-4666 -4721 -4722 0
293 4723 0
-293 -4723 0
4723 4724 0
-4723 -4724 0
4724 4725 0
-4724 -4725 0
4725 4668 4726 0
4725 -4668 -4726 0
-4725 4668 -4726 0
-4725 -4668 -4726 0
4717 4722 4726 -4727 0
4717 4722 -4726 4727 0
4717 -4722 4726 4727 0
4717 -4722 -4726 4727 0
-4717 4722 4726 4727 0
-4717 4722 -4726 4727 0
-4717 -4722 4726 4727 0
-4717 -4722 -4726 4727 0
4727 4728 0
-4727 -4728 0
4728 4729 0
-4728 -4729 0
284 4730 0
-284 -4730 0
4730 4731 0
-4730 -4731 0
4731 4732 0
-4731 -4732 0
4676 4732 4733 0
4676 -4732 -4733 0
-4676 4732 -4733 0
-4676 -4732 -4733 0
4690 4692 4734 0
4690 -4692 -4734 0
-4690 4692 -4734 0
-4690 -4692 -4734 0
4683 4689 4735 0
4683 -4689 -4735 0
-4683 4689 -4735 0
-4683 -4689 -4735 0
4734 4735 -4736 0
4734 -4735 4736 0
-4734 4735 4736 0
-4734 -4735 4736 0
4736 4737 0
-4736 -4737 0
4703 4737 4738 0
4703 -4737 -4738 0
-4703 4737 -4738 0
-4703 -4737 -4738 0
293 4739 0
-293 -4739 0
4739 4740 0
-4739 -4740 0
4740 4741 0
-4740 -4741 0
4741 4705 4742 0
4741 -4705 -4742 0
-4741 4705 -4742 0
-4741 -4705 -4742 0
4733 4738 4742 -4743 0
4733 4738 -4742 4743 0
4733 -4738 4742 4743 0
4733 -4738 -4742 4743 0
-4733 4738 4742 4743 0
-4733 4738 -4742 4743 0
-4733 -4738 4742 4743 0
-4733 -4738 -4742 4743 0
4743 4744 0
-4743 -4744 0
4744 4745 0
-4744 -4745 0
4729 4745 -4746 0
4729 -4745 4746 0
-4729 4745 4746 0
-4729 -4745 -4746 0
281 4747 0
-281 -4747 0
4747 4748 0
-4747 -4748 0
4748 4749 0
-4748 -4749 0
4639 4749 4750 0
4639 -4749 -4750 0
-4639 4749 -4750 0
-4639 -4749 -4750 0
250 4751 0
-250 -4751 0
4751 4752 0
-4751 -4752 0
4651 4655 4647 4753 0
4651 4655 -4647 -4753 0
4651 -4655 4647 -4753 0
4651 -4655 -4647 -4753 0
-4651 4655 4647 -4753 0
-4651 4655 -4647 -4753 0
-4651 -4655 4647 -4753 0
-4651 -4655 -4647 -4753 0
254 4754 0
-254 -4754 0
4754 4647 4755 0
4754 -4647 -4755 0
-4754 4647 -4755 0
-4754 -4647 -4755 0
4753 4755 -4756 0
4753 -4755 4756 0
-4753 4755 4756 0
-4753 -4755 4756 0
4752 4756 4757 0
4752 -4756 -4757 0
-4752 4756 -4757 0
-4752 -4756 -4757 0
4756 4758 0
-4756 -4758 0
250 4759 0
-250 -4759 0
4758 4759 4760 0
4758 -4759 -4760 0
-4758 4759 -4760 0
-4758 -4759 -4760 0
4757 4760 -4761 0
4757 -4760 4761 0
-4757 4760 4761 0
-4757 -4760 4761 0
4761 4762 0
-4761 -4762 0
4666 4762 4763 0
4666 -4762 -4763 0
-4666 4762 -4763 0
-4666 -4762 -4763 0
4668 4613 4764 0
4668 -4613 -4764 0
-4668 4613 -4764 0
-4668 -4613 -4764 0
4750 4763 4764 -4765 0
4750 4763 -4764 4765 0
4750 -4763 4764 4765 0
4750 -4763 -4764 4765 0
-4750 4763 4764 4765 0
-4750 4763 -4764 4765 0
-4750 -4763 4764 4765 0
-4750 -4763 -4764 4765 0
4765 4766 0
-4765 -4766 0
4766 4767 0
-4766 -4767 0
281 4768 0
-281 -4768 0
4768 4769 0
-4768 -4769 0
4769 4770 0
-4769 -4770 0
4676 4770 4771 0
4676 -4770 -4771 0
-4676 4770 -4771 0
-4676 -4770 -4771 0
250 4772 0
-250 -4772 0
4772 4773 0
-4772 -4773 0
4688 4692 4684 4774 0
4688 4692 -4684 -4774 0
4688 -4692 4684 -4774 0
4688 -4692 -4684 -4774 0
-4688 4692 4684 -4774 0
-4688 4692 -4684 -4774 0
-4688 -4692 4684 -4774 0
-4688 -4692 -4684 -4774 0
254 4775 0
-254 -4775 0
4775 4684 4776 0
4775 -4684 -4776 0
-4775 4684 -4776 0
-4775 -4684 -4776 0
4774 4776 -4777 0
4774 -4776 4777 0
-4774 4776 4777 0
-4774 -4776 4777 0
4773 4777 4778 0
4773 -4777 -4778 0
-4773 4777 -4778 0
-4773 -4777 -4778 0
4777 4779 0
-4777 -4779 0
250 4780 0
-250 -4780 0
4779 4780 4781 0
4779 -4780 -4781 0
-4779 4780 -4781 0
-4779 -4780 -4781 0
4778 4781 -4782 0
4778 -4781 4782 0
-4778 4781 4782 0
-4778 -4781 4782 0
4782 4783 0
-4782 -4783 0
4703 4783 4784 0
4703 -4783 -4784 0
-4703 4783 -4784 0
-4703 -4783 -4784 0
4705 4633 4785 0
4705 -4633 -4785 0
-4705 4633 -4785 0
-4705 -4633 -4785 0
4771 4784 4785 -4786 0
4771 4784 -4785 4786 0
4771 -4784 4785 4786 0
4771 -4784 -4785 4786 0
-4771 4784 4785 4786 0
-4771 4784 -4785 4786 0
-4771 -4784 4785 4786 0
-4771 -4784 -4785 4786 0
4786 4787 0
-4786 -4787 0
4787 4788 0
-4787 -4788 0
4767 4788 -4789 0
4767 -4788 4789 0
-4767 4788 4789 0
-4767 -4788 -4789 0
282 4790 0
-282 -4790 0
4790 4791 0
-4790 -4791 0
4791 4792 0
-4791 -4792 0
4792 4639 4793 0
4792 -4639 -4793 0
-4792 4639 -4793 0
-4792 -4639 -4793 0
1948 4794 0
-1948 -4794 0
4794 4795 0
-4794 -4795 0
4795 4649 4796 0
4795 -4649 -4796 0
-4795 4649 -4796 0
-4795 -4649 -4796 0
4647 4754 4797 0
4647 -4754 -4797 0
-4647 4754 -4797 0
-4647 -4754 -4797 0
4796 4797 -4798 0
4796 -4797 4798 0
-4796 4797 4798 0
-4796 -4797 4798 0
4798 4799 0
-4798 -4799 0
4666 4799 4800 0
4666 -4799 -4800 0
-4666 4799 -4800 0
-4666 -4799 -4800 0
291 4801 0
-291 -4801 0
4801 4802 0
-4801 -4802 0
4802 4803 0
-4802 -4803 0
4803 4668 4804 0
4803 -4668 -4804 0
-4803 4668 -4804 0
-4803 -4668 -4804 0
4793 4800 4804 -4805 0
4793 4800 -4804 4805 0
4793 -4800 4804 4805 0
4793 -4800 -4804 4805 0
-4793 4800 4804 4805 0
-4793 4800 -4804 4805 0
-4793 -4800 4804 4805 0
-4793 -4800 -4804 4805 0
4805 4806 0
-4805 -4806 0
4806 4807 0
-4806 -4807 0
282 4808 0
-282 -4808 0
4808 4809 0
-4808 -4809 0
4809 4810 0
-4809 -4810 0
4810 4676 4811 0
4810 -4676 -4811 0
-4810 4676 -4811 0
-4810 -4676 -4811 0
2002 4812 0
-2002 -4812 0
4812 4813 0
-4812 -4813 0
4813 4686 4814 0
4813 -4686 -4814 0
-4813 4686 -4814 0
-4813 -4686 -4814 0
4684 4775 4815 0
4684 -4775 -4815 0
-4684 4775 -4815 0
-4684 -4775 -4815 0
4814 4815 -4816 0
4814 -4815 4816 0
-4814 4815 4816 0
-4814 -4815 4816 0
4816 4817 0
-4816 -4817 0
4703 4817 4818 0
4703 -4817 -4818 0
-4703 4817 -4818 0
-4703 -4817 -4818 0
291 4819 0
-291 -4819 0
4819 4820 0
-4819 -4820 0
4820 4821 0
-4820 -4821 0
4821 4705 4822 0
4821 -4705 -4822 0
-4821 4705 -4822 0
-4821 -4705 -4822 0
4811 4818 4822 -4823 0
4811 4818 -4822 4823 0
4811 -4818 4822 4823 0
4811 -4818 -4822 4823 0
-4811 4818 4822 4823 0
-4811 4818 -4822 4823 0
-4811 -4818 4822 4823 0
-4811 -4818 -4822 4823 0
4823 4824 0
-4823 -4824 0
4824 4825 0
-4824 -4825 0
4807 4825 -4826 0
4807 -4825 4826 0
-4807 4825 4826 0
-4807 -4825 -4826 0
292 4827 0
-292 -4827 0
4827 4828 0
-4827 -4828 0
4828 4829 0
-4828 -4829 0
4668 4829 4830 0
4668 -4829 -4830 0
-4668 4829 -4830 0
-4668 -4829 -4830 0
259 4831 0
-259 -4831 0
4831 4649 4647 4832 0
4831 4649 -4647 -4832 0
4831 -4649 4647 -4832 0
4831 -4649 -4647 -4832 0
-4831 4649 4647 -4832 0
-4831 4649 -4647 -4832 0
-4831 -4649 4647 -4832 0
-4831 -4649 -4647 -4832 0
4754 4651 4833 0
4754 -4651 -4833 0
-4754 4651 -4833 0
-4754 -4651 -4833 0
4651 4795 4834 0
4651 -4795 -4834 0
-4651 4795 -4834 0
-4651 -4795 -4834 0
4832 4833 4834 -4835 0
4832 4833 -4834 4835 0
4832 -4833 4834 4835 0
4832 -4833 -4834 4835 0
-4832 4833 4834 4835 0
-4832 4833 -4834 4835 0
-4832 -4833 4834 4835 0
-4832 -4833 -4834 4835 0
4835 4836 0
-4835 -4836 0
4666 4836 4837 0
4666 -4836 -4837 0
-4666 4836 -4837 0
-4666 -4836 -4837 0
283 4838 0
-283 -4838 0
4838 4839 0
-4838 -4839 0
4839 4840 0
-4839 -4840 0
4639 4840 4841 0
4639 -4840 -4841 0
-4639 4840 -4841 0
-4639 -4840 -4841 0
4830 4837 4841 -4842 0
4830 4837 -4841 4842 0
4830 -4837 4841 4842 0
4830 -4837 -4841 4842 0
-4830 4837 4841 4842 0
-4830 4837 -4841 4842 0
-4830 -4837 4841 4842 0
-4830 -4837 -4841 4842 0
4842 4843 0
-4842 -4843 0
4843 4844 0
-4843 -4844 0
292 4845 0
-292 -4845 0
4845 4846 0
-4845 -4846 0
4846 4847 0
-4846 -4847 0
4705 4847 4848 0
4705 -4847 -4848 0
-4705 4847 -4848 0
-4705 -4847 -4848 0
259 4849 0
-259 -4849 0
4849 4686 4684 4850 0
4849 4686 -4684 -4850 0
4849 -4686 4684 -4850 0
4849 -4686 -4684 -4850 0
-4849 4686 4684 -4850 0
-4849 4686 -4684 -4850 0
-4849 -4686 4684 -4850 0
-4849 -4686 -4684 -4850 0
4775 4688 4851 0
4775 -4688 -4851 0
-4775 4688 -4851 0
-4775 -4688 -4851 0
4688 4813 4852 0
4688 -4813 -4852 0
-4688 4813 -4852 0
-4688 -4813 -4852 0
4850 4851 4852 -4853 0
4850 4851 -4852 4853 0
4850 -4851 4852 4853 0
4850 -4851 -4852 4853 0
-4850 4851 4852 4853 0
-4850 4851 -4852 4853 0
-4850 -4851 4852 4853 0
-4850 -4851 -4852 4853 0
4853 4854 0
-4853 -4854 0
4703 4854 4855 0
4703 -4854 -4855 0
-4703 4854 -4855 0
-4703 -4854 -4855 0
283 4856 0
-283 -4856 0
4856 4857 0
-4856 -4857 0
4857 4858 0
-4857 -4858 0
4676 4858 4859 0
4676 -4858 -4859 0
-4676 4858 -4859 0
-4676 -4858 -4859 0
4848 4855 4859 -4860 0
4848 4855 -4859 4860 0
4848 -4855 4859 4860 0
4848 -4855 -4859 4860 0
-4848 4855 4859 4860 0
-4848 4855 -4859 4860 0
-4848 -4855 4859 4860 0
-4848 -4855 -4859 4860 0
4860 4861 0
-4860 -4861 0
4861 4862 0
-4861 -4862 0
4844 4862 -4863 0
4844 -4862 4863 0
-4844 4862 4863 0
-4844 -4862 -4863 0
1943 4864 0
-1943 -4864 0
4864 4865 0
-4864 -4865 0
4517 4865 4866 0
4517 -4865 -4866 0
-4517 4865 -4866 0
-4517 -4865 -4866 0
4599 4515 4867 0
4599 -4515 -4867 0
-4599 4515 -4867 0
-4599 -4515 -4867 0
4866 4867 -4868 0
4866 -4867 4868 0
-4866 4867 4868 0
-4866 -4867 4868 0
4868 4869 0
-4868 -4869 0
4509 4869 4870 0
4509 -4869 -4870 0
-4509 4869 -4870 0
-4509 -4869 -4870 0
295 4871 0
-295 -4871 0
4871 4872 0
-4871 -4872 0
4872 4873 0
-4872 -4873 0
4508 4873 4874 0
4508 -4873 -4874 0
-4508 4873 -4874 0
-4508 -4873 -4874 0
4870 4874 -4875 0
4870 -4874 4875 0
-4870 4874 4875 0
-4870 -4874 4875 0
4875 4876 0
-4875 -4876 0
4876 4877 0
-4876 -4877 0
1997 4878 0
-1997 -4878 0
4878 4879 0
-4878 -4879 0
4553 4879 4880 0
4553 -4879 -4880 0
-4553 4879 -4880 0
-4553 -4879 -4880 0
4619 4551 4881 0
4619 -4551 -4881 0
-4619 4551 -4881 0
-4619 -4551 -4881 0
4880 4881 -4882 0
4880 -4881 4882 0
-4880 4881 4882 0
-4880 -4881 4882 0
4882 4883 0
-4882 -4883 0
4545 4883 4884 0
4545 -4883 -4884 0
-4545 4883 -4884 0
-4545 -4883 -4884 0
295 4885 0
-295 -4885 0
4885 4886 0
-4885 -4886 0
4886 4887 0
-4886 -4887 0
4544 4887 4888 0
4544 -4887 -4888 0
-4544 4887 -4888 0
-4544 -4887 -4888 0
4884 4888 -4889 0
4884 -4888 4889 0
-4884 4888 4889 0
-4884 -4888 4889 0
4889 4890 0
-4889 -4890 0
4890 4891 0
-4890 -4891 0
4877 4891 -4892 0
4877 -4891 4892 0
-4877 4891 4892 0
-4877 -4891 -4892 0
296 4893 0
-296 -4893 0
4893 4894 0
-4893 -4894 0
4894 4895 0
-4894 -4895 0
4895 4508 4896 0
4895 -4508 -4896 0
-4895 4508 -4896 0
-4895 -4508 -4896 0
398 4897 0
-398 -4897 0
4517 4515 4897 4898 0
4517 4515 -4897 -4898 0
4517 -4515 4897 -4898 0
4517 -4515 -4897 -4898 0
-4517 4515 4897 -4898 0
-4517 4515 -4897 -4898 0
-4517 -4515 4897 -4898 0
-4517 -4515 -4897 -4898 0
4514 4865 4899 0
4514 -4865 -4899 0
-4514 4865 -4899 0
-4514 -4865 -4899 0
4514 4599 4900 0
4514 -4599 -4900 0
-4514 4599 -4900 0
-4514 -4599 -4900 0
4898 4899 4900 -4901 0
4898 4899 -4900 4901 0
4898 -4899 4900 4901 0
4898 -4899 -4900 4901 0
-4898 4899 4900 4901 0
-4898 4899 -4900 4901 0
-4898 -4899 4900 4901 0
-4898 -4899 -4900 4901 0
4901 4902 0
-4901 -4902 0
4509 4902 4903 0
4509 -4902 -4903 0
-4509 4902 -4903 0
-4509 -4902 -4903 0
4896 4903 -4904 0
4896 -4903 4904 0
-4896 4903 4904 0
-4896 -4903 4904 0
4904 4905 0
-4904 -4905 0
4905 4906 0
-4905 -4906 0
296 4907 0
-296 -4907 0
4907 4908 0
-4907 -4908 0
4908 4909 0
-4908 -4909 0
4909 4544 4910 0
4909 -4544 -4910 0
-4909 4544 -4910 0
-4909 -4544 -4910 0
398 4911 0
-398 -4911 0
4553 4551 4911 4912 0
4553 4551 -4911 -4912 0
4553 -4551 4911 -4912 0
4553 -4551 -4911 -4912 0
-4553 4551 4911 -4912 0
-4553 4551 -4911 -4912 0
-4553 -4551 4911 -4912 0
-4553 -4551 -4911 -4912 0
4550 4879 4913 0
4550 -4879 -4913 0
-4550 4879 -4913 0
-4550 -4879 -4913 0
4550 4619 4914 0
4550 -4619 -4914 0
-4550 4619 -4914 0
-4550 -4619 -4914 0
4912 4913 4914 -4915 0
4912 4913 -4914 4915 0
4912 -4913 4914 4915 0
4912 -4913 -4914 4915 0
-4912 4913 4914 4915 0
-4912 4913 -4914 4915 0
-4912 -4913 4914 4915 0
-4912 -4913 -4914 4915 0
4915 4916 0
-4915 -4916 0
4545 4916 4917 0
4545 -4916 -4917 0
-4545 4916 -4917 0
-4545 -4916 -4917 0
4910 4917 -4918 0
4910 -4917 4918 0
-4910 4917 4918 0
-4910 -4917 4918 0
4918 4919 0
-4918 -4919 0
4919 4920 0
-4919 -4920 0
4906 4920 -4921 0
4906 -4920 4921 0
-4906 4920 4921 0
-4906 -4920 -4921 0
304 4922 0
-304 -4922 0
4922 4923 0
-4922 -4923 0
4203 4924 0
-4203 -4924 0
4243 4279 4925 0
4243 -4279 -4925 0
-4243 4279 -4925 0
-4243 -4279 -4925 0
4924 4925 -4926 0
4924 -4925 4926 0
-4924 4925 4926 0
-4924 -4925 4926 0
4926 4344 4927 0
4926 -4344 -4927 0
-4926 4344 -4927 0
-4926 -4344 -4927 0
4927 4928 0
-4927 -4928 0
4923 4928 4929 0
4923 -4928 -4929 0
-4923 4928 -4929 0
-4923 -4928 -4929 0
304 4930 0
-304 -4930 0
4927 4930 4931 0
4927 -4930 -4931 0
-4927 4930 -4931 0
-4927 -4930 -4931 0
4929 4931 -4932 0
4929 -4931 4932 0
-4929 4931 4932 0
-4929 -4931 4932 0
4343 4933 0
-4343 -4933 0
4310 4934 0
-4310 -4934 0
4246 4935 0
-4246 -4935 0
4208 4936 0
-4208 -4936 0
4277 4937 0
-4277 -4937 0
4935 4936 4937 4938 0
4935 4936 -4937 -4938 0
4935 -4936 4937 -4938 0
4935 -4936 -4937 -4938 0
-4935 4936 4937 -4938 0
-4935 4936 -4937 -4938 0
-4935 -4936 4937 -4938 0
-4935 -4936 -4937 -4938 0
4938 4939 0
-4938 -4939 0
4933 4934 4939 4940 0
4933 4934 -4939 -4940 0
4933 -4934 4939 -4940 0
4933 -4934 -4939 -4940 0
-4933 4934 4939 -4940 0
-4933 4934 -4939 -4940 0
-4933 -4934 4939 -4940 0
-4933 -4934 -4939 -4940 0
4940 4941 0
-4940 -4941 0
2336 4941 4942 0
2336 -4941 -4942 0
-2336 4941 -4942 0
-2336 -4941 -4942 0
4203 4943 0
-4203 -4943 0
4243 4944 0
-4243 -4944 0
4943 4944 4937 4945 0
4943 4944 -4937 -4945 0
4943 -4944 4937 -4945 0
4943 -4944 -4937 -4945 0
-4943 4944 4937 -4945 0
-4943 4944 -4937 -4945 0
-4943 -4944 4937 -4945 0
-4943 -4944 -4937 -4945 0
4945 4946 0
-4945 -4946 0
4946 4933 4934 4947 0
4946 4933 -4934 -4947 0
4946 -4933 4934 -4947 0
4946 -4933 -4934 -4947 0
-4946 4933 4934 -4947 0
-4946 4933 -4934 -4947 0
-4946 -4933 4934 -4947 0
-4946 -4933 -4934 -4947 0
4947 4948 0
-4947 -4948 0
2337 4948 4949 0
2337 -4948 -4949 0
-2337 4948 -4949 0
-2337 -4948 -4949 0
4942 4949 -4950 0
4942 -4949 4950 0
-4942 4949 4950 0
-4942 -4949 4950 0
363 4951 0
-363 -4951 0
2993 4951 4952 0
2993 -4951 -4952 0
-2993 4951 -4952 0
-2993 -4951 -4952 0
264 4953 0
-264 -4953 0
4953 4954 0
-4953 -4954 0
4954 4955 0
-4954 -4955 0
4955 4956 0
-4955 -4956 0
312 4957 0
-312 -4957 0
320 4958 0
-320 -4958 0
303 4959 0
-303 -4959 0
322 4960 0
-322 -4960 0
321 4961 0
-321 -4961 0
4958 4959 4960 4961 4962 0
4958 4959 4960 -4961 -4962 0
4958 4959 -4960 4961 -4962 0
4958 4959 -4960 -4961 -4962 0
4958 -4959 4960 4961 -4962 0
4958 -4959 4960 -4961 -4962 0
4958 -4959 -4960 4961 -4962 0
4958 -4959 -4960 -4961 -4962 0
-4958 4959 4960 4961 -4962 0
-4958 4959 4960 -4961 -4962 0
-4958 4959 -4960 4961 -4962 0
-4958 4959 -4960 -4961 -4962 0
-4958 -4959 4960 4961 -4962 0
-4958 -4959 4960 -4961 -4962 0
-4958 -4959 -4960 4961 -4962 0
-4958 -4959 -4960 -4961 -4962 0
4962 4963 0
-4962 -4963 0
343 4964 0
-343 -4964 0
4957 4963 4964 4965 0
4957 4963 -4964 -4965 0
4957 -4963 4964 -4965 0
4957 -4963 -4964 -4965 0
-4957 4963 4964 -4965 0
-4957 4963 -4964 -4965 0
-4957 -4963 4964 -4965 0
-4957 -4963 -4964 -4965 0
4965 4966 0
-4965 -4966 0
4966 4967 0
-4966 -4967 0
4956 4967 4968 0
4956 -4967 -4968 0
-4956 4967 -4968 0
-4956 -4967 -4968 0
1891 1890 4952 4968 4969 0
1891 1890 4952 -4968 -4969 0
1891 1890 -4952 4968 -4969 0
1891 1890 -4952 -4968 -4969 0
1891 -1890 4952 4968 -4969 0
1891 -1890 4952 -4968 -4969 0
1891 -1890 -4952 4968 -4969 0
1891 -1890 -4952 -4968 -4969 0
-1891 1890 4952 4968 -4969 0
-1891 1890 4952 -4968 -4969 0
-1891 1890 -4952 4968 -4969 0
-1891 1890 -4952 -4968 -4969 0
-1891 -1890 4952 4968 -4969 0
-1891 -1890 4952 -4968 -4969 0
-1891 -1890 -4952 4968 -4969 0
-1891 -1890 -4952 -4968 -4969 0
4969 4970 0
-4969 -4970 0
4950 4970 4971 0
4950 -4970 -4971 0
-4950 4970 -4971 0
-4950 -4970 -4971 0
4971 4972 0
-4971 -4972 0
4932 4972 4973 0
4932 -4972 -4973 0
-4932 4972 -4973 0
-4932 -4972 -4973 0
4973 4974 0
-4973 -4974 0
4974 4975 0
-4974 -4975 0
4975 4976 0
-4975 -4976 0
304 4977 0
-304 -4977 0
4977 4978 0
-4977 -4978 0
4222 4979 0
-4222 -4979 0
4259 4296 4980 0
4259 -4296 -4980 0
-4259 4296 -4980 0
-4259 -4296 -4980 0
4979 4980 -4981 0
4979 -4980 4981 0
-4979 4980 4981 0
-4979 -4980 4981 0
4981 4361 4982 0
4981 -4361 -4982 0
-4981 4361 -4982 0
-4981 -4361 -4982 0
4982 4983 0
-4982 -4983 0
4978 4983 4984 0
4978 -4983 -4984 0
-4978 4983 -4984 0
-4978 -4983 -4984 0
304 4985 0
-304 -4985 0
4982 4985 4986 0
4982 -4985 -4986 0
-4982 4985 -4986 0
-4982 -4985 -4986 0
4984 4986 -4987 0
4984 -4986 4987 0
-4984 4986 4987 0
-4984 -4986 4987 0
4360 4988 0
-4360 -4988 0
4326 4989 0
-4326 -4989 0
4262 4990 0
-4262 -4990 0
4227 4991 0
-4227 -4991 0
4294 4992 0
-4294 -4992 0
4990 4991 4992 4993 0
4990 4991 -4992 -4993 0
4990 -4991 4992 -4993 0
4990 -4991 -4992 -4993 0
-4990 4991 4992 -4993 0
-4990 4991 -4992 -4993 0
-4990 -4991 4992 -4993 0
-4990 -4991 -4992 -4993 0
4993 4994 0
-4993 -4994 0
4988 4989 4994 4995 0
4988 4989 -4994 -4995 0
4988 -4989 4994 -4995 0
4988 -4989 -4994 -4995 0
-4988 4989 4994 -4995 0
-4988 4989 -4994 -4995 0
-4988 -4989 4994 -4995 0
-4988 -4989 -4994 -4995 0
4995 4996 0
-4995 -4996 0
2700 4996 4997 0
2700 -4996 -4997 0
-2700 4996 -4997 0
-2700 -4996 -4997 0
4222 4998 0
-4222 -4998 0
4259 4999 0
-4259 -4999 0
4998 4999 4992 5000 0
4998 4999 -4992 -5000 0
4998 -4999 4992 -5000 0
4998 -4999 -4992 -5000 0
-4998 4999 4992 -5000 0
-4998 4999 -4992 -5000 0
-4998 -4999 4992 -5000 0
-4998 -4999 -4992 -5000 0
5000 5001 0
-5000 -5001 0
5001 4988 4989 5002 0
5001 4988 -4989 -5002 0
5001 -4988 4989 -5002 0
5001 -4988 -4989 -5002 0
-5001 4988 4989 -5002 0
-5001 4988 -4989 -5002 0
-5001 -4988 4989 -5002 0
-5001 -4988 -4989 -5002 0
5002 5003 0
-5002 -5003 0
2701 5003 5004 0
2701 -5003 -5004 0
-2701 5003 -5004 0
-2701 -5003 -5004 0
4997 5004 -5005 0
4997 -5004 5005 0
-4997 5004 5005 0
-4997 -5004 5005 0
363 5006 0
-363 -5006 0
3056 5006 5007 0
3056 -5006 -5007 0
-3056 5006 -5007 0
-3056 -5006 -5007 0
264 5008 0
-264 -5008 0
5008 5009 0
-5008 -5009 0
5009 5010 0
-5009 -5010 0
5010 5011 0
-5010 -5011 0
312 5012 0
-312 -5012 0
320 5013 0
-320 -5013 0
303 5014 0
-303 -5014 0
322 5015 0
-322 -5015 0
321 5016 0
-321 -5016 0
5013 5014 5015 5016 5017 0
5013 5014 5015 -5016 -5017 0
5013 5014 -5015 5016 -5017 0
5013 5014 -5015 -5016 -5017 0
5013 -5014 5015 5016 -5017 0
5013 -5014 5015 -5016 -5017 0
5013 -5014 -5015 5016 -5017 0
5013 -5014 -5015 -5016 -5017 0
-5013 5014 5015 5016 -5017 0
-5013 5014 5015 -5016 -5017 0
-5013 5014 -5015 5016 -5017 0
-5013 5014 -5015 -5016 -5017 0
-5013 -5014 5015 5016 -5017 0
-5013 -5014 5015 -5016 -5017 0
-5013 -5014 -5015 5016 -5017 0
-5013 -5014 -5015 -5016 -5017 0
5017 5018 0
-5017 -5018 0
343 5019 0
-343 -5019 0
5012 5018 5019 5020 0
5012 5018 -5019 -5020 0
5012 -5018 5019 -5020 0
5012 -5018 -5019 -5020 0
-5012 5018 5019 -5020 0
-5012 5018 -5019 -5020 0
-5012 -5018 5019 -5020 0
-5012 -5018 -5019 -5020 0
5020 5021 0
-5020 -5021 0
5021 5022 0
-5021 -5022 0
5011 5022 5023 0
5011 -5022 -5023 0
-5011 5022 -5023 0
-5011 -5022 -5023 0
1911 1910 5007 5023 5024 0
1911 1910 5007 -5023 -5024 0
1911 1910 -5007 5023 -5024 0
1911 1910 -5007 -5023 -5024 0
1911 -1910 5007 5023 -5024 0
1911 -1910 5007 -5023 -5024 0
1911 -1910 -5007 5023 -5024 0
1911 -1910 -5007 -5023 -5024 0
-1911 1910 5007 5023 -5024 0
-1911 1910 5007 -5023 -5024 0
-1911 1910 -5007 5023 -5024 0
-1911 1910 -5007 -5023 -5024 0
-1911 -1910 5007 5023 -5024 0
-1911 -1910 5007 -5023 -5024 0
-1911 -1910 -5007 5023 -5024 0
-1911 -1910 -5007 -5023 -5024 0
5024 5025 0
-5024 -5025 0
5005 5025 5026 0
5005 -5025 -5026 0
-5005 5025 -5026 0
-5005 -5025 -5026 0
5026 5027 0
-5026 -5027 0
4987 5027 5028 0
4987 -5027 -5028 0
-4987 5027 -5028 0
-4987 -5027 -5028 0
5028 5029 0
-5028 -5029 0
5029 5030 0
-5029 -5030 0
5030 5031 0
-5030 -5031 0
4976 5031 -5032 0
4976 -5031 5032 0
-4976 5031 5032 0
-4976 -5031 -5032 0
375 5033 0
-375 -5033 0
5033 5034 0
-5033 -5034 0
1742 1794 5035 0
1742 -1794 -5035 0
-1742 1794 -5035 0
-1742 -1794 -5035 0
1689 5036 0
-1689 -5036 0
5035 5036 -5037 0
5035 -5036 5037 0
-5035 5036 5037 0
-5035 -5036 5037 0
5037 4464 5038 0
5037 -4464 -5038 0
-5037 4464 -5038 0
-5037 -4464 -5038 0
5038 5039 0
-5038 -5039 0
5034 5039 5040 0
5034 -5039 -5040 0
-5034 5039 -5040 0
-5034 -5039 -5040 0
375 5041 0
-375 -5041 0
5038 5041 5042 0
5038 -5041 -5042 0
-5038 5041 -5042 0
-5038 -5041 -5042 0
5040 5042 -5043 0
5040 -5042 5043 0
-5040 5042 5043 0
-5040 -5042 5043 0
401 5044 0
-401 -5044 0
5044 5045 0
-5044 -5045 0
365 5046 0
-365 -5046 0
5046 5047 0
-5046 -5047 0
2337 5045 5047 5048 0
2337 5045 -5047 -5048 0
2337 -5045 5047 -5048 0
2337 -5045 -5047 -5048 0
-2337 5045 5047 -5048 0
-2337 5045 -5047 -5048 0
-2337 -5045 5047 -5048 0
-2337 -5045 -5047 -5048 0
390 5049 0
-390 -5049 0
5049 2336 5050 0
5049 -2336 -5050 0
-5049 2336 -5050 0
-5049 -2336 -5050 0
390 5051 0
-390 -5051 0
5051 5052 0
-5051 -5052 0
5052 2336 5053 0
5052 -2336 -5053 0
-5052 2336 -5053 0
-5052 -2336 -5053 0
5048 5050 5053 5054 0
5048 5050 -5053 -5054 0
5048 -5050 5053 -5054 0
5048 -5050 -5053 -5054 0
-5048 5050 5053 -5054 0
-5048 5050 -5053 -5054 0
-5048 -5050 5053 -5054 0
-5048 -5050 -5053 -5054 0
5054 5055 0
-5054 -5055 0
1788 5056 0
-1788 -5056 0
4462 5057 0
-4462 -5057 0
4419 5058 0
-4419 -5058 0
1693 5059 0
-1693 -5059 0
1741 5060 0
-1741 -5060 0
5058 5059 5060 -5061 0
5058 5059 -5060 5061 0
5058 -5059 5060 5061 0
5058 -5059 -5060 5061 0
-5058 5059 5060 5061 0
-5058 5059 -5060 5061 0
-5058 -5059 5060 5061 0
-5058 -5059 -5060 5061 0
5056 5057 5061 -5062 0
5056 5057 -5061 5062 0
5056 -5057 5061 5062 0
5056 -5057 -5061 5062 0
-5056 5057 5061 5062 0
-5056 5057 -5061 5062 0
-5056 -5057 5061 5062 0
-5056 -5057 -5061 5062 0
5062 5063 0
-5062 -5063 0
5063 5064 0
-5063 -5064 0
5055 5064 5065 0
5055 -5064 -5065 0
-5055 5064 -5065 0
-5055 -5064 -5065 0
5050 5066 0
-5050 -5066 0
4422 5067 0
-4422 -5067 0
5057 5056 5060 -5068 0
5057 5056 -5060 5068 0
5057 -5056 5060 5068 0
5057 -5056 -5060 5068 0
-5057 5056 5060 5068 0
-5057 5056 -5060 5068 0
-5057 -5056 5060 5068 0
-5057 -5056 -5060 5068 0
5059 5067 5068 -5069 0
5059 5067 -5068 5069 0
5059 -5067 5068 5069 0
5059 -5067 -5068 5069 0
-5059 5067 5068 5069 0
-5059 5067 -5068 5069 0
-5059 -5067 5068 5069 0
-5059 -5067 -5068 5069 0
5069 5070 0
-5069 -5070 0
5070 5071 0
-5070 -5071 0
5066 5071 5072 0
5066 -5071 -5072 0
-5066 5071 -5072 0
-5066 -5071 -5072 0
4467 5073 0
-4467 -5073 0
1793 5074 0
-1793 -5074 0
1748 5075 0
-1748 -5075 0
5058 5074 5075 -5076 0
5058 5074 -5075 5076 0
5058 -5074 5075 5076 0
5058 -5074 -5075 5076 0
-5058 5074 5075 5076 0
-5058 5074 -5075 5076 0
-5058 -5074 5075 5076 0
-5058 -5074 -5075 5076 0
5059 5073 5076 -5077 0
5059 5073 -5076 5077 0
5059 -5073 5076 5077 0
5059 -5073 -5076 5077 0
-5059 5073 5076 5077 0
-5059 5073 -5076 5077 0
-5059 -5073 5076 5077 0
-5059 -5073 -5076 5077 0
5077 5078 0
-5077 -5078 0
5078 5079 0
-5078 -5079 0
5053 5080 0
-5053 -5080 0
5079 5080 5081 0
5079 -5080 -5081 0
-5079 5080 -5081 0
-5079 -5080 -5081 0
5057 5075 5058 -5082 0
5057 5075 -5058 5082 0
5057 -5075 5058 5082 0
5057 -5075 -5058 5082 0
-5057 5075 5058 5082 0
-5057 5075 -5058 5082 0
-5057 -5075 5058 5082 0
-5057 -5075 -5058 5082 0
5056 5059 5082 -5083 0
5056 5059 -5082 5083 0
5056 -5059 5082 5083 0
5056 -5059 -5082 5083 0
-5056 5059 5082 5083 0
-5056 5059 -5082 5083 0
-5056 -5059 5082 5083 0
-5056 -5059 -5082 5083 0
5083 5084 0
-5083 -5084 0
5084 5085 0
-5084 -5085 0
5048 5086 0
-5048 -5086 0
5085 5086 5087 0
5085 -5086 -5087 0
-5085 5086 -5087 0
-5085 -5086 -5087 0
5065 5072 5081 5087 5088 0
5065 5072 5081 -5087 -5088 0
5065 5072 -5081 5087 -5088 0
5065 5072 -5081 -5087 -5088 0
5065 -5072 5081 5087 -5088 0
5065 -5072 5081 -5087 -5088 0
5065 -5072 -5081 5087 -5088 0
5065 -5072 -5081 -5087 -5088 0
-5065 5072 5081 5087 -5088 0
-5065 5072 5081 -5087 -5088 0
-5065 5072 -5081 5087 -5088 0
-5065 5072 -5081 -5087 -5088 0
-5065 -5072 5081 5087 -5088 0
-5065 -5072 5081 -5087 -5088 0
-5065 -5072 -5081 5087 -5088 0
-5065 -5072 -5081 -5087 -5088 0
5088 5089 0
-5088 -5089 0
5089 4970 5090 0
5089 -4970 -5090 0
-5089 4970 -5090 0
-5089 -4970 -5090 0
5090 5091 0
-5090 -5091 0
5043 5091 5092 0
5043 -5091 -5092 0
-5043 5091 -5092 0
-5043 -5091 -5092 0
5092 5093 0
-5092 -5093 0
5093 5094 0
-5093 -5094 0
5094 5095 0
-5094 -5095 0
375 5096 0
-375 -5096 0
5096 5097 0
-5096 -5097 0
1767 1814 5098 0
1767 -1814 -5098 0
-1767 1814 -5098 0
-1767 -1814 -5098 0
1716 5099 0
-1716 -5099 0
5098 5099 -5100 0
5098 -5099 5100 0
-5098 5099 5100 0
-5098 -5099 5100 0
5100 4485 5101 0
5100 -4485 -5101 0
-5100 4485 -5101 0
-5100 -4485 -5101 0
5101 5102 0
-5101 -5102 0
5097 5102 5103 0
5097 -5102 -5103 0
-5097 5102 -5103 0
-5097 -5102 -5103 0
375 5104 0
-375 -5104 0
5101 5104 5105 0
5101 -5104 -5105 0
-5101 5104 -5105 0
-5101 -5104 -5105 0
5103 5105 -5106 0
5103 -5105 5106 0
-5103 5105 5106 0
-5103 -5105 5106 0
401 5107 0
-401 -5107 0
5107 5108 0
-5107 -5108 0
365 5109 0
-365 -5109 0
5109 5110 0
-5109 -5110 0
2701 5108 5110 5111 0
2701 5108 -5110 -5111 0
2701 -5108 5110 -5111 0
2701 -5108 -5110 -5111 0
-2701 5108 5110 -5111 0
-2701 5108 -5110 -5111 0
-2701 -5108 5110 -5111 0
-2701 -5108 -5110 -5111 0
390 5112 0
-390 -5112 0
5112 2700 5113 0
5112 -2700 -5113 0
-5112 2700 -5113 0
-5112 -2700 -5113 0
390 5114 0
-390 -5114 0
5114 5115 0
-5114 -5115 0
5115 2700 5116 0
5115 -2700 -5116 0
-5115 2700 -5116 0
-5115 -2700 -5116 0
5111 5113 5116 5117 0
5111 5113 -5116 -5117 0
5111 -5113 5116 -5117 0
5111 -5113 -5116 -5117 0
-5111 5113 5116 -5117 0
-5111 5113 -5116 -5117 0
-5111 -5113 5116 -5117 0
-5111 -5113 -5116 -5117 0
5117 5118 0
-5117 -5118 0
1808 5119 0
-1808 -5119 0
4483 5120 0
-4483 -5120 0
4441 5121 0
-4441 -5121 0
1720 5122 0
-1720 -5122 0
1766 5123 0
-1766 -5123 0
5121 5122 5123 -5124 0
5121 5122 -5123 5124 0
5121 -5122 5123 5124 0
5121 -5122 -5123 5124 0
-5121 5122 5123 5124 0
-5121 5122 -5123 5124 0
-5121 -5122 5123 5124 0
-5121 -5122 -5123 5124 0
5119 5120 5124 -5125 0
5119 5120 -5124 5125 0
5119 -5120 5124 5125 0
5119 -5120 -5124 5125 0
-5119 5120 5124 5125 0
-5119 5120 -5124 5125 0
-5119 -5120 5124 5125 0
-5119 -5120 -5124 5125 0
5125 5126 0
-5125 -5126 0
5126 5127 0
-5126 -5127 0
5118 5127 5128 0
5118 -5127 -5128 0
-5118 5127 -5128 0
-5118 -5127 -5128 0
5113 5129 0
-5113 -5129 0
4444 5130 0
-4444 -5130 0
5120 5119 5123 -5131 0
5120 5119 -5123 5131 0
5120 -5119 5123 5131 0
5120 -5119 -5123 5131 0
-5120 5119 5123 5131 0
-5120 5119 -5123 5131 0
-5120 -5119 5123 5131 0
-5120 -5119 -5123 5131 0
5122 5130 5131 -5132 0
5122 5130 -5131 5132 0
5122 -5130 5131 5132 0
5122 -5130 -5131 5132 0
-5122 5130 5131 5132 0
-5122 5130 -5131 5132 0
-5122 -5130 5131 5132 0
-5122 -5130 -5131 5132 0
5132 5133 0
-5132 -5133 0
5133 5134 0
-5133 -5134 0
5129 5134 5135 0
5129 -5134 -5135 0
-5129 5134 -5135 0
-5129 -5134 -5135 0
4488 5136 0
-4488 -5136 0
1813 5137 0
-1813 -5137 0
1773 5138 0
-1773 -5138 0
5121 5137 5138 -5139 0
5121 5137 -5138 5139 0
5121 -5137 5138 5139 0
5121 -5137 -5138 5139 0
-5121 5137 5138 5139 0
-5121 5137 -5138 5139 0
-5121 -5137 5138 5139 0
-5121 -5137 -5138 5139 0
5122 5136 5139 -5140 0
5122 5136 -5139 5140 0
5122 -5136 5139 5140 0
5122 -5136 -5139 5140 0
-5122 5136 5139 5140 0
-5122 5136 -5139 5140 0
-5122 -5136 5139 5140 0
-5122 -5136 -5139 5140 0
5140 5141 0
-5140 -5141 0
5141 5142 0
-5141 -5142 0
5116 5143 0
-5116 -5143 0
5142 5143 5144 0
5142 -5143 -5144 0
-5142 5143 -5144 0
-5142 -5143 -5144 0
5120 5138 5121 -5145 0
5120 5138 -5121 5145 0
5120 -5138 5121 5145 0
5120 -5138 -5121 5145 0
-5120 5138 5121 5145 0
-5120 5138 -5121 5145 0
-5120 -5138 5121 5145 0
-5120 -5138 -5121 5145 0
5119 5122 5145 -5146 0
5119 5122 -5145 5146 0
5119 -5122 5145 5146 0
5119 -5122 -5145 5146 0
-5119 5122 5145 5146 0
-5119 5122 -5145 5146 0
-5119 -5122 5145 5146 0
-5119 -5122 -5145 5146 0
5146 5147 0
-5146 -5147 0
5147 5148 0
-5147 -5148 0
5111 5149 0
-5111 -5149 0
5148 5149 5150 0
5148 -5149 -5150 0
-5148 5149 -5150 0
-5148 -5149 -5150 0
5128 5135 5144 5150 5151 0
5128 5135 5144 -5150 -5151 0
5128 5135 -5144 5150 -5151 0
5128 5135 -5144 -5150 -5151 0
5128 -5135 5144 5150 -5151 0
5128 -5135 5144 -5150 -5151 0
5128 -5135 -5144 5150 -5151 0
5128 -5135 -5144 -5150 -5151 0
-5128 5135 5144 5150 -5151 0
-5128 5135 5144 -5150 -5151 0
-5128 5135 -5144 5150 -5151 0
-5128 5135 -5144 -5150 -5151 0
-5128 -5135 5144 5150 -5151 0
-5128 -5135 5144 -5150 -5151 0
-5128 -5135 -5144 5150 -5151 0
-5128 -5135 -5144 -5150 -5151 0
5151 5152 0
-5151 -5152 0
5152 5025 5153 0
5152 -5025 -5153 0
-5152 5025 -5153 0
-5152 -5025 -5153 0
5153 5154 0
-5153 -5154 0
5106 5154 5155 0
5106 -5154 -5155 0
-5106 5154 -5155 0
-5106 -5154 -5155 0
5155 5156 0
-5155 -5156 0
5156 5157 0
-5156 -5157 0
5157 5158 0
-5157 -5158 0
5095 5158 -5159 0
5095 -5158 5159 0
-5095 5158 5159 0
-5095 -5158 -5159 0
358 5160 0
-358 -5160 0
5160 5161 0
-5160 -5161 0
360 5162 0
-360 -5162 0
1849 1864 5163 0
1849 -1864 -5163 0
-1849 1864 -5163 0
-1849 -1864 -5163 0
5163 5164 0
-5163 -5164 0
5164 5165 0
-5164 -5165 0
4956 5165 5166 0
4956 -5165 -5166 0
-4956 5165 -5166 0
-4956 -5165 -5166 0
5161 5162 5166 5167 0
5161 5162 -5166 -5167 0
5161 -5162 5166 -5167 0
5161 -5162 -5166 -5167 0
-5161 5162 5166 -5167 0
-5161 5162 -5166 -5167 0
-5161 -5162 5166 -5167 0
-5161 -5162 -5166 -5167 0
5167 5168 0
-5167 -5168 0
5168 5169 0
-5168 -5169 0
358 5170 0
-358 -5170 0
5170 5171 0
-5170 -5171 0
360 5172 0
-360 -5172 0
1856 1873 5173 0
1856 -1873 -5173 0
-1856 1873 -5173 0
-1856 -1873 -5173 0
5173 5174 0
-5173 -5174 0
5174 5175 0
-5174 -5175 0
5011 5175 5176 0
5011 -5175 -5176 0
-5011 5175 -5176 0
-5011 -5175 -5176 0
5171 5172 5176 5177 0
5171 5172 -5176 -5177 0
5171 -5172 5176 -5177 0
5171 -5172 -5176 -5177 0
-5171 5172 5176 -5177 0
-5171 5172 -5176 -5177 0
-5171 -5172 5176 -5177 0
-5171 -5172 -5176 -5177 0
5177 5178 0
-5177 -5178 0
5178 5179 0
-5178 -5179 0
5169 5179 -5180 0
5169 -5179 5180 0
-5169 5179 5180 0
-5169 -5179 -5180 0
4972 4317 5181 0
4972 -4317 -5181 0
-4972 4317 -5181 0
-4972 -4317 -5181 0
5181 5182 0
-5181 -5182 0
5182 5183 0
-5182 -5183 0
5027 4333 5184 0
5027 -4333 -5184 0
-5027 4333 -5184 0
-5027 -4333 -5184 0
5184 5185 0
-5184 -5185 0
5185 5186 0
-5185 -5186 0
5183 5186 -5187 0
5183 -5186 5187 0
-5183 5186 5187 0
-5183 -5186 -5187 0
4972 4351 5188 0
4972 -4351 -5188 0
-4972 4351 -5188 0
-4972 -4351 -5188 0
5188 5189 0
-5188 -5189 0
5189 5190 0
-5189 -5190 0
5027 4368 5191 0
5027 -4368 -5191 0
-5027 4368 -5191 0
-5027 -4368 -5191 0
5191 5192 0
-5191 -5192 0
5192 5193 0
-5192 -5193 0
5190 5193 -5194 0
5190 -5193 5194 0
-5190 5193 5194 0
-5190 -5193 -5194 0
4972 4249 5195 0
4972 -4249 -5195 0
-4972 4249 -5195 0
-4972 -4249 -5195 0
5195 5196 0
-5195 -5196 0
5196 5197 0
-5196 -5197 0
5027 4265 5198 0
5027 -4265 -5198 0
-5027 4265 -5198 0
-5027 -4265 -5198 0
5198 5199 0
-5198 -5199 0
5199 5200 0
-5199 -5200 0
5197 5200 -5201 0
5197 -5200 5201 0
-5197 5200 5201 0
-5197 -5200 -5201 0
4972 4283 5202 0
4972 -4283 -5202 0
-4972 4283 -5202 0
-4972 -4283 -5202 0
5202 5203 0
-5202 -5203 0
5203 5204 0
-5203 -5204 0
5027 4300 5205 0
5027 -4300 -5205 0
-5027 4300 -5205 0
-5027 -4300 -5205 0
5205 5206 0
-5205 -5206 0
5206 5207 0
-5206 -5207 0
5204 5207 -5208 0
5204 -5207 5208 0
-5204 5207 5208 0
-5204 -5207 -5208 0
4972 4213 5209 0
4972 -4213 -5209 0
-4972 4213 -5209 0
-4972 -4213 -5209 0
5209 5210 0
-5209 -5210 0
5210 5211 0
-5210 -5211 0
5027 4232 5212 0
5027 -4232 -5212 0
-5027 4232 -5212 0
-5027 -4232 -5212 0
5212 5213 0
-5212 -5213 0
5213 5214 0
-5213 -5214 0
5211 5214 -5215 0
5211 -5214 5215 0
-5211 5214 5215 0
-5211 -5214 -5215 0
5091 1752 5216 0
5091 -1752 -5216 0
-5091 1752 -5216 0
-5091 -1752 -5216 0
5216 5217 0
-5216 -5217 0
5217 5218 0
-5217 -5218 0
5154 1777 5219 0
5154 -1777 -5219 0
-5154 1777 -5219 0
-5154 -1777 -5219 0
5219 5220 0
-5219 -5220 0
5220 5221 0
-5220 -5221 0
5218 5221 -5222 0
5218 -5221 5222 0
-5218 5221 5222 0
-5218 -5221 -5222 0
1798 5091 5223 0
1798 -5091 -5223 0
-1798 5091 -5223 0
-1798 -5091 -5223 0
5223 5224 0
-5223 -5224 0
5224 5225 0
-5224 -5225 0
1818 5154 5226 0
1818 -5154 -5226 0
-1818 5154 -5226 0
-1818 -5154 -5226 0
5226 5227 0
-5226 -5227 0
5227 5228 0
-5227 -5228 0
5225 5228 -5229 0
5225 -5228 5229 0
-5225 5228 5229 0
-5225 -5228 -5229 0
5091 4427 5230 0
5091 -4427 -5230 0
-5091 4427 -5230 0
-5091 -4427 -5230 0
5230 5231 0
-5230 -5231 0
5231 5232 0
-5231 -5232 0
5154 4449 5233 0
5154 -4449 -5233 0
-5154 4449 -5233 0
-5154 -4449 -5233 0
5233 5234 0
-5233 -5234 0
5234 5235 0
-5234 -5235 0
5232 5235 -5236 0
5232 -5235 5236 0
-5232 5235 5236 0
-5232 -5235 -5236 0
1699 5091 5237 0
1699 -5091 -5237 0
-1699 5091 -5237 0
-1699 -5091 -5237 0
5237 5238 0
-5237 -5238 0
5238 5239 0
-5238 -5239 0
1726 5154 5240 0
1726 -5154 -5240 0
-1726 5154 -5240 0
-1726 -5154 -5240 0
5240 5241 0
-5240 -5241 0
5241 5242 0
-5241 -5242 0
5239 5242 -5243 0
5239 -5242 5243 0
-5239 5242 5243 0
-5239 -5242 -5243 0
4471 5091 5244 0
4471 -5091 -5244 0
-4471 5091 -5244 0
-4471 -5091 -5244 0
5244 5245 0
-5244 -5245 0
5245 5246 0
-5245 -5246 0
4492 5154 5247 0
4492 -5154 -5247 0
-4492 5154 -5247 0
-4492 -5154 -5247 0
5247 5248 0
-5247 -5248 0
5248 5249 0
-5248 -5249 0
5246 5249 -5250 0
5246 -5249 5250 0
-5246 5249 5250 0
-5246 -5249 -5250 0
4136 5251 0
-4136 -5251 0
4101 5252 0
-4101 -5252 0
5251 5252 -5253 0
5251 -5252 5253 0
-5251 5252 5253 0
-5251 -5252 5253 0
5253 5254 0
-5253 -5254 0
345 5255 0
-345 -5255 0
5254 5255 5256 0
5254 -5255 -5256 0
-5254 5255 -5256 0
-5254 -5255 -5256 0
345 5257 0
-345 -5257 0
5257 5258 0
-5257 -5258 0
5258 5253 5259 0
5258 -5253 -5259 0
-5258 5253 -5259 0
-5258 -5253 -5259 0
5256 5259 -5260 0
5256 -5259 5260 0
-5256 5259 5260 0
-5256 -5259 5260 0
4970 5260 5261 0
4970 -5260 -5261 0
-4970 5260 -5261 0
-4970 -5260 -5261 0
5261 5262 0
-5261 -5262 0
5262 5263 0
-5262 -5263 0
5263 5264 0
-5263 -5264 0
4152 5265 0
-4152 -5265 0
4120 5266 0
-4120 -5266 0
5265 5266 -5267 0
5265 -5266 5267 0
-5265 5266 5267 0
-5265 -5266 5267 0
5267 5268 0
-5267 -5268 0
345 5269 0
-345 -5269 0
5268 5269 5270 0
5268 -5269 -5270 0
-5268 5269 -5270 0
-5268 -5269 -5270 0
345 5271 0
-345 -5271 0
5271 5272 0
-5271 -5272 0
5272 5267 5273 0
5272 -5267 -5273 0
-5272 5267 -5273 0
-5272 -5267 -5273 0
5270 5273 -5274 0
5270 -5273 5274 0
-5270 5273 5274 0
-5270 -5273 5274 0
5025 5274 5275 0
5025 -5274 -5275 0
-5025 5274 -5275 0
-5025 -5274 -5275 0
5275 5276 0
-5275 -5276 0
5276 5277 0
-5276 -5277 0
5277 5278 0
-5277 -5278 0
5264 5278 -5279 0
5264 -5278 5279 0
-5264 5278 5279 0
-5264 -5278 -5279 0
4176 4970 5280 0
4176 -4970 -5280 0
-4176 4970 -5280 0
-4176 -4970 -5280 0
5280 5281 0
-5280 -5281 0
5281 5282 0
-5281 -5282 0
4193 5025 5283 0
4193 -5025 -5283 0
-4193 5025 -5283 0
-4193 -5025 -5283 0
5283 5284 0
-5283 -5284 0
5284 5285 0
-5284 -5285 0
5282 5285 -5286 0
5282 -5285 5286 0
-5282 5285 5286 0
-5282 -5285 -5286 0
4106 4970 5287 0
4106 -4970 -5287 0
-4106 4970 -5287 0
-4106 -4970 -5287 0
5287 5288 0
-5287 -5288 0
5288 5289 0
-5288 -5289 0
4125 5025 5290 0
4125 -5025 -5290 0
-4125 5025 -5290 0
-4125 -5025 -5290 0
5290 5291 0
-5290 -5291 0
5291 5292 0
-5291 -5292 0
5289 5292 -5293 0
5289 -5292 5293 0
-5289 5292 5293 0
-5289 -5292 -5293 0
4142 4970 5294 0
4142 -4970 -5294 0
-4142 4970 -5294 0
-4142 -4970 -5294 0
5294 5295 0
-5294 -5295 0
5295 5296 0
-5295 -5296 0
4158 5025 5297 0
4158 -5025 -5297 0
-4158 5025 -5297 0
-4158 -5025 -5297 0
5297 5298 0
-5297 -5298 0
5298 5299 0
-5298 -5299 0
5296 5299 -5300 0
5296 -5299 5300 0
-5296 5299 5300 0
-5296 -5299 -5300 0
327 5301 0
-327 -5301 0
328 5302 0
-328 -5302 0
325 5303 0
-325 -5303 0
316 5304 0
-316 -5304 0
273 5305 0
-273 -5305 0
5305 5306 0
-5305 -5306 0
5306 5307 0
-5306 -5307 0
5307 5308 0
-5307 -5308 0
5303 5304 5308 -5309 0
5303 5304 -5308 5309 0
5303 -5304 5308 5309 0
5303 -5304 -5308 5309 0
-5303 5304 5308 5309 0
-5303 5304 -5308 5309 0
-5303 -5304 5308 5309 0
-5303 -5304 -5308 5309 0
5301 5302 5309 -5310 0
5301 5302 -5309 5310 0
5301 -5302 5309 5310 0
5301 -5302 -5309 5310 0
-5301 5302 5309 5310 0
-5301 5302 -5309 5310 0
-5301 -5302 5309 5310 0
-5301 -5302 -5309 5310 0
5310 5311 0
-5310 -5311 0
5311 5312 0
-5311 -5312 0
318 5313 0
-318 -5313 0
5313 5314 0
-5313 -5314 0
5314 5315 0
-5314 -5315 0
317 5316 0
-317 -5316 0
310 5317 0
-310 -5317 0
5315 5316 5317 5318 0
5315 5316 -5317 -5318 0
5315 -5316 5317 -5318 0
5315 -5316 -5317 -5318 0
-5315 5316 5317 -5318 0
-5315 5316 -5317 -5318 0
-5315 -5316 5317 -5318 0
-5315 -5316 -5317 -5318 0
5318 5319 0
-5318 -5319 0
5312 5319 -5320 0
5312 -5319 5320 0
-5312 5319 5320 0
-5312 -5319 5320 0
327 5321 0
-327 -5321 0
328 5322 0
-328 -5322 0
325 5323 0
-325 -5323 0
316 5324 0
-316 -5324 0
273 5325 0
-273 -5325 0
5325 5326 0
-5325 -5326 0
5326 5327 0
-5326 -5327 0
5327 5328 0
-5327 -5328 0
5323 5324 5328 -5329 0
5323 5324 -5328 5329 0
5323 -5324 5328 5329 0
5323 -5324 -5328 5329 0
-5323 5324 5328 5329 0
-5323 5324 -5328 5329 0
-5323 -5324 5328 5329 0
-5323 -5324 -5328 5329 0
5321 5322 5329 -5330 0
5321 5322 -5329 5330 0
5321 -5322 5329 5330 0
5321 -5322 -5329 5330 0
-5321 5322 5329 5330 0
-5321 5322 -5329 5330 0
-5321 -5322 5329 5330 0
-5321 -5322 -5329 5330 0
5330 5331 0
-5330 -5331 0
5331 5332 0
-5331 -5332 0
318 5333 0
-318 -5333 0
5333 5334 0
-5333 -5334 0
5334 5335 0
-5334 -5335 0
317 5336 0
-317 -5336 0
310 5337 0
-310 -5337 0
5335 5336 5337 5338 0
5335 5336 -5337 -5338 0
5335 -5336 5337 -5338 0
5335 -5336 -5337 -5338 0
-5335 5336 5337 -5338 0
-5335 5336 -5337 -5338 0
-5335 -5336 5337 -5338 0
-5335 -5336 -5337 -5338 0
5338 5339 0
-5338 -5339 0
5332 5339 -5340 0
5332 -5339 5340 0
-5332 5339 5340 0
-5332 -5339 5340 0
5320 5340 -5341 0
5320 -5340 5341 0
-5320 5340 5341 0
-5320 -5340 -5341 0
3970 3983 -5342 0
3970 -3983 5342 0
-3970 3983 5342 0
-3970 -3983 -5342 0
2344 5343 0
-2344 -5343 0
2344 5344 0
-2344 -5344 0
5344 5345 0
-5344 -5345 0
5343 5345 -5346 0
5343 -5345 5346 0
-5343 5345 5346 0
-5343 -5345 5346 0
2708 5347 0
-2708 -5347 0
2708 5348 0
-2708 -5348 0
5348 5349 0
-5348 -5349 0
5347 5349 -5350 0
5347 -5349 5350 0
-5347 5349 5350 0
-5347 -5349 5350 0
5346 5350 -5351 0
5346 -5350 5351 0
-5346 5350 5351 0
-5346 -5350 -5351 0
351 5352 0
-351 -5352 0
5352 5353 0
-5352 -5353 0
4950 5354 0
-4950 -5354 0
4136 4173 4097 5355 0
4136 4173 -4097 -5355 0
4136 -4173 4097 -5355 0
4136 -4173 -4097 -5355 0
-4136 4173 4097 -5355 0
-4136 4173 -4097 -5355 0
-4136 -4173 4097 -5355 0
-4136 -4173 -4097 -5355 0
5355 5356 0
-5355 -5356 0
5088 5353 5354 5356 5357 0
5088 5353 5354 -5356 -5357 0
5088 5353 -5354 5356 -5357 0
5088 5353 -5354 -5356 -5357 0
5088 -5353 5354 5356 -5357 0
5088 -5353 5354 -5356 -5357 0
5088 -5353 -5354 5356 -5357 0
5088 -5353 -5354 -5356 -5357 0
-5088 5353 5354 5356 -5357 0
-5088 5353 5354 -5356 -5357 0
-5088 5353 -5354 5356 -5357 0
-5088 5353 -5354 -5356 -5357 0
-5088 -5353 5354 5356 -5357 0
-5088 -5353 5354 -5356 -5357 0
-5088 -5353 -5354 5356 -5357 0
-5088 -5353 -5354 -5356 -5357 0
350 5358 0
-350 -5358 0
5358 5359 0
-5358 -5359 0
5088 5354 5359 5360 0
5088 5354 -5359 -5360 0
5088 -5354 5359 -5360 0
5088 -5354 -5359 -5360 0
-5088 5354 5359 -5360 0
-5088 5354 -5359 -5360 0
-5088 -5354 5359 -5360 0
-5088 -5354 -5359 -5360 0
5357 5360 -5361 0
5357 -5360 5361 0
-5357 5360 5361 0
-5357 -5360 5361 0
351 5362 0
-351 -5362 0
5362 5363 0
-5362 -5363 0
5005 5364 0
-5005 -5364 0
4152 4190 4116 5365 0
4152 4190 -4116 -5365 0
4152 -4190 4116 -5365 0
4152 -4190 -4116 -5365 0
-4152 4190 4116 -5365 0
-4152 4190 -4116 -5365 0
-4152 -4190 4116 -5365 0
-4152 -4190 -4116 -5365 0
5365 5366 0
-5365 -5366 0
5151 5363 5364 5366 5367 0
5151 5363 5364 -5366 -5367 0
5151 5363 -5364 5366 -5367 0
5151 5363 -5364 -5366 -5367 0
5151 -5363 5364 5366 -5367 0
5151 -5363 5364 -5366 -5367 0
5151 -5363 -5364 5366 -5367 0
5151 -5363 -5364 -5366 -5367 0
-5151 5363 5364 5366 -5367 0
-5151 5363 5364 -5366 -5367 0
-5151 5363 -5364 5366 -5367 0
-5151 5363 -5364 -5366 -5367 0
-5151 -5363 5364 5366 -5367 0
-5151 -5363 5364 -5366 -5367 0
-5151 -5363 -5364 5366 -5367 0
-5151 -5363 -5364 -5366 -5367 0
350 5368 0
-350 -5368 0
5368 5369 0
-5368 -5369 0
5151 5364 5369 5370 0
5151 5364 -5369 -5370 0
5151 -5364 5369 -5370 0
5151 -5364 -5369 -5370 0
-5151 5364 5369 -5370 0
-5151 5364 -5369 -5370 0
-5151 -5364 5369 -5370 0
-5151 -5364 -5369 -5370 0
5367 5370 -5371 0
5367 -5370 5371 0
-5367 5370 5371 0
-5367 -5370 5371 0
5361 5371 -5372 0
5361 -5371 5372 0
-5361 5371 5372 0
-5361 -5371 -5372 0
3943 3956 -5373 0
3943 -3956 5373 0
-3943 3956 5373 0
-3943 -3956 -5373 0
700 704 702 5374 0
700 704 -702 -5374 0
700 -704 702 -5374 0
700 -704 -702 -5374 0
-700 704 702 -5374 0
-700 704 -702 -5374 0
-700 -704 702 -5374 0
-700 -704 -702 -5374 0
5374 5375 0
-5374 -5375 0
5375 685 5376 0
5375 -685 -5376 0
-5375 685 -5376 0
-5375 -685 -5376 0
1682 665 673 5377 0
1682 665 -673 -5377 0
1682 -665 673 -5377 0
1682 -665 -673 -5377 0
-1682 665 673 -5377 0
-1682 665 -673 -5377 0
-1682 -665 673 -5377 0
-1682 -665 -673 -5377 0
5377 5378 0
-5377 -5378 0
679 5378 5379 0
679 -5378 -5379 0
-679 5378 -5379 0
-679 -5378 -5379 0
5376 5379 5380 0
5376 -5379 -5380 0
-5376 5379 -5380 0
-5376 -5379 -5380 0
5380 4895 5381 0
5380 -4895 -5381 0
-5380 4895 -5381 0
-5380 -4895 -5381 0
2777 2782 2788 5382 0
2777 2782 -2788 -5382 0
2777 -2782 2788 -5382 0
2777 -2782 -2788 -5382 0
-2777 2782 2788 -5382 0
-2777 2782 -2788 -5382 0
-2777 -2782 2788 -5382 0
-2777 -2782 -2788 -5382 0
5382 5383 0
-5382 -5383 0
2813 5384 0
-2813 -5384 0
5383 3132 5384 5385 0
5383 3132 -5384 -5385 0
5383 -3132 5384 -5385 0
5383 -3132 -5384 -5385 0
-5383 3132 5384 -5385 0
-5383 3132 -5384 -5385 0
-5383 -3132 5384 -5385 0
-5383 -3132 -5384 -5385 0
5385 5386 0
-5385 -5386 0
354 5387 0
-354 -5387 0
5387 5388 0
-5387 -5388 0
5386 5388 5389 0
5386 -5388 -5389 0
-5386 5388 -5389 0
-5386 -5388 -5389 0
2772 2768 2788 5390 0
2772 2768 -2788 -5390 0
2772 -2768 2788 -5390 0
2772 -2768 -2788 -5390 0
-2772 2768 2788 -5390 0
-2772 2768 -2788 -5390 0
-2772 -2768 2788 -5390 0
-2772 -2768 -2788 -5390 0
5390 5391 0
-5390 -5391 0
5391 3131 3132 5392 0
5391 3131 -3132 -5392 0
5391 -3131 3132 -5392 0
5391 -3131 -3132 -5392 0
-5391 3131 3132 -5392 0
-5391 3131 -3132 -5392 0
-5391 -3131 3132 -5392 0
-5391 -3131 -3132 -5392 0
5392 5393 0
-5392 -5393 0
354 5394 0
-354 -5394 0
5393 5394 5395 0
5393 -5394 -5395 0
-5393 5394 -5395 0
-5393 -5394 -5395 0
5389 5395 5396 0
5389 -5395 -5396 0
-5389 5395 -5396 0
-5389 -5395 -5396 0
3138 5396 3028 -5397 0
3138 5396 -3028 5397 0
3138 -5396 3028 5397 0
3138 -5396 -3028 5397 0
-3138 5396 3028 5397 0
-3138 5396 -3028 5397 0
-3138 -5396 3028 5397 0
-3138 -5396 -3028 5397 0
2910 2047 5397 -5398 0
2910 2047 -5397 5398 0
2910 -2047 5397 5398 0
2910 -2047 -5397 5398 0
-2910 2047 5397 5398 0
-2910 2047 -5397 5398 0
-2910 -2047 5397 5398 0
-2910 -2047 -5397 5398 0
5398 5399 0
-5398 -5399 0
5399 5400 0
-5399 -5400 0
5400 5401 0
-5400 -5401 0
5381 5401 -5402 0
5381 -5401 5402 0
-5381 5401 5402 0
-5381 -5401 5402 0
772 776 774 5403 0
772 776 -774 -5403 0
772 -776 774 -5403 0
772 -776 -774 -5403 0
-772 776 774 -5403 0
-772 776 -774 -5403 0
-772 -776 774 -5403 0
-772 -776 -774 -5403 0
5403 5404 0
-5403 -5404 0
5404 757 5405 0
5404 -757 -5405 0
-5404 757 -5405 0
-5404 -757 -5405 0
1709 737 745 5406 0
1709 737 -745 -5406 0
1709 -737 745 -5406 0
1709 -737 -745 -5406 0
-1709 737 745 -5406 0
-1709 737 -745 -5406 0
-1709 -737 745 -5406 0
-1709 -737 -745 -5406 0
5406 5407 0
-5406 -5407 0
751 5407 5408 0
751 -5407 -5408 0
-751 5407 -5408 0
-751 -5407 -5408 0
5405 5408 5409 0
5405 -5408 -5409 0
-5405 5408 -5409 0
-5405 -5408 -5409 0
5409 4909 5410 0
5409 -4909 -5410 0
-5409 4909 -5410 0
-5409 -4909 -5410 0
2850 2855 2861 5411 0
2850 2855 -2861 -5411 0
2850 -2855 2861 -5411 0
2850 -2855 -2861 -5411 0
-2850 2855 2861 -5411 0
-2850 2855 -2861 -5411 0
-2850 -2855 2861 -5411 0
-2850 -2855 -2861 -5411 0
5411 5412 0
-5411 -5412 0
2886 5413 0
-2886 -5413 0
5412 3150 5413 5414 0
5412 3150 -5413 -5414 0
5412 -3150 5413 -5414 0
5412 -3150 -5413 -5414 0
-5412 3150 5413 -5414 0
-5412 3150 -5413 -5414 0
-5412 -3150 5413 -5414 0
-5412 -3150 -5413 -5414 0
5414 5415 0
-5414 -5415 0
354 5416 0
-354 -5416 0
5416 5417 0
-5416 -5417 0
5415 5417 5418 0
5415 -5417 -5418 0
-5415 5417 -5418 0
-5415 -5417 -5418 0
2845 2841 2861 5419 0
2845 2841 -2861 -5419 0
2845 -2841 2861 -5419 0
2845 -2841 -2861 -5419 0
-2845 2841 2861 -5419 0
-2845 2841 -2861 -5419 0
-2845 -2841 2861 -5419 0
-2845 -2841 -2861 -5419 0
5419 5420 0
-5419 -5420 0
5420 3149 3150 5421 0
5420 3149 -3150 -5421 0
5420 -3149 3150 -5421 0
5420 -3149 -3150 -5421 0
-5420 3149 3150 -5421 0
-5420 3149 -3150 -5421 0
-5420 -3149 3150 -5421 0
-5420 -3149 -3150 -5421 0
5421 5422 0
-5421 -5422 0
354 5423 0
-354 -5423 0
5422 5423 5424 0
5422 -5423 -5424 0
-5422 5423 -5424 0
-5422 -5423 -5424 0
5418 5424 5425 0
5418 -5424 -5425 0
-5418 5424 -5425 0
-5418 -5424 -5425 0
3156 5425 3091 -5426 0
3156 5425 -3091 5426 0
3156 -5425 3091 5426 0
3156 -5425 -3091 5426 0
-3156 5425 3091 5426 0
-3156 5425 -3091 5426 0
-3156 -5425 3091 5426 0
-3156 -5425 -3091 5426 0
2943 2411 5426 -5427 0
2943 2411 -5426 5427 0
2943 -2411 5426 5427 0
2943 -2411 -5426 5427 0
-2943 2411 5426 5427 0
-2943 2411 -5426 5427 0
-2943 -2411 5426 5427 0
-2943 -2411 -5426 5427 0
5427 5428 0
-5427 -5428 0
5428 5429 0
-5428 -5429 0
5429 5430 0
-5429 -5430 0
5410 5430 -5431 0
5410 -5430 5431 0
-5410 5430 5431 0
-5410 -5430 5431 0
5402 5431 -5432 0
5402 -5431 5432 0
-5402 5431 5432 0
-5402 -5431 -5432 0
689 5433 0
-689 -5433 0
287 5434 0
-287 -5434 0
5434 5435 0
-5434 -5435 0
5435 5436 0
-5435 -5436 0
5433 5436 5437 0
5433 -5436 -5437 0
-5433 5436 -5437 0
-5433 -5436 -5437 0
662 5438 0
-662 -5438 0
4895 5438 5439 0
4895 -5438 -5439 0
-4895 5438 -5439 0
-4895 -5438 -5439 0
5437 5439 -5440 0
5437 -5439 5440 0
-5437 5439 5440 0
-5437 -5439 5440 0
761 5441 0
-761 -5441 0
287 5442 0
-287 -5442 0
5442 5443 0
-5442 -5443 0
5443 5444 0
-5443 -5444 0
5441 5444 5445 0
5441 -5444 -5445 0
-5441 5444 -5445 0
-5441 -5444 -5445 0
734 5446 0
-734 -5446 0
4909 5446 5447 0
4909 -5446 -5447 0
-4909 5446 -5447 0
-4909 -5446 -5447 0
5445 5447 -5448 0
5445 -5447 5448 0
-5445 5447 5448 0
-5445 -5447 5448 0
5440 5448 -5449 0
5440 -5448 5449 0
-5440 5448 5449 0
-5440 -5448 -5449 0
288 5450 0
-288 -5450 0
5450 5451 0
-5450 -5451 0
5451 5452 0
-5451 -5452 0
5433 5452 5453 0
5433 -5452 -5453 0
-5433 5452 -5453 0
-5433 -5452 -5453 0
5438 4580 5454 0
5438 -4580 -5454 0
-5438 4580 -5454 0
-5438 -4580 -5454 0
5453 5454 -5455 0
5453 -5454 5455 0
-5453 5454 5455 0
-5453 -5454 5455 0
288 5456 0
-288 -5456 0
5456 5457 0
-5456 -5457 0
5457 5458 0
-5457 -5458 0
5441 5458 5459 0
5441 -5458 -5459 0
-5441 5458 -5459 0
-5441 -5458 -5459 0
5446 4592 5460 0
5446 -4592 -5460 0
-5446 4592 -5460 0
-5446 -4592 -5460 0
5459 5460 -5461 0
5459 -5460 5461 0
-5459 5460 5461 0
-5459 -5460 5461 0
5455 5461 -5462 0
5455 -5461 5462 0
-5455 5461 5462 0
-5455 -5461 -5462 0
5438 4613 5463 0
5438 -4613 -5463 0
-5438 4613 -5463 0
-5438 -4613 -5463 0
4749 5433 5464 0
4749 -5433 -5464 0
-4749 5433 -5464 0
-4749 -5433 -5464 0
5463 5464 -5465 0
5463 -5464 5465 0
-5463 5464 5465 0
-5463 -5464 5465 0
5446 4633 5466 0
5446 -4633 -5466 0
-5446 4633 -5466 0
-5446 -4633 -5466 0
4770 5441 5467 0
4770 -5441 -5467 0
-4770 5441 -5467 0
-4770 -5441 -5467 0
5466 5467 -5468 0
5466 -5467 5468 0
-5466 5467 5468 0
-5466 -5467 5468 0
5465 5468 -5469 0
5465 -5468 5469 0
-5465 5468 5469 0
-5465 -5468 -5469 0
4725 5438 5470 0
4725 -5438 -5470 0
-4725 5438 -5470 0
-4725 -5438 -5470 0
5433 4716 5471 0
5433 -4716 -5471 0
-5433 4716 -5471 0
-5433 -4716 -5471 0
5470 5471 -5472 0
5470 -5471 5472 0
-5470 5471 5472 0
-5470 -5471 5472 0
4741 5446 5473 0
4741 -5446 -5473 0
-4741 5446 -5473 0
-4741 -5446 -5473 0
5441 4732 5474 0
5441 -4732 -5474 0
-5441 4732 -5474 0
-5441 -4732 -5474 0
5473 5474 -5475 0
5473 -5474 5475 0
-5473 5474 5475 0
-5473 -5474 5475 0
5472 5475 -5476 0
5472 -5475 5476 0
-5472 5475 5476 0
-5472 -5475 -5476 0
4668 4895 5477 0
4668 -4895 -5477 0
-4668 4895 -5477 0
-4668 -4895 -5477 0
5436 4639 5478 0
5436 -4639 -5478 0
-5436 4639 -5478 0
-5436 -4639 -5478 0
5477 5478 -5479 0
5477 -5478 5479 0
-5477 5478 5479 0
-5477 -5478 5479 0
4705 4909 5480 0
4705 -4909 -5480 0
-4705 4909 -5480 0
-4705 -4909 -5480 0
5444 4676 5481 0
5444 -4676 -5481 0
-5444 4676 -5481 0
-5444 -4676 -5481 0
5480 5481 -5482 0
5480 -5481 5482 0
-5480 5481 5482 0
-5480 -5481 5482 0
5479 5482 -5483 0
5479 -5482 5483 0
-5479 5482 5483 0
-5479 -5482 -5483 0
5380 4580 5484 0
5380 -4580 -5484 0
-5380 4580 -5484 0
-5380 -4580 -5484 0
5400 5485 0
-5400 -5485 0
5484 5485 -5486 0
5484 -5485 5486 0
-5484 5485 5486 0
-5484 -5485 5486 0
5409 4592 5487 0
5409 -4592 -5487 0
-5409 4592 -5487 0
-5409 -4592 -5487 0
5429 5488 0
-5429 -5488 0
5487 5488 -5489 0
5487 -5488 5489 0
-5487 5488 5489 0
-5487 -5488 5489 0
5486 5489 -5490 0
5486 -5489 5490 0
-5486 5489 5490 0
-5486 -5489 -5490 0
5380 4531 5491 0
5380 -4531 -5491 0
-5380 4531 -5491 0
-5380 -4531 -5491 0
5400 5492 0
-5400 -5492 0
5491 5492 -5493 0
5491 -5492 5493 0
-5491 5492 5493 0
-5491 -5492 5493 0
5409 4567 5494 0
5409 -4567 -5494 0
-5409 4567 -5494 0
-5409 -4567 -5494 0
5429 5495 0
-5429 -5495 0
5494 5495 -5496 0
5494 -5495 5496 0
-5494 5495 5496 0
-5494 -5495 5496 0
5493 5496 -5497 0
5493 -5496 5497 0
-5493 5496 5497 0
-5493 -5496 -5497 0
690 5399 5498 0
690 -5399 -5498 0
-690 5399 -5498 0
-690 -5399 -5498 0
5498 5499 0
-5498 -5499 0
5452 5499 5500 0
5452 -5499 -5500 0
-5452 5499 -5500 0
-5452 -5499 -5500 0
5399 663 5501 0
5399 -663 -5501 0
-5399 663 -5501 0
-5399 -663 -5501 0
5501 5502 0
-5501 -5502 0
4580 5502 5503 0
4580 -5502 -5503 0
-4580 5502 -5503 0
-4580 -5502 -5503 0
5399 5504 0
-5399 -5504 0
5504 5505 0
-5504 -5505 0
5500 5503 5505 -5506 0
5500 5503 -5505 5506 0
5500 -5503 5505 5506 0
5500 -5503 -5505 5506 0
-5500 5503 5505 5506 0
-5500 5503 -5505 5506 0
-5500 -5503 5505 5506 0
-5500 -5503 -5505 5506 0
762 5428 5507 0
762 -5428 -5507 0
-762 5428 -5507 0
-762 -5428 -5507 0
5507 5508 0
-5507 -5508 0
5458 5508 5509 0
5458 -5508 -5509 0
-5458 5508 -5509 0
-5458 -5508 -5509 0
5428 735 5510 0
5428 -735 -5510 0
-5428 735 -5510 0
-5428 -735 -5510 0
5510 5511 0
-5510 -5511 0
4592 5511 5512 0
4592 -5511 -5512 0
-4592 5511 -5512 0
-4592 -5511 -5512 0
5428 5513 0
-5428 -5513 0
5513 5514 0
-5513 -5514 0
5509 5512 5514 -5515 0
5509 5512 -5514 5515 0
5509 -5512 5514 5515 0
5509 -5512 -5514 5515 0
-5509 5512 5514 5515 0
-5509 5512 -5514 5515 0
-5509 -5512 5514 5515 0
-5509 -5512 -5514 5515 0
5506 5515 -5516 0
5506 -5515 5516 0
-5506 5515 5516 0
-5506 -5515 -5516 0
5438 4531 5517 0
5438 -4531 -5517 0
-5438 4531 -5517 0
-5438 -4531 -5517 0
289 5518 0
-289 -5518 0
5518 5519 0
-5518 -5519 0
5519 5520 0
-5519 -5520 0
5433 5520 5521 0
5433 -5520 -5521 0
-5433 5520 -5521 0
-5433 -5520 -5521 0
5517 5521 -5522 0
5517 -5521 5522 0
-5517 5521 5522 0
-5517 -5521 5522 0
5446 4567 5523 0
5446 -4567 -5523 0
-5446 4567 -5523 0
-5446 -4567 -5523 0
289 5524 0
-289 -5524 0
5524 5525 0
-5524 -5525 0
5525 5526 0
-5525 -5526 0
5441 5526 5527 0
5441 -5526 -5527 0
-5441 5526 -5527 0
-5441 -5526 -5527 0
5523 5527 -5528 0
5523 -5527 5528 0
-5523 5527 5528 0
-5523 -5527 5528 0
5522 5528 -5529 0
5522 -5528 5529 0
-5522 5528 5529 0
-5522 -5528 -5529 0
4668 4531 5530 0
4668 -4531 -5530 0
-4668 4531 -5530 0
-4668 -4531 -5530 0
5520 4639 5531 0
5520 -4639 -5531 0
-5520 4639 -5531 0
-5520 -4639 -5531 0
5530 5531 -5532 0
5530 -5531 5532 0
-5530 5531 5532 0
-5530 -5531 5532 0
4705 4567 5533 0
4705 -4567 -5533 0
-4705 4567 -5533 0
-4705 -4567 -5533 0
5526 4676 5534 0
5526 -4676 -5534 0
-5526 4676 -5534 0
-5526 -4676 -5534 0
5533 5534 -5535 0
5533 -5534 5535 0
-5533 5534 5535 0
-5533 -5534 5535 0
5532 5535 -5536 0
5532 -5535 5536 0
-5532 5535 5536 0
-5532 -5535 -5536 0
5400 5537 0
-5400 -5537 0
4725 5380 5538 0
4725 -5380 -5538 0
-4725 5380 -5538 0
-4725 -5380 -5538 0
5537 5538 -5539 0
5537 -5538 5539 0
-5537 5538 5539 0
-5537 -5538 5539 0
5429 5540 0
-5429 -5540 0
4741 5409 5541 0
4741 -5409 -5541 0
-4741 5409 -5541 0
-4741 -5409 -5541 0
5540 5541 -5542 0
5540 -5541 5542 0
-5540 5541 5542 0
-5540 -5541 5542 0
5539 5542 -5543 0
5539 -5542 5543 0
-5539 5542 5543 0
-5539 -5542 -5543 0
5400 5544 0
-5400 -5544 0
5380 4873 5545 0
5380 -4873 -5545 0
-5380 4873 -5545 0
-5380 -4873 -5545 0
5544 5545 -5546 0
5544 -5545 5546 0
-5544 5545 5546 0
-5544 -5545 5546 0
5429 5547 0
-5429 -5547 0
5409 4887 5548 0
5409 -4887 -5548 0
-5409 4887 -5548 0
-5409 -4887 -5548 0
5547 5548 -5549 0
5547 -5548 5549 0
-5547 5548 5549 0
-5547 -5548 5549 0
5546 5549 -5550 0
5546 -5549 5550 0
-5546 5549 5550 0
-5546 -5549 -5550 0
4829 5380 5551 0
4829 -5380 -5551 0
-4829 5380 -5551 0
-4829 -5380 -5551 0
5400 5552 0
-5400 -5552 0
5551 5552 -5553 0
5551 -5552 5553 0
-5551 5552 5553 0
-5551 -5552 5553 0
4847 5409 5554 0
4847 -5409 -5554 0
-4847 5409 -5554 0
-4847 -5409 -5554 0
5429 5555 0
-5429 -5555 0
5554 5555 -5556 0
5554 -5555 5556 0
-5554 5555 5556 0
-5554 -5555 5556 0
5553 5556 -5557 0
5553 -5556 5557 0
-5553 5556 5557 0
-5553 -5556 -5557 0
4671 5380 5558 0
4671 -5380 -5558 0
-4671 5380 -5558 0
-4671 -5380 -5558 0
5400 5559 0
-5400 -5559 0
5558 5559 -5560 0
5558 -5559 5560 0
-5558 5559 5560 0
-5558 -5559 5560 0
4708 5409 5561 0
4708 -5409 -5561 0
-4708 5409 -5561 0
-4708 -5409 -5561 0
5429 5562 0
-5429 -5562 0
5561 5562 -5563 0
5561 -5562 5563 0
-5561 5562 5563 0
-5561 -5562 5563 0
5560 5563 -5564 0
5560 -5563 5564 0
-5560 5563 5564 0
-5560 -5563 -5564 0
4613 5380 5565 0
4613 -5380 -5565 0
-4613 5380 -5565 0
-4613 -5380 -5565 0
5400 5566 0
-5400 -5566 0
5565 5566 -5567 0
5565 -5566 5567 0
-5565 5566 5567 0
-5565 -5566 5567 0
4633 5409 5568 0
4633 -5409 -5568 0
-4633 5409 -5568 0
-4633 -5409 -5568 0
5429 5569 0
-5429 -5569 0
5568 5569 -5570 0
5568 -5569 5570 0
-5568 5569 5570 0
-5568 -5569 5570 0
5567 5570 -5571 0
5567 -5570 5571 0
-5567 5570 5571 0
-5567 -5570 -5571 0
5380 4803 5572 0
5380 -4803 -5572 0
-5380 4803 -5572 0
-5380 -4803 -5572 0
5400 5573 0
-5400 -5573 0
5572 5573 -5574 0
5572 -5573 5574 0
-5572 5573 5574 0
-5572 -5573 5574 0
5409 4821 5575 0
5409 -4821 -5575 0
-5409 4821 -5575 0
-5409 -4821 -5575 0
5429 5576 0
-5429 -5576 0
5575 5576 -5577 0
5575 -5576 5577 0
-5575 5576 5577 0
-5575 -5576 5577 0
5574 5577 -5578 0
5574 -5577 5578 0
-5574 5577 5578 0
-5574 -5577 -5578 0
4639 5452 5579 0
4639 -5452 -5579 0
-4639 5452 -5579 0
-4639 -5452 -5579 0
4668 4580 5580 0
4668 -4580 -5580 0
-4668 4580 -5580 0
-4668 -4580 -5580 0
5579 5580 -5581 0
5579 -5580 5581 0
-5579 5580 5581 0
-5579 -5580 5581 0
4676 5458 5582 0
4676 -5458 -5582 0
-4676 5458 -5582 0
-4676 -5458 -5582 0
4705 4592 5583 0
4705 -4592 -5583 0
-4705 4592 -5583 0
-4705 -4592 -5583 0
5582 5583 -5584 0
5582 -5583 5584 0
-5582 5583 5584 0
-5582 -5583 5584 0
5581 5584 -5585 0
5581 -5584 5585 0
-5581 5584 5585 0
-5581 -5584 -5585 0
4749 5499 5586 0
4749 -5499 -5586 0
-4749 5499 -5586 0
-4749 -5499 -5586 0
5504 5587 0
-5504 -5587 0
4613 5502 5588 0
4613 -5502 -5588 0
-4613 5502 -5588 0
-4613 -5502 -5588 0
5586 5587 5588 -5589 0
5586 5587 -5588 5589 0
5586 -5587 5588 5589 0
5586 -5587 -5588 5589 0
-5586 5587 5588 5589 0
-5586 5587 -5588 5589 0
-5586 -5587 5588 5589 0
-5586 -5587 -5588 5589 0
4770 5508 5590 0
4770 -5508 -5590 0
-4770 5508 -5590 0
-4770 -5508 -5590 0
5513 5591 0
-5513 -5591 0
4633 5511 5592 0
4633 -5511 -5592 0
-4633 5511 -5592 0
-4633 -5511 -5592 0
5590 5591 5592 -5593 0
5590 5591 -5592 5593 0
5590 -5591 5592 5593 0
5590 -5591 -5592 5593 0
-5590 5591 5592 5593 0
-5590 5591 -5592 5593 0
-5590 -5591 5592 5593 0
-5590 -5591 -5592 5593 0
5589 5593 -5594 0
5589 -5593 5594 0
-5589 5593 5594 0
-5589 -5593 -5594 0
5502 4895 5595 0
5502 -4895 -5595 0
-5502 4895 -5595 0
-5502 -4895 -5595 0
5499 5436 5596 0
5499 -5436 -5596 0
-5499 5436 -5596 0
-5499 -5436 -5596 0
5504 5597 0
-5504 -5597 0
5595 5596 5597 -5598 0
5595 5596 -5597 5598 0
5595 -5596 5597 5598 0
5595 -5596 -5597 5598 0
-5595 5596 5597 5598 0
-5595 5596 -5597 5598 0
-5595 -5596 5597 5598 0
-5595 -5596 -5597 5598 0
5511 4909 5599 0
5511 -4909 -5599 0
-5511 4909 -5599 0
-5511 -4909 -5599 0
5508 5444 5600 0
5508 -5444 -5600 0
-5508 5444 -5600 0
-5508 -5444 -5600 0
5513 5601 0
-5513 -5601 0
5599 5600 5601 -5602 0
5599 5600 -5601 5602 0
5599 -5600 5601 5602 0
5599 -5600 -5601 5602 0
-5599 5600 5601 5602 0
-5599 5600 -5601 5602 0
-5599 -5600 5601 5602 0
-5599 -5600 -5601 5602 0
5598 5602 -5603 0
5598 -5602 5603 0
-5598 5602 5603 0
-5598 -5602 -5603 0
5504 5604 0
-5504 -5604 0
5502 4829 5605 0
5502 -4829 -5605 0
-5502 4829 -5605 0
-5502 -4829 -5605 0
5499 4840 5606 0
5499 -4840 -5606 0
-5499 4840 -5606 0
-5499 -4840 -5606 0
5604 5605 5606 -5607 0
5604 5605 -5606 5607 0
5604 -5605 5606 5607 0
5604 -5605 -5606 5607 0
-5604 5605 5606 5607 0
-5604 5605 -5606 5607 0
-5604 -5605 5606 5607 0
-5604 -5605 -5606 5607 0
5513 5608 0
-5513 -5608 0
5511 4847 5609 0
5511 -4847 -5609 0
-5511 4847 -5609 0
-5511 -4847 -5609 0
5508 4858 5610 0
5508 -4858 -5610 0
-5508 4858 -5610 0
-5508 -4858 -5610 0
5608 5609 5610 -5611 0
5608 5609 -5610 5611 0
5608 -5609 5610 5611 0
5608 -5609 -5610 5611 0
-5608 5609 5610 5611 0
-5608 5609 -5610 5611 0
-5608 -5609 5610 5611 0
-5608 -5609 -5610 5611 0
5607 5611 -5612 0
5607 -5611 5612 0
-5607 5611 5612 0
-5607 -5611 -5612 0
286 5613 0
-286 -5613 0
5613 5614 0
-5613 -5614 0
5614 5615 0
-5614 -5615 0
5615 4639 5616 0
5615 -4639 -5616 0
-5615 4639 -5616 0
-5615 -4639 -5616 0
4873 4668 5617 0
4873 -4668 -5617 0
-4873 4668 -5617 0
-4873 -4668 -5617 0
5616 5617 -5618 0
5616 -5617 5618 0
-5616 5617 5618 0
-5616 -5617 5618 0
286 5619 0
-286 -5619 0
5619 5620 0
-5619 -5620 0
5620 5621 0
-5620 -5621 0
5621 4676 5622 0
5621 -4676 -5622 0
-5621 4676 -5622 0
-5621 -4676 -5622 0
4887 4705 5623 0
4887 -4705 -5623 0
-4887 4705 -5623 0
-4887 -4705 -5623 0
5622 5623 -5624 0
5622 -5623 5624 0
-5622 5623 5624 0
-5622 -5623 5624 0
5618 5624 -5625 0
5618 -5624 5625 0
-5618 5624 5625 0
-5618 -5624 -5625 0
5438 4803 5626 0
5438 -4803 -5626 0
-5438 4803 -5626 0
-5438 -4803 -5626 0
4792 5433 5627 0
4792 -5433 -5627 0
-4792 5433 -5627 0
-4792 -5433 -5627 0
5626 5627 -5628 0
5626 -5627 5628 0
-5626 5627 5628 0
-5626 -5627 5628 0
5446 4821 5629 0
5446 -4821 -5629 0
-5446 4821 -5629 0
-5446 -4821 -5629 0
4810 5441 5630 0
4810 -5441 -5630 0
-4810 5441 -5630 0
-4810 -5441 -5630 0
5629 5630 -5631 0
5629 -5630 5631 0
-5629 5630 5631 0
-5629 -5630 5631 0
5628 5631 -5632 0
5628 -5631 5632 0
-5628 5631 5632 0
-5628 -5631 -5632 0
4829 5438 5633 0
4829 -5438 -5633 0
-4829 5438 -5633 0
-4829 -5438 -5633 0
5433 4840 5634 0
5433 -4840 -5634 0
-5433 4840 -5634 0
-5433 -4840 -5634 0
5633 5634 -5635 0
5633 -5634 5635 0
-5633 5634 5635 0
-5633 -5634 5635 0
4847 5446 5636 0
4847 -5446 -5636 0
-4847 5446 -5636 0
-4847 -5446 -5636 0
5441 4858 5637 0
5441 -4858 -5637 0
-5441 4858 -5637 0
-5441 -4858 -5637 0
5636 5637 -5638 0
5636 -5637 5638 0
-5636 5637 5638 0
-5636 -5637 5638 0
5635 5638 -5639 0
5635 -5638 5639 0
-5635 5638 5639 0
-5635 -5638 -5639 0
5438 4671 5640 0
5438 -4671 -5640 0
-5438 4671 -5640 0
-5438 -4671 -5640 0
5433 4642 5641 0
5433 -4642 -5641 0
-5433 4642 -5641 0
-5433 -4642 -5641 0
5640 5641 -5642 0
5640 -5641 5642 0
-5640 5641 5642 0
-5640 -5641 5642 0
5446 4708 5643 0
5446 -4708 -5643 0
-5446 4708 -5643 0
-5446 -4708 -5643 0
5441 4679 5644 0
5441 -4679 -5644 0
-5441 4679 -5644 0
-5441 -4679 -5644 0
5643 5644 -5645 0
5643 -5644 5645 0
-5643 5644 5645 0
-5643 -5644 5645 0
5642 5645 -5646 0
5642 -5645 5646 0
-5642 5645 5646 0
-5642 -5645 -5646 0
4873 5438 5647 0
4873 -5438 -5647 0
-4873 5438 -5647 0
-4873 -5438 -5647 0
5433 5615 5648 0
5433 -5615 -5648 0
-5433 5615 -5648 0
-5433 -5615 -5648 0
5647 5648 -5649 0
5647 -5648 5649 0
-5647 5648 5649 0
-5647 -5648 5649 0
4887 5446 5650 0
4887 -5446 -5650 0
-4887 5446 -5650 0
-4887 -5446 -5650 0
5441 5621 5651 0
5441 -5621 -5651 0
-5441 5621 -5651 0
-5441 -5621 -5651 0
5650 5651 -5652 0
5650 -5651 5652 0
-5650 5651 5652 0
-5650 -5651 5652 0
5649 5652 -5653 0
5649 -5652 5653 0
-5649 5652 5653 0
-5649 -5652 -5653 0
4531 5502 5654 0
4531 -5502 -5654 0
-4531 5502 -5654 0
-4531 -5502 -5654 0
5499 5520 5655 0
5499 -5520 -5655 0
-5499 5520 -5655 0
-5499 -5520 -5655 0
5504 5656 0
-5504 -5656 0
5654 5655 5656 -5657 0
5654 5655 -5656 5657 0
5654 -5655 5656 5657 0
5654 -5655 -5656 5657 0
-5654 5655 5656 5657 0
-5654 5655 -5656 5657 0
-5654 -5655 5656 5657 0
-5654 -5655 -5656 5657 0
4567 5511 5658 0
4567 -5511 -5658 0
-4567 5511 -5658 0
-4567 -5511 -5658 0
5508 5526 5659 0
5508 -5526 -5659 0
-5508 5526 -5659 0
-5508 -5526 -5659 0
5513 5660 0
-5513 -5660 0
5658 5659 5660 -5661 0
5658 5659 -5660 5661 0
5658 -5659 5660 5661 0
5658 -5659 -5660 5661 0
-5658 5659 5660 5661 0
-5658 5659 -5660 5661 0
-5658 -5659 5660 5661 0
-5658 -5659 -5660 5661 0
5657 5661 -5662 0
5657 -5661 5662 0
-5657 5661 5662 0
-5657 -5661 -5662 0
5499 4792 5663 0
5499 -4792 -5663 0
-5499 4792 -5663 0
-5499 -4792 -5663 0
4803 5502 5664 0
4803 -5502 -5664 0
-4803 5502 -5664 0
-4803 -5502 -5664 0
5504 5665 0
-5504 -5665 0
5663 5664 5665 -5666 0
5663 5664 -5665 5666 0
5663 -5664 5665 5666 0
5663 -5664 -5665 5666 0
-5663 5664 5665 5666 0
-5663 5664 -5665 5666 0
-5663 -5664 5665 5666 0
-5663 -5664 -5665 5666 0
5508 4810 5667 0
5508 -4810 -5667 0
-5508 4810 -5667 0
-5508 -4810 -5667 0
4821 5511 5668 0
4821 -5511 -5668 0
-4821 5511 -5668 0
-4821 -5511 -5668 0
5513 5669 0
-5513 -5669 0
5667 5668 5669 -5670 0
5667 5668 -5669 5670 0
5667 -5668 5669 5670 0
5667 -5668 -5669 5670 0
-5667 5668 5669 5670 0
-5667 5668 -5669 5670 0
-5667 -5668 5669 5670 0
-5667 -5668 -5669 5670 0
5666 5670 -5671 0
5666 -5670 5671 0
-5666 5670 5671 0
-5666 -5670 -5671 0
5504 5672 0
-5504 -5672 0
4873 5502 5673 0
4873 -5502 -5673 0
-4873 5502 -5673 0
-4873 -5502 -5673 0
5615 5499 5674 0
5615 -5499 -5674 0
-5615 5499 -5674 0
-5615 -5499 -5674 0
5672 5673 5674 -5675 0
5672 5673 -5674 5675 0
5672 -5673 5674 5675 0
5672 -5673 -5674 5675 0
-5672 5673 5674 5675 0
-5672 5673 -5674 5675 0
-5672 -5673 5674 5675 0
-5672 -5673 -5674 5675 0
5513 5676 0
-5513 -5676 0
4887 5511 5677 0
4887 -5511 -5677 0
-4887 5511 -5677 0
-4887 -5511 -5677 0
5621 5508 5678 0
5621 -5508 -5678 0
-5621 5508 -5678 0
-5621 -5508 -5678 0
5676 5677 5678 -5679 0
5676 5677 -5678 5679 0
5676 -5677 5678 5679 0
5676 -5677 -5678 5679 0
-5676 5677 5678 5679 0
-5676 5677 -5678 5679 0
-5676 -5677 5678 5679 0
-5676 -5677 -5678 5679 0
5675 5679 -5680 0
5675 -5679 5680 0
-5675 5679 5680 0
-5675 -5679 -5680 0
5499 4716 5681 0
5499 -4716 -5681 0
-5499 4716 -5681 0
-5499 -4716 -5681 0
5502 4725 5682 0
5502 -4725 -5682 0
-5502 4725 -5682 0
-5502 -4725 -5682 0
5504 5683 0
-5504 -5683 0
5681 5682 5683 -5684 0
5681 5682 -5683 5684 0
5681 -5682 5683 5684 0
5681 -5682 -5683 5684 0
-5681 5682 5683 5684 0
-5681 5682 -5683 5684 0
-5681 -5682 5683 5684 0
-5681 -5682 -5683 5684 0
5508 4732 5685 0
5508 -4732 -5685 0
-5508 4732 -5685 0
-5508 -4732 -5685 0
5511 4741 5686 0
5511 -4741 -5686 0
-5511 4741 -5686 0
-5511 -4741 -5686 0
5513 5687 0
-5513 -5687 0
5685 5686 5687 -5688 0
5685 5686 -5687 5688 0
5685 -5686 5687 5688 0
5685 -5686 -5687 5688 0
-5685 5686 5687 5688 0
-5685 5686 -5687 5688 0
-5685 -5686 5687 5688 0
-5685 -5686 -5687 5688 0
5684 5688 -5689 0
5684 -5688 5689 0
-5684 5688 5689 0
-5684 -5688 -5689 0
4642 5499 5690 0
4642 -5499 -5690 0
-4642 5499 -5690 0
-4642 -5499 -5690 0
5502 4671 5691 0
5502 -4671 -5691 0
-5502 4671 -5691 0
-5502 -4671 -5691 0
5504 5692 0
-5504 -5692 0
5690 5691 5692 -5693 0
5690 5691 -5692 5693 0
5690 -5691 5692 5693 0
5690 -5691 -5692 5693 0
-5690 5691 5692 5693 0
-5690 5691 -5692 5693 0
-5690 -5691 5692 5693 0
-5690 -5691 -5692 5693 0
4679 5508 5694 0
4679 -5508 -5694 0
-4679 5508 -5694 0
-4679 -5508 -5694 0
5511 4708 5695 0
5511 -4708 -5695 0
-5511 4708 -5695 0
-5511 -4708 -5695 0
5513 5696 0
-5513 -5696 0
5694 5695 5696 -5697 0
5694 5695 -5696 5697 0
5694 -5695 5696 5697 0
5694 -5695 -5696 5697 0
-5694 5695 5696 5697 0
-5694 5695 -5696 5697 0
-5694 -5695 5696 5697 0
-5694 -5695 -5696 5697 0
5693 5697 -5698 0
5693 -5697 5698 0
-5693 5697 5698 0
-5693 -5697 -5698 0
4828 5699 0
-4828 -5699 0
5699 5700 0
-5699 -5700 0
4846 5701 0
-4846 -5701 0
5701 5702 0
-5701 -5702 0
5700 5702 -5703 0
5700 -5702 5703 0
-5700 5702 5703 0
-5700 -5702 -5703 0
4724 5704 0
-4724 -5704 0
5704 5705 0
-5704 -5705 0
4740 5706 0
-4740 -5706 0
5706 5707 0
-5706 -5707 0
5705 5707 -5708 0
5705 -5707 5708 0
-5705 5707 5708 0
-5705 -5707 -5708 0
4670 5709 0
-4670 -5709 0
5709 5710 0
-5709 -5710 0
4707 5711 0
-4707 -5711 0
5711 5712 0
-5711 -5712 0
5710 5712 -5713 0
5710 -5712 5713 0
-5710 5712 5713 0
-5710 -5712 -5713 0
4872 5714 0
-4872 -5714 0
5714 5715 0
-5714 -5715 0
4886 5716 0
-4886 -5716 0
5716 5717 0
-5716 -5717 0
5715 5717 -5718 0
5715 -5717 5718 0
-5715 5717 5718 0
-5715 -5717 -5718 0
4894 5719 0
-4894 -5719 0
5719 5720 0
-5719 -5720 0
4908 5721 0
-4908 -5721 0
5721 5722 0
-5721 -5722 0
5720 5722 -5723 0
5720 -5722 5723 0
-5720 5722 5723 0
-5720 -5722 -5723 0
4579 5724 0
-4579 -5724 0
5724 5725 0
-5724 -5725 0
4591 5726 0
-4591 -5726 0
5726 5727 0
-5726 -5727 0
5725 5727 -5728 0
5725 -5727 5728 0
-5725 5727 5728 0
-5725 -5727 -5728 0
4530 5729 0
-4530 -5729 0
5729 5730 0
-5729 -5730 0
4566 5731 0
-4566 -5731 0
5731 5732 0
-5731 -5732 0
5730 5732 -5733 0
5730 -5732 5733 0
-5730 5732 5733 0
-5730 -5732 -5733 0
4612 5734 0
-4612 -5734 0
5734 5735 0
-5734 -5735 0
4632 5736 0
-4632 -5736 0
5736 5737 0
-5736 -5737 0
5735 5737 -5738 0
5735 -5737 5738 0
-5735 5737 5738 0
-5735 -5737 -5738 0
4802 5739 0
-4802 -5739 0
5739 5740 0
-5739 -5740 0
4820 5741 0
-4820 -5741 0
5741 5742 0
-5741 -5742 0
5740 5742 -5743 0
5740 -5742 5743 0
-5740 5742 5743 0
-5740 -5742 -5743 0
4963 4957 5744 0
4963 -4957 -5744 0
-4963 4957 -5744 0
-4963 -4957 -5744 0
5744 5745 0
-5744 -5745 0
5018 5012 5746 0
5018 -5012 -5746 0
-5018 5012 -5746 0
-5018 -5012 -5746 0
5746 5747 0
-5746 -5747 0
5745 5747 -5748 0
5745 -5747 5748 0
-5745 5747 5748 0
-5745 -5747 -5748 0
3901 3929 -5749 0
3901 -3929 5749 0
-3901 3929 5749 0
-3901 -3929 -5749 0
2348 2712 -5750 0
2348 -2712 5750 0
-2348 2712 5750 0
-2348 -2712 -5750 0
2810 2883 -5751 0
2810 -2883 5751 0
-2810 2883 5751 0
-2810 -2883 -5751 0
2817 2890 -5752 0
2817 -2890 5752 0
-2817 2890 5752 0
-2817 -2890 -5752 0
2828 2901 -5753 0
2828 -2901 5753 0
-2828 2901 5753 0
-2828 -2901 -5753 0
311 5754 0
-311 -5754 0
311 5755 0
-311 -5755 0
5754 5755 -5756 0
5754 -5755 5756 0
-5754 5755 5756 0
-5754 -5755 -5756 0
2390 2754 -5757 0
2390 -2754 5757 0
-2390 2754 5757 0
-2390 -2754 -5757 0
2147 2511 -5758 0
2147 -2511 5758 0
-2147 2511 5758 0
-2147 -2511 -5758 0
2789 2862 -5759 0
2789 -2862 5759 0
-2789 2862 5759 0
-2789 -2862 -5759 0
2813 2886 -5760 0
2813 -2886 5760 0
-2813 2886 5760 0
-2813 -2886 -5760 0
2769 2842 -5761 0
2769 -2842 5761 0
-2769 2842 5761 0
-2769 -2842 -5761 0
3882 3910 -5762 0
3882 -3910 5762 0
-3882 3910 5762 0
-3882 -3910 -5762 0
2783 2856 -5763 0
2783 -2856 5763 0
-2783 2856 5763 0
-2783 -2856 -5763 0
326 5764 0
-326 -5764 0
326 5765 0
-326 -5765 0
5764 5765 -5766 0
5764 -5765 5766 0
-5764 5765 5766 0
-5764 -5765 -5766 0
329 5767 0
-329 -5767 0
329 5768 0
-329 -5768 0
5767 5768 -5769 0
5767 -5768 5769 0
-5767 5768 5769 0
-5767 -5768 -5769 0
2145 2509 -5770 0
2145 -2509 5770 0
-2145 2509 5770 0
-2145 -2509 -5770 0
3883 3911 -5771 0
3883 -3911 5771 0
-3883 3911 5771 0
-3883 -3911 -5771 0
2149 2513 -5772 0
2149 -2513 5772 0
-2149 2513 5772 0
-2149 -2513 -5772 0
3893 3921 -5773 0
3893 -3921 5773 0
-3893 3921 5773 0
-3893 -3921 -5773 0
4964 5019 -5774 0
4964 -5019 5774 0
-4964 5019 5774 0
-4964 -5019 -5774 0
3891 3919 -5775 0
3891 -3919 5775 0
-3891 3919 5775 0
-3891 -3919 -5775 0
2046 2410 -5776 0
2046 -2410 5776 0
-2046 2410 5776 0
-2046 -2410 -5776 0
2044 2408 -5777 0
2044 -2408 5777 0
-2044 2408 5777 0
-2044 -2408 -5777 0
1894 1914 -5778 0
1894 -1914 5778 0
-1894 1914 5778 0
-1894 -1914 -5778 0
5079 2336 2211 5779 0
5079 2336 -2211 -5779 0
5079 -2336 2211 -5779 0
5079 -2336 -2211 -5779 0
-5079 2336 2211 -5779 0
-5079 2336 -2211 -5779 0
-5079 -2336 2211 -5779 0
-5079 -2336 -2211 -5779 0
2211 2337 5064 5780 0
2211 2337 -5064 -5780 0
2211 -2337 5064 -5780 0
2211 -2337 -5064 -5780 0
-2211 2337 5064 -5780 0
-2211 2337 -5064 -5780 0
-2211 -2337 5064 -5780 0
-2211 -2337 -5064 -5780 0
5779 5780 -5781 0
5779 -5780 5781 0
-5779 5780 5781 0
-5779 -5780 5781 0
5781 5782 0
-5781 -5782 0
1171 1128 5783 0
1171 -1128 -5783 0
-1171 1128 -5783 0
-1171 -1128 -5783 0
1136 1171 5784 0
1136 -1171 -5784 0
-1136 1171 -5784 0
-1136 -1171 -5784 0
5784 5785 0
-5784 -5785 0
1171 1160 5786 0
1171 -1160 -5786 0
-1171 1160 -5786 0
-1171 -1160 -5786 0
5783 5785 5786 5787 0
5783 5785 -5786 -5787 0
5783 -5785 5786 -5787 0
5783 -5785 -5786 -5787 0
-5783 5785 5786 -5787 0
-5783 5785 -5786 -5787 0
-5783 -5785 5786 -5787 0
-5783 -5785 -5786 -5787 0
5787 5788 0
-5787 -5788 0
4943 4944 5789 0
4943 -4944 -5789 0
-4943 4944 -5789 0
-4943 -4944 -5789 0
5789 5790 0
-5789 -5790 0
4313 5791 0
-4313 -5791 0
4937 5791 5792 0
4937 -5791 -5792 0
-4937 5791 -5792 0
-4937 -5791 -5792 0
5792 5793 0
-5792 -5793 0
4348 5794 0
-4348 -5794 0
5794 5795 0
-5794 -5795 0
5790 5793 5795 5796 0
5790 5793 -5795 -5796 0
5790 -5793 5795 -5796 0
5790 -5793 -5795 -5796 0
-5790 5793 5795 -5796 0
-5790 5793 -5795 -5796 0
-5790 -5793 5795 -5796 0
-5790 -5793 -5795 -5796 0
5796 5797 0
-5796 -5797 0
5782 5788 5797 5798 0
5782 5788 -5797 -5798 0
5782 -5788 5797 -5798 0
5782 -5788 -5797 -5798 0
-5782 5788 5797 -5798 0
-5782 5788 -5797 -5798 0
-5782 -5788 5797 -5798 0
-5782 -5788 -5797 -5798 0
4936 4935 5799 0
4936 -4935 -5799 0
-4936 4935 -5799 0
-4936 -4935 -5799 0
5799 5800 0
-5799 -5800 0
5793 5800 5795 5801 0
5793 5800 -5795 -5801 0
5793 -5800 5795 -5801 0
5793 -5800 -5795 -5801 0
-5793 5800 5795 -5801 0
-5793 5800 -5795 -5801 0
-5793 -5800 5795 -5801 0
-5793 -5800 -5795 -5801 0
5801 5802 0
-5801 -5802 0
5783 5803 0
-5783 -5803 0
5784 5803 5786 5804 0
5784 5803 -5786 -5804 0
5784 -5803 5786 -5804 0
5784 -5803 -5786 -5804 0
-5784 5803 5786 -5804 0
-5784 5803 -5786 -5804 0
-5784 -5803 5786 -5804 0
-5784 -5803 -5786 -5804 0
5804 5805 0
-5804 -5805 0
5802 5782 5805 5806 0
5802 5782 -5805 -5806 0
5802 -5782 5805 -5806 0
5802 -5782 -5805 -5806 0
-5802 5782 5805 -5806 0
-5802 5782 -5805 -5806 0
-5802 -5782 5805 -5806 0
-5802 -5782 -5805 -5806 0
4944 4936 5807 0
4944 -4936 -5807 0
-4944 4936 -5807 0
-4944 -4936 -5807 0
5807 5808 0
-5807 -5808 0
5793 5795 5808 5809 0
5793 5795 -5808 -5809 0
5793 -5795 5808 -5809 0
5793 -5795 -5808 -5809 0
-5793 5795 5808 -5809 0
-5793 5795 -5808 -5809 0
-5793 -5795 5808 -5809 0
-5793 -5795 -5808 -5809 0
5809 5810 0
-5809 -5810 0
5783 5784 5786 1171 5811 0
5783 5784 5786 -1171 -5811 0
5783 5784 -5786 1171 -5811 0
5783 5784 -5786 -1171 -5811 0
5783 -5784 5786 1171 -5811 0
5783 -5784 5786 -1171 -5811 0
5783 -5784 -5786 1171 -5811 0
5783 -5784 -5786 -1171 -5811 0
-5783 5784 5786 1171 -5811 0
-5783 5784 5786 -1171 -5811 0
-5783 5784 -5786 1171 -5811 0
-5783 5784 -5786 -1171 -5811 0
-5783 -5784 5786 1171 -5811 0
-5783 -5784 5786 -1171 -5811 0
-5783 -5784 -5786 1171 -5811 0
-5783 -5784 -5786 -1171 -5811 0
5811 5812 0
-5811 -5812 0
5810 5782 5812 5813 0
5810 5782 -5812 -5813 0
5810 -5782 5812 -5813 0
5810 -5782 -5812 -5813 0
-5810 5782 5812 -5813 0
-5810 5782 -5812 -5813 0
-5810 -5782 5812 -5813 0
-5810 -5782 -5812 -5813 0
5798 5806 5813 -5814 0
5798 5806 -5813 5814 0
5798 -5806 5813 5814 0
5798 -5806 -5813 5814 0
-5798 5806 5813 5814 0
-5798 5806 -5813 5814 0
-5798 -5806 5813 5814 0
-5798 -5806 -5813 5814 0
4935 4943 5815 0
4935 -4943 -5815 0
-4935 4943 -5815 0
-4935 -4943 -5815 0
5815 5816 0
-5815 -5816 0
5816 5793 5795 5817 0
5816 5793 -5795 -5817 0
5816 -5793 5795 -5817 0
5816 -5793 -5795 -5817 0
-5816 5793 5795 -5817 0
-5816 5793 -5795 -5817 0
-5816 -5793 5795 -5817 0
-5816 -5793 -5795 -5817 0
5817 5818 0
-5817 -5818 0
5786 5803 5785 5819 0
5786 5803 -5785 -5819 0
5786 -5803 5785 -5819 0
5786 -5803 -5785 -5819 0
-5786 5803 5785 -5819 0
-5786 5803 -5785 -5819 0
-5786 -5803 5785 -5819 0
-5786 -5803 -5785 -5819 0
5819 5820 0
-5819 -5820 0
5818 5782 5820 5821 0
5818 5782 -5820 -5821 0
5818 -5782 5820 -5821 0
5818 -5782 -5820 -5821 0
-5818 5782 5820 -5821 0
-5818 5782 -5820 -5821 0
-5818 -5782 5820 -5821 0
-5818 -5782 -5820 -5821 0
5786 5822 0
-5786 -5822 0
5785 5822 5783 5823 0
5785 5822 -5783 -5823 0
5785 -5822 5783 -5823 0
5785 -5822 -5783 -5823 0
-5785 5822 5783 -5823 0
-5785 5822 -5783 -5823 0
-5785 -5822 5783 -5823 0
-5785 -5822 -5783 -5823 0
5823 5824 0
-5823 -5824 0
4279 5825 0
-4279 -5825 0
5791 5825 5826 0
5791 -5825 -5826 0
-5791 5825 -5826 0
-5791 -5825 -5826 0
5826 5827 0
-5826 -5827 0
5795 5790 5827 5828 0
5795 5790 -5827 -5828 0
5795 -5790 5827 -5828 0
5795 -5790 -5827 -5828 0
-5795 5790 5827 -5828 0
-5795 5790 -5827 -5828 0
-5795 -5790 5827 -5828 0
-5795 -5790 -5827 -5828 0
5828 5829 0
-5828 -5829 0
5824 5782 5829 5830 0
5824 5782 -5829 -5830 0
5824 -5782 5829 -5830 0
5824 -5782 -5829 -5830 0
-5824 5782 5829 -5830 0
-5824 5782 -5829 -5830 0
-5824 -5782 5829 -5830 0
-5824 -5782 -5829 -5830 0
5808 5795 5827 5831 0
5808 5795 -5827 -5831 0
5808 -5795 5827 -5831 0
5808 -5795 -5827 -5831 0
-5808 5795 5827 -5831 0
-5808 5795 -5827 -5831 0
-5808 -5795 5827 -5831 0
-5808 -5795 -5827 -5831 0
5831 5832 0
-5831 -5832 0
5783 5822 5784 5833 0
5783 5822 -5784 -5833 0
5783 -5822 5784 -5833 0
5783 -5822 -5784 -5833 0
-5783 5822 5784 -5833 0
-5783 5822 -5784 -5833 0
-5783 -5822 5784 -5833 0
-5783 -5822 -5784 -5833 0
5833 5834 0
-5833 -5834 0
5832 5834 5782 5835 0
5832 5834 -5782 -5835 0
5832 -5834 5782 -5835 0
5832 -5834 -5782 -5835 0
-5832 5834 5782 -5835 0
-5832 5834 -5782 -5835 0
-5832 -5834 5782 -5835 0
-5832 -5834 -5782 -5835 0
5821 5830 5835 -5836 0
5821 5830 -5835 5836 0
5821 -5830 5835 5836 0
5821 -5830 -5835 5836 0
-5821 5830 5835 5836 0
-5821 5830 -5835 5836 0
-5821 -5830 5835 5836 0
-5821 -5830 -5835 5836 0
4934 4937 5837 0
4934 -4937 -5837 0
-4934 4937 -5837 0
-4934 -4937 -5837 0
5837 5838 0
-5837 -5838 0
5794 5839 0
-5794 -5839 0
5838 5839 5808 5840 0
5838 5839 -5808 -5840 0
5838 -5839 5808 -5840 0
5838 -5839 -5808 -5840 0
-5838 5839 5808 -5840 0
-5838 5839 -5808 -5840 0
-5838 -5839 5808 -5840 0
-5838 -5839 -5808 -5840 0
5840 5841 0
-5840 -5841 0
5841 5782 5842 0
5841 -5782 -5842 0
-5841 5782 -5842 0
-5841 -5782 -5842 0
5803 5784 5822 5843 0
5803 5784 -5822 -5843 0
5803 -5784 5822 -5843 0
5803 -5784 -5822 -5843 0
-5803 5784 5822 -5843 0
-5803 5784 -5822 -5843 0
-5803 -5784 5822 -5843 0
-5803 -5784 -5822 -5843 0
5843 5844 0
-5843 -5844 0
5800 5827 5795 5845 0
5800 5827 -5795 -5845 0
5800 -5827 5795 -5845 0
5800 -5827 -5795 -5845 0
-5800 5827 5795 -5845 0
-5800 5827 -5795 -5845 0
-5800 -5827 5795 -5845 0
-5800 -5827 -5795 -5845 0
5845 5846 0
-5845 -5846 0
5844 5846 5782 5847 0
5844 5846 -5782 -5847 0
5844 -5846 5782 -5847 0
5844 -5846 -5782 -5847 0
-5844 5846 5782 -5847 0
-5844 5846 -5782 -5847 0
-5844 -5846 5782 -5847 0
-5844 -5846 -5782 -5847 0
5822 5785 5803 5848 0
5822 5785 -5803 -5848 0
5822 -5785 5803 -5848 0
5822 -5785 -5803 -5848 0
-5822 5785 5803 -5848 0
-5822 5785 -5803 -5848 0
-5822 -5785 5803 -5848 0
-5822 -5785 -5803 -5848 0
5848 5849 0
-5848 -5849 0
5795 5827 5816 5850 0
5795 5827 -5816 -5850 0
5795 -5827 5816 -5850 0
5795 -5827 -5816 -5850 0
-5795 5827 5816 -5850 0
-5795 5827 -5816 -5850 0
-5795 -5827 5816 -5850 0
-5795 -5827 -5816 -5850 0
5850 5851 0
-5850 -5851 0
5849 5851 5782 5852 0
5849 5851 -5782 -5852 0
5849 -5851 5782 -5852 0
5849 -5851 -5782 -5852 0
-5849 5851 5782 -5852 0
-5849 5851 -5782 -5852 0
-5849 -5851 5782 -5852 0
-5849 -5851 -5782 -5852 0
5842 5847 5852 -5853 0
5842 5847 -5852 5853 0
5842 -5847 5852 5853 0
5842 -5847 -5852 5853 0
-5842 5847 5852 5853 0
-5842 5847 -5852 5853 0
-5842 -5847 5852 5853 0
-5842 -5847 -5852 5853 0
5814 5836 5853 5854 0
5814 5836 -5853 -5854 0
5814 -5836 5853 -5854 0
5814 -5836 -5853 -5854 0
-5814 5836 5853 -5854 0
-5814 5836 -5853 -5854 0
-5814 -5836 5853 -5854 0
-5814 -5836 -5853 -5854 0
5854 5855 0
-5854 -5855 0
413 5856 0
-413 -5856 0
353 5857 0
-353 -5857 0
5857 5858 0
-5857 -5858 0
5855 5856 4968 5858 5859 0
5855 5856 4968 -5858 -5859 0
5855 5856 -4968 5858 -5859 0
5855 5856 -4968 -5858 -5859 0
5855 -5856 4968 5858 -5859 0
5855 -5856 4968 -5858 -5859 0
5855 -5856 -4968 5858 -5859 0
5855 -5856 -4968 -5858 -5859 0
-5855 5856 4968 5858 -5859 0
-5855 5856 4968 -5858 -5859 0
-5855 5856 -4968 5858 -5859 0
-5855 5856 -4968 -5858 -5859 0
-5855 -5856 4968 5858 -5859 0
-5855 -5856 4968 -5858 -5859 0
-5855 -5856 -4968 5858 -5859 0
-5855 -5856 -4968 -5858 -5859 0
5142 2700 2575 5860 0
5142 2700 -2575 -5860 0
5142 -2700 2575 -5860 0
5142 -2700 -2575 -5860 0
-5142 2700 2575 -5860 0
-5142 2700 -2575 -5860 0
-5142 -2700 2575 -5860 0
-5142 -2700 -2575 -5860 0
2575 2701 5127 5861 0
2575 2701 -5127 -5861 0
2575 -2701 5127 -5861 0
2575 -2701 -5127 -5861 0
-2575 2701 5127 -5861 0
-2575 2701 -5127 -5861 0
-2575 -2701 5127 -5861 0
-2575 -2701 -5127 -5861 0
5860 5861 -5862 0
5860 -5861 5862 0
-5860 5861 5862 0
-5860 -5861 5862 0
5862 5863 0
-5862 -5863 0
1269 1226 5864 0
1269 -1226 -5864 0
-1269 1226 -5864 0
-1269 -1226 -5864 0
1234 1269 5865 0
1234 -1269 -5865 0
-1234 1269 -5865 0
-1234 -1269 -5865 0
5865 5866 0
-5865 -5866 0
1269 1258 5867 0
1269 -1258 -5867 0
-1269 1258 -5867 0
-1269 -1258 -5867 0
5864 5866 5867 5868 0
5864 5866 -5867 -5868 0
5864 -5866 5867 -5868 0
5864 -5866 -5867 -5868 0
-5864 5866 5867 -5868 0
-5864 5866 -5867 -5868 0
-5864 -5866 5867 -5868 0
-5864 -5866 -5867 -5868 0
5868 5869 0
-5868 -5869 0
429 5870 0
-429 -5870 0
5863 5869 5870 5871 0
5863 5869 -5870 -5871 0
5863 -5869 5870 -5871 0
5863 -5869 -5870 -5871 0
-5863 5869 5870 -5871 0
-5863 5869 -5870 -5871 0
-5863 -5869 5870 -5871 0
-5863 -5869 -5870 -5871 0
4329 5872 0
-4329 -5872 0
4992 5872 5873 0
4992 -5872 -5873 0
-4992 5872 -5873 0
-4992 -5872 -5873 0
5873 5874 0
-5873 -5874 0
4991 4990 5875 0
4991 -4990 -5875 0
-4991 4990 -5875 0
-4991 -4990 -5875 0
5875 5876 0
-5875 -5876 0
4365 5877 0
-4365 -5877 0
5877 5878 0
-5877 -5878 0
5874 5876 5878 5879 0
5874 5876 -5878 -5879 0
5874 -5876 5878 -5879 0
5874 -5876 -5878 -5879 0
-5874 5876 5878 -5879 0
-5874 5876 -5878 -5879 0
-5874 -5876 5878 -5879 0
-5874 -5876 -5878 -5879 0
5879 5880 0
-5879 -5880 0
5864 5881 0
-5864 -5881 0
5865 5881 5867 5882 0
5865 5881 -5867 -5882 0
5865 -5881 5867 -5882 0
5865 -5881 -5867 -5882 0
-5865 5881 5867 -5882 0
-5865 5881 -5867 -5882 0
-5865 -5881 5867 -5882 0
-5865 -5881 -5867 -5882 0
5882 5883 0
-5882 -5883 0
5880 5863 5883 5884 0
5880 5863 -5883 -5884 0
5880 -5863 5883 -5884 0
5880 -5863 -5883 -5884 0
-5880 5863 5883 -5884 0
-5880 5863 -5883 -5884 0
-5880 -5863 5883 -5884 0
-5880 -5863 -5883 -5884 0
4999 4991 5885 0
4999 -4991 -5885 0
-4999 4991 -5885 0
-4999 -4991 -5885 0
5885 5886 0
-5885 -5886 0
5874 5878 5886 5887 0
5874 5878 -5886 -5887 0
5874 -5878 5886 -5887 0
5874 -5878 -5886 -5887 0
-5874 5878 5886 -5887 0
-5874 5878 -5886 -5887 0
-5874 -5878 5886 -5887 0
-5874 -5878 -5886 -5887 0
5887 5888 0
-5887 -5888 0
5864 5865 5867 1269 5889 0
5864 5865 5867 -1269 -5889 0
5864 5865 -5867 1269 -5889 0
5864 5865 -5867 -1269 -5889 0
5864 -5865 5867 1269 -5889 0
5864 -5865 5867 -1269 -5889 0
5864 -5865 -5867 1269 -5889 0
5864 -5865 -5867 -1269 -5889 0
-5864 5865 5867 1269 -5889 0
-5864 5865 5867 -1269 -5889 0
-5864 5865 -5867 1269 -5889 0
-5864 5865 -5867 -1269 -5889 0
-5864 -5865 5867 1269 -5889 0
-5864 -5865 5867 -1269 -5889 0
-5864 -5865 -5867 1269 -5889 0
-5864 -5865 -5867 -1269 -5889 0
5889 5890 0
-5889 -5890 0
5888 5863 5890 5891 0
5888 5863 -5890 -5891 0
5888 -5863 5890 -5891 0
5888 -5863 -5890 -5891 0
-5888 5863 5890 -5891 0
-5888 5863 -5890 -5891 0
-5888 -5863 5890 -5891 0
-5888 -5863 -5890 -5891 0
5871 5884 5891 -5892 0
5871 5884 -5891 5892 0
5871 -5884 5891 5892 0
5871 -5884 -5891 5892 0
-5871 5884 5891 5892 0
-5871 5884 -5891 5892 0
-5871 -5884 5891 5892 0
-5871 -5884 -5891 5892 0
4990 4998 5893 0
4990 -4998 -5893 0
-4990 4998 -5893 0
-4990 -4998 -5893 0
5893 5894 0
-5893 -5894 0
5894 5874 5878 5895 0
5894 5874 -5878 -5895 0
5894 -5874 5878 -5895 0
5894 -5874 -5878 -5895 0
-5894 5874 5878 -5895 0
-5894 5874 -5878 -5895 0
-5894 -5874 5878 -5895 0
-5894 -5874 -5878 -5895 0
5895 5896 0
-5895 -5896 0
5867 5881 5866 5897 0
5867 5881 -5866 -5897 0
5867 -5881 5866 -5897 0
5867 -5881 -5866 -5897 0
-5867 5881 5866 -5897 0
-5867 5881 -5866 -5897 0
-5867 -5881 5866 -5897 0
-5867 -5881 -5866 -5897 0
5897 5898 0
-5897 -5898 0
5896 5863 5898 5899 0
5896 5863 -5898 -5899 0
5896 -5863 5898 -5899 0
5896 -5863 -5898 -5899 0
-5896 5863 5898 -5899 0
-5896 5863 -5898 -5899 0
-5896 -5863 5898 -5899 0
-5896 -5863 -5898 -5899 0
5867 5900 0
-5867 -5900 0
5866 5900 5864 5901 0
5866 5900 -5864 -5901 0
5866 -5900 5864 -5901 0
5866 -5900 -5864 -5901 0
-5866 5900 5864 -5901 0
-5866 5900 -5864 -5901 0
-5866 -5900 5864 -5901 0
-5866 -5900 -5864 -5901 0
5901 5902 0
-5901 -5902 0
4998 4999 5903 0
4998 -4999 -5903 0
-4998 4999 -5903 0
-4998 -4999 -5903 0
5903 5904 0
-5903 -5904 0
4296 5905 0
-4296 -5905 0
5872 5905 5906 0
5872 -5905 -5906 0
-5872 5905 -5906 0
-5872 -5905 -5906 0
5906 5907 0
-5906 -5907 0
5878 5904 5907 5908 0
5878 5904 -5907 -5908 0
5878 -5904 5907 -5908 0
5878 -5904 -5907 -5908 0
-5878 5904 5907 -5908 0
-5878 5904 -5907 -5908 0
-5878 -5904 5907 -5908 0
-5878 -5904 -5907 -5908 0
5908 5909 0
-5908 -5909 0
5902 5863 5909 5910 0
5902 5863 -5909 -5910 0
5902 -5863 5909 -5910 0
5902 -5863 -5909 -5910 0
-5902 5863 5909 -5910 0
-5902 5863 -5909 -5910 0
-5902 -5863 5909 -5910 0
-5902 -5863 -5909 -5910 0
5886 5878 5907 5911 0
5886 5878 -5907 -5911 0
5886 -5878 5907 -5911 0
5886 -5878 -5907 -5911 0
-5886 5878 5907 -5911 0
-5886 5878 -5907 -5911 0
-5886 -5878 5907 -5911 0
-5886 -5878 -5907 -5911 0
5911 5912 0
-5911 -5912 0
5864 5900 5865 5913 0
5864 5900 -5865 -5913 0
5864 -5900 5865 -5913 0
5864 -5900 -5865 -5913 0
-5864 5900 5865 -5913 0
-5864 5900 -5865 -5913 0
-5864 -5900 5865 -5913 0
-5864 -5900 -5865 -5913 0
5913 5914 0
-5913 -5914 0
5912 5914 5863 5915 0
5912 5914 -5863 -5915 0
5912 -5914 5863 -5915 0
5912 -5914 -5863 -5915 0
-5912 5914 5863 -5915 0
-5912 5914 -5863 -5915 0
-5912 -5914 5863 -5915 0
-5912 -5914 -5863 -5915 0
5899 5910 5915 -5916 0
5899 5910 -5915 5916 0
5899 -5910 5915 5916 0
5899 -5910 -5915 5916 0
-5899 5910 5915 5916 0
-5899 5910 -5915 5916 0
-5899 -5910 5915 5916 0
-5899 -5910 -5915 5916 0
4989 4992 5917 0
4989 -4992 -5917 0
-4989 4992 -5917 0
-4989 -4992 -5917 0
5917 5918 0
-5917 -5918 0
5877 5919 0
-5877 -5919 0
5918 5919 5886 5920 0
5918 5919 -5886 -5920 0
5918 -5919 5886 -5920 0
5918 -5919 -5886 -5920 0
-5918 5919 5886 -5920 0
-5918 5919 -5886 -5920 0
-5918 -5919 5886 -5920 0
-5918 -5919 -5886 -5920 0
5920 5921 0
-5920 -5921 0
5921 5863 5922 0
5921 -5863 -5922 0
-5921 5863 -5922 0
-5921 -5863 -5922 0
5881 5865 5900 5923 0
5881 5865 -5900 -5923 0
5881 -5865 5900 -5923 0
5881 -5865 -5900 -5923 0
-5881 5865 5900 -5923 0
-5881 5865 -5900 -5923 0
-5881 -5865 5900 -5923 0
-5881 -5865 -5900 -5923 0
5923 5924 0
-5923 -5924 0
5876 5907 5878 5925 0
5876 5907 -5878 -5925 0
5876 -5907 5878 -5925 0
5876 -5907 -5878 -5925 0
-5876 5907 5878 -5925 0
-5876 5907 -5878 -5925 0
-5876 -5907 5878 -5925 0
-5876 -5907 -5878 -5925 0
5925 5926 0
-5925 -5926 0
5924 5926 5863 5927 0
5924 5926 -5863 -5927 0
5924 -5926 5863 -5927 0
5924 -5926 -5863 -5927 0
-5924 5926 5863 -5927 0
-5924 5926 -5863 -5927 0
-5924 -5926 5863 -5927 0
-5924 -5926 -5863 -5927 0
5900 5866 5881 5928 0
5900 5866 -5881 -5928 0
5900 -5866 5881 -5928 0
5900 -5866 -5881 -5928 0
-5900 5866 5881 -5928 0
-5900 5866 -5881 -5928 0
-5900 -5866 5881 -5928 0
-5900 -5866 -5881 -5928 0
5928 5929 0
-5928 -5929 0
5878 5907 5894 5930 0
5878 5907 -5894 -5930 0
5878 -5907 5894 -5930 0
5878 -5907 -5894 -5930 0
-5878 5907 5894 -5930 0
-5878 5907 -5894 -5930 0
-5878 -5907 5894 -5930 0
-5878 -5907 -5894 -5930 0
5930 5931 0
-5930 -5931 0
5929 5931 5863 5932 0
5929 5931 -5863 -5932 0
5929 -5931 5863 -5932 0
5929 -5931 -5863 -5932 0
-5929 5931 5863 -5932 0
-5929 5931 -5863 -5932 0
-5929 -5931 5863 -5932 0
-5929 -5931 -5863 -5932 0
5922 5927 5932 -5933 0
5922 5927 -5932 5933 0
5922 -5927 5932 5933 0
5922 -5927 -5932 5933 0
-5922 5927 5932 5933 0
-5922 5927 -5932 5933 0
-5922 -5927 5932 5933 0
-5922 -5927 -5932 5933 0
5892 5916 5933 5934 0
5892 5916 -5933 -5934 0
5892 -5916 5933 -5934 0
5892 -5916 -5933 -5934 0
-5892 5916 5933 -5934 0
-5892 5916 -5933 -5934 0
-5892 -5916 5933 -5934 0
-5892 -5916 -5933 -5934 0
5934 5935 0
-5934 -5935 0
413 5936 0
-413 -5936 0
353 5937 0
-353 -5937 0
5937 5938 0
-5937 -5938 0
5935 5936 5023 5938 5939 0
5935 5936 5023 -5938 -5939 0
5935 5936 -5023 5938 -5939 0
5935 5936 -5023 -5938 -5939 0
5935 -5936 5023 5938 -5939 0
5935 -5936 5023 -5938 -5939 0
5935 -5936 -5023 5938 -5939 0
5935 -5936 -5023 -5938 -5939 0
-5935 5936 5023 5938 -5939 0
-5935 5936 5023 -5938 -5939 0
-5935 5936 -5023 5938 -5939 0
-5935 5936 -5023 -5938 -5939 0
-5935 -5936 5023 5938 -5939 0
-5935 -5936 5023 -5938 -5939 0
-5935 -5936 -5023 5938 -5939 0
-5935 -5936 -5023 -5938 -5939 0
5859 5939 -5940 0
5859 -5939 5940 0
-5859 5939 5940 0
-5859 -5939 -5940 0
358 5941 0
-358 -5941 0
358 5942 0
-358 -5942 0
5941 5942 -5943 0
5941 -5942 5943 0
-5941 5942 5943 0
-5941 -5942 -5943 0
359 5944 0
-359 -5944 0
359 5945 0
-359 -5945 0
5944 5945 -5946 0
5944 -5945 5946 0
-5944 5945 5946 0
-5944 -5945 -5946 0
1889 1909 -5947 0
1889 -1909 5947 0
-1889 1909 5947 0
-1889 -1909 -5947 0
1890 1910 -5948 0
1890 -1910 5948 0
-1890 1910 5948 0
-1890 -1910 -5948 0
368 5949 0
-368 -5949 0
368 5950 0
-368 -5950 0
5949 5950 -5951 0
5949 -5950 5951 0
-5949 5950 5951 0
-5949 -5950 -5951 0
1891 1911 -5952 0
1891 -1911 5952 0
-1891 1911 5952 0
-1891 -1911 -5952 0
1893 1913 -5953 0
1893 -1913 5953 0
-1893 1913 5953 0
-1893 -1913 -5953 0
372 5954 0
-372 -5954 0
372 5955 0
-372 -5955 0
5954 5955 -5956 0
5954 -5955 5956 0
-5954 5955 5956 0
-5954 -5955 -5956 0
373 5957 0
-373 -5957 0
373 5958 0
-373 -5958 0
5957 5958 -5959 0
5957 -5958 5959 0
-5957 5958 5959 0
-5957 -5958 -5959 0
5855 2993 5960 0
5855 -2993 -5960 0
-5855 2993 -5960 0
-5855 -2993 -5960 0
5935 3056 5961 0
5935 -3056 -5961 0
-5935 3056 -5961 0
-5935 -3056 -5961 0
5960 5961 -5962 0
5960 -5961 5962 0
-5960 5961 5962 0
-5960 -5961 -5962 0
369 5963 0
-369 -5963 0
5963 5964 0
-5963 -5964 0
412 5965 0
-412 -5965 0
5965 5966 0
-5965 -5966 0
5964 2990 5966 5967 0
5964 2990 -5966 -5967 0
5964 -2990 5966 -5967 0
5964 -2990 -5966 -5967 0
-5964 2990 5966 -5967 0
-5964 2990 -5966 -5967 0
-5964 -2990 5966 -5967 0
-5964 -2990 -5966 -5967 0
369 5968 0
-369 -5968 0
5968 5969 0
-5968 -5969 0
412 5970 0
-412 -5970 0
5970 5971 0
-5970 -5971 0
5969 3053 5971 5972 0
5969 3053 -5971 -5972 0
5969 -3053 5971 -5972 0
5969 -3053 -5971 -5972 0
-5969 3053 5971 -5972 0
-5969 3053 -5971 -5972 0
-5969 -3053 5971 -5972 0
-5969 -3053 -5971 -5972 0
5967 5972 -5973 0
5967 -5972 5973 0
-5967 5972 5973 0
-5967 -5972 -5973 0
413 5974 0
-413 -5974 0
5974 5975 0
-5974 -5975 0
5975 1885 5976 0
5975 -1885 -5976 0
-5975 1885 -5976 0
-5975 -1885 -5976 0
5976 5855 5977 0
5976 -5855 -5977 0
-5976 5855 -5977 0
-5976 -5855 -5977 0
5977 5978 0
-5977 -5978 0
2993 4968 5978 5979 0
2993 4968 -5978 -5979 0
2993 -4968 5978 -5979 0
2993 -4968 -5978 -5979 0
-2993 4968 5978 -5979 0
-2993 4968 -5978 -5979 0
-2993 -4968 5978 -5979 0
-2993 -4968 -5978 -5979 0
413 5980 0
-413 -5980 0
5980 5981 0
-5980 -5981 0
5981 1905 5982 0
5981 -1905 -5982 0
-5981 1905 -5982 0
-5981 -1905 -5982 0
5982 5935 5983 0
5982 -5935 -5983 0
-5982 5935 -5983 0
-5982 -5935 -5983 0
5983 5984 0
-5983 -5984 0
3056 5023 5984 5985 0
3056 5023 -5984 -5985 0
3056 -5023 5984 -5985 0
3056 -5023 -5984 -5985 0
-3056 5023 5984 -5985 0
-3056 5023 -5984 -5985 0
-3056 -5023 5984 -5985 0
-3056 -5023 -5984 -5985 0
5979 5985 -5986 0
5979 -5985 5986 0
-5979 5985 5986 0
-5979 -5985 -5986 0
3135 5987 0
-3135 -5987 0
3153 5988 0
-3153 -5988 0
5987 5988 -5989 0
5987 -5988 5989 0
-5987 5988 5989 0
-5987 -5988 -5989 0
5855 5064 5990 0
5855 -5064 -5990 0
-5855 5064 -5990 0
-5855 -5064 -5990 0
5935 5127 5991 0
5935 -5127 -5991 0
-5935 5127 -5991 0
-5935 -5127 -5991 0
5990 5991 -5992 0
5990 -5991 5992 0
-5990 5991 5992 0
-5990 -5991 -5992 0
4944 4943 5825 5993 0
4944 4943 -5825 -5993 0
4944 -4943 5825 -5993 0
4944 -4943 -5825 -5993 0
-4944 4943 5825 -5993 0
-4944 4943 -5825 -5993 0
-4944 -4943 5825 -5993 0
-4944 -4943 -5825 -5993 0
5993 5994 0
-5993 -5994 0
4934 5794 5994 5995 0
4934 5794 -5994 -5995 0
4934 -5794 5994 -5995 0
4934 -5794 -5994 -5995 0
-4934 5794 5994 -5995 0
-4934 5794 -5994 -5995 0
-4934 -5794 5994 -5995 0
-4934 -5794 -5994 -5995 0
5995 5996 0
-5995 -5996 0
5071 5996 5997 0
5071 -5996 -5997 0
-5071 5996 -5997 0
-5071 -5996 -5997 0
4999 4998 5905 5998 0
4999 4998 -5905 -5998 0
4999 -4998 5905 -5998 0
4999 -4998 -5905 -5998 0
-4999 4998 5905 -5998 0
-4999 4998 -5905 -5998 0
-4999 -4998 5905 -5998 0
-4999 -4998 -5905 -5998 0
5998 5999 0
-5998 -5999 0
4989 5877 5999 6000 0
4989 5877 -5999 -6000 0
4989 -5877 5999 -6000 0
4989 -5877 -5999 -6000 0
-4989 5877 5999 -6000 0
-4989 5877 -5999 -6000 0
-4989 -5877 5999 -6000 0
-4989 -5877 -5999 -6000 0
6000 6001 0
-6000 -6001 0
5134 6001 6002 0
5134 -6001 -6002 0
-5134 6001 -6002 0
-5134 -6001 -6002 0
5997 6002 -6003 0
5997 -6002 6003 0
-5997 6002 6003 0
-5997 -6002 -6003 0
2337 2701 -6004 0
2337 -2701 6004 0
-2337 2701 6004 0
-2337 -2701 -6004 0
1933 1969 1964 1957 6005 0
1933 1969 1964 -1957 -6005 0
1933 1969 -1964 1957 -6005 0
1933 1969 -1964 -1957 -6005 0
1933 -1969 1964 1957 -6005 0
1933 -1969 1964 -1957 -6005 0
1933 -1969 -1964 1957 -6005 0
1933 -1969 -1964 -1957 -6005 0
-1933 1969 1964 1957 -6005 0
-1933 1969 1964 -1957 -6005 0
-1933 1969 -1964 1957 -6005 0
-1933 1969 -1964 -1957 -6005 0
-1933 -1969 1964 1957 -6005 0
-1933 -1969 1964 -1957 -6005 0
-1933 -1969 -1964 1957 -6005 0
-1933 -1969 -1964 -1957 -6005 0
6005 6006 0
-6005 -6006 0
1987 2023 2018 2011 6007 0
1987 2023 2018 -2011 -6007 0
1987 2023 -2018 2011 -6007 0
1987 2023 -2018 -2011 -6007 0
1987 -2023 2018 2011 -6007 0
1987 -2023 2018 -2011 -6007 0
1987 -2023 -2018 2011 -6007 0
1987 -2023 -2018 -2011 -6007 0
-1987 2023 2018 2011 -6007 0
-1987 2023 2018 -2011 -6007 0
-1987 2023 -2018 2011 -6007 0
-1987 2023 -2018 -2011 -6007 0
-1987 -2023 2018 2011 -6007 0
-1987 -2023 2018 -2011 -6007 0
-1987 -2023 -2018 2011 -6007 0
-1987 -2023 -2018 -2011 -6007 0
6007 6008 0
-6007 -6008 0
6006 6008 -6009 0
6006 -6008 6009 0
-6006 6008 6009 0
-6006 -6008 -6009 0
265 6010 0
-265 -6010 0
6010 6011 0
-6010 -6011 0
6011 6012 0
-6011 -6012 0
6012 6013 0
-6012 -6013 0
342 6014 0
-342 -6014 0
6013 6014 6015 0
6013 -6014 -6015 0
-6013 6014 -6015 0
-6013 -6014 -6015 0
265 6016 0
-265 -6016 0
6016 6017 0
-6016 -6017 0
6017 6018 0
-6017 -6018 0
6018 6019 0
-6018 -6019 0
342 6020 0
-342 -6020 0
6019 6020 6021 0
6019 -6020 -6021 0
-6019 6020 -6021 0
-6019 -6020 -6021 0
6015 6021 -6022 0
6015 -6021 6022 0
-6015 6021 6022 0
-6015 -6021 -6022 0
3004 3067 -6023 0
3004 -3067 6023 0
-3004 3067 6023 0
-3004 -3067 -6023 0
5064 5996 6024 0
5064 -5996 -6024 0
-5064 5996 -6024 0
-5064 -5996 -6024 0
5127 6001 6025 0
5127 -6001 -6025 0
-5127 6001 -6025 0
-5127 -6001 -6025 0
6024 6025 -6026 0
6024 -6025 6026 0
-6024 6025 6026 0
-6024 -6025 -6026 0
2336 5079 6027 0
2336 -5079 -6027 0
-2336 5079 -6027 0
-2336 -5079 -6027 0
2337 5064 6028 0
2337 -5064 -6028 0
-2337 5064 -6028 0
-2337 -5064 -6028 0
6027 6028 6029 0
6027 -6028 -6029 0
-6027 6028 -6029 0
-6027 -6028 -6029 0
5825 4935 4936 6030 0
5825 4935 -4936 -6030 0
5825 -4935 4936 -6030 0
5825 -4935 -4936 -6030 0
-5825 4935 4936 -6030 0
-5825 4935 -4936 -6030 0
-5825 -4935 4936 -6030 0
-5825 -4935 -4936 -6030 0
6030 6031 0
-6030 -6031 0
6031 5794 4934 6032 0
6031 5794 -4934 -6032 0
6031 -5794 4934 -6032 0
6031 -5794 -4934 -6032 0
-6031 5794 4934 -6032 0
-6031 5794 -4934 -6032 0
-6031 -5794 4934 -6032 0
-6031 -5794 -4934 -6032 0
6032 6033 0
-6032 -6033 0
6029 6033 6034 0
6029 -6033 -6034 0
-6029 6033 -6034 0
-6029 -6033 -6034 0
2700 5142 6035 0
2700 -5142 -6035 0
-2700 5142 -6035 0
-2700 -5142 -6035 0
2701 5127 6036 0
2701 -5127 -6036 0
-2701 5127 -6036 0
-2701 -5127 -6036 0
6035 6036 6037 0
6035 -6036 -6037 0
-6035 6036 -6037 0
-6035 -6036 -6037 0
5905 4990 4991 6038 0
5905 4990 -4991 -6038 0
5905 -4990 4991 -6038 0
5905 -4990 -4991 -6038 0
-5905 4990 4991 -6038 0
-5905 4990 -4991 -6038 0
-5905 -4990 4991 -6038 0
-5905 -4990 -4991 -6038 0
6038 6039 0
-6038 -6039 0
6039 5877 4989 6040 0
6039 5877 -4989 -6040 0
6039 -5877 4989 -6040 0
6039 -5877 -4989 -6040 0
-6039 5877 4989 -6040 0
-6039 5877 -4989 -6040 0
-6039 -5877 4989 -6040 0
-6039 -5877 -4989 -6040 0
6040 6041 0
-6040 -6041 0
6037 6041 6042 0
6037 -6041 -6042 0
-6037 6041 -6042 0
-6037 -6041 -6042 0
6034 6042 -6043 0
6034 -6042 6043 0
-6034 6042 6043 0
-6034 -6042 -6043 0
1972 6044 0
-1972 -6044 0
1786 6045 0
-1786 -6045 0
6045 6046 0
-6045 -6046 0
1938 1961 6047 0
1938 -1961 -6047 0
-1938 1961 -6047 0
-1938 -1961 -6047 0
6047 6048 0
-6047 -6048 0
6046 6048 6049 0
6046 -6048 -6049 0
-6046 6048 -6049 0
-6046 -6048 -6049 0
1938 1950 6050 0
1938 -1950 -6050 0
-1938 1950 -6050 0
-1938 -1950 -6050 0
6050 6051 0
-6050 -6051 0
1786 6052 0
-1786 -6052 0
6052 6053 0
-6052 -6053 0
6051 6053 6054 0
6051 -6053 -6054 0
-6051 6053 -6054 0
-6051 -6053 -6054 0
6044 6049 6054 6055 0
6044 6049 -6054 -6055 0
6044 -6049 6054 -6055 0
6044 -6049 -6054 -6055 0
-6044 6049 6054 -6055 0
-6044 6049 -6054 -6055 0
-6044 -6049 6054 -6055 0
-6044 -6049 -6054 -6055 0
6055 6056 0
-6055 -6056 0
2026 6057 0
-2026 -6057 0
1806 6058 0
-1806 -6058 0
6058 6059 0
-6058 -6059 0
1992 2015 6060 0
1992 -2015 -6060 0
-1992 2015 -6060 0
-1992 -2015 -6060 0
6060 6061 0
-6060 -6061 0
6059 6061 6062 0
6059 -6061 -6062 0
-6059 6061 -6062 0
-6059 -6061 -6062 0
1992 2004 6063 0
1992 -2004 -6063 0
-1992 2004 -6063 0
-1992 -2004 -6063 0
6063 6064 0
-6063 -6064 0
1806 6065 0
-1806 -6065 0
6065 6066 0
-6065 -6066 0
6064 6066 6067 0
6064 -6066 -6067 0
-6064 6066 -6067 0
-6064 -6066 -6067 0
6057 6062 6067 6068 0
6057 6062 -6067 -6068 0
6057 -6062 6067 -6068 0
6057 -6062 -6067 -6068 0
-6057 6062 6067 -6068 0
-6057 6062 -6067 -6068 0
-6057 -6062 6067 -6068 0
-6057 -6062 -6067 -6068 0
6068 6069 0
-6068 -6069 0
6056 6069 -6070 0
6056 -6069 6070 0
-6056 6069 6070 0
-6056 -6069 -6070 0
6044 6057 -6071 0
6044 -6057 6071 0
-6044 6057 6071 0
-6044 -6057 -6071 0
1885 1905 -6072 0
1885 -1905 6072 0
-1885 1905 6072 0
-1885 -1905 -6072 0
5070 5133 -6073 0
5070 -5133 6073 0
-5070 5133 6073 0
-5070 -5133 -6073 0
5084 5147 -6074 0
5084 -5147 6074 0
-5084 5147 6074 0
-5084 -5147 -6074 0
1688 6075 0
-1688 -6075 0
6075 5056 5058 -6076 0
6075 5056 -5058 6076 0
6075 -5056 5058 6076 0
6075 -5056 -5058 6076 0
-6075 5056 5058 6076 0
-6075 5056 -5058 6076 0
-6075 -5056 5058 6076 0
-6075 -5056 -5058 6076 0
5075 5057 6076 -6077 0
5075 5057 -6076 6077 0
5075 -5057 6076 6077 0
5075 -5057 -6076 6077 0
-5075 5057 6076 6077 0
-5075 5057 -6076 6077 0
-5075 -5057 6076 6077 0
-5075 -5057 -6076 6077 0
6077 6078 0
-6077 -6078 0
1715 6079 0
-1715 -6079 0
6079 5119 5121 -6080 0
6079 5119 -5121 6080 0
6079 -5119 5121 6080 0
6079 -5119 -5121 6080 0
-6079 5119 5121 6080 0
-6079 5119 -5121 6080 0
-6079 -5119 5121 6080 0
-6079 -5119 -5121 6080 0
5138 5120 6080 -6081 0
5138 5120 -6080 6081 0
5138 -5120 6080 6081 0
5138 -5120 -6080 6081 0
-5138 5120 6080 6081 0
-5138 5120 -6080 6081 0
-5138 -5120 6080 6081 0
-5138 -5120 -6080 6081 0
6081 6082 0
-6081 -6082 0
6078 6082 -6083 0
6078 -6082 6083 0
-6078 6082 6083 0
-6078 -6082 -6083 0
6054 6084 0
-6054 -6084 0
5764 3007 5166 6085 0
5764 3007 -5166 -6085 0
5764 -3007 5166 -6085 0
5764 -3007 -5166 -6085 0
-5764 3007 5166 -6085 0
-5764 3007 -5166 -6085 0
-5764 -3007 5166 -6085 0
-5764 -3007 -5166 -6085 0
6085 6086 0
-6085 -6086 0
6084 6086 6087 0
6084 -6086 -6087 0
-6084 6086 -6087 0
-6084 -6086 -6087 0
6067 6088 0
-6067 -6088 0
5765 3070 5176 6089 0
5765 3070 -5176 -6089 0
5765 -3070 5176 -6089 0
5765 -3070 -5176 -6089 0
-5765 3070 5176 -6089 0
-5765 3070 -5176 -6089 0
-5765 -3070 5176 -6089 0
-5765 -3070 -5176 -6089 0
6089 6090 0
-6089 -6090 0
6088 6090 6091 0
6088 -6090 -6091 0
-6088 6090 -6091 0
-6088 -6090 -6091 0
6087 6091 -6092 0
6087 -6091 6092 0
-6087 6091 6092 0
-6087 -6091 -6092 0
2930 2963 -6093 0
2930 -2963 6093 0
-2930 2963 6093 0
-2930 -2963 -6093 0
5075 5059 5057 -6094 0
5075 5059 -5057 6094 0
5075 -5059 5057 6094 0
5075 -5059 -5057 6094 0
-5075 5059 5057 6094 0
-5075 5059 -5057 6094 0
-5075 -5059 5057 6094 0
-5075 -5059 -5057 6094 0
5074 5067 6094 -6095 0
5074 5067 -6094 6095 0
5074 -5067 6094 6095 0
5074 -5067 -6094 6095 0
-5074 5067 6094 6095 0
-5074 5067 -6094 6095 0
-5074 -5067 6094 6095 0
-5074 -5067 -6094 6095 0
6095 6096 0
-6095 -6096 0
6096 6097 0
-6096 -6097 0
2330 6097 6098 0
2330 -6097 -6098 0
-2330 6097 -6098 0
-2330 -6097 -6098 0
5138 5122 5120 -6099 0
5138 5122 -5120 6099 0
5138 -5122 5120 6099 0
5138 -5122 -5120 6099 0
-5138 5122 5120 6099 0
-5138 5122 -5120 6099 0
-5138 -5122 5120 6099 0
-5138 -5122 -5120 6099 0
5137 5130 6099 -6100 0
5137 5130 -6099 6100 0
5137 -5130 6099 6100 0
5137 -5130 -6099 6100 0
-5137 5130 6099 6100 0
-5137 5130 -6099 6100 0
-5137 -5130 6099 6100 0
-5137 -5130 -6099 6100 0
6100 6101 0
-6100 -6101 0
6101 6102 0
-6101 -6102 0
2694 6102 6103 0
2694 -6102 -6103 0
-2694 6102 -6103 0
-2694 -6102 -6103 0
6098 6103 -6104 0
6098 -6103 6104 0
-6098 6103 6104 0
-6098 -6103 -6104 0
5060 6075 5074 -6105 0
5060 6075 -5074 6105 0
5060 -6075 5074 6105 0
5060 -6075 -5074 6105 0
-5060 6075 5074 6105 0
-5060 6075 -5074 6105 0
-5060 -6075 5074 6105 0
-5060 -6075 -5074 6105 0
5058 5057 6105 -6106 0
5058 5057 -6105 6106 0
5058 -5057 6105 6106 0
5058 -5057 -6105 6106 0
-5058 5057 6105 6106 0
-5058 5057 -6105 6106 0
-5058 -5057 6105 6106 0
-5058 -5057 -6105 6106 0
6106 6107 0
-6106 -6107 0
5123 6079 5137 -6108 0
5123 6079 -5137 6108 0
5123 -6079 5137 6108 0
5123 -6079 -5137 6108 0
-5123 6079 5137 6108 0
-5123 6079 -5137 6108 0
-5123 -6079 5137 6108 0
-5123 -6079 -5137 6108 0
5121 5120 6108 -6109 0
5121 5120 -6108 6109 0
5121 -5120 6108 6109 0
5121 -5120 -6108 6109 0
-5121 5120 6108 6109 0
-5121 5120 -6108 6109 0
-5121 -5120 6108 6109 0
-5121 -5120 -6108 6109 0
6109 6110 0
-6109 -6110 0
6107 6110 -6111 0
6107 -6110 6111 0
-6107 6110 6111 0
-6107 -6110 -6111 0
6054 6067 -6112 0
6054 -6067 6112 0
-6054 6067 6112 0
-6054 -6067 -6112 0
6049 6062 -6113 0
6049 -6062 6113 0
-6049 6062 6113 0
-6049 -6062 -6113 0
1926 1952 6114 0
1926 -1952 -6114 0
-1926 1952 -6114 0
-1926 -1952 -6114 0
1980 2006 6115 0
1980 -2006 -6115 0
-1980 2006 -6115 0
-1980 -2006 -6115 0
6114 6115 -6116 0
6114 -6115 6116 0
-6114 6115 6116 0
-6114 -6115 -6116 0
6049 6117 0
-6049 -6117 0
6117 6086 6118 0
6117 -6086 -6118 0
-6117 6086 -6118 0
-6117 -6086 -6118 0
6062 6119 0
-6062 -6119 0
6119 6090 6120 0
6119 -6090 -6120 0
-6119 6090 -6120 0
-6119 -6090 -6120 0
6118 6120 -6121 0
6118 -6120 6121 0
-6118 6120 6121 0
-6118 -6120 -6121 0
1786 6122 0
-1786 -6122 0
6122 6123 0
-6122 -6123 0
6123 1483 6124 0
6123 -1483 -6124 0
-6123 1483 -6124 0
-6123 -1483 -6124 0
6124 6125 0
-6124 -6125 0
6086 6125 6126 0
6086 -6125 -6126 0
-6086 6125 -6126 0
-6086 -6125 -6126 0
1806 6127 0
-1806 -6127 0
6127 6128 0
-6127 -6128 0
6128 1581 6129 0
6128 -1581 -6129 0
-6128 1581 -6129 0
-6128 -1581 -6129 0
6129 6130 0
-6129 -6130 0
6090 6130 6131 0
6090 -6130 -6131 0
-6090 6130 -6131 0
-6090 -6130 -6131 0
6126 6131 -6132 0
6126 -6131 6132 0
-6126 6131 6132 0
-6126 -6131 -6132 0
6124 6129 -6133 0
6124 -6129 6133 0
-6124 6129 6133 0
-6124 -6129 -6133 0
2251 2615 -6134 0
2251 -2615 6134 0
-2251 2615 6134 0
-2251 -2615 -6134 0
5075 5074 5058 -6135 0
5075 5074 -5058 6135 0
5075 -5074 5058 6135 0
5075 -5074 -5058 6135 0
-5075 5074 5058 6135 0
-5075 5074 -5058 6135 0
-5075 -5074 5058 6135 0
-5075 -5074 -5058 6135 0
5059 5057 6135 -6136 0
5059 5057 -6135 6136 0
5059 -5057 6135 6136 0
5059 -5057 -6135 6136 0
-5059 5057 6135 6136 0
-5059 5057 -6135 6136 0
-5059 -5057 6135 6136 0
-5059 -5057 -6135 6136 0
6136 6137 0
-6136 -6137 0
6137 6138 0
-6137 -6138 0
6138 5856 6139 0
6138 -5856 -6139 0
-6138 5856 -6139 0
-6138 -5856 -6139 0
5138 5137 5121 -6140 0
5138 5137 -5121 6140 0
5138 -5137 5121 6140 0
5138 -5137 -5121 6140 0
-5138 5137 5121 6140 0
-5138 5137 -5121 6140 0
-5138 -5137 5121 6140 0
-5138 -5137 -5121 6140 0
5122 5120 6140 -6141 0
5122 5120 -6140 6141 0
5122 -5120 6140 6141 0
5122 -5120 -6140 6141 0
-5122 5120 6140 6141 0
-5122 5120 -6140 6141 0
-5122 -5120 6140 6141 0
-5122 -5120 -6140 6141 0
6141 6142 0
-6141 -6142 0
6142 6143 0
-6142 -6143 0
6143 5936 6144 0
6143 -5936 -6144 0
-6143 5936 -6144 0
-6143 -5936 -6144 0
6139 6144 -6145 0
6139 -6144 6145 0
-6139 6144 6145 0
-6139 -6144 -6145 0
6078 6146 0
-6078 -6146 0
6146 6033 6147 0
6146 -6033 -6147 0
-6146 6033 -6147 0
-6146 -6033 -6147 0
6082 6148 0
-6082 -6148 0
6148 6041 6149 0
6148 -6041 -6149 0
-6148 6041 -6149 0
-6148 -6041 -6149 0
6147 6149 -6150 0
6147 -6149 6150 0
-6147 6149 6150 0
-6147 -6149 -6150 0
5057 5060 5059 -6151 0
5057 5060 -5059 6151 0
5057 -5060 5059 6151 0
5057 -5060 -5059 6151 0
-5057 5060 5059 6151 0
-5057 5060 -5059 6151 0
-5057 -5060 5059 6151 0
-5057 -5060 -5059 6151 0
5058 5074 6151 -6152 0
5058 5074 -6151 6152 0
5058 -5074 6151 6152 0
5058 -5074 -6151 6152 0
-5058 5074 6151 6152 0
-5058 5074 -6151 6152 0
-5058 -5074 6151 6152 0
-5058 -5074 -6151 6152 0
6152 6153 0
-6152 -6153 0
6153 6154 0
-6153 -6154 0
6033 6154 6155 0
6033 -6154 -6155 0
-6033 6154 -6155 0
-6033 -6154 -6155 0
5120 5123 5122 -6156 0
5120 5123 -5122 6156 0
5120 -5123 5122 6156 0
5120 -5123 -5122 6156 0
-5120 5123 5122 6156 0
-5120 5123 -5122 6156 0
-5120 -5123 5122 6156 0
-5120 -5123 -5122 6156 0
5121 5137 6156 -6157 0
5121 5137 -6156 6157 0
5121 -5137 6156 6157 0
5121 -5137 -6156 6157 0
-5121 5137 6156 6157 0
-5121 5137 -6156 6157 0
-5121 -5137 6156 6157 0
-5121 -5137 -6156 6157 0
6157 6158 0
-6157 -6158 0
6158 6159 0
-6158 -6159 0
6041 6159 6160 0
6041 -6159 -6160 0
-6041 6159 -6160 0
-6041 -6159 -6160 0
6155 6160 -6161 0
6155 -6160 6161 0
-6155 6160 6161 0
-6155 -6160 -6161 0
2330 5079 5855 4940 6162 0
2330 5079 5855 -4940 -6162 0
2330 5079 -5855 4940 -6162 0
2330 5079 -5855 -4940 -6162 0
2330 -5079 5855 4940 -6162 0
2330 -5079 5855 -4940 -6162 0
2330 -5079 -5855 4940 -6162 0
2330 -5079 -5855 -4940 -6162 0
-2330 5079 5855 4940 -6162 0
-2330 5079 5855 -4940 -6162 0
-2330 5079 -5855 4940 -6162 0
-2330 5079 -5855 -4940 -6162 0
-2330 -5079 5855 4940 -6162 0
-2330 -5079 5855 -4940 -6162 0
-2330 -5079 -5855 4940 -6162 0
-2330 -5079 -5855 -4940 -6162 0
2694 5142 5935 4995 6163 0
2694 5142 5935 -4995 -6163 0
2694 5142 -5935 4995 -6163 0
2694 5142 -5935 -4995 -6163 0
2694 -5142 5935 4995 -6163 0
2694 -5142 5935 -4995 -6163 0
2694 -5142 -5935 4995 -6163 0
2694 -5142 -5935 -4995 -6163 0
-2694 5142 5935 4995 -6163 0
-2694 5142 5935 -4995 -6163 0
-2694 5142 -5935 4995 -6163 0
-2694 5142 -5935 -4995 -6163 0
-2694 -5142 5935 4995 -6163 0
-2694 -5142 5935 -4995 -6163 0
-2694 -5142 -5935 4995 -6163 0
-2694 -5142 -5935 -4995 -6163 0
6162 6163 -6164 0
6162 -6163 6164 0
-6162 6163 6164 0
-6162 -6163 -6164 0
4936 4937 4944 6165 0
4936 4937 -4944 -6165 0
4936 -4937 4944 -6165 0
4936 -4937 -4944 -6165 0
-4936 4937 4944 -6165 0
-4936 4937 -4944 -6165 0
-4936 -4937 4944 -6165 0
-4936 -4937 -4944 -6165 0
6165 6166 0
-6165 -6166 0
5791 4933 6166 6167 0
5791 4933 -6166 -6167 0
5791 -4933 6166 -6167 0
5791 -4933 -6166 -6167 0
-5791 4933 6166 -6167 0
-5791 4933 -6166 -6167 0
-5791 -4933 6166 -6167 0
-5791 -4933 -6166 -6167 0
6167 6168 0
-6167 -6168 0
6138 6168 6169 0
6138 -6168 -6169 0
-6138 6168 -6169 0
-6138 -6168 -6169 0
4991 4992 4999 6170 0
4991 4992 -4999 -6170 0
4991 -4992 4999 -6170 0
4991 -4992 -4999 -6170 0
-4991 4992 4999 -6170 0
-4991 4992 -4999 -6170 0
-4991 -4992 4999 -6170 0
-4991 -4992 -4999 -6170 0
6170 6171 0
-6170 -6171 0
5872 4988 6171 6172 0
5872 4988 -6171 -6172 0
5872 -4988 6171 -6172 0
5872 -4988 -6171 -6172 0
-5872 4988 6171 -6172 0
-5872 4988 -6171 -6172 0
-5872 -4988 6171 -6172 0
-5872 -4988 -6171 -6172 0
6172 6173 0
-6172 -6173 0
6143 6173 6174 0
6143 -6173 -6174 0
-6143 6173 -6174 0
-6143 -6173 -6174 0
6169 6174 -6175 0
6169 -6174 6175 0
-6169 6174 6175 0
-6169 -6174 -6175 0
405 6176 0
-405 -6176 0
405 6177 0
-405 -6177 0
6176 6177 -6178 0
6176 -6177 6178 0
-6176 6177 6178 0
-6176 -6177 -6178 0
3031 3094 -6179 0
3031 -3094 6179 0
-3031 3094 6179 0
-3031 -3094 -6179 0
2041 2142 2047 -6180 0
2041 2142 -2047 6180 0
2041 -2142 2047 6180 0
2041 -2142 -2047 6180 0
-2041 2142 2047 6180 0
-2041 2142 -2047 6180 0
-2041 -2142 2047 6180 0
-2041 -2142 -2047 6180 0
2035 2038 6180 -6181 0
2035 2038 -6180 6181 0
2035 -2038 6180 6181 0
2035 -2038 -6180 6181 0
-2035 2038 6180 6181 0
-2035 2038 -6180 6181 0
-2035 -2038 6180 6181 0
-2035 -2038 -6180 6181 0
6181 6182 0
-6181 -6182 0
6182 6183 0
-6182 -6183 0
6183 3134 6184 0
6183 -3134 -6184 0
-6183 3134 -6184 0
-6183 -3134 -6184 0
2405 2506 2411 -6185 0
2405 2506 -2411 6185 0
2405 -2506 2411 6185 0
2405 -2506 -2411 6185 0
-2405 2506 2411 6185 0
-2405 2506 -2411 6185 0
-2405 -2506 2411 6185 0
-2405 -2506 -2411 6185 0
2399 2402 6185 -6186 0
2399 2402 -6185 6186 0
2399 -2402 6185 6186 0
2399 -2402 -6185 6186 0
-2399 2402 6185 6186 0
-2399 2402 -6185 6186 0
-2399 -2402 6185 6186 0
-2399 -2402 -6185 6186 0
6186 6187 0
-6186 -6187 0
6187 6188 0
-6187 -6188 0
6188 3152 6189 0
6188 -3152 -6189 0
-6188 3152 -6189 0
-6188 -3152 -6189 0
6184 6189 -6190 0
6184 -6189 6190 0
-6184 6189 6190 0
-6184 -6189 -6190 0
408 6191 0
-408 -6191 0
408 6192 0
-408 -6192 0
6191 6192 -6193 0
6191 -6192 6193 0
-6191 6192 6193 0
-6191 -6192 -6193 0
411 6194 0
-411 -6194 0
411 6195 0
-411 -6195 0
6194 6195 -6196 0
6194 -6195 6196 0
-6194 6195 6196 0
-6194 -6195 -6196 0
412 6197 0
-412 -6197 0
412 6198 0
-412 -6198 0
6197 6198 -6199 0
6197 -6198 6199 0
-6197 6198 6199 0
-6197 -6198 -6199 0
-626 6200 0
-629 6200 0
-632 6200 0
-635 6200 0
-638 6200 0
-783 6200 0
-786 6200 0
-789 6200 0
-898 6200 0
-901 6200 0
-904 6200 0
-907 6200 0
-910 6200 0
-1097 6200 0
-1294 6200 0
-1481 6200 0
-1678 6200 0
-1733 6200 0
-1784 6200 0
-1825 6200 0
-1848 6200 0
-1863 6200 0
-1882 6200 0
-1923 6200 0
-2032 6200 0
-2761 6200 0
-2908 6200 0
-2975 6200 0
-2988 6200 0
-3115 6200 0
-3128 6200 0
-3165 6200 0
-3322 6200 0
-3367 6200 0
-3412 6200 0
-3457 6200 0
-3502 6200 0
-3547 6200 0
-3592 6200 0
-3637 6200 0
-3822 6200 0
-3841 6200 0
-3860 6200 0
-3879 6200 0
-3936 6200 0
-3963 6200 0
-3990 6200 0
-4005 6200 0
-4020 6200 0
-4035 6200 0
-4050 6200 0
-4065 6200 0
-4080 6200 0
-4093 6200 0
-4132 6200 0
-4165 6200 0
-4200 6200 0
-4239 6200 0
-4272 6200 0
-4307 6200 0
-4340 6200 0
-4375 6200 0
-4392 6200 0
-4411 6200 0
-4456 6200 0
-4499 6200 0
-4572 6200 0
-4597 6200 0
-4638 6200 0
-4713 6200 0
-4746 6200 0
-4789 6200 0
-4826 6200 0
-4863 6200 0
-4892 6200 0
-4921 6200 0
-5032 6200 0
-5159 6200 0
-5180 6200 0
-5187 6200 0
-5194 6200 0
-5201 6200 0
-5208 6200 0
-5215 6200 0
-5222 6200 0
-5229 6200 0
-5236 6200 0
-5243 6200 0
-5250 6200 0
-5279 6200 0
-5286 6200 0
-5293 6200 0
-5300 6200 0
-5341 6200 0
-5342 6200 0
-5351 6200 0
-5372 6200 0
-5373 6200 0
-5432 6200 0
-5449 6200 0
-5462 6200 0
-5469 6200 0
-5476 6200 0
-5483 6200 0
-5490 6200 0
-5497 6200 0
-5516 6200 0
-5529 6200 0
-5536 6200 0
-5543 6200 0
-5550 6200 0
-5557 6200 0
-5564 6200 0
-5571 6200 0
-5578 6200 0
-5585 6200 0
-5594 6200 0
-5603 6200 0
-5612 6200 0
-5625 6200 0
-5632 6200 0
-5639 6200 0
-5646 6200 0
-5653 6200 0
-5662 6200 0
-5671 6200 0
-5680 6200 0
-5689 6200 0
-5698 6200 0
-5703 6200 0
-5708 6200 0
-5713 6200 0
-5718 6200 0
-5723 6200 0
-5728 6200 0
-5733 6200 0
-5738 6200 0
-5743 6200 0
-5748 6200 0
-5749 6200 0
-5750 6200 0
-5751 6200 0
-5752 6200 0
-5753 6200 0
-5756 6200 0
-5757 6200 0
-5758 6200 0
-5759 6200 0
-5760 6200 0
-5761 6200 0
-5762 6200 0
-5763 6200 0
-5766 6200 0
-5769 6200 0
-5770 6200 0
-5771 6200 0
-5772 6200 0
-5773 6200 0
-5774 6200 0
-5775 6200 0
-5776 6200 0
-5777 6200 0
-5778 6200 0
-5940 6200 0
-5943 6200 0
-5946 6200 0
-5947 6200 0
-5948 6200 0
-5951 6200 0
-5952 6200 0
-5953 6200 0
-5956 6200 0
-5959 6200 0
-5962 6200 0
-5973 6200 0
-5986 6200 0
-5989 6200 0
-5992 6200 0
-6003 6200 0
-6004 6200 0
-6009 6200 0
-6022 6200 0
-6023 6200 0
-6026 6200 0
-6043 6200 0
-6070 6200 0
-6071 6200 0
-6072 6200 0
-6073 6200 0
-6074 6200 0
-6083 6200 0
-6092 6200 0
-6093 6200 0
-6104 6200 0
-6111 6200 0
-6112 6200 0
-6113 6200 0
-6116 6200 0
-6121 6200 0
-6132 6200 0
-6133 6200 0
-6134 6200 0
-6145 6200 0
-6150 6200 0
-6161 6200 0
-6164 6200 0
-6175 6200 0
-6178 6200 0
-6179 6200 0
-6190 6200 0
-6193 6200 0
-6196 6200 0
-6199 6200 0
-6200 626 629 632 635 638 783 786 789 898 901 904 907 910 1097 1294 1481 1678 1733 1784 1825 1848 1863 1882 1923 2032 2761 2908 2975 2988 3115 3128 3165 3322 3367 3412 3457 3502 3547 3592 3637 3822 3841 3860 3879 3936 3963 3990 4005 4020 4035 4050 4065 4080 4093 4132 4165 4200 4239 4272 4307 4340 4375 4392 4411 4456 4499 4572 4597 4638 4713 4746 4789 4826 4863 4892 4921 5032 5159 5180 5187 5194 5201 5208 5215 5222 5229 5236 5243 5250 5279 5286 5293 5300 5341 5342 5351 5372 5373 5432 5449 5462 5469 5476 5483 5490 5497 5516 5529 5536 5543 5550 5557 5564 5571 5578 5585 5594 5603 5612 5625 5632 5639 5646 5653 5662 5671 5680 5689 5698 5703 5708 5713 5718 5723 5728 5733 5738 5743 5748 5749 5750 5751 5752 5753 5756 5757 5758 5759 5760 5761 5762 5763 5766 5769 5770 5771 5772 5773 5774 5775 5776 5777 5778 5940 5943 5946 5947 5948 5951 5952 5953 5956 5959 5962 5973 5986 5989 5992 6003 6004 6009 6022 6023 6026 6043 6070 6071 6072 6073 6074 6083 6092 6093 6104 6111 6112 6113 6116 6121 6132 6133 6134 6145 6150 6161 6164 6175 6178 6179 6190 6193 6196 6199 0
-1 215 0
1 -215 0
-2 216 0
2 -216 0
-3 217 0
3 -217 0
-4 218 0
4 -218 0
-5 219 0
5 -219 0
-6 220 0
6 -220 0
-7 221 0
7 -221 0
-8 222 0
8 -222 0
-9 223 0
9 -223 0
-10 224 0
10 -224 0
-11 225 0
11 -225 0
-12 226 0
12 -226 0
-13 227 0
13 -227 0
-14 228 0
14 -228 0
-15 229 0
15 -229 0
-16 230 0
16 -230 0
-17 231 0
17 -231 0
-18 232 0
18 -232 0
-19 233 0
19 -233 0
-20 234 0
20 -234 0
-21 235 0
21 -235 0
-22 236 0
22 -236 0
-23 237 0
23 -237 0
-24 238 0
24 -238 0
-25 239 0
25 -239 0
-26 240 0
26 -240 0
-27 241 0
27 -241 0
-28 242 0
28 -242 0
-29 243 0
29 -243 0
-30 244 0
30 -244 0
-31 245 0
31 -245 0
-32 246 0
32 -246 0
-33 247 0
33 -247 0
-34 248 0
34 -248 0
-35 249 0
35 -249 0
-36 250 0
36 -250 0
-37 251 0
37 -251 0
-38 252 0
38 -252 0
-39 253 0
39 -253 0
-40 254 0
40 -254 0
-41 255 0
41 -255 0
-42 256 0
42 -256 0
-43 257 0
43 -257 0
-44 258 0
44 -258 0
-45 259 0
45 -259 0
-46 260 0
46 -260 0
-47 261 0
47 -261 0
-48 262 0
48 -262 0
-49 263 0
49 -263 0
-50 264 0
50 -264 0
-51 265 0
51 -265 0
-52 266 0
52 -266 0
-53 267 0
53 -267 0
-54 268 0
54 -268 0
-55 269 0
55 -269 0
-56 270 0
56 -270 0
-57 271 0
57 -271 0
-58 272 0
58 -272 0
-59 273 0
59 -273 0
-60 274 0
60 -274 0
-61 275 0
61 -275 0
-62 276 0
62 -276 0
-63 277 0
63 -277 0
-64 278 0
64 -278 0
-65 279 0
65 -279 0
-66 280 0
66 -280 0
-67 281 0
67 -281 0
-68 282 0
68 -282 0
-69 283 0
69 -283 0
-70 284 0
70 -284 0
-71 285 0
71 -285 0
-72 286 0
72 -286 0
-73 287 0
73 -287 0
-74 288 0
74 -288 0
-75 289 0
75 -289 0
-76 290 0
76 -290 0
-77 291 0
77 -291 0
-78 292 0
78 -292 0
-79 293 0
79 -293 0
-80 294 0
80 -294 0
-81 295 0
81 -295 0
-82 296 0
82 -296 0
-83 297 0
83 -297 0
-84 298 0
84 -298 0
-85 299 0
85 -299 0
-86 300 0
86 -300 0
-87 301 0
87 -301 0
-88 302 0
88 -302 0
-89 303 0
89 -303 0
-90 304 0
90 -304 0
-91 305 0
91 -305 0
-92 306 0
92 -306 0
-93 307 0
93 -307 0
-94 308 0
94 -308 0
-95 309 0
95 -309 0
-96 310 0
96 -310 0
-97 311 0
97 -311 0
-98 312 0
98 -312 0
-99 313 0
99 -313 0
-100 314 0
100 -314 0
-101 315 0
101 -315 0
-102 316 0
102 -316 0
-103 317 0
103 -317 0
-104 318 0
104 -318 0
-105 319 0
105 -319 0
-106 320 0
106 -320 0
-107 321 0
107 -321 0
-108 322 0
108 -322 0
-109 323 0
109 -323 0
-110 324 0
110 -324 0
-111 325 0
111 -325 0
-112 326 0
112 -326 0
-113 327 0
113 -327 0
-114 328 0
114 -328 0
-115 329 0
115 -329 0
-116 330 0
116 -330 0
-117 331 0
117 -331 0
-118 332 0
118 -332 0
-119 333 0
119 -333 0
-120 334 0
120 -334 0
-121 335 0
121 -335 0
-122 336 0
122 -336 0
-123 337 0
123 -337 0
-124 338 0
124 -338 0
-125 339 0
125 -339 0
-126 340 0
126 -340 0
-127 341 0
127 -341 0
-128 342 0
128 -342 0
-129 343 0
129 -343 0
-130 344 0
130 -344 0
-131 345 0
131 -345 0
-132 346 0
132 -346 0
-133 347 0
133 -347 0
-134 348 0
134 -348 0
-135 349 0
135 -349 0
-136 350 0
136 -350 0
-137 351 0
137 -351 0
-138 352 0
138 -352 0
-139 353 0
139 -353 0
-140 354 0
140 -354 0
-141 355 0
141 -355 0
-142 356 0
142 -356 0
-143 357 0
143 -357 0
-144 358 0
144 -358 0
-145 359 0
145 -359 0
-146 360 0
146 -360 0
-147 361 0
147 -361 0
-148 362 0
148 -362 0
-149 363 0
149 -363 0
-150 364 0
150 -364 0
-151 365 0
151 -365 0
-152 366 0
152 -366 0
-153 367 0
153 -367 0
-154 368 0
154 -368 0
-155 369 0
155 -369 0
-156 370 0
156 -370 0
-157 371 0
157 -371 0
-158 372 0
158 -372 0
-159 373 0
159 -373 0
-160 374 0
160 -374 0
-161 375 0
161 -375 0
-162 376 0
162 -376 0
-163 377 0
163 -377 0
-164 378 0
164 -378 0
-165 379 0
165 -379 0
-166 380 0
166 -380 0
-167 381 0
167 -381 0
-168 382 0
168 -382 0
-169 383 0
169 -383 0
-170 384 0
170 -384 0
-171 385 0
171 -385 0
-172 386 0
172 -386 0
-173 387 0
173 -387 0
-174 388 0
174 -388 0
-175 389 0
175 -389 0
-176 390 0
176 -390 0
-177 391 0
177 -391 0
-178 392 0
178 -392 0
-179 393 0
179 -393 0
-180 394 0
180 -394 0
-181 395 0
181 -395 0
-182 396 0
182 -396 0
-183 397 0
183 -397 0
-184 398 0
184 -398 0
-185 399 0
185 -399 0
-186 400 0
186 -400 0
-187 401 0
187 -401 0
-188 402 0
188 -402 0
-189 403 0
189 -403 0
-190 404 0
190 -404 0
-191 405 0
191 -405 0
-192 406 0
192 -406 0
-193 407 0
193 -407 0
-194 408 0
194 -408 0
-195 409 0
195 -409 0
-196 410 0
196 -410 0
-197 411 0
197 -411 0
-198 412 0
198 -412 0
-199 413 0
199 -413 0
-200 414 0
200 -414 0
-201 415 0
201 -415 0
-202 416 0
202 -416 0
-203 417 0
203 -417 0
-204 418 0
204 -418 0
-205 419 0
205 -419 0
-206 420 0
206 -420 0
-207 421 0
207 -421 0
-208 422 0
208 -422 0
-209 423 0
209 -423 0
-210 424 0
210 -424 0
-211 425 0
211 -425 0
-212 426 0
212 -426 0
-213 427 0
213 -427 0
-214 428 0
214 -428 0
-6201 -121 0
6201 121 0
-6202 -123 0
6202 123 0
-6203 -125 0
6203 125 0
-6204 119 0
6204 -119 0
-6205 120 0
6205 -120 0
-6206 -6201 0
-6206 -6202 0
-6206 -6203 0
-6206 -6204 0
-6206 -6205 0
6206 6201 6202 6203 6204 6205 0
-6207 141 0
-6207 -142 0
-6207 148 0
-6207 -153 0
-6207 -162 0
-6207 -163 0
-6207 165 0
-6207 174 0
6207 -141 142 -148 153 162 163 -165 -174 0
-6208 141 0
-6208 -142 0
-6208 148 0
-6208 -153 0
-6208 -162 0
-6208 163 0
-6208 165 0
-6208 -166 0
6208 -141 142 -148 153 162 -163 -165 166 0
-6209 141 0
-6209 -142 0
-6209 148 0
-6209 -153 0
-6209 -162 0
-6209 163 0
-6209 165 0
-6209 -173 0
6209 -141 142 -148 153 162 -163 -165 173 0
-6210 141 0
-6210 142 0
-6210 153 0
-6210 -162 0
-6210 -163 0
-6210 -165 0
-6210 -174 0
6210 -141 -142 -153 162 163 165 174 0
-6211 141 0
-6211 142 0
-6211 -148 0
-6211 153 0
-6211 -162 0
-6211 -165 0
-6211 -173 0
6211 -141 -142 148 -153 162 165 173 0
-6212 141 0
-6212 142 0
-6212 -148 0
-6212 153 0
-6212 -162 0
-6212 -165 0
-6212 -166 0
6212 -141 -142 148 -153 162 165 166 0
-6213 141 0
-6213 142 0
-6213 -148 0
-6213 153 0
-6213 -162 0
-6213 -163 0
-6213 -165 0
6213 -141 -142 148 -153 162 163 165 0
-6214 -6207 0
-6214 -6208 0
-6214 -6209 0
-6214 -6210 0
-6214 -6211 0
-6214 -6212 0
-6214 -6213 0
6214 6207 6208 6209 6210 6211 6212 6213 0
-6215 -3 0
-6215 7 0
-6215 37 0
-6215 38 0
6215 3 -7 -37 -38 0
-6216 -6215 0
6216 6215 0
-6217 -3 0
6217 3 0
-6218 -37 0
6218 37 0
-6219 -38 0
6219 38 0
-6220 -119 0
6220 119 0
-6221 -121 0
6221 121 0
-6222 -125 0
6222 125 0
-6223 -141 0
6223 141 0
-6224 -142 0
-6224 -148 0
6224 142 148 0
-6225 -142 0
-6225 -165 0
6225 142 165 0
-6226 -142 0
-6226 -163 0
-6226 -174 0
6226 142 163 174 0
-6227 163 0
-6227 166 0
-6227 173 0
6227 -163 -166 -173 0
-6228 7 0
6228 -7 0
-6229 120 0
6229 -120 0
-6230 123 0
6230 -123 0
-6231 162 0
6231 -162 0
-6232 142 0
-6232 165 0
6232 -142 -165 0
-6233 142 0
-6233 148 0
-6233 163 0
6233 -142 -148 -163 0
-6234 142 0
-6234 148 0
-6234 174 0
6234 -142 -148 -174 0
-6235 142 0
-6235 -153 0
6235 -142 153 0
-6236 -142 0
-6236 153 0
6236 142 -153 0
-6237 -6217 0
-6237 -6218 0
-6237 -6219 0
-6237 -6220 0
-6237 -6221 0
-6237 -6222 0
-6237 -6223 0
-6237 -6224 0
-6237 -6225 0
-6237 -6226 0
-6237 -6227 0
-6237 -6228 0
-6237 -6229 0
-6237 -6230 0
-6237 -6231 0
-6237 -6232 0
-6237 -6233 0
-6237 -6234 0
-6237 -6235 0
-6237 -6236 0
6237 6217 6218 6219 6220 6221 6222 6223 6224 6225 6226 6227 6228 6229 6230 6231 6232 6233 6234 6235 6236 0
-6238 -3 0
6238 3 0
-6239 -7 0
6239 7 0
-6240 -37 0
6240 37 0
-6241 -38 0
6241 38 0
-6242 -119 0
6242 119 0
-6243 -121 0
6243 121 0
-6244 -123 0
6244 123 0
-6245 -125 0
6245 125 0
-6246 -141 0
6246 141 0
-6247 -142 0
-6247 -148 0
6247 142 148 0
-6248 -142 0
-6248 -165 0
6248 142 165 0
-6249 -142 0
-6249 -163 0
-6249 -174 0
6249 142 163 174 0
-6250 163 0
-6250 166 0
-6250 173 0
6250 -163 -166 -173 0
-6251 120 0
6251 -120 0
-6252 162 0
6252 -162 0
-6253 142 0
-6253 165 0
6253 -142 -165 0
-6254 142 0
-6254 148 0
-6254 163 0
6254 -142 -148 -163 0
-6255 142 0
-6255 148 0
-6255 174 0
6255 -142 -148 -174 0
-6256 142 0
-6256 -153 0
6256 -142 153 0
-6257 -142 0
-6257 153 0
6257 142 -153 0
-6258 -6238 0
-6258 -6239 0
-6258 -6240 0
-6258 -6241 0
-6258 -6242 0
-6258 -6243 0
-6258 -6244 0
-6258 -6245 0
-6258 -6246 0
-6258 -6247 0
-6258 -6248 0
-6258 -6249 0
-6258 -6250 0
-6258 -6251 0
-6258 -6252 0
-6258 -6253 0
-6258 -6254 0
-6258 -6255 0
-6258 -6256 0
-6258 -6257 0
6258 6238 6239 6240 6241 6242 6243 6244 6245 6246 6247 6248 6249 6250 6251 6252 6253 6254 6255 6256 6257 0
-6259 -38 0
6259 38 0
-6260 -7 0
-6260 -37 0
6260 7 37 0
-6261 -7 0
-6261 -121 0
6261 7 121 0
-6262 -125 0
6262 125 0
-6263 -141 0
6263 141 0
-6264 -142 0
-6264 -148 0
6264 142 148 0
-6265 -142 0
-6265 -165 0
6265 142 165 0
-6266 -142 0
-6266 -163 0
-6266 -174 0
6266 142 163 174 0
-6267 163 0
-6267 166 0
-6267 173 0
6267 -163 -166 -173 0
-6268 3 0
-6268 37 0
6268 -3 -37 0
-6269 120 0
6269 -120 0
-6270 3 0
-6270 121 0
6270 -3 -121 0
-6271 162 0
6271 -162 0
-6272 142 0
-6272 165 0
6272 -142 -165 0
-6273 142 0
-6273 148 0
-6273 163 0
6273 -142 -148 -163 0
-6274 142 0
-6274 148 0
-6274 174 0
6274 -142 -148 -174 0
-6275 142 0
-6275 -153 0
6275 -142 153 0
-6276 7 0
-6276 37 0
6276 -7 -37 0
-6277 -7 0
-6277 119 0
6277 7 -119 0
-6278 -7 0
-6278 123 0
6278 7 -123 0
-6279 -3 0
-6279 119 0
6279 3 -119 0
-6280 7 0
-6280 121 0
6280 -7 -121 0
-6281 -142 0
-6281 153 0
6281 142 -153 0
-6282 7 0
-6282 -123 0
6282 -7 123 0
-6283 3 0
-6283 -119 0
6283 -3 119 0
-6284 -6259 0
-6284 -6260 0
-6284 -6261 0
-6284 -6262 0
-6284 -6263 0
-6284 -6264 0
-6284 -6265 0
-6284 -6266 0
-6284 -6267 0
-6284 -6268 0
-6284 -6269 0
-6284 -6270 0
-6284 -6271 0
-6284 -6272 0
-6284 -6273 0
-6284 -6274 0
-6284 -6275 0
-6284 -6276 0
-6284 -6277 0
-6284 -6278 0
-6284 -6279 0
-6284 -6280 0
-6284 -6281 0
-6284 -6282 0
-6284 -6283 0
6284 6259 6260 6261 6262 6263 6264 6265 6266 6267 6268 6269 6270 6271 6272 6273 6274 6275 6276 6277 6278 6279 6280 6281 6282 6283 0
-6285 -38 0
-6285 -119 0
6285 38 119 0
-6286 -38 0
-6286 -121 0
6286 38 121 0
-6287 -38 0
-6287 -123 0
6287 38 123 0
-6288 -141 0
6288 141 0
-6289 -142 0
-6289 -148 0
6289 142 148 0
-6290 -142 0
-6290 -165 0
6290 142 165 0
-6291 -142 0
-6291 -163 0
-6291 -174 0
6291 142 163 174 0
-6292 163 0
-6292 166 0
-6292 173 0
6292 -163 -166 -173 0
-6293 120 0
6293 -120 0
-6294 7 0
-6294 125 0
6294 -7 -125 0
-6295 162 0
6295 -162 0
-6296 142 0
-6296 165 0
6296 -142 -165 0
-6297 142 0
-6297 148 0
-6297 163 0
6297 -142 -148 -163 0
-6298 142 0
-6298 148 0
-6298 174 0
6298 -142 -148 -174 0
-6299 142 0
-6299 -153 0
6299 -142 153 0
-6300 3 0
-6300 -119 0
6300 -3 119 0
-6301 -121 0
-6301 -125 0
6301 121 125 0
-6302 121 0
-6302 -123 0
6302 -121 123 0
-6303 37 0
-6303 -121 0
6303 -37 121 0
-6304 -121 0
-6304 123 0
6304 121 -123 0
-6305 -38 0
-6305 125 0
6305 38 -125 0
-6306 121 0
-6306 125 0
6306 -121 -125 0
-6307 -3 0
-6307 119 0
-6307 -121 0
6307 3 -119 121 0
-6308 -142 0
-6308 153 0
6308 142 -153 0
-6309 -119 0
-6309 121 0
6309 119 -121 0
-6310 -6285 0
-6310 -6286 0
-6310 -6287 0
-6310 -6288 0
-6310 -6289 0
-6310 -6290 0
-6310 -6291 0
-6310 -6292 0
-6310 -6293 0
-6310 -6294 0
-6310 -6295 0
-6310 -6296 0
-6310 -6297 0
-6310 -6298 0
-6310 -6299 0
-6310 -6300 0
-6310 -6301 0
-6310 -6302 0
-6310 -6303 0
-6310 -6304 0
-6310 -6305 0
-6310 -6306 0
-6310 -6307 0
-6310 -6308 0
-6310 -6309 0
6310 6285 6286 6287 6288 6289 6290 6291 6292 6293 6294 6295 6296 6297 6298 6299 6300 6301 6302 6303 6304 6305 6306 6307 6308 6309 0
-6311 -119 0
6311 119 0
-6312 -121 0
6312 121 0
-6313 -142 0
6313 142 0
-6314 -160 0
6314 160 0
-6315 -163 0
6315 163 0
-6316 125 0
6316 -125 0
-6317 120 0
6317 -120 0
-6318 89 0
-6318 98 0
-6318 106 0
-6318 107 0
-6318 108 0
-6318 129 0
-6318 -139 0
-6318 199 0
6318 -89 -98 -106 -107 -108 -129 139 -199 0
-6319 50 0
-6319 -139 0
-6319 199 0
6319 -50 139 -199 0
-6320 -6311 0
-6320 -6312 0
-6320 -6313 0
-6320 -6314 0
-6320 -6315 0
-6320 -6316 0
-6320 -6317 0
-6320 -6318 0
-6320 -6319 0
6320 6311 6312 6313 6314 6315 6316 6317 6318 6319 0
-6321 -6206 0
-6321 -6214 0
-6321 -6216 0
-6321 -6237 0
-6321 -6258 0
-6321 -6284 0
-6321 -6310 0
-6321 -6320 0
6321 6206 6214 6216 6237 6258 6284 6310 6320 0
