p cnf 1213 50
-220 -163 0
-220 -174 0
220 163 174 0
-221 148 0
-221 -220 0
221 -148 220 0
-222 163 0
-222 166 0
-222 173 0
222 -163 -166 -173 0
-223 141 0
-223 142 0
-223 153 0
-223 -162 0
-223 -165 0
-223 -221 0
-223 -222 0
223 -141 -142 -153 162 165 221 222 0
-226 141 0
-226 -142 0
-226 148 0
-226 -153 0
-226 -162 0
-226 165 0
-226 -220 0
-226 -222 0
226 -141 142 -148 153 162 -165 220 222 0
-227 -223 0
-227 -226 0
227 223 226 0
-228 -7 0
-228 38 0
228 7 -38 0
-229 -3 0
-229 38 0
229 3 -38 0
-230 -37 0
-230 38 0
230 37 -38 0
-239 38 0
-239 119 0
-239 -120 0
-239 121 0
-239 123 0
-239 125 0
-239 -227 0
-239 -228 0
-239 -229 0
-239 -230 0
239 -38 -119 120 -121 -123 -125 227 228 229 230 0
