p cnf 1197 132
-218 -16 0
-218 -17 0
-218 19 0
-218 39 0
-218 -116 0
218 16 17 -19 -39 116 0
-221 -16 0
-221 17 0
-221 19 0
-221 39 0
-221 -116 0
221 16 -17 -19 -39 116 0
-222 -218 0
-222 -221 0
222 218 221 0
-224 -163 0
-224 -174 0
224 163 174 0
-225 148 0
-225 -224 0
225 -148 224 0
-375 163 0
-375 166 0
-375 173 0
375 -163 -166 -173 0
-385 16 0
-385 17 0
-385 19 0
-385 -39 0
-385 -116 0
385 -16 -17 -19 39 116 0
-389 16 0
-389 -17 0
-389 -19 0
-389 39 0
-389 -116 0
389 -16 17 19 -39 116 0
-391 16 0
-391 17 0
-391 -19 0
-391 39 0
-391 -116 0
391 -16 -17 19 -39 116 0
-393 16 0
-393 -17 0
-393 19 0
-393 39 0
-393 -116 0
393 -16 17 -19 -39 116 0
-395 -218 0
-395 -221 0
-395 -385 0
-395 -389 0
-395 -391 0
-395 -393 0
395 218 221 385 389 391 393 0
-561 -385 0
-561 -389 0
-561 -391 0
-561 -393 0
561 385 389 391 393 0
-575 53 0
-575 160 0
-575 163 0
-575 -171 0
575 -53 -160 -163 171 0
-576 168 0
-576 -575 0
576 -168 575 0
-578 -167 0
-578 168 0
-578 169 0
578 167 -168 -169 0
-580 -52 0
-580 164 0
-580 -171 0
-580 -576 0
-580 -578 0
580 52 -164 171 576 578 0
-581 148 0
-581 -185 0
-581 -192 0
-581 -224 0
-581 -561 0
581 -148 185 192 224 561 0
-582 189 0
-582 -225 0
582 -189 225 0
-583 148 0
-583 -181 0
-583 -222 0
-583 -224 0
583 -148 181 222 224 0
-584 -582 0
-584 -583 0
584 582 583 0
-585 -177 0
-585 -584 0
585 177 584 0
-587 100 0
-587 122 0
-587 -126 0
-587 -133 0
-587 -134 0
587 -100 -122 126 133 134 0
-588 -195 0
-588 -225 0
-588 -395 0
-588 -587 0
588 195 225 395 587 0
-589 -189 0
-589 192 0
-589 -225 0
-589 -375 0
589 189 -192 225 375 0
-590 -588 0
-590 -589 0
590 588 589 0
-591 -186 0
-591 -590 0
591 186 590 0
-593 148 0
-593 181 0
-593 -182 0
-593 -224 0
593 -148 -181 182 224 0
-594 -580 0
-594 -581 0
-594 -585 0
-594 -591 0
-594 -593 0
594 580 581 585 591 593 0
