p cnf 1205 151
-215 -163 0
-215 -174 0
215 163 174 0
-216 148 0
-216 -215 0
216 -148 215 0
-217 189 0
-217 -216 0
217 -189 216 0
-221 -16 0
-221 -17 0
-221 19 0
-221 39 0
-221 -116 0
221 16 17 -19 -39 116 0
-224 -16 0
-224 17 0
-224 19 0
-224 39 0
-224 -116 0
224 16 -17 -19 -39 116 0
-225 -221 0
-225 -224 0
225 221 224 0
-227 148 0
-227 -181 0
-227 -215 0
-227 -225 0
227 -148 181 215 225 0
-230 53 0
-230 160 0
-230 163 0
-230 -171 0
230 -53 -160 -163 171 0
-231 168 0
-231 -230 0
231 -168 230 0
-233 -167 0
-233 168 0
-233 169 0
233 167 -168 -169 0
-235 -52 0
-235 164 0
-235 -171 0
-235 -231 0
-235 -233 0
235 52 -164 171 231 233 0
-238 16 0
-238 -17 0
-238 19 0
-238 39 0
-238 -116 0
238 -16 17 -19 -39 116 0
-242 16 0
-242 17 0
-242 19 0
-242 -39 0
-242 -116 0
242 -16 -17 -19 39 116 0
-245 16 0
-245 -17 0
-245 -19 0
-245 39 0
-245 -116 0
245 -16 17 19 -39 116 0
-247 16 0
-247 17 0
-247 -19 0
-247 39 0
-247 -116 0
247 -16 -17 19 -39 116 0
-248 -238 0
-248 -242 0
-248 -245 0
-248 -247 0
248 238 242 245 247 0
-250 148 0
-250 -185 0
-250 -192 0
-250 -215 0
-250 -248 0
250 -148 185 192 215 248 0
-252 100 0
-252 122 0
-252 -126 0
-252 -133 0
-252 -134 0
252 -100 -122 126 133 134 0
-253 -221 0
-253 -224 0
-253 -238 0
-253 -242 0
-253 -245 0
-253 -247 0
253 221 224 238 242 245 247 0
-255 -195 0
-255 -216 0
-255 -252 0
-255 -253 0
255 195 216 252 253 0
-256 163 0
-256 166 0
-256 173 0
256 -163 -166 -173 0
-258 -189 0
-258 192 0
-258 -216 0
-258 -256 0
258 189 -192 216 256 0
-259 -255 0
-259 -258 0
259 255 258 0
-260 -186 0
-260 -259 0
260 186 259 0
-589 148 0
-589 181 0
-589 -182 0
-589 -215 0
589 -148 -181 182 215 0
-591 148 0
-591 -177 0
-591 -181 0
-591 192 0
-591 -215 0
-591 -221 0
-591 -224 0
591 -148 177 181 -192 215 221 224 0
-1191 -217 0
-1191 -227 0
1191 217 227 0
-1202 189 0
-1202 -216 0
-1202 -227 0
1202 -189 216 227 0
227 1191 -1205 0
-227 -1191 -1205 0
227 -1191 1205 0
-227 1191 1205 0
1205 1202 -1203 0
-1205 -1202 -1203 0
1205 -1202 1203 0
-1205 1202 1203 0
-1204 -177 0
-1204 -235 0
-1204 -250 0
-1204 -260 0
-1204 -589 0
-1204 -591 0
-1204 -1203 0
1204 177 235 250 260 589 591 1203 0
