p cnf 1204 291
-215 56 0
-215 62 0
215 -56 -62 0
-216 54 0
-216 61 0
216 -54 -61 0
-217 -215 0
-217 -216 0
217 215 216 0
-218 56 0
-218 64 0
218 -56 -64 0
-219 54 0
-219 63 0
219 -54 -63 0
-220 -218 0
-220 -219 0
220 218 219 0
-221 56 0
-221 63 0
221 -56 -63 0
-222 54 0
-222 62 0
222 -54 -62 0
-223 -221 0
-223 -222 0
223 221 222 0
-225 -12 0
-225 -217 0
-225 -220 0
-225 -221 0
-225 -222 0
225 12 217 220 221 222 0
-227 -201 0
-227 -217 0
-227 -218 0
-227 -219 0
-227 -223 0
227 201 217 218 219 223 0
-229 -16 0
-229 -217 0
-229 -220 0
-229 -223 0
229 16 217 220 223 0
-231 -32 0
-231 -215 0
-231 -216 0
-231 -220 0
-231 -223 0
231 32 215 216 220 223 0
-413 -15 0
-413 -25 0
-413 -33 0
413 15 25 33 0
-414 15 0
-414 -25 0
-414 33 0
414 -15 25 -33 0
-415 15 0
-415 25 0
-415 -33 0
415 -15 -25 33 0
-416 -15 0
-416 25 0
-416 33 0
416 15 -25 -33 0
-417 -413 0
-417 -414 0
-417 -415 0
-417 -416 0
417 413 414 415 416 0
-418 32 0
-418 -42 0
418 -32 42 0
-419 -32 0
-419 42 0
419 32 -42 0
-420 -418 0
-420 -419 0
420 418 419 0
-421 -47 0
-421 -48 0
-421 -49 0
421 47 48 49 0
-422 -47 0
-422 48 0
-422 49 0
422 47 -48 -49 0
-423 47 0
-423 -48 0
-423 49 0
423 -47 48 -49 0
-424 47 0
-424 48 0
-424 -49 0
424 -47 -48 49 0
-425 -421 0
-425 -422 0
-425 -423 0
-425 -424 0
425 421 422 423 424 0
-426 -417 0
-426 -418 0
-426 -419 0
-426 -425 0
426 417 418 419 425 0
-427 -417 0
-427 -420 0
-427 -421 0
-427 -422 0
-427 -423 0
-427 -424 0
427 417 420 421 422 423 424 0
-428 -413 0
-428 -414 0
-428 -415 0
-428 -416 0
-428 -418 0
-428 -419 0
-428 -421 0
-428 -422 0
-428 -423 0
-428 -424 0
428 413 414 415 416 418 419 421 422 423 424 0
-429 -413 0
-429 -414 0
-429 -415 0
-429 -416 0
-429 -420 0
-429 -425 0
429 413 414 415 416 420 425 0
-430 -426 0
-430 -427 0
-430 -428 0
-430 -429 0
430 426 427 428 429 0
-619 56 0
-619 61 0
619 -56 -61 0
-620 56 0
-620 65 0
620 -56 -65 0
-621 56 0
-621 66 0
621 -56 -66 0
-623 56 0
-623 61 0
-623 62 0
-623 63 0
-623 64 0
623 -56 -61 -62 -63 -64 0
-624 -218 0
-624 -221 0
624 218 221 0
-626 -619 0
-626 -620 0
-626 -621 0
-626 -623 0
-626 -624 0
626 619 620 621 623 624 0
-627 54 0
-627 64 0
627 -54 -64 0
-628 54 0
-628 66 0
628 -54 -66 0
-629 54 0
-629 65 0
629 -54 -65 0
-632 54 0
-632 61 0
-632 62 0
-632 63 0
-632 -627 0
-632 -628 0
-632 -629 0
632 -54 -61 -62 -63 627 628 629 0
-633 -626 0
-633 -632 0
633 626 632 0
-648 56 0
-648 61 0
-648 -620 0
-648 -621 0
-648 -623 0
-648 -624 0
648 -56 -61 620 621 623 624 0
-649 -219 0
-649 -222 0
649 219 222 0
-650 -627 0
-650 -628 0
-650 -629 0
-650 -649 0
650 627 628 629 649 0
-651 -648 0
-651 -650 0
651 648 650 0
-654 -27 0
-654 -217 0
-654 -220 0
-654 -221 0
-654 -222 0
654 27 217 220 221 222 0
-655 -7 0
-655 -217 0
-655 -218 0
-655 -219 0
-655 -223 0
655 7 217 218 219 223 0
-657 -202 0
-657 -215 0
-657 -216 0
-657 -220 0
-657 -223 0
657 202 215 216 220 223 0
-658 -654 0
-658 -655 0
-658 -657 0
658 654 655 657 0
-659 -651 0
-659 -658 0
659 651 658 0
-660 -626 0
-660 -632 0
-660 -659 0
660 626 632 659 0
659 660 -661 0
-659 -660 -661 0
659 -660 661 0
-659 660 661 0
-792 -24 0
-792 -426 0
-792 -427 0
-792 -428 0
-792 -429 0
792 24 426 427 428 429 0
-793 24 0
-793 -430 0
793 -24 430 0
-794 -792 0
-794 -793 0
794 792 793 0
-795 -650 0
-795 -794 0
795 650 794 0
794 795 -796 0
-794 -795 -796 0
794 -795 796 0
-794 795 796 0
-1192 661 0
-1192 796 0
1192 -661 -796 0
-1193 -225 0
-1193 -227 0
-1193 -229 0
-1193 -231 0
1193 225 227 229 231 0
-1194 -633 0
-1194 -1193 0
1194 633 1193 0
633 1194 -1196 0
-633 -1194 -1196 0
633 -1194 1196 0
-633 1194 1196 0
-1197 -659 0
-1197 -1196 0
1197 659 1196 0
-1201 -225 0
-1201 -227 0
-1201 -229 0
-1201 -231 0
-1201 -627 0
-1201 -628 0
-1201 -629 0
-1201 -649 0
-1201 -794 0
1201 225 227 229 231 627 628 629 649 794 0
-1202 -1197 0
-1202 -1201 0
1202 1197 1201 0
-1203 -225 0
-1203 -227 0
-1203 -229 0
-1203 -231 0
-1203 -1192 0
1203 225 227 229 231 1192 0
1202 1203 -1204 0
-1202 -1203 -1204 0
1202 -1203 1204 0
-1202 1203 1204 0
