p cnf 1204 38
-215 -163 0
-215 -174 0
215 163 174 0
-238 16 0
-238 -17 0
-238 19 0
-238 39 0
-238 -116 0
238 -16 17 -19 -39 116 0
-242 16 0
-242 17 0
-242 19 0
-242 -39 0
-242 -116 0
242 -16 -17 -19 39 116 0
-245 16 0
-245 -17 0
-245 -19 0
-245 39 0
-245 -116 0
245 -16 17 19 -39 116 0
-247 16 0
-247 17 0
-247 -19 0
-247 39 0
-247 -116 0
247 -16 -17 19 -39 116 0
-248 -238 0
-248 -242 0
-248 -245 0
-248 -247 0
248 238 242 245 247 0
-250 148 0
-250 -185 0
-250 -192 0
-250 -215 0
-250 -248 0
250 -148 185 192 215 248 0
