p cnf 1202 72
-216 100 0
-216 122 0
-216 -126 0
-216 -133 0
-216 -134 0
216 -100 -122 126 133 134 0
-217 -163 0
-217 -174 0
217 163 174 0
-218 148 0
-218 -217 0
218 -148 217 0
-222 16 0
-222 -17 0
-222 19 0
-222 39 0
-222 -116 0
222 -16 17 -19 -39 116 0
-226 16 0
-226 17 0
-226 19 0
-226 -39 0
-226 -116 0
226 -16 -17 -19 39 116 0
-229 16 0
-229 -17 0
-229 -19 0
-229 39 0
-229 -116 0
229 -16 17 19 -39 116 0
-231 16 0
-231 17 0
-231 -19 0
-231 39 0
-231 -116 0
231 -16 -17 19 -39 116 0
-235 -16 0
-235 -17 0
-235 19 0
-235 39 0
-235 -116 0
235 16 17 -19 -39 116 0
-238 -16 0
-238 17 0
-238 19 0
-238 39 0
-238 -116 0
238 16 -17 -19 -39 116 0
-240 -222 0
-240 -226 0
-240 -229 0
-240 -231 0
-240 -235 0
-240 -238 0
240 222 226 229 231 235 238 0
-242 -195 0
-242 -216 0
-242 -218 0
-242 -240 0
242 195 216 218 240 0
-243 163 0
-243 166 0
-243 173 0
243 -163 -166 -173 0
-245 -189 0
-245 192 0
-245 -218 0
-245 -243 0
245 189 -192 218 243 0
-246 -242 0
-246 -245 0
246 242 245 0
