p cnf 1202 75
-215 -163 0
-215 -174 0
215 163 174 0
-216 148 0
-216 -215 0
216 -148 215 0
-221 -16 0
-221 -17 0
-221 19 0
-221 39 0
-221 -116 0
221 16 17 -19 -39 116 0
-224 -16 0
-224 17 0
-224 19 0
-224 39 0
-224 -116 0
224 16 -17 -19 -39 116 0
-238 16 0
-238 -17 0
-238 19 0
-238 39 0
-238 -116 0
238 -16 17 -19 -39 116 0
-242 16 0
-242 17 0
-242 19 0
-242 -39 0
-242 -116 0
242 -16 -17 -19 39 116 0
-245 16 0
-245 -17 0
-245 -19 0
-245 39 0
-245 -116 0
245 -16 17 19 -39 116 0
-247 16 0
-247 17 0
-247 -19 0
-247 39 0
-247 -116 0
247 -16 -17 19 -39 116 0
-252 100 0
-252 122 0
-252 -126 0
-252 -133 0
-252 -134 0
252 -100 -122 126 133 134 0
-253 -221 0
-253 -224 0
-253 -238 0
-253 -242 0
-253 -245 0
-253 -247 0
253 221 224 238 242 245 247 0
-255 -195 0
-255 -216 0
-255 -252 0
-255 -253 0
255 195 216 252 253 0
-256 163 0
-256 166 0
-256 173 0
256 -163 -166 -173 0
-258 -189 0
-258 192 0
-258 -216 0
-258 -256 0
258 189 -192 216 256 0
-259 -255 0
-259 -258 0
259 255 258 0
-260 -186 0
-260 -259 0
260 186 259 0
