p cnf 1204 38
-218 -163 0
-218 -174 0
218 163 174 0
-223 16 0
-223 -17 0
-223 19 0
-223 39 0
-223 -116 0
223 -16 17 -19 -39 116 0
-227 16 0
-227 17 0
-227 19 0
-227 -39 0
-227 -116 0
227 -16 -17 -19 39 116 0
-230 16 0
-230 -17 0
-230 -19 0
-230 39 0
-230 -116 0
230 -16 17 19 -39 116 0
-232 16 0
-232 17 0
-232 -19 0
-232 39 0
-232 -116 0
232 -16 -17 19 -39 116 0
-233 -223 0
-233 -227 0
-233 -230 0
-233 -232 0
233 223 227 230 232 0
-235 148 0
-235 -185 0
-235 -192 0
-235 -218 0
-235 -233 0
235 -148 185 192 218 233 0
