p cnf 1201 75
-218 -163 0
-218 -174 0
218 163 174 0
-219 148 0
-219 -218 0
219 -148 218 0
-223 16 0
-223 -17 0
-223 19 0
-223 39 0
-223 -116 0
223 -16 17 -19 -39 116 0
-227 16 0
-227 17 0
-227 19 0
-227 -39 0
-227 -116 0
227 -16 -17 -19 39 116 0
-230 16 0
-230 -17 0
-230 -19 0
-230 39 0
-230 -116 0
230 -16 17 19 -39 116 0
-232 16 0
-232 17 0
-232 -19 0
-232 39 0
-232 -116 0
232 -16 -17 19 -39 116 0
-239 -16 0
-239 -17 0
-239 19 0
-239 39 0
-239 -116 0
239 16 17 -19 -39 116 0
-242 -16 0
-242 17 0
-242 19 0
-242 39 0
-242 -116 0
242 16 -17 -19 -39 116 0
-249 100 0
-249 122 0
-249 -126 0
-249 -133 0
-249 -134 0
249 -100 -122 126 133 134 0
-250 -223 0
-250 -227 0
-250 -230 0
-250 -232 0
-250 -239 0
-250 -242 0
250 223 227 230 232 239 242 0
-252 -195 0
-252 -219 0
-252 -249 0
-252 -250 0
252 195 219 249 250 0
-253 163 0
-253 166 0
-253 173 0
253 -163 -166 -173 0
-255 -189 0
-255 192 0
-255 -219 0
-255 -253 0
255 189 -192 219 253 0
-256 -252 0
-256 -255 0
256 252 255 0
-257 -186 0
-257 -256 0
257 186 256 0
