p cnf 1274 1038
-215 56 0
-215 65 0
215 -56 -65 0
-216 56 0
-216 66 0
216 -56 -66 0
-218 56 0
-218 62 0
218 -56 -62 0
-219 56 0
-219 63 0
219 -56 -63 0
-220 56 0
-220 64 0
220 -56 -64 0
-221 56 0
-221 61 0
221 -56 -61 0
-222 56 0
-222 61 0
-222 62 0
-222 63 0
-222 64 0
222 -56 -61 -62 -63 -64 0
-223 -219 0
-223 -220 0
223 219 220 0
-405 -15 0
-405 -25 0
-405 -33 0
405 15 25 33 0
-406 15 0
-406 -25 0
-406 33 0
406 -15 25 -33 0
-407 15 0
-407 25 0
-407 -33 0
407 -15 -25 33 0
-408 -15 0
-408 25 0
-408 33 0
408 15 -25 -33 0
-409 -405 0
-409 -406 0
-409 -407 0
-409 -408 0
409 405 406 407 408 0
-410 32 0
-410 -42 0
410 -32 42 0
-411 -32 0
-411 42 0
411 32 -42 0
-412 -410 0
-412 -411 0
412 410 411 0
-413 -47 0
-413 -48 0
-413 -49 0
413 47 48 49 0
-414 -47 0
-414 48 0
-414 49 0
414 47 -48 -49 0
-415 47 0
-415 -48 0
-415 49 0
415 -47 48 -49 0
-416 47 0
-416 48 0
-416 -49 0
416 -47 -48 49 0
-417 -413 0
-417 -414 0
-417 -415 0
-417 -416 0
417 413 414 415 416 0
-418 -409 0
-418 -410 0
-418 -411 0
-418 -417 0
418 409 410 411 417 0
-419 -409 0
-419 -412 0
-419 -413 0
-419 -414 0
-419 -415 0
-419 -416 0
419 409 412 413 414 415 416 0
-420 -405 0
-420 -406 0
-420 -407 0
-420 -408 0
-420 -410 0
-420 -411 0
-420 -413 0
-420 -414 0
-420 -415 0
-420 -416 0
420 405 406 407 408 410 411 413 414 415 416 0
-421 -405 0
-421 -406 0
-421 -407 0
-421 -408 0
-421 -412 0
-421 -417 0
421 405 406 407 408 412 417 0
-422 -418 0
-422 -419 0
-422 -420 0
-422 -421 0
422 418 419 420 421 0
-611 54 0
-611 64 0
611 -54 -64 0
-612 54 0
-612 66 0
612 -54 -66 0
-613 54 0
-613 65 0
613 -54 -65 0
-615 54 0
-615 63 0
615 -54 -63 0
-616 54 0
-616 62 0
616 -54 -62 0
-617 54 0
-617 61 0
617 -54 -61 0
-619 54 0
-619 61 0
-619 62 0
-619 63 0
-619 -611 0
-619 -612 0
-619 -613 0
619 -54 -61 -62 -63 611 612 613 0
-620 56 0
-620 61 0
-620 -619 0
620 -56 -61 619 0
-621 -220 0
-621 -615 0
621 220 615 0
-622 -218 0
-622 -617 0
622 218 617 0
-623 -219 0
-623 -616 0
623 219 616 0
-625 -200 0
-625 -220 0
-625 -615 0
-625 -622 0
-625 -623 0
625 200 220 615 622 623 0
-627 -4 0
-627 -219 0
-627 -616 0
-627 -621 0
-627 -622 0
627 4 219 616 621 622 0
-629 -17 0
-629 -621 0
-629 -622 0
-629 -623 0
629 17 621 622 623 0
-631 -42 0
-631 -218 0
-631 -617 0
-631 -621 0
-631 -623 0
631 42 218 617 621 623 0
-634 -23 0
-634 -218 0
-634 -220 0
-634 -615 0
-634 -617 0
-634 -623 0
634 23 218 220 615 617 623 0
-635 -625 0
-635 -627 0
-635 -629 0
-635 -631 0
-635 -634 0
635 625 627 629 631 634 0
-636 -620 0
-636 -635 0
636 620 635 0
-637 -204 0
-637 -218 0
-637 -617 0
-637 -621 0
-637 -623 0
637 204 218 617 621 623 0
-638 -3 0
-638 -220 0
-638 -615 0
-638 -622 0
-638 -623 0
638 3 220 615 622 623 0
-639 -26 0
-639 -219 0
-639 -616 0
-639 -621 0
-639 -622 0
639 26 219 616 621 622 0
-641 -637 0
-641 -638 0
-641 -639 0
641 637 638 639 0
-642 -615 0
-642 -616 0
642 615 616 0
-643 -611 0
-643 -612 0
-643 -613 0
-643 -642 0
643 611 612 613 642 0
-644 -221 0
-644 -643 0
644 221 643 0
-645 -641 0
-645 -644 0
645 641 644 0
-646 -636 0
-646 -645 0
646 636 645 0
-647 54 0
-647 61 0
-647 62 0
-647 63 0
-647 -611 0
-647 -612 0
-647 -613 0
-647 -635 0
647 -54 -61 -62 -63 611 612 613 635 0
-648 -611 0
-648 -612 0
-648 -613 0
-648 -641 0
-648 -642 0
648 611 612 613 641 642 0
-649 -647 0
-649 -648 0
649 647 648 0
646 649 -650 0
-646 -649 -650 0
646 -649 650 0
-646 649 650 0
-651 -201 0
-651 -220 0
-651 -615 0
-651 -622 0
-651 -623 0
651 201 220 615 622 623 0
-652 -16 0
-652 -621 0
-652 -622 0
-652 -623 0
652 16 621 622 623 0
-653 -12 0
-653 -219 0
-653 -616 0
-653 -621 0
-653 -622 0
653 12 219 616 621 622 0
-654 -32 0
-654 -218 0
-654 -617 0
-654 -621 0
-654 -623 0
654 32 218 617 621 623 0
-655 -651 0
-655 -652 0
-655 -653 0
-655 -654 0
655 651 652 653 654 0
-656 -620 0
-656 -655 0
656 620 655 0
-657 -27 0
-657 -219 0
-657 -616 0
-657 -621 0
-657 -622 0
657 27 219 616 621 622 0
-658 -7 0
-658 -220 0
-658 -615 0
-658 -622 0
-658 -623 0
658 7 220 615 622 623 0
-660 -202 0
-660 -218 0
-660 -617 0
-660 -621 0
-660 -623 0
660 202 218 617 621 623 0
-661 -657 0
-661 -658 0
-661 -660 0
661 657 658 660 0
-662 -644 0
-662 -661 0
662 644 661 0
-663 -656 0
-663 -662 0
663 656 662 0
-664 54 0
-664 61 0
-664 62 0
-664 63 0
-664 -611 0
-664 -612 0
-664 -613 0
-664 -655 0
664 -54 -61 -62 -63 611 612 613 655 0
-665 -611 0
-665 -612 0
-665 -613 0
-665 -642 0
-665 -661 0
665 611 612 613 642 661 0
-666 -664 0
-666 -665 0
666 664 665 0
663 666 -667 0
-663 -666 -667 0
663 -666 667 0
-663 666 667 0
-668 -207 0
-668 -218 0
-668 -617 0
-668 -621 0
-668 -623 0
668 207 218 617 621 623 0
-669 -37 0
-669 -220 0
-669 -615 0
-669 -622 0
-669 -623 0
669 37 220 615 622 623 0
-670 -28 0
-670 -219 0
-670 -616 0
-670 -621 0
-670 -622 0
670 28 219 616 621 622 0
-672 -668 0
-672 -669 0
-672 -670 0
672 668 669 670 0
-673 -644 0
-673 -672 0
673 644 672 0
-674 -48 0
-674 -218 0
-674 -617 0
-674 -621 0
-674 -623 0
674 48 218 617 621 623 0
-675 -19 0
-675 -621 0
-675 -622 0
-675 -623 0
675 19 621 622 623 0
-676 -209 0
-676 -220 0
-676 -615 0
-676 -622 0
-676 -623 0
676 209 220 615 622 623 0
-677 -21 0
-677 -219 0
-677 -616 0
-677 -621 0
-677 -622 0
677 21 219 616 621 622 0
-678 -674 0
-678 -675 0
-678 -676 0
-678 -677 0
678 674 675 676 677 0
-679 -620 0
-679 -678 0
679 620 678 0
-680 -673 0
-680 -679 0
680 673 679 0
-681 -611 0
-681 -612 0
-681 -613 0
-681 -642 0
-681 -672 0
681 611 612 613 642 672 0
-682 54 0
-682 61 0
-682 62 0
-682 63 0
-682 -611 0
-682 -612 0
-682 -613 0
-682 -678 0
682 -54 -61 -62 -63 611 612 613 678 0
-683 -681 0
-683 -682 0
683 681 682 0
680 683 -684 0
-680 -683 -684 0
680 -683 684 0
-680 683 684 0
-685 -34 0
-685 -219 0
-685 -616 0
-685 -621 0
-685 -622 0
685 34 219 616 621 622 0
-686 -38 0
-686 -220 0
-686 -615 0
-686 -622 0
-686 -623 0
686 38 220 615 622 623 0
-688 -212 0
-688 -218 0
-688 -617 0
-688 -621 0
-688 -623 0
688 212 218 617 621 623 0
-689 -685 0
-689 -686 0
-689 -688 0
689 685 686 688 0
-690 -644 0
-690 -689 0
690 644 689 0
-691 -49 0
-691 -218 0
-691 -617 0
-691 -621 0
-691 -623 0
691 49 218 617 621 623 0
-692 -206 0
-692 -220 0
-692 -615 0
-692 -622 0
-692 -623 0
692 206 220 615 622 623 0
-693 -39 0
-693 -621 0
-693 -622 0
-693 -623 0
693 39 621 622 623 0
-694 -20 0
-694 -219 0
-694 -616 0
-694 -621 0
-694 -622 0
694 20 219 616 621 622 0
-695 -691 0
-695 -692 0
-695 -693 0
-695 -694 0
695 691 692 693 694 0
-696 -620 0
-696 -695 0
696 620 695 0
-697 -690 0
-697 -696 0
697 690 696 0
-698 -611 0
-698 -612 0
-698 -613 0
-698 -642 0
-698 -689 0
698 611 612 613 642 689 0
-699 54 0
-699 61 0
-699 62 0
-699 63 0
-699 -611 0
-699 -612 0
-699 -613 0
-699 -695 0
699 -54 -61 -62 -63 611 612 613 695 0
-700 -698 0
-700 -699 0
700 698 699 0
697 700 -701 0
-697 -700 -701 0
697 -700 701 0
-697 700 701 0
-702 -30 0
-702 -219 0
-702 -616 0
-702 -621 0
-702 -622 0
702 30 219 616 621 622 0
-703 -5 0
-703 -220 0
-703 -615 0
-703 -622 0
-703 -623 0
703 5 220 615 622 623 0
-704 -43 0
-704 -621 0
-704 -622 0
-704 -623 0
704 43 621 622 623 0
-705 -47 0
-705 -218 0
-705 -617 0
-705 -621 0
-705 -623 0
705 47 218 617 621 623 0
-706 -702 0
-706 -703 0
-706 -704 0
-706 -705 0
706 702 703 704 705 0
-707 -620 0
-707 -706 0
707 620 706 0
-708 -29 0
-708 -219 0
-708 -616 0
-708 -621 0
-708 -622 0
708 29 219 616 621 622 0
-709 -87 0
-709 -220 0
-709 -615 0
-709 -622 0
-709 -623 0
709 87 220 615 622 623 0
-711 -2 0
-711 -218 0
-711 -617 0
-711 -621 0
-711 -623 0
711 2 218 617 621 623 0
-712 -708 0
-712 -709 0
-712 -711 0
712 708 709 711 0
-713 -644 0
-713 -712 0
713 644 712 0
-714 -707 0
-714 -713 0
714 707 713 0
-715 54 0
-715 61 0
-715 62 0
-715 63 0
-715 -611 0
-715 -612 0
-715 -613 0
-715 -706 0
715 -54 -61 -62 -63 611 612 613 706 0
-716 -611 0
-716 -612 0
-716 -613 0
-716 -642 0
-716 -712 0
716 611 612 613 642 712 0
-717 -715 0
-717 -716 0
717 715 716 0
714 717 -718 0
-714 -717 -718 0
714 -717 718 0
-714 717 718 0
-719 -18 0
-719 -219 0
-719 -616 0
-719 -621 0
-719 -622 0
719 18 219 616 621 622 0
-720 -179 0
-720 -220 0
-720 -615 0
-720 -622 0
-720 -623 0
720 179 220 615 622 623 0
-722 -208 0
-722 -218 0
-722 -617 0
-722 -621 0
-722 -623 0
722 208 218 617 621 623 0
-723 -719 0
-723 -720 0
-723 -722 0
723 719 720 722 0
-724 -644 0
-724 -723 0
724 644 723 0
-725 -1 0
-725 -220 0
-725 -615 0
-725 -622 0
-725 -623 0
725 1 220 615 622 623 0
-726 -33 0
-726 -218 0
-726 -617 0
-726 -621 0
-726 -623 0
726 33 218 617 621 623 0
-727 -14 0
-727 -219 0
-727 -616 0
-727 -621 0
-727 -622 0
727 14 219 616 621 622 0
-728 -180 0
-728 -621 0
-728 -622 0
-728 -623 0
728 180 621 622 623 0
-729 -725 0
-729 -726 0
-729 -727 0
-729 -728 0
729 725 726 727 728 0
-730 -620 0
-730 -729 0
730 620 729 0
-731 -724 0
-731 -730 0
731 724 730 0
-732 -611 0
-732 -612 0
-732 -613 0
-732 -642 0
-732 -723 0
732 611 612 613 642 723 0
-733 54 0
-733 61 0
-733 62 0
-733 63 0
-733 -611 0
-733 -612 0
-733 -613 0
-733 -729 0
733 -54 -61 -62 -63 611 612 613 729 0
-734 -732 0
-734 -733 0
734 732 733 0
731 734 -735 0
-731 -734 -735 0
731 -734 735 0
-731 734 735 0
-736 -9 0
-736 -219 0
-736 -616 0
-736 -621 0
-736 -622 0
736 9 219 616 621 622 0
-737 -86 0
-737 -220 0
-737 -615 0
-737 -622 0
-737 -623 0
737 86 220 615 622 623 0
-739 -210 0
-739 -218 0
-739 -617 0
-739 -621 0
-739 -623 0
739 210 218 617 621 623 0
-740 -736 0
-740 -737 0
-740 -739 0
740 736 737 739 0
-741 -644 0
-741 -740 0
741 644 740 0
-742 -44 0
-742 -621 0
-742 -622 0
-742 -623 0
742 44 621 622 623 0
-743 -6 0
-743 -220 0
-743 -615 0
-743 -622 0
-743 -623 0
743 6 220 615 622 623 0
-744 -15 0
-744 -218 0
-744 -617 0
-744 -621 0
-744 -623 0
744 15 218 617 621 623 0
-745 -31 0
-745 -219 0
-745 -616 0
-745 -621 0
-745 -622 0
745 31 219 616 621 622 0
-746 -742 0
-746 -743 0
-746 -744 0
-746 -745 0
746 742 743 744 745 0
-747 -620 0
-747 -746 0
747 620 746 0
-748 -741 0
-748 -747 0
748 741 747 0
-749 -611 0
-749 -612 0
-749 -613 0
-749 -642 0
-749 -740 0
749 611 612 613 642 740 0
-750 54 0
-750 61 0
-750 62 0
-750 63 0
-750 -611 0
-750 -612 0
-750 -613 0
-750 -746 0
750 -54 -61 -62 -63 611 612 613 746 0
-751 -749 0
-751 -750 0
751 749 750 0
748 751 -752 0
-748 -751 -752 0
748 -751 752 0
-748 751 752 0
-753 -88 0
-753 -621 0
-753 -622 0
-753 -623 0
753 88 621 622 623 0
-754 -211 0
-754 -220 0
-754 -615 0
-754 -622 0
-754 -623 0
754 211 220 615 622 623 0
-755 -25 0
-755 -218 0
-755 -617 0
-755 -621 0
-755 -623 0
755 25 218 617 621 623 0
-756 -22 0
-756 -219 0
-756 -616 0
-756 -621 0
-756 -622 0
756 22 219 616 621 622 0
-757 -753 0
-757 -754 0
-757 -755 0
-757 -756 0
757 753 754 755 756 0
-758 -620 0
-758 -757 0
758 620 757 0
-759 -213 0
-759 -218 0
-759 -617 0
-759 -621 0
-759 -623 0
759 213 218 617 621 623 0
-760 -85 0
-760 -220 0
-760 -615 0
-760 -622 0
-760 -623 0
760 85 220 615 622 623 0
-761 -10 0
-761 -219 0
-761 -616 0
-761 -621 0
-761 -622 0
761 10 219 616 621 622 0
-763 -759 0
-763 -760 0
-763 -761 0
763 759 760 761 0
-764 -644 0
-764 -763 0
764 644 763 0
-765 -758 0
-765 -764 0
765 758 764 0
-766 54 0
-766 61 0
-766 62 0
-766 63 0
-766 -611 0
-766 -612 0
-766 -613 0
-766 -757 0
766 -54 -61 -62 -63 611 612 613 757 0
-767 -611 0
-767 -612 0
-767 -613 0
-767 -642 0
-767 -763 0
767 611 612 613 642 763 0
-768 -766 0
-768 -767 0
768 766 767 0
765 768 -769 0
-765 -768 -769 0
765 -768 769 0
-765 768 769 0
-770 23 0
-770 -218 0
-770 -220 0
-770 -615 0
-770 -617 0
-770 -623 0
770 -23 218 220 615 617 623 0
-771 -218 0
-771 -219 0
-771 -616 0
-771 -617 0
-771 -621 0
771 218 219 616 617 621 0
-773 -13 0
-773 -219 0
-773 -616 0
-773 -621 0
-773 -622 0
773 13 219 616 621 622 0
-774 -203 0
-774 -220 0
-774 -615 0
-774 -622 0
-774 -623 0
774 203 220 615 622 623 0
-775 -8 0
-775 -621 0
-775 -622 0
-775 -623 0
775 8 621 622 623 0
-776 -218 0
-776 -422 0
-776 -617 0
-776 -621 0
-776 -623 0
776 218 422 617 621 623 0
-778 -770 0
-778 -771 0
-778 -773 0
-778 -774 0
-778 -775 0
-778 -776 0
778 770 771 773 774 775 776 0
-779 -620 0
-779 -778 0
779 620 778 0
-780 -208 0
-780 -210 0
-780 -213 0
780 208 210 213 0
-781 208 0
-781 210 0
-781 -213 0
781 -208 -210 213 0
-782 -208 0
-782 210 0
-782 213 0
782 208 -210 -213 0
-783 208 0
-783 -210 0
-783 213 0
783 -208 210 -213 0
-784 -780 0
-784 -781 0
-784 -782 0
-784 -783 0
784 780 781 782 783 0
-785 202 0
-785 -204 0
785 -202 204 0
-786 -202 0
-786 204 0
786 202 -204 0
-787 -785 0
-787 -786 0
787 785 786 0
-788 -2 0
-788 -207 0
-788 -212 0
788 2 207 212 0
-789 -2 0
-789 207 0
-789 212 0
789 2 -207 -212 0
-790 2 0
-790 -207 0
-790 212 0
790 -2 207 -212 0
-791 2 0
-791 207 0
-791 -212 0
791 -2 -207 212 0
-792 -788 0
-792 -789 0
-792 -790 0
-792 -791 0
792 788 789 790 791 0
-793 -784 0
-793 -785 0
-793 -786 0
-793 -792 0
793 784 785 786 792 0
-794 -784 0
-794 -787 0
-794 -788 0
-794 -789 0
-794 -790 0
-794 -791 0
794 784 787 788 789 790 791 0
-795 -780 0
-795 -781 0
-795 -782 0
-795 -783 0
-795 -785 0
-795 -786 0
-795 -788 0
-795 -789 0
-795 -790 0
-795 -791 0
795 780 781 782 783 785 786 788 789 790 791 0
-796 -780 0
-796 -781 0
-796 -782 0
-796 -783 0
-796 -787 0
-796 -792 0
796 780 781 782 783 787 792 0
-797 -793 0
-797 -794 0
-797 -795 0
-797 -796 0
797 793 794 795 796 0
-798 -218 0
-798 -617 0
-798 -621 0
-798 -623 0
-798 -797 0
798 218 617 621 623 797 0
-799 -11 0
-799 -219 0
-799 -616 0
-799 -621 0
-799 -622 0
799 11 219 616 621 622 0
-800 -214 0
-800 -220 0
-800 -615 0
-800 -622 0
-800 -623 0
800 214 220 615 622 623 0
-802 -798 0
-802 -799 0
-802 -800 0
802 798 799 800 0
-803 -644 0
-803 -802 0
803 644 802 0
-804 -779 0
-804 -803 0
804 779 803 0
-805 54 0
-805 61 0
-805 62 0
-805 63 0
-805 -611 0
-805 -612 0
-805 -613 0
-805 -778 0
805 -54 -61 -62 -63 611 612 613 778 0
-806 -611 0
-806 -612 0
-806 -613 0
-806 -642 0
-806 -802 0
806 611 612 613 642 802 0
-807 -805 0
-807 -806 0
807 805 806 0
804 807 -808 0
-804 -807 -808 0
804 -807 808 0
-804 807 808 0
-1226 -650 0
-1226 -667 0
-1226 -684 0
-1226 -701 0
-1226 -718 0
-1226 -735 0
-1226 -752 0
-1226 -769 0
-1226 -808 0
1226 650 667 684 701 718 735 752 769 808 0
-1227 -215 0
-1227 -216 0
-1227 -222 0
-1227 -223 0
1227 215 216 222 223 0
-1269 -215 0
-1269 -216 0
-1269 -222 0
-1269 -223 0
-1269 -1226 0
1269 215 216 222 223 1226 0
-1226 -1226 -1272 0
1226 1226 -1272 0
-1226 1226 1272 0
1226 -1226 1272 0
1272 1227 -1273 0
-1272 -1227 -1273 0
1272 -1227 1273 0
-1272 1227 1273 0
1273 1227 -1274 0
-1273 -1227 -1274 0
1273 -1227 1274 0
-1273 1227 1274 0
1274 1269 -1271 0
-1274 -1269 -1271 0
1274 -1269 1271 0
-1274 1269 1271 0
