p cnf 1215 66
-220 -163 0
-220 -174 0
220 163 174 0
-221 148 0
-221 -220 0
221 -148 220 0
-222 163 0
-222 166 0
-222 173 0
222 -163 -166 -173 0
-223 141 0
-223 142 0
-223 153 0
-223 -162 0
-223 -165 0
-223 -221 0
-223 -222 0
223 -141 -142 -153 162 165 221 222 0
-226 141 0
-226 -142 0
-226 148 0
-226 -153 0
-226 -162 0
-226 165 0
-226 -220 0
-226 -222 0
226 -141 142 -148 153 162 -165 220 222 0
-227 -223 0
-227 -226 0
227 223 226 0
-229 -3 0
-229 38 0
229 3 -38 0
-254 119 0
-254 -120 0
-254 121 0
-254 123 0
-254 -125 0
-254 -227 0
254 -119 120 -121 -123 125 227 0
-257 -7 0
-257 -37 0
-257 38 0
-257 119 0
-257 -120 0
-257 -121 0
-257 -123 0
-257 125 0
-257 -227 0
-257 -229 0
257 7 37 -38 -119 120 121 123 -125 227 229 0
-260 -3 0
-260 -7 0
-260 -37 0
-260 38 0
-260 -119 0
-260 -120 0
-260 -121 0
-260 -123 0
-260 125 0
-260 -227 0
260 3 7 37 -38 119 120 121 123 -125 227 0
-261 -254 0
-261 -257 0
-261 -260 0
261 254 257 260 0
