p cnf 1215 57
-220 -163 0
-220 -174 0
220 163 174 0
-221 148 0
-221 -220 0
221 -148 220 0
-225 141 0
-225 -142 0
-225 -153 0
-225 -162 0
-225 165 0
225 -141 142 153 162 -165 0
-616 160 0
-616 163 0
616 -160 -163 0
-985 119 0
-985 -120 0
-985 121 0
-985 -123 0
-985 -125 0
985 -119 120 -121 123 125 0
-993 89 0
-993 98 0
-993 106 0
-993 107 0
-993 108 0
-993 129 0
993 -89 -98 -106 -107 -108 -129 0
-994 -50 0
-994 -993 0
994 50 993 0
-1142 -139 0
-1142 199 0
-1142 -994 0
1142 139 -199 994 0
-1144 171 0
-1144 -199 0
1144 -171 199 0
-1145 -616 0
-1145 -994 0
-1145 -1144 0
1145 616 994 1144 0
-1182 141 0
-1182 142 0
-1182 153 0
-1182 -162 0
-1182 -165 0
-1182 -221 0
-1182 -985 0
1182 -141 -142 -153 162 165 221 985 0
-1187 160 0
-1187 163 0
-1187 -225 0
-1187 -1142 0
-1187 -1145 0
-1187 -1182 0
1187 -160 -163 225 1142 1145 1182 0
