p cnf 1217 229
-220 -163 0
-220 -174 0
220 163 174 0
-221 148 0
-221 -220 0
221 -148 220 0
-222 163 0
-222 166 0
-222 173 0
222 -163 -166 -173 0
-223 141 0
-223 142 0
-223 153 0
-223 -162 0
-223 -165 0
-223 -221 0
-223 -222 0
223 -141 -142 -153 162 165 221 222 0
-225 141 0
-225 -142 0
-225 -153 0
-225 -162 0
-225 165 0
225 -141 142 153 162 -165 0
-226 141 0
-226 -142 0
-226 148 0
-226 -153 0
-226 -162 0
-226 165 0
-226 -220 0
-226 -222 0
226 -141 142 -148 153 162 -165 220 222 0
-227 -223 0
-227 -226 0
227 223 226 0
-228 -7 0
-228 38 0
228 7 -38 0
-229 -3 0
-229 38 0
229 3 -38 0
-230 -37 0
-230 38 0
230 37 -38 0
-235 -7 0
-235 38 0
-235 119 0
-235 -120 0
-235 121 0
-235 -123 0
-235 125 0
-235 -227 0
-235 -229 0
-235 -230 0
235 7 -38 -119 120 -121 123 -125 227 229 230 0
-239 38 0
-239 119 0
-239 -120 0
-239 121 0
-239 123 0
-239 125 0
-239 -227 0
-239 -228 0
-239 -229 0
-239 -230 0
239 -38 -119 120 -121 -123 -125 227 228 229 230 0
-243 -3 0
-243 -7 0
-243 38 0
-243 -119 0
-243 -120 0
-243 121 0
-243 -123 0
-243 125 0
-243 -227 0
-243 -230 0
243 3 7 -38 119 120 -121 123 -125 227 230 0
-247 -3 0
-247 -37 0
-247 38 0
-247 -119 0
-247 -120 0
-247 -121 0
-247 123 0
-247 125 0
-247 -227 0
-247 -228 0
247 3 37 -38 119 120 121 -123 -125 227 228 0
-250 -37 0
-250 38 0
-250 119 0
-250 -120 0
-250 -121 0
-250 123 0
-250 125 0
-250 -227 0
-250 -228 0
-250 -229 0
250 37 -38 -119 120 121 -123 -125 227 228 229 0
-254 119 0
-254 -120 0
-254 121 0
-254 123 0
-254 -125 0
-254 -227 0
254 -119 120 -121 -123 125 227 0
-257 -7 0
-257 -37 0
-257 38 0
-257 119 0
-257 -120 0
-257 -121 0
-257 -123 0
-257 125 0
-257 -227 0
-257 -229 0
257 7 37 -38 -119 120 121 123 -125 227 229 0
-260 -3 0
-260 -7 0
-260 -37 0
-260 38 0
-260 -119 0
-260 -120 0
-260 -121 0
-260 -123 0
-260 125 0
-260 -227 0
260 3 7 37 -38 119 120 121 123 -125 227 0
-616 160 0
-616 163 0
616 -160 -163 0
-985 119 0
-985 -120 0
-985 121 0
-985 -123 0
-985 -125 0
985 -119 120 -121 123 125 0
-993 89 0
-993 98 0
-993 106 0
-993 107 0
-993 108 0
-993 129 0
993 -89 -98 -106 -107 -108 -129 0
-994 -50 0
-994 -993 0
994 50 993 0
-1142 -139 0
-1142 199 0
-1142 -994 0
1142 139 -199 994 0
-1144 171 0
-1144 -199 0
1144 -171 199 0
-1145 -616 0
-1145 -994 0
-1145 -1144 0
1145 616 994 1144 0
-1182 141 0
-1182 142 0
-1182 153 0
-1182 -162 0
-1182 -165 0
-1182 -221 0
-1182 -985 0
1182 -141 -142 -153 162 165 221 985 0
-1187 160 0
-1187 163 0
-1187 -225 0
-1187 -1142 0
-1187 -1145 0
-1187 -1182 0
1187 -160 -163 225 1142 1145 1182 0
-1188 -3 0
-1188 38 0
-1188 -119 0
-1188 -120 0
-1188 121 0
-1188 123 0
-1188 125 0
-1188 -227 0
-1188 -228 0
-1188 -230 0
-1188 -235 0
-1188 -239 0
-1188 -243 0
-1188 -247 0
-1188 -250 0
-1188 -254 0
-1188 -257 0
-1188 -260 0
1188 3 -38 119 120 -121 -123 -125 227 228 230 235 239 243 247 250 254 257 260 0
-1212 -3 0
-1212 38 0
-1212 -119 0
-1212 -120 0
-1212 121 0
-1212 123 0
-1212 125 0
-1212 -227 0
-1212 -228 0
-1212 -230 0
-1212 -235 0
-1212 -239 0
-1212 -243 0
-1212 -247 0
-1212 -250 0
-1212 -254 0
-1212 -257 0
-1212 -260 0
-1212 -1187 0
1212 3 -38 119 120 -121 -123 -125 227 228 230 235 239 243 247 250 254 257 260 1187 0
-1187 -1187 -1215 0
1187 1187 -1215 0
-1187 1187 1215 0
1187 -1187 1215 0
1215 1188 -1216 0
-1215 -1188 -1216 0
1215 -1188 1216 0
-1215 1188 1216 0
1216 1188 -1217 0
-1216 -1188 -1217 0
1216 -1188 1217 0
-1216 1188 1217 0
1217 1212 -1214 0
-1217 -1212 -1214 0
1217 -1212 1214 0
-1217 1212 1214 0
