p cnf 1215 76
-220 -163 0
-220 -174 0
220 163 174 0
-221 148 0
-221 -220 0
221 -148 220 0
-222 163 0
-222 166 0
-222 173 0
222 -163 -166 -173 0
-223 141 0
-223 142 0
-223 153 0
-223 -162 0
-223 -165 0
-223 -221 0
-223 -222 0
223 -141 -142 -153 162 165 221 222 0
-226 141 0
-226 -142 0
-226 148 0
-226 -153 0
-226 -162 0
-226 165 0
-226 -220 0
-226 -222 0
226 -141 142 -148 153 162 -165 220 222 0
-227 -223 0
-227 -226 0
227 223 226 0
-228 -7 0
-228 38 0
228 7 -38 0
-229 -3 0
-229 38 0
229 3 -38 0
-230 -37 0
-230 38 0
230 37 -38 0
-243 -3 0
-243 -7 0
-243 38 0
-243 -119 0
-243 -120 0
-243 121 0
-243 -123 0
-243 125 0
-243 -227 0
-243 -230 0
243 3 7 -38 119 120 -121 123 -125 227 230 0
-247 -3 0
-247 -37 0
-247 38 0
-247 -119 0
-247 -120 0
-247 -121 0
-247 123 0
-247 125 0
-247 -227 0
-247 -228 0
247 3 37 -38 119 120 121 -123 -125 227 228 0
-250 -37 0
-250 38 0
-250 119 0
-250 -120 0
-250 -121 0
-250 123 0
-250 125 0
-250 -227 0
-250 -228 0
-250 -229 0
250 37 -38 -119 120 121 -123 -125 227 228 229 0
-251 -243 0
-251 -247 0
-251 -250 0
251 243 247 250 0
