p cnf 36 118
11 0
8 12 0
-8 -12 0
12 6 -13 0
12 -6 -13 0
-12 6 -13 0
-12 -6 13 0
8 9 -14 0
8 -9 14 0
-8 9 14 0
-8 -9 14 0
7 14 -15 0
7 -14 -15 0
-7 14 -15 0
-7 -14 15 0
13 15 -16 0
13 -15 16 0
-13 15 16 0
-13 -15 16 0
8 17 0
-8 -17 0
17 6 -18 0
17 -6 -18 0
-17 6 -18 0
-17 -6 18 0
8 11 -19 0
8 -11 19 0
-8 11 19 0
-8 -11 19 0
7 19 -20 0
7 -19 -20 0
-7 19 -20 0
-7 -19 20 0
18 20 -21 0
18 -20 21 0
-18 20 21 0
-18 -20 21 0
16 21 -22 0
16 -21 22 0
-16 21 22 0
-16 -21 -22 0
10 14 -23 0
10 -14 -23 0
-10 14 -23 0
-10 -14 23 0
15 23 -24 0
15 -23 24 0
-15 23 24 0
-15 -23 24 0
10 19 -25 0
10 -19 -25 0
-10 19 -25 0
-10 -19 25 0
20 25 -26 0
20 -25 26 0
-20 25 26 0
-20 -25 26 0
24 26 -27 0
24 -26 27 0
-24 26 27 0
-24 -26 -27 0
-22 28 0
-27 28 0
-28 22 27 0
-1 6 0
1 -6 0
-2 7 0
2 -7 0
-3 8 0
3 -8 0
-4 9 0
4 -9 0
-5 10 0
5 -10 0
29 0
-30 -5 0
-30 -4 0
-30 -3 0
-30 -1 0
-30 2 0
30 5 4 3 1 -2 0
-31 -5 0
-31 -4 0
-31 -3 0
-31 1 0
-31 2 0
31 5 4 3 -1 -2 0
-32 -4 0
-32 -3 0
-32 -2 0
-32 -1 0
-32 5 0
32 4 3 2 1 -5 0
-33 -4 0
-33 -3 0
-33 -2 0
-33 1 0
-33 5 0
33 4 3 2 -1 -5 0
-34 -4 0
-34 -3 0
-34 -1 0
-34 2 0
-34 5 0
34 4 3 1 -2 -5 0
-35 -4 0
-35 -3 0
-35 1 0
-35 2 0
-35 5 0
35 4 3 -1 -2 -5 0
-36 -35 0
-36 -34 0
-36 -33 0
-36 -32 0
-36 -31 0
-36 -30 0
36 35 34 33 32 31 30 0
