p cnf 33 92
11 0
8 12 0
-8 -12 0
12 6 -13 0
12 -6 -13 0
-12 6 -13 0
-12 -6 13 0
8 9 -14 0
8 -9 14 0
-8 9 14 0
-8 -9 14 0
7 14 -15 0
7 -14 -15 0
-7 14 -15 0
-7 -14 15 0
13 15 -16 0
13 -15 16 0
-13 15 16 0
-13 -15 16 0
8 17 0
-8 -17 0
17 6 -18 0
17 -6 -18 0
-17 6 -18 0
-17 -6 18 0
8 9 -19 0
8 -9 19 0
-8 9 19 0
-8 -9 19 0
7 19 -20 0
7 -19 -20 0
-7 19 -20 0
-7 -19 20 0
18 20 -21 0
18 -20 21 0
-18 20 21 0
-18 -20 21 0
16 21 -22 0
16 -21 22 0
-16 21 22 0
-16 -21 -22 0
10 14 -23 0
10 -14 -23 0
-10 14 -23 0
-10 -14 23 0
15 23 -24 0
15 -23 24 0
-15 23 24 0
-15 -23 24 0
-11 19 -25 0
-11 -19 -25 0
11 19 -25 0
11 -19 25 0
20 25 -26 0
20 -25 26 0
-20 25 26 0
-20 -25 26 0
24 26 -27 0
24 -26 27 0
-24 26 27 0
-24 -26 -27 0
-22 28 0
-27 28 0
-28 22 27 0
-1 7 0
1 -7 0
-2 8 0
2 -8 0
-3 9 0
3 -9 0
-4 10 0
4 -10 0
29 0
-30 -3 0
-30 -1 0
-30 2 0
-30 4 0
30 3 1 -2 -4 0
-31 -2 0
-31 -1 0
-31 3 0
-31 4 0
31 2 1 -3 -4 0
-32 -1 0
-32 2 0
-32 3 0
-32 4 0
32 1 -2 -3 -4 0
-33 -32 0
-33 -31 0
-33 -30 0
33 32 31 30 0
