p cnf 31 86
11 0
8 12 0
-8 -12 0
12 6 -13 0
12 -6 -13 0
-12 6 -13 0
-12 -6 13 0
8 9 -14 0
8 -9 14 0
-8 9 14 0
-8 -9 14 0
7 14 -15 0
7 -14 -15 0
-7 14 -15 0
-7 -14 15 0
13 15 -16 0
13 -15 16 0
-13 15 16 0
-13 -15 16 0
8 9 -17 0
8 -9 17 0
-8 9 17 0
-8 -9 17 0
7 17 -18 0
7 -17 -18 0
-7 17 -18 0
-7 -17 18 0
-11 18 -19 0
-11 -18 19 0
11 18 19 0
11 -18 19 0
16 19 -20 0
16 -19 20 0
-16 19 20 0
-16 -19 -20 0
10 14 -21 0
10 -14 -21 0
-10 14 -21 0
-10 -14 21 0
15 21 -22 0
15 -21 22 0
-15 21 22 0
-15 -21 22 0
10 17 -23 0
10 -17 -23 0
-10 17 -23 0
-10 -17 23 0
18 23 -24 0
18 -23 24 0
-18 23 24 0
-18 -23 24 0
22 24 -25 0
22 -24 25 0
-22 24 25 0
-22 -24 -25 0
-20 26 0
-25 26 0
-26 20 25 0
-1 6 0
1 -6 0
-2 7 0
2 -7 0
-3 8 0
3 -8 0
-4 9 0
4 -9 0
27 0
-28 -4 0
-28 -3 0
-28 -2 0
-28 1 0
28 4 3 2 -1 0
-29 -4 0
-29 -3 0
-29 1 0
-29 2 0
29 4 3 -1 -2 0
-30 -3 0
-30 -2 0
-30 1 0
-30 4 0
30 3 2 -1 -4 0
-31 -30 0
-31 -29 0
-31 -28 0
31 30 29 28 0
