p cnf 35 114
11 0
8 12 0
-8 -12 0
12 6 -13 0
12 -6 -13 0
-12 6 -13 0
-12 -6 13 0
8 9 -14 0
8 -9 14 0
-8 9 14 0
-8 -9 14 0
7 14 -15 0
7 -14 -15 0
-7 14 -15 0
-7 -14 15 0
13 15 -16 0
13 -15 16 0
-13 15 16 0
-13 -15 16 0
8 17 0
-8 -17 0
17 6 -18 0
17 -6 -18 0
-17 6 -18 0
-17 -6 18 0
7 11 -19 0
7 -11 -19 0
-7 11 -19 0
-7 -11 19 0
18 19 -20 0
18 -19 20 0
-18 19 20 0
-18 -19 20 0
16 20 -21 0
16 -20 21 0
-16 20 21 0
-16 -20 -21 0
10 14 -22 0
10 -14 -22 0
-10 14 -22 0
-10 -14 22 0
15 22 -23 0
15 -22 23 0
-15 22 23 0
-15 -22 23 0
10 11 -24 0
10 -11 -24 0
-10 11 -24 0
-10 -11 24 0
19 24 -25 0
19 -24 25 0
-19 24 25 0
-19 -24 25 0
23 25 -26 0
23 -25 26 0
-23 25 26 0
-23 -25 -26 0
-21 27 0
-26 27 0
-27 21 26 0
-1 6 0
1 -6 0
-2 7 0
2 -7 0
-3 8 0
3 -8 0
-4 9 0
4 -9 0
-5 10 0
5 -10 0
28 0
-29 -5 0
-29 -4 0
-29 -3 0
-29 -1 0
-29 2 0
29 5 4 3 1 -2 0
-30 -5 0
-30 -4 0
-30 -3 0
-30 1 0
-30 2 0
30 5 4 3 -1 -2 0
-31 -4 0
-31 -3 0
-31 -2 0
-31 -1 0
-31 5 0
31 4 3 2 1 -5 0
-32 -4 0
-32 -3 0
-32 -2 0
-32 1 0
-32 5 0
32 4 3 2 -1 -5 0
-33 -4 0
-33 -3 0
-33 -1 0
-33 2 0
-33 5 0
33 4 3 1 -2 -5 0
-34 -4 0
-34 -3 0
-34 1 0
-34 2 0
-34 5 0
34 4 3 -1 -2 -5 0
-35 -34 0
-35 -33 0
-35 -32 0
-35 -31 0
-35 -30 0
-35 -29 0
35 34 33 32 31 30 29 0
