p cnf 34 106
11 0
8 12 0
-8 -12 0
12 6 -13 0
12 -6 -13 0
-12 6 -13 0
-12 -6 13 0
8 9 -14 0
8 -9 14 0
-8 9 14 0
-8 -9 14 0
7 14 -15 0
7 -14 -15 0
-7 14 -15 0
-7 -14 15 0
13 15 -16 0
13 -15 16 0
-13 15 16 0
-13 -15 16 0
16 11 -17 0
16 -11 17 0
-16 11 17 0
-16 -11 -17 0
10 14 -18 0
10 -14 -18 0
-10 14 -18 0
-10 -14 18 0
15 18 -19 0
15 -18 19 0
-15 18 19 0
-15 -18 19 0
8 9 -20 0
8 -9 20 0
-8 9 20 0
-8 -9 20 0
7 20 -21 0
7 -20 -21 0
-7 20 -21 0
-7 -20 21 0
10 20 -22 0
10 -20 -22 0
-10 20 -22 0
-10 -20 22 0
21 22 -23 0
21 -22 23 0
-21 22 23 0
-21 -22 23 0
19 23 -24 0
19 -23 24 0
-19 23 24 0
-19 -23 -24 0
-17 25 0
-24 25 0
-25 17 24 0
-1 6 0
1 -6 0
-2 7 0
2 -7 0
-3 8 0
3 -8 0
-4 9 0
4 -9 0
26 0
-27 -4 0
-27 -3 0
-27 -2 0
-27 -1 0
27 4 3 2 1 0
-28 -4 0
-28 -3 0
-28 -1 0
-28 2 0
28 4 3 1 -2 0
-29 -4 0
-29 -2 0
-29 -1 0
-29 3 0
29 4 2 1 -3 0
-30 -4 0
-30 -2 0
-30 1 0
-30 3 0
30 4 2 -1 -3 0
-31 -3 0
-31 -2 0
-31 -1 0
-31 4 0
31 3 2 1 -4 0
-32 -2 0
-32 -1 0
-32 3 0
-32 4 0
32 2 1 -3 -4 0
-33 -2 0
-33 1 0
-33 3 0
-33 4 0
33 2 -1 -3 -4 0
-34 -33 0
-34 -32 0
-34 -31 0
-34 -30 0
-34 -29 0
-34 -28 0
-34 -27 0
34 33 32 31 30 29 28 27 0
