p cnf 35 108
11 0
8 12 0
-8 -12 0
12 6 -13 0
12 -6 -13 0
-12 6 -13 0
-12 -6 13 0
8 9 -14 0
8 -9 14 0
-8 9 14 0
-8 -9 14 0
7 14 -15 0
7 -14 -15 0
-7 14 -15 0
-7 -14 15 0
13 15 -16 0
13 -15 16 0
-13 15 16 0
-13 -15 16 0
8 17 0
-8 -17 0
17 6 -18 0
17 -6 -18 0
-17 6 -18 0
-17 -6 18 0
8 9 -19 0
8 -9 19 0
-8 9 19 0
-8 -9 19 0
7 19 -20 0
7 -19 -20 0
-7 19 -20 0
-7 -19 20 0
18 20 -21 0
18 -20 21 0
-18 20 21 0
-18 -20 21 0
16 21 -22 0
16 -21 22 0
-16 21 22 0
-16 -21 -22 0
10 14 -23 0
10 -14 -23 0
-10 14 -23 0
-10 -14 23 0
15 23 -24 0
15 -23 24 0
-15 23 24 0
-15 -23 24 0
24 -11 -25 0
24 11 25 0
-24 -11 25 0
-24 11 -25 0
-22 26 0
-25 26 0
-26 22 25 0
-1 7 0
1 -7 0
-2 8 0
2 -8 0
-3 9 0
3 -9 0
-4 10 0
4 -10 0
27 0
-28 -4 0
-28 -3 0
-28 -2 0
-28 -1 0
28 4 3 2 1 0
-29 -4 0
-29 -3 0
-29 -2 0
-29 1 0
29 4 3 2 -1 0
-30 -4 0
-30 -3 0
-30 -1 0
-30 2 0
30 4 3 1 -2 0
-31 -4 0
-31 -2 0
-31 -1 0
-31 3 0
31 4 2 1 -3 0
-32 -4 0
-32 -1 0
-32 2 0
-32 3 0
32 4 1 -2 -3 0
-33 -3 0
-33 -2 0
-33 -1 0
-33 4 0
33 3 2 1 -4 0
-34 -3 0
-34 -2 0
-34 1 0
-34 4 0
34 3 2 -1 -4 0
-35 -34 0
-35 -33 0
-35 -32 0
-35 -31 0
-35 -30 0
-35 -29 0
-35 -28 0
35 34 33 32 31 30 29 28 0
