p cnf 27 58
-6 1 0
-6 -3 0
6 -1 3 0
-7 -2 0
-7 -6 0
7 2 6 0
6 7 -8 0
-6 -7 -8 0
6 -7 8 0
-6 7 8 0
-10 -2 0
-10 -5 0
-10 8 0
10 2 5 -8 0
-12 -3 0
-12 -4 0
12 3 4 0
-13 2 0
-13 -12 0
13 -2 12 0
-15 2 0
-15 3 0
15 -2 -3 0
3 12 -17 0
-3 -12 -17 0
3 -12 17 0
-3 12 17 0
-19 2 0
-19 -6 0
-19 -17 0
19 -2 6 17 0
-20 5 0
-20 -12 0
20 -5 12 0
-21 -13 0
-21 -20 0
21 13 20 0
-22 3 0
-22 5 0
22 -3 -5 0
-23 -15 0
-23 -22 0
23 15 22 0
21 23 -24 0
-21 -23 -24 0
21 -23 24 0
-21 23 24 0
-25 -19 0
-25 -24 0
25 19 24 0
-26 -3 0
-26 4 0
-26 -10 0
26 3 -4 10 0
25 26 -27 0
-25 -26 -27 0
25 -26 27 0
-25 26 27 0
