p cnf 36 94
11 0
8 12 0
-8 -12 0
12 6 -13 0
12 -6 -13 0
-12 6 -13 0
-12 -6 13 0
8 9 -14 0
8 -9 14 0
-8 9 14 0
-8 -9 14 0
7 14 -15 0
7 -14 -15 0
-7 14 -15 0
-7 -14 15 0
13 15 -16 0
13 -15 16 0
-13 15 16 0
-13 -15 16 0
8 17 0
-8 -17 0
17 6 -18 0
17 -6 -18 0
-17 6 -18 0
-17 -6 18 0
18 11 -19 0
18 -11 19 0
-18 11 19 0
-18 -11 19 0
16 19 -20 0
16 -19 20 0
-16 19 20 0
-16 -19 -20 0
10 14 -21 0
10 -14 -21 0
-10 14 -21 0
-10 -14 21 0
15 21 -22 0
15 -21 22 0
-15 21 22 0
-15 -21 22 0
8 9 -23 0
8 -9 23 0
-8 9 23 0
-8 -9 23 0
10 23 -24 0
10 -23 -24 0
-10 23 -24 0
-10 -23 24 0
11 24 -25 0
11 -24 25 0
-11 24 25 0
-11 -24 25 0
22 25 -26 0
22 -25 26 0
-22 25 26 0
-22 -25 -26 0
-20 27 0
-26 27 0
-27 20 26 0
-1 6 0
1 -6 0
-2 7 0
2 -7 0
-3 8 0
3 -8 0
-4 9 0
4 -9 0
-5 10 0
5 -10 0
-28 -2 0
28 2 0
-29 -3 0
-29 -4 0
29 3 4 0
-30 -28 0
-30 -29 0
30 28 29 0
-31 -1 0
31 1 0
-32 -4 0
32 4 0
-33 -5 0
33 5 0
-34 3 0
34 -3 0
-35 -31 0
-35 -32 0
-35 -33 0
-35 -34 0
35 31 32 33 34 0
-36 -30 0
-36 -35 0
36 30 35 0
