p cnf 36 93
11 0
8 12 0
-8 -12 0
12 6 -13 0
12 -6 -13 0
-12 6 -13 0
-12 -6 13 0
8 9 -14 0
8 -9 14 0
-8 9 14 0
-8 -9 14 0
7 14 -15 0
7 -14 -15 0
-7 14 -15 0
-7 -14 15 0
13 15 -16 0
13 -15 16 0
-13 15 16 0
-13 -15 16 0
8 17 0
-8 -17 0
17 6 -18 0
17 -6 -18 0
-17 6 -18 0
-17 -6 18 0
8 9 -19 0
8 -9 19 0
-8 9 19 0
-8 -9 19 0
7 19 -20 0
7 -19 -20 0
-7 19 -20 0
-7 -19 20 0
18 20 -21 0
18 -20 21 0
-18 20 21 0
-18 -20 21 0
16 21 -22 0
16 -21 22 0
-16 21 22 0
-16 -21 -22 0
10 14 -23 0
10 -14 -23 0
-10 14 -23 0
-10 -14 23 0
15 23 -24 0
15 -23 24 0
-15 23 24 0
-15 -23 24 0
20 11 -25 0
20 -11 25 0
-20 11 25 0
-20 -11 25 0
24 25 -26 0
24 -25 26 0
-24 25 26 0
-24 -25 -26 0
-22 27 0
-26 27 0
-27 22 26 0
-1 6 0
1 -6 0
-2 7 0
2 -7 0
-3 8 0
3 -8 0
-4 9 0
4 -9 0
-5 10 0
5 -10 0
-28 -5 0
28 5 0
-29 -3 0
-29 -4 0
29 3 4 0
-30 -28 0
-30 -29 0
30 28 29 0
-31 -2 0
31 2 0
-32 -3 0
-32 -4 0
32 3 4 0
-33 -31 0
-33 -32 0
33 31 32 0
34 0
-35 -34 0
35 34 0
-36 -30 0
-36 -33 0
-36 -35 0
36 30 33 35 0
