p cnf 32 83
11 0
8 12 0
-8 -12 0
12 6 -13 0
12 -6 -13 0
-12 6 -13 0
-12 -6 13 0
8 9 -14 0
8 -9 14 0
-8 9 14 0
-8 -9 14 0
7 14 -15 0
7 -14 -15 0
-7 14 -15 0
-7 -14 15 0
13 15 -16 0
13 -15 16 0
-13 15 16 0
-13 -15 16 0
16 -11 -17 0
16 11 17 0
-16 -11 17 0
-16 11 -17 0
10 14 -18 0
10 -14 -18 0
-10 14 -18 0
-10 -14 18 0
15 18 -19 0
15 -18 19 0
-15 18 19 0
-15 -18 19 0
8 9 -20 0
8 -9 20 0
-8 9 20 0
-8 -9 20 0
7 20 -21 0
7 -20 -21 0
-7 20 -21 0
-7 -20 21 0
10 20 -22 0
10 -20 -22 0
-10 20 -22 0
-10 -20 22 0
21 22 -23 0
21 -22 23 0
-21 22 23 0
-21 -22 23 0
19 23 -24 0
19 -23 24 0
-19 23 24 0
-19 -23 -24 0
-17 25 0
-24 25 0
-25 17 24 0
-1 6 0
1 -6 0
-2 7 0
2 -7 0
-3 8 0
3 -8 0
-4 9 0
4 -9 0
-5 10 0
5 -10 0
-26 2 0
-26 4 0
26 -2 -4 0
-27 2 0
-27 3 0
27 -2 -3 0
-28 1 0
-28 -3 0
28 -1 3 0
-29 -26 0
-29 -27 0
-29 -28 0
29 26 27 28 0
30 0
-31 -30 0
31 30 0
-32 -29 0
-32 -31 0
32 29 31 0
