p cnf 34 89
11 0
8 12 0
-8 -12 0
12 6 -13 0
12 -6 -13 0
-12 6 -13 0
-12 -6 13 0
8 9 -14 0
8 -9 14 0
-8 9 14 0
-8 -9 14 0
7 14 -15 0
7 -14 -15 0
-7 14 -15 0
-7 -14 15 0
13 15 -16 0
13 -15 16 0
-13 15 16 0
-13 -15 16 0
8 17 0
-8 -17 0
17 6 -18 0
17 -6 -18 0
-17 6 -18 0
-17 -6 18 0
8 9 -19 0
8 -9 19 0
-8 9 19 0
-8 -9 19 0
7 19 -20 0
7 -19 -20 0
-7 19 -20 0
-7 -19 20 0
18 20 -21 0
18 -20 21 0
-18 20 21 0
-18 -20 21 0
16 21 -22 0
16 -21 22 0
-16 21 22 0
-16 -21 -22 0
10 14 -23 0
10 -14 -23 0
-10 14 -23 0
-10 -14 23 0
15 23 -24 0
15 -23 24 0
-15 23 24 0
-15 -23 24 0
24 -11 -25 0
24 11 25 0
-24 -11 25 0
-24 11 -25 0
-22 26 0
-25 26 0
-26 22 25 0
-1 6 0
1 -6 0
-2 7 0
2 -7 0
-3 8 0
3 -8 0
-4 9 0
4 -9 0
-5 10 0
5 -10 0
-27 4 0
-27 5 0
27 -4 -5 0
-28 3 0
-28 5 0
28 -3 -5 0
-29 2 0
-29 4 0
29 -2 -4 0
-30 2 0
-30 3 0
30 -2 -3 0
-31 -27 0
-31 -28 0
-31 -29 0
-31 -30 0
31 27 28 29 30 0
32 0
-33 -32 0
33 32 0
-34 -31 0
-34 -33 0
34 31 33 0
