p cnf 88 197
49 0
25 26 -50 0
25 -26 50 0
-25 26 50 0
-25 -26 50 0
27 28 -51 0
27 -28 51 0
-27 28 51 0
-27 -28 51 0
50 51 -52 0
50 -51 -52 0
-50 51 -52 0
-50 -51 52 0
29 30 -53 0
29 -30 53 0
-29 30 53 0
-29 -30 53 0
52 53 -54 0
52 -53 -54 0
-52 53 -54 0
-52 -53 54 0
31 32 -55 0
31 -32 55 0
-31 32 55 0
-31 -32 55 0
54 55 -56 0
54 -55 -56 0
-54 55 -56 0
-54 -55 56 0
33 34 -57 0
33 -34 57 0
-33 34 57 0
-33 -34 57 0
56 57 -58 0
56 -57 -58 0
-56 57 -58 0
-56 -57 58 0
35 36 -59 0
35 -36 59 0
-35 36 59 0
-35 -36 59 0
58 59 -60 0
58 -59 -60 0
-58 59 -60 0
-58 -59 60 0
37 38 -61 0
37 -38 61 0
-37 38 61 0
-37 -38 61 0
60 61 -62 0
60 -61 -62 0
-60 61 -62 0
-60 -61 62 0
39 40 -63 0
39 -40 63 0
-39 40 63 0
-39 -40 63 0
62 63 -64 0
62 -63 -64 0
-62 63 -64 0
-62 -63 64 0
41 42 -65 0
41 -42 65 0
-41 42 65 0
-41 -42 65 0
64 65 -66 0
64 -65 -66 0
-64 65 -66 0
-64 -65 66 0
43 44 -67 0
43 -44 67 0
-43 44 67 0
-43 -44 67 0
66 67 -68 0
66 -67 -68 0
-66 67 -68 0
-66 -67 68 0
45 46 -69 0
45 -46 69 0
-45 46 69 0
-45 -46 69 0
68 69 -70 0
68 -69 -70 0
-68 69 -70 0
-68 -69 70 0
47 48 -71 0
47 -48 71 0
-47 48 71 0
-47 -48 71 0
70 71 -72 0
70 -71 -72 0
-70 71 -72 0
-70 -71 72 0
72 -49 -73 0
72 49 73 0
-72 -49 73 0
-72 49 -73 0
-73 74 0
-74 73 0
-1 25 0
1 -25 0
-2 26 0
2 -26 0
-3 27 0
3 -27 0
-4 28 0
4 -28 0
-5 29 0
5 -29 0
-6 30 0
6 -30 0
-7 31 0
7 -31 0
-8 32 0
8 -32 0
-9 33 0
9 -33 0
-10 34 0
10 -34 0
-11 35 0
11 -35 0
-12 36 0
12 -36 0
-13 37 0
13 -37 0
-14 38 0
14 -38 0
-15 39 0
15 -39 0
-16 40 0
16 -40 0
-17 41 0
17 -41 0
-18 42 0
18 -42 0
-19 43 0
19 -43 0
-20 44 0
20 -44 0
-21 45 0
21 -45 0
-22 46 0
22 -46 0
-23 47 0
23 -47 0
-24 48 0
24 -48 0
75 0
-76 -2 0
-76 -1 0
76 2 1 0
-77 -4 0
-77 -3 0
77 4 3 0
-78 -6 0
-78 -5 0
78 6 5 0
-79 -8 0
-79 -7 0
79 8 7 0
-80 -10 0
-80 -9 0
80 10 9 0
-81 -12 0
-81 -11 0
81 12 11 0
-82 -14 0
-82 -13 0
82 14 13 0
-83 -16 0
-83 -15 0
83 16 15 0
-84 -18 0
-84 -17 0
84 18 17 0
-85 -20 0
-85 -19 0
85 20 19 0
-86 -22 0
-86 -21 0
86 22 21 0
-87 -24 0
-87 -23 0
87 24 23 0
-88 -87 0
-88 -86 0
-88 -85 0
-88 -84 0
-88 -83 0
-88 -82 0
-88 -81 0
-88 -80 0
-88 -79 0
-88 -78 0
-88 -77 0
-88 -76 0
88 87 86 85 84 83 82 81 80 79 78 77 76 0
