p cnf 37 49
-25 -1 0
-25 -2 0
25 1 2 0
-26 -3 0
-26 -4 0
26 3 4 0
-27 -5 0
-27 -6 0
27 5 6 0
-28 -7 0
-28 -8 0
28 7 8 0
-29 -9 0
-29 -10 0
29 9 10 0
-30 -11 0
-30 -12 0
30 11 12 0
-31 -13 0
-31 -14 0
31 13 14 0
-32 -15 0
-32 -16 0
32 15 16 0
-33 -17 0
-33 -18 0
33 17 18 0
-34 -19 0
-34 -20 0
34 19 20 0
-35 -21 0
-35 -22 0
35 21 22 0
-36 -23 0
-36 -24 0
36 23 24 0
-37 -25 0
-37 -26 0
-37 -27 0
-37 -28 0
-37 -29 0
-37 -30 0
-37 -31 0
-37 -32 0
-37 -33 0
-37 -34 0
-37 -35 0
-37 -36 0
37 25 26 27 28 29 30 31 32 33 34 35 36 0
