p cnf 28 53
-15 -1 0
-15 -2 0
15 1 2 0
-16 -2 0
-16 -3 0
16 2 3 0
-17 -3 0
-17 -4 0
17 3 4 0
-18 -4 0
-18 -5 0
18 4 5 0
-19 -5 0
-19 -6 0
19 5 6 0
-20 -6 0
-20 -7 0
20 6 7 0
-21 -7 0
-21 -8 0
21 7 8 0
-22 -8 0
-22 -9 0
22 8 9 0
-23 -9 0
-23 -10 0
23 9 10 0
-24 -10 0
-24 -11 0
24 10 11 0
-25 -11 0
-25 -12 0
25 11 12 0
-26 -12 0
-26 -13 0
26 12 13 0
-27 -13 0
-27 -14 0
27 13 14 0
-28 -15 0
-28 -16 0
-28 -17 0
-28 -18 0
-28 -19 0
-28 -20 0
-28 -21 0
-28 -22 0
-28 -23 0
-28 -24 0
-28 -25 0
-28 -26 0
-28 -27 0
28 15 16 17 18 19 20 21 22 23 24 25 26 27 0
