p cnf 678 3197
-233 11 0
-233 -13 0
-233 -26 0
-233 -43 0
-233 -55 0
-233 -58 0
-233 68 0
-233 -71 0
-233 100 0
-233 -117 0
-233 -122 0
-233 160 0
-233 199 0
-233 -210 0
233 -11 13 26 43 55 58 -68 71 -100 117 122 -160 -199 210 0
-234 -55 0
-234 -58 0
-234 68 0
-234 -71 0
-234 -117 0
234 55 58 -68 71 117 0
-235 -71 0
-235 72 0
-235 -234 0
235 71 -72 234 0
-236 -11 0
-236 -13 0
-236 -26 0
-236 -43 0
-236 -122 0
-236 -160 0
-236 194 0
-236 -199 0
-236 -210 0
236 11 13 26 43 122 160 -194 199 210 0
-237 -25 0
-237 113 0
237 25 -113 0
-238 -11 0
-238 -13 0
-238 -26 0
-238 -43 0
-238 122 0
-238 160 0
-238 -199 0
-238 -210 0
-238 -237 0
238 11 13 26 43 -122 -160 199 210 237 0
-239 -17 0
-239 113 0
239 17 -113 0
-240 -11 0
-240 -13 0
-240 -26 0
-240 -43 0
-240 -122 0
-240 160 0
-240 -199 0
-240 -210 0
-240 -239 0
240 11 13 26 43 122 -160 199 210 239 0
-241 -44 0
-241 113 0
241 44 -113 0
-242 -11 0
-242 -13 0
-242 -26 0
-242 -43 0
-242 -122 0
-242 -160 0
-242 199 0
-242 -210 0
-242 -241 0
242 11 13 26 43 122 160 -199 210 241 0
-243 -57 0
-243 113 0
243 57 -113 0
-244 -11 0
-244 -13 0
-244 -26 0
-244 -43 0
-244 122 0
-244 -160 0
-244 199 0
-244 -210 0
-244 -243 0
244 11 13 26 43 -122 160 -199 210 243 0
-245 -236 0
-245 -238 0
-245 -240 0
-245 -242 0
-245 -244 0
245 236 238 240 242 244 0
-246 -11 0
-246 -13 0
-246 -26 0
-246 -43 0
-246 -122 0
-246 -160 0
-246 -199 0
-246 -210 0
246 11 13 26 43 122 160 199 210 0
-247 -11 0
-247 -13 0
-247 -26 0
-247 -43 0
-247 122 0
-247 160 0
-247 -199 0
-247 -210 0
247 11 13 26 43 -122 -160 199 210 0
-248 -11 0
-248 -13 0
-248 -26 0
-248 -43 0
-248 -122 0
-248 160 0
-248 -199 0
-248 -210 0
248 11 13 26 43 122 -160 199 210 0
-249 -11 0
-249 -13 0
-249 -26 0
-249 -43 0
-249 -122 0
-249 -160 0
-249 199 0
-249 -210 0
249 11 13 26 43 122 160 -199 210 0
-250 -11 0
-250 -13 0
-250 -26 0
-250 -43 0
-250 122 0
-250 -160 0
-250 199 0
-250 -210 0
250 11 13 26 43 -122 160 -199 210 0
-251 -246 0
-251 -247 0
-251 -248 0
-251 -249 0
-251 -250 0
251 246 247 248 249 250 0
-252 -55 0
-252 -58 0
-252 68 0
-252 -71 0
-252 -117 0
-252 -245 0
-252 -251 0
252 55 58 -68 71 117 245 251 0
-253 6 0
-253 -11 0
-253 -13 0
-253 -26 0
-253 -43 0
-253 -55 0
-253 -58 0
-253 68 0
-253 -71 0
-253 -117 0
-253 -122 0
-253 160 0
-253 199 0
-253 -210 0
253 -6 11 13 26 43 55 58 -68 71 117 122 -160 -199 210 0
-254 -11 0
-254 -13 0
-254 -26 0
-254 -43 0
-254 -55 0
-254 -58 0
-254 68 0
-254 -71 0
-254 -117 0
-254 -122 0
-254 -160 0
-254 -199 0
-254 210 0
-254 222 0
254 11 13 26 43 55 58 -68 71 117 122 160 199 -210 -222 0
-255 11 0
-255 -13 0
-255 -26 0
-255 -43 0
-255 -55 0
-255 -58 0
-255 68 0
-255 -71 0
-255 -117 0
-255 -122 0
-255 -160 0
-255 184 0
-255 199 0
-255 -210 0
255 -11 13 26 43 55 58 -68 71 117 122 160 -184 -199 210 0
-256 11 0
-256 -13 0
-256 -26 0
-256 -43 0
-256 -55 0
-256 -58 0
-256 68 0
-256 -71 0
-256 -117 0
-256 122 0
-256 -160 0
-256 161 0
-256 199 0
-256 -210 0
256 -11 13 26 43 55 58 -68 71 117 -122 160 -161 -199 210 0
-257 -11 0
-257 -13 0
-257 -26 0
-257 -43 0
-257 122 0
-257 160 0
-257 -199 0
-257 210 0
-257 232 0
257 11 13 26 43 -122 -160 199 -210 -232 0
-258 -11 0
-258 -13 0
-258 -26 0
-258 -43 0
-258 -122 0
-258 148 0
-258 160 0
-258 -199 0
-258 210 0
258 11 13 26 43 122 -148 -160 199 -210 0
-259 11 0
-259 13 0
-259 26 0
-259 43 0
-259 -122 0
-259 160 0
-259 199 0
-259 -210 0
259 -11 -13 -26 -43 122 -160 -199 210 0
-260 11 0
-260 13 0
-260 26 0
-260 43 0
-260 -122 0
-260 128 0
-260 -160 0
-260 -199 0
-260 210 0
260 -11 -13 -26 -43 122 -128 160 199 -210 0
-261 -257 0
-261 -258 0
-261 -259 0
-261 -260 0
261 257 258 259 260 0
-262 -11 0
-262 -13 0
-262 -26 0
-262 -43 0
-262 122 0
-262 160 0
-262 -199 0
-262 210 0
262 11 13 26 43 -122 -160 199 -210 0
-263 -11 0
-263 -13 0
-263 -26 0
-263 -43 0
-263 -122 0
-263 160 0
-263 -199 0
-263 210 0
263 11 13 26 43 122 -160 199 -210 0
-264 11 0
-264 13 0
-264 26 0
-264 43 0
-264 -122 0
-264 -160 0
-264 -199 0
-264 210 0
264 -11 -13 -26 -43 122 160 199 -210 0
-265 11 0
-265 -13 0
-265 -26 0
-265 -43 0
-265 -122 0
-265 160 0
-265 -199 0
-265 -210 0
265 -11 13 26 43 122 -160 199 210 0
-266 11 0
-266 13 0
-266 26 0
-266 43 0
-266 -122 0
-266 160 0
-266 -199 0
-266 -210 0
266 -11 -13 -26 -43 122 -160 199 210 0
-267 11 0
-267 13 0
-267 26 0
-267 43 0
-267 -122 0
-267 -160 0
-267 -199 0
-267 -210 0
267 -11 -13 -26 -43 122 160 199 210 0
-268 -259 0
-268 -262 0
-268 -263 0
-268 -264 0
-268 -265 0
-268 -266 0
-268 -267 0
268 259 262 263 264 265 266 267 0
-269 -55 0
-269 -58 0
-269 68 0
-269 -71 0
-269 -117 0
-269 -261 0
-269 -268 0
269 55 58 -68 71 117 261 268 0
-270 11 0
-270 -13 0
-270 -26 0
-270 -43 0
-270 -55 0
-270 -58 0
-270 68 0
-270 -71 0
-270 103 0
-270 -117 0
-270 -122 0
-270 -160 0
-270 -199 0
-270 -210 0
270 -11 13 26 43 55 58 -68 71 -103 117 122 160 199 210 0
-271 -233 0
-271 -235 0
-271 -252 0
-271 -253 0
-271 -254 0
-271 -255 0
-271 -256 0
-271 -269 0
-271 -270 0
271 233 235 252 253 254 255 256 269 270 0
-272 11 0
-272 -13 0
-272 -26 0
-272 -43 0
-272 -55 0
-272 -58 0
-272 68 0
-272 -71 0
-272 99 0
-272 -117 0
-272 -122 0
-272 160 0
-272 199 0
-272 -210 0
272 -11 13 26 43 55 58 -68 71 -99 117 122 -160 -199 210 0
-273 -71 0
-273 77 0
-273 -234 0
273 71 -77 234 0
-274 -24 0
-274 113 0
274 24 -113 0
-275 -11 0
-275 -13 0
-275 -26 0
-275 -43 0
-275 122 0
-275 160 0
-275 -199 0
-275 -210 0
-275 -274 0
275 11 13 26 43 -122 -160 199 210 274 0
-276 -16 0
-276 113 0
276 16 -113 0
-277 -11 0
-277 -13 0
-277 -26 0
-277 -43 0
-277 -122 0
-277 160 0
-277 -199 0
-277 -210 0
-277 -276 0
277 11 13 26 43 122 -160 199 210 276 0
-278 -11 0
-278 -13 0
-278 -26 0
-278 -43 0
-278 -122 0
-278 -160 0
-278 -199 0
-278 -210 0
-278 215 0
278 11 13 26 43 122 160 199 210 -215 0
-279 -42 0
-279 113 0
279 42 -113 0
-280 -11 0
-280 -13 0
-280 -26 0
-280 -43 0
-280 -122 0
-280 -160 0
-280 199 0
-280 -210 0
-280 -279 0
280 11 13 26 43 122 160 -199 210 279 0
-281 -56 0
-281 113 0
281 56 -113 0
-282 -11 0
-282 -13 0
-282 -26 0
-282 -43 0
-282 122 0
-282 -160 0
-282 199 0
-282 -210 0
-282 -281 0
282 11 13 26 43 -122 160 -199 210 281 0
-283 -275 0
-283 -277 0
-283 -278 0
-283 -280 0
-283 -282 0
283 275 277 278 280 282 0
-284 -55 0
-284 -58 0
-284 68 0
-284 -71 0
-284 -117 0
-284 -251 0
-284 -283 0
284 55 58 -68 71 117 251 283 0
-285 8 0
-285 -11 0
-285 -13 0
-285 -26 0
-285 -43 0
-285 -55 0
-285 -58 0
-285 68 0
-285 -71 0
-285 -117 0
-285 -122 0
-285 160 0
-285 199 0
-285 -210 0
285 -8 11 13 26 43 55 58 -68 71 117 122 -160 -199 210 0
-286 -11 0
-286 -13 0
-286 -26 0
-286 -43 0
-286 -55 0
-286 -58 0
-286 68 0
-286 -71 0
-286 -117 0
-286 -122 0
-286 -160 0
-286 -199 0
-286 210 0
-286 223 0
286 11 13 26 43 55 58 -68 71 117 122 160 199 -210 -223 0
-287 11 0
-287 -13 0
-287 -26 0
-287 -43 0
-287 -55 0
-287 -58 0
-287 68 0
-287 -71 0
-287 -117 0
-287 -122 0
-287 -160 0
-287 185 0
-287 199 0
-287 -210 0
287 -11 13 26 43 55 58 -68 71 117 122 160 -185 -199 210 0
-288 11 0
-288 -13 0
-288 -26 0
-288 -43 0
-288 -55 0
-288 -58 0
-288 68 0
-288 -71 0
-288 -117 0
-288 122 0
-288 -160 0
-288 162 0
-288 199 0
-288 -210 0
288 -11 13 26 43 55 58 -68 71 117 -122 160 -162 -199 210 0
-289 11 0
-289 -13 0
-289 -26 0
-289 -43 0
-289 -122 0
-289 149 0
-289 160 0
-289 -199 0
-289 -210 0
289 -11 13 26 43 122 -149 -160 199 210 0
-290 9 0
-290 -11 0
-290 -13 0
-290 -26 0
-290 -43 0
-290 122 0
-290 160 0
-290 -199 0
-290 210 0
290 -9 11 13 26 43 -122 -160 199 -210 0
-291 -11 0
-291 -13 0
-291 -26 0
-291 -43 0
-291 -122 0
-291 160 0
-291 -199 0
-291 210 0
-291 224 0
291 11 13 26 43 122 -160 199 -210 -224 0
-292 11 0
-292 13 0
-292 26 0
-292 43 0
-292 -122 0
-292 129 0
-292 -160 0
-292 -199 0
-292 210 0
292 -11 -13 -26 -43 122 -129 160 199 -210 0
-293 11 0
-293 13 0
-293 26 0
-293 43 0
-293 -122 0
-293 130 0
-293 -160 0
-293 -199 0
-293 -210 0
293 -11 -13 -26 -43 122 -130 160 199 210 0
-294 11 0
-294 13 0
-294 26 0
-294 43 0
-294 -122 0
-294 131 0
-294 160 0
-294 -199 0
-294 -210 0
294 -11 -13 -26 -43 122 -131 -160 199 210 0
-295 -289 0
-295 -290 0
-295 -291 0
-295 -292 0
-295 -293 0
-295 -294 0
295 289 290 291 292 293 294 0
-296 -55 0
-296 -58 0
-296 68 0
-296 -71 0
-296 -117 0
-296 -268 0
-296 -295 0
296 55 58 -68 71 117 268 295 0
-297 11 0
-297 -13 0
-297 -26 0
-297 -43 0
-297 -55 0
-297 -58 0
-297 68 0
-297 -71 0
-297 105 0
-297 -117 0
-297 -122 0
-297 -160 0
-297 -199 0
-297 -210 0
297 -11 13 26 43 55 58 -68 71 -105 117 122 160 199 210 0
-298 -272 0
-298 -273 0
-298 -284 0
-298 -285 0
-298 -286 0
-298 -287 0
-298 -288 0
-298 -296 0
-298 -297 0
298 272 273 284 285 286 287 288 296 297 0
-299 -271 0
-299 -298 0
299 271 298 0
-300 -271 0
-300 -299 0
300 271 299 0
-301 -298 0
-301 -299 0
301 298 299 0
-302 -300 0
-302 -301 0
302 300 301 0
-303 11 0
-303 -13 0
-303 -26 0
-303 -43 0
-303 -55 0
-303 -58 0
-303 68 0
-303 -71 0
-303 98 0
-303 -117 0
-303 -122 0
-303 160 0
-303 199 0
-303 -210 0
303 -11 13 26 43 55 58 -68 71 -98 117 122 -160 -199 210 0
-304 -71 0
-304 78 0
-304 -234 0
304 71 -78 234 0
-305 -23 0
-305 113 0
305 23 -113 0
-306 -11 0
-306 -13 0
-306 -26 0
-306 -43 0
-306 122 0
-306 160 0
-306 -199 0
-306 -210 0
-306 -305 0
306 11 13 26 43 -122 -160 199 210 305 0
-307 -15 0
-307 113 0
307 15 -113 0
-308 -11 0
-308 -13 0
-308 -26 0
-308 -43 0
-308 -122 0
-308 160 0
-308 -199 0
-308 -210 0
-308 -307 0
308 11 13 26 43 122 -160 199 210 307 0
-309 -11 0
-309 -13 0
-309 -26 0
-309 -43 0
-309 -61 0
-309 -122 0
-309 -160 0
-309 -199 0
-309 -210 0
309 11 13 26 43 61 122 160 199 210 0
-310 -41 0
-310 113 0
310 41 -113 0
-311 -11 0
-311 -13 0
-311 -26 0
-311 -43 0
-311 -122 0
-311 -160 0
-311 199 0
-311 -210 0
-311 -310 0
311 11 13 26 43 122 160 -199 210 310 0
-312 -54 0
-312 113 0
312 54 -113 0
-313 -11 0
-313 -13 0
-313 -26 0
-313 -43 0
-313 122 0
-313 -160 0
-313 199 0
-313 -210 0
-313 -312 0
313 11 13 26 43 -122 160 -199 210 312 0
-314 -306 0
-314 -308 0
-314 -309 0
-314 -311 0
-314 -313 0
314 306 308 309 311 313 0
-315 -55 0
-315 -58 0
-315 68 0
-315 -71 0
-315 -117 0
-315 -251 0
-315 -314 0
315 55 58 -68 71 117 251 314 0
-316 -4 0
-316 -11 0
-316 -13 0
-316 -26 0
-316 -43 0
-316 -55 0
-316 -58 0
-316 68 0
-316 -71 0
-316 -117 0
-316 -122 0
-316 160 0
-316 199 0
-316 -210 0
316 4 11 13 26 43 55 58 -68 71 117 122 -160 -199 210 0
-317 -11 0
-317 -13 0
-317 -26 0
-317 -43 0
-317 -55 0
-317 -58 0
-317 68 0
-317 -71 0
-317 -117 0
-317 -122 0
-317 -160 0
-317 -199 0
-317 210 0
-317 -220 0
317 11 13 26 43 55 58 -68 71 117 122 160 199 -210 220 0
-318 11 0
-318 -13 0
-318 -26 0
-318 -43 0
-318 -55 0
-318 -58 0
-318 68 0
-318 -71 0
-318 -117 0
-318 -122 0
-318 -160 0
-318 186 0
-318 199 0
-318 -210 0
318 -11 13 26 43 55 58 -68 71 117 122 160 -186 -199 210 0
-319 11 0
-319 -13 0
-319 -26 0
-319 -43 0
-319 -55 0
-319 -58 0
-319 68 0
-319 -71 0
-319 -117 0
-319 122 0
-319 -160 0
-319 163 0
-319 199 0
-319 -210 0
319 -11 13 26 43 55 58 -68 71 117 -122 160 -163 -199 210 0
-320 11 0
-320 -13 0
-320 -26 0
-320 -43 0
-320 -122 0
-320 151 0
-320 160 0
-320 -199 0
-320 -210 0
320 -11 13 26 43 122 -151 -160 199 210 0
-321 7 0
-321 -11 0
-321 -13 0
-321 -26 0
-321 -43 0
-321 122 0
-321 160 0
-321 -199 0
-321 210 0
321 -7 11 13 26 43 -122 -160 199 -210 0
-322 -11 0
-322 -13 0
-322 -26 0
-322 -43 0
-322 -122 0
-322 152 0
-322 160 0
-322 -199 0
-322 210 0
322 11 13 26 43 122 -152 -160 199 -210 0
-323 11 0
-323 13 0
-323 26 0
-323 43 0
-323 -122 0
-323 132 0
-323 -160 0
-323 -199 0
-323 -210 0
323 -11 -13 -26 -43 122 -132 160 199 210 0
-324 11 0
-324 13 0
-324 26 0
-324 43 0
-324 -122 0
-324 133 0
-324 160 0
-324 -199 0
-324 -210 0
324 -11 -13 -26 -43 122 -133 -160 199 210 0
-325 -320 0
-325 -321 0
-325 -322 0
-325 -323 0
-325 -324 0
325 320 321 322 323 324 0
-326 -55 0
-326 -58 0
-326 68 0
-326 -71 0
-326 -117 0
-326 -268 0
-326 -325 0
326 55 58 -68 71 117 268 325 0
-327 11 0
-327 -13 0
-327 -26 0
-327 -43 0
-327 -55 0
-327 -58 0
-327 68 0
-327 -71 0
-327 101 0
-327 -117 0
-327 -122 0
-327 -160 0
-327 -199 0
-327 -210 0
327 -11 13 26 43 55 58 -68 71 -101 117 122 160 199 210 0
-328 -303 0
-328 -304 0
-328 -315 0
-328 -316 0
-328 -317 0
-328 -318 0
-328 -319 0
-328 -326 0
-328 -327 0
328 303 304 315 316 317 318 319 326 327 0
-329 -11 0
-329 -13 0
-329 -26 0
-329 -43 0
-329 -55 0
-329 -58 0
-329 68 0
-329 -71 0
-329 -79 0
-329 -117 0
-329 -122 0
-329 160 0
-329 199 0
-329 210 0
329 11 13 26 43 55 58 -68 71 79 117 122 -160 -199 -210 0
-330 -71 0
-330 84 0
-330 -234 0
330 71 -84 234 0
-331 -22 0
-331 113 0
331 22 -113 0
-332 -11 0
-332 -13 0
-332 -26 0
-332 -43 0
-332 122 0
-332 160 0
-332 -199 0
-332 -210 0
-332 -331 0
332 11 13 26 43 -122 -160 199 210 331 0
-333 -14 0
-333 113 0
333 14 -113 0
-334 -11 0
-334 -13 0
-334 -26 0
-334 -43 0
-334 -122 0
-334 160 0
-334 -199 0
-334 -210 0
-334 -333 0
334 11 13 26 43 122 -160 199 210 333 0
-335 -11 0
-335 -13 0
-335 -26 0
-335 -43 0
-335 70 0
-335 -122 0
-335 -160 0
-335 -199 0
-335 -210 0
335 11 13 26 43 -70 122 160 199 210 0
-336 -40 0
-336 113 0
336 40 -113 0
-337 -11 0
-337 -13 0
-337 -26 0
-337 -43 0
-337 -122 0
-337 -160 0
-337 199 0
-337 -210 0
-337 -336 0
337 11 13 26 43 122 160 -199 210 336 0
-338 -47 0
-338 113 0
338 47 -113 0
-339 -11 0
-339 -13 0
-339 -26 0
-339 -43 0
-339 122 0
-339 -160 0
-339 199 0
-339 -210 0
-339 -338 0
339 11 13 26 43 -122 160 -199 210 338 0
-340 -332 0
-340 -334 0
-340 -335 0
-340 -337 0
-340 -339 0
340 332 334 335 337 339 0
-341 -55 0
-341 -58 0
-341 68 0
-341 -71 0
-341 -117 0
-341 -251 0
-341 -340 0
341 55 58 -68 71 117 251 340 0
-342 5 0
-342 -11 0
-342 -13 0
-342 -26 0
-342 -43 0
-342 -55 0
-342 -58 0
-342 68 0
-342 -71 0
-342 -117 0
-342 -122 0
-342 160 0
-342 199 0
-342 -210 0
342 -5 11 13 26 43 55 58 -68 71 117 122 -160 -199 210 0
-343 -11 0
-343 -13 0
-343 -26 0
-343 -43 0
-343 -55 0
-343 -58 0
-343 68 0
-343 -71 0
-343 -117 0
-343 -122 0
-343 -160 0
-343 -199 0
-343 210 0
-343 221 0
343 11 13 26 43 55 58 -68 71 117 122 160 199 -210 -221 0
-344 11 0
-344 -13 0
-344 -26 0
-344 -43 0
-344 -122 0
-344 150 0
-344 160 0
-344 -199 0
-344 -210 0
344 -11 13 26 43 122 -150 -160 199 210 0
-345 -11 0
-345 -13 0
-345 -26 0
-345 -43 0
-345 111 0
-345 122 0
-345 160 0
-345 -199 0
-345 210 0
345 11 13 26 43 -111 -122 -160 199 -210 0
-346 -11 0
-346 -13 0
-346 -26 0
-346 -43 0
-346 -122 0
-346 153 0
-346 160 0
-346 -199 0
-346 210 0
346 11 13 26 43 122 -153 -160 199 -210 0
-347 11 0
-347 13 0
-347 26 0
-347 43 0
-347 -122 0
-347 134 0
-347 -160 0
-347 -199 0
-347 -210 0
347 -11 -13 -26 -43 122 -134 160 199 210 0
-348 11 0
-348 13 0
-348 26 0
-348 43 0
-348 -122 0
-348 135 0
-348 160 0
-348 -199 0
-348 -210 0
348 -11 -13 -26 -43 122 -135 -160 199 210 0
-349 -259 0
-349 -344 0
-349 -345 0
-349 -346 0
-349 -347 0
-349 -348 0
349 259 344 345 346 347 348 0
-350 -55 0
-350 -58 0
-350 68 0
-350 -71 0
-350 -117 0
-350 -268 0
-350 -349 0
350 55 58 -68 71 117 268 349 0
-351 11 0
-351 -13 0
-351 -26 0
-351 -43 0
-351 -55 0
-351 -58 0
-351 68 0
-351 -71 0
-351 102 0
-351 -117 0
-351 -122 0
-351 -160 0
-351 -199 0
-351 -210 0
351 -11 13 26 43 55 58 -68 71 -102 117 122 160 199 210 0
-352 11 0
-352 -13 0
-352 -26 0
-352 -43 0
-352 -55 0
-352 -58 0
-352 68 0
-352 -71 0
-352 97 0
-352 -117 0
-352 -122 0
-352 160 0
-352 199 0
-352 -210 0
352 -11 13 26 43 55 58 -68 71 -97 117 122 -160 -199 210 0
-353 -11 0
-353 -13 0
-353 -26 0
-353 -43 0
-353 -55 0
-353 -58 0
-353 68 0
-353 -71 0
-353 -86 0
-353 -117 0
-353 -122 0
-353 -160 0
-353 199 0
-353 210 0
353 11 13 26 43 55 58 -68 71 86 117 122 160 -199 -210 0
-354 -329 0
-354 -330 0
-354 -341 0
-354 -342 0
-354 -343 0
-354 -350 0
-354 -351 0
-354 -352 0
-354 -353 0
354 329 330 341 342 343 350 351 352 353 0
-355 -328 0
-355 -354 0
355 328 354 0
-356 -328 0
-356 -355 0
356 328 355 0
-357 -354 0
-357 -355 0
357 354 355 0
-358 -356 0
-358 -357 0
358 356 357 0
-359 -302 0
-359 -358 0
359 302 358 0
-360 -302 0
-360 -359 0
360 302 359 0
-361 -358 0
-361 -359 0
361 358 359 0
-362 -360 0
-362 -361 0
362 360 361 0
-363 11 0
-363 -13 0
-363 -26 0
-363 28 0
-363 -43 0
-363 -55 0
-363 -58 0
-363 68 0
-363 -71 0
-363 -117 0
-363 122 0
-363 -160 0
-363 199 0
-363 -210 0
363 -11 13 26 -28 43 55 58 -68 71 117 -122 160 -199 210 0
-364 -71 0
-364 85 0
-364 -234 0
364 71 -85 234 0
-365 -21 0
-365 113 0
365 21 -113 0
-366 -11 0
-366 -13 0
-366 -26 0
-366 -43 0
-366 122 0
-366 160 0
-366 -199 0
-366 -210 0
-366 -365 0
366 11 13 26 43 -122 -160 199 210 365 0
-367 -12 0
-367 113 0
367 12 -113 0
-368 -11 0
-368 -13 0
-368 -26 0
-368 -43 0
-368 -122 0
-368 160 0
-368 -199 0
-368 -210 0
-368 -367 0
368 11 13 26 43 122 -160 199 210 367 0
-369 -11 0
-369 -13 0
-369 -26 0
-369 -43 0
-369 67 0
-369 -122 0
-369 -160 0
-369 -199 0
-369 -210 0
369 11 13 26 43 -67 122 160 199 210 0
-370 -38 0
-370 113 0
370 38 -113 0
-371 -11 0
-371 -13 0
-371 -26 0
-371 -43 0
-371 -122 0
-371 -160 0
-371 199 0
-371 -210 0
-371 -370 0
371 11 13 26 43 122 160 -199 210 370 0
-372 -53 0
-372 113 0
372 53 -113 0
-373 -11 0
-373 -13 0
-373 -26 0
-373 -43 0
-373 122 0
-373 -160 0
-373 199 0
-373 -210 0
-373 -372 0
373 11 13 26 43 -122 160 -199 210 372 0
-374 -366 0
-374 -368 0
-374 -369 0
-374 -371 0
-374 -373 0
374 366 368 369 371 373 0
-375 -55 0
-375 -58 0
-375 68 0
-375 -71 0
-375 -117 0
-375 -251 0
-375 -374 0
375 55 58 -68 71 117 251 374 0
-376 -5 0
-376 -11 0
-376 -13 0
-376 -26 0
-376 -43 0
-376 -55 0
-376 -58 0
-376 68 0
-376 -71 0
-376 -117 0
-376 -122 0
-376 160 0
-376 199 0
-376 -210 0
-376 228 0
376 5 11 13 26 43 55 58 -68 71 117 122 -160 -199 210 -228 0
-377 -11 0
-377 -13 0
-377 -26 0
-377 -43 0
-377 -55 0
-377 -58 0
-377 68 0
-377 -71 0
-377 -117 0
-377 -122 0
-377 -160 0
-377 -199 0
-377 210 0
-377 212 0
-377 -221 0
377 11 13 26 43 55 58 -68 71 117 122 160 199 -210 -212 221 0
-378 11 0
-378 -13 0
-378 -26 0
-378 -43 0
-378 -122 0
-378 146 0
-378 160 0
-378 -199 0
-378 -210 0
378 -11 13 26 43 122 -146 -160 199 210 0
-379 11 0
-379 -13 0
-379 -26 0
-379 -43 0
-379 -122 0
-379 147 0
-379 -160 0
-379 -199 0
-379 -210 0
379 -11 13 26 43 122 -147 160 199 210 0
-380 -11 0
-380 -13 0
-380 -26 0
-380 -43 0
-380 -122 0
-380 127 0
-380 160 0
-380 -199 0
-380 210 0
380 11 13 26 43 122 -127 -160 199 -210 0
-381 11 0
-381 13 0
-381 26 0
-381 43 0
-381 -122 0
-381 137 0
-381 -160 0
-381 -199 0
-381 -210 0
381 -11 -13 -26 -43 122 -137 160 199 210 0
-382 11 0
-382 13 0
-382 26 0
-382 43 0
-382 -122 0
-382 138 0
-382 160 0
-382 -199 0
-382 -210 0
382 -11 -13 -26 -43 122 -138 -160 199 210 0
-383 -259 0
-383 -378 0
-383 -379 0
-383 -380 0
-383 -381 0
-383 -382 0
383 259 378 379 380 381 382 0
-384 11 0
-384 -13 0
-384 -26 0
-384 -43 0
-384 -122 0
-384 -160 0
-384 -199 0
-384 -210 0
384 -11 13 26 43 122 160 199 210 0
-385 -259 0
-385 -262 0
-385 -263 0
-385 -264 0
-385 -265 0
-385 -266 0
-385 -267 0
-385 -384 0
385 259 262 263 264 265 266 267 384 0
-386 -55 0
-386 -58 0
-386 68 0
-386 -71 0
-386 -117 0
-386 -383 0
-386 -385 0
386 55 58 -68 71 117 383 385 0
-387 -11 0
-387 -13 0
-387 -26 0
-387 -43 0
-387 -55 0
-387 -58 0
-387 68 0
-387 -71 0
-387 89 0
-387 -117 0
-387 -122 0
-387 -160 0
-387 199 0
-387 210 0
387 11 13 26 43 55 58 -68 71 -89 117 122 160 -199 -210 0
-388 -11 0
-388 -13 0
-388 -26 0
-388 -43 0
-388 -55 0
-388 -58 0
-388 68 0
-388 -71 0
-388 82 0
-388 -117 0
-388 -122 0
-388 160 0
-388 199 0
-388 210 0
388 11 13 26 43 55 58 -68 71 -82 117 122 -160 -199 -210 0
-389 11 0
-389 -13 0
-389 -26 0
-389 -43 0
-389 -55 0
-389 -58 0
-389 68 0
-389 -71 0
-389 73 0
-389 -117 0
-389 -122 0
-389 -160 0
-389 199 0
-389 -210 0
389 -11 13 26 43 55 58 -68 71 -73 117 122 160 -199 210 0
-390 -363 0
-390 -364 0
-390 -375 0
-390 -376 0
-390 -377 0
-390 -386 0
-390 -387 0
-390 -388 0
-390 -389 0
390 363 364 375 376 377 386 387 388 389 0
-391 11 0
-391 -13 0
-391 -26 0
-391 -43 0
-391 -55 0
-391 -58 0
-391 60 0
-391 68 0
-391 -71 0
-391 -117 0
-391 -122 0
-391 -160 0
-391 199 0
-391 -210 0
391 -11 13 26 43 55 58 -60 -68 71 117 122 160 -199 210 0
-392 -71 0
-392 91 0
-392 -234 0
392 71 -91 234 0
-393 -20 0
-393 113 0
393 20 -113 0
-394 -11 0
-394 -13 0
-394 -26 0
-394 -43 0
-394 122 0
-394 160 0
-394 -199 0
-394 -210 0
-394 -393 0
394 11 13 26 43 -122 -160 199 210 393 0
-395 -59 0
-395 113 0
395 59 -113 0
-396 -11 0
-396 -13 0
-396 -26 0
-396 -43 0
-396 -122 0
-396 160 0
-396 -199 0
-396 -210 0
-396 -395 0
396 11 13 26 43 122 -160 199 210 395 0
-397 -11 0
-397 -13 0
-397 -26 0
-397 -43 0
-397 66 0
-397 -122 0
-397 -160 0
-397 -199 0
-397 -210 0
397 11 13 26 43 -66 122 160 199 210 0
-398 -34 0
-398 113 0
398 34 -113 0
-399 -11 0
-399 -13 0
-399 -26 0
-399 -43 0
-399 -122 0
-399 -160 0
-399 199 0
-399 -210 0
-399 -398 0
399 11 13 26 43 122 160 -199 210 398 0
-400 -51 0
-400 113 0
400 51 -113 0
-401 -11 0
-401 -13 0
-401 -26 0
-401 -43 0
-401 122 0
-401 -160 0
-401 199 0
-401 -210 0
-401 -400 0
401 11 13 26 43 -122 160 -199 210 400 0
-402 -394 0
-402 -396 0
-402 -397 0
-402 -399 0
-402 -401 0
402 394 396 397 399 401 0
-403 -55 0
-403 -58 0
-403 68 0
-403 -71 0
-403 -117 0
-403 -251 0
-403 -402 0
403 55 58 -68 71 117 251 402 0
-404 -5 0
-404 -11 0
-404 -13 0
-404 -26 0
-404 -43 0
-404 -55 0
-404 -58 0
-404 68 0
-404 -71 0
-404 -117 0
-404 -122 0
-404 160 0
-404 199 0
-404 -210 0
-404 230 0
404 5 11 13 26 43 55 58 -68 71 117 122 -160 -199 210 -230 0
-405 -11 0
-405 -13 0
-405 -26 0
-405 -43 0
-405 -55 0
-405 -58 0
-405 68 0
-405 -71 0
-405 -117 0
-405 -122 0
-405 -160 0
-405 -199 0
-405 210 0
-405 214 0
-405 -221 0
405 11 13 26 43 55 58 -68 71 117 122 160 199 -210 -214 221 0
-406 11 0
-406 -13 0
-406 -26 0
-406 -43 0
-406 -122 0
-406 154 0
-406 160 0
-406 -199 0
-406 -210 0
406 -11 13 26 43 122 -154 -160 199 210 0
-407 11 0
-407 -13 0
-407 -26 0
-407 -43 0
-407 -122 0
-407 155 0
-407 -160 0
-407 -199 0
-407 -210 0
407 -11 13 26 43 122 -155 160 199 210 0
-408 -11 0
-408 -13 0
-408 -26 0
-408 -43 0
-408 -122 0
-408 -126 0
-408 160 0
-408 -199 0
-408 210 0
408 11 13 26 43 122 126 -160 199 -210 0
-409 11 0
-409 13 0
-409 26 0
-409 43 0
-409 -122 0
-409 140 0
-409 -160 0
-409 -199 0
-409 -210 0
409 -11 -13 -26 -43 122 -140 160 199 210 0
-410 11 0
-410 13 0
-410 26 0
-410 43 0
-410 -122 0
-410 141 0
-410 160 0
-410 -199 0
-410 -210 0
410 -11 -13 -26 -43 122 -141 -160 199 210 0
-411 -406 0
-411 -407 0
-411 -408 0
-411 -409 0
-411 -410 0
411 406 407 408 409 410 0
-412 -55 0
-412 -58 0
-412 68 0
-412 -71 0
-412 -117 0
-412 -385 0
-412 -411 0
412 55 58 -68 71 117 385 411 0
-413 11 0
-413 -13 0
-413 -26 0
-413 -43 0
-413 -55 0
-413 -58 0
-413 68 0
-413 -71 0
-413 -117 0
-413 118 0
-413 122 0
-413 -160 0
-413 199 0
-413 -210 0
413 -11 13 26 43 55 58 -68 71 117 -118 -122 160 -199 210 0
-414 -11 0
-414 -13 0
-414 -26 0
-414 -43 0
-414 -55 0
-414 -58 0
-414 68 0
-414 -71 0
-414 90 0
-414 -117 0
-414 -122 0
-414 -160 0
-414 199 0
-414 210 0
414 11 13 26 43 55 58 -68 71 -90 117 122 160 -199 -210 0
-415 -11 0
-415 -13 0
-415 -26 0
-415 -43 0
-415 -55 0
-415 -58 0
-415 68 0
-415 -71 0
-415 83 0
-415 -117 0
-415 -122 0
-415 160 0
-415 199 0
-415 210 0
415 11 13 26 43 55 58 -68 71 -83 117 122 -160 -199 -210 0
-416 -391 0
-416 -392 0
-416 -403 0
-416 -404 0
-416 -405 0
-416 -412 0
-416 -413 0
-416 -414 0
-416 -415 0
416 391 392 403 404 405 412 413 414 415 0
-417 -390 0
-417 -416 0
417 390 416 0
-418 -390 0
-418 -417 0
418 390 417 0
-419 -416 0
-419 -417 0
419 416 417 0
-420 -418 0
-420 -419 0
420 418 419 0
-421 11 0
-421 -13 0
-421 -26 0
-421 -43 0
-421 48 0
-421 -55 0
-421 -58 0
-421 68 0
-421 -71 0
-421 -117 0
-421 -122 0
-421 -160 0
-421 199 0
-421 -210 0
421 -11 13 26 43 -48 55 58 -68 71 117 122 160 -199 210 0
-422 -71 0
-422 92 0
-422 -234 0
422 71 -92 234 0
-423 -19 0
-423 113 0
423 19 -113 0
-424 -11 0
-424 -13 0
-424 -26 0
-424 -43 0
-424 122 0
-424 160 0
-424 -199 0
-424 -210 0
-424 -423 0
424 11 13 26 43 -122 -160 199 210 423 0
-425 -33 0
-425 113 0
425 33 -113 0
-426 -11 0
-426 -13 0
-426 -26 0
-426 -43 0
-426 -122 0
-426 -160 0
-426 199 0
-426 -210 0
-426 -425 0
426 11 13 26 43 122 160 -199 210 425 0
-427 -46 0
-427 113 0
427 46 -113 0
-428 -11 0
-428 -13 0
-428 -26 0
-428 -43 0
-428 122 0
-428 -160 0
-428 199 0
-428 -210 0
-428 -427 0
428 11 13 26 43 -122 160 -199 210 427 0
-429 -424 0
-429 -426 0
-429 -428 0
429 424 426 428 0
-430 -55 0
-430 -58 0
-430 68 0
-430 -71 0
-430 -117 0
-430 -251 0
-430 -429 0
430 55 58 -68 71 117 251 429 0
-431 -5 0
-431 -11 0
-431 -13 0
-431 -26 0
-431 -43 0
-431 -55 0
-431 -58 0
-431 68 0
-431 -71 0
-431 -117 0
-431 -122 0
-431 160 0
-431 199 0
-431 -210 0
-431 229 0
431 5 11 13 26 43 55 58 -68 71 117 122 -160 -199 210 -229 0
-432 -11 0
-432 -13 0
-432 -26 0
-432 -43 0
-432 -55 0
-432 -58 0
-432 68 0
-432 -71 0
-432 -117 0
-432 -122 0
-432 -160 0
-432 -199 0
-432 210 0
-432 213 0
-432 -221 0
432 11 13 26 43 55 58 -68 71 117 122 160 199 -210 -213 221 0
-433 11 0
-433 -13 0
-433 -26 0
-433 -43 0
-433 -122 0
-433 156 0
-433 160 0
-433 -199 0
-433 -210 0
433 -11 13 26 43 122 -156 -160 199 210 0
-434 11 0
-434 -13 0
-434 -26 0
-434 -43 0
-434 -122 0
-434 157 0
-434 -160 0
-434 -199 0
-434 -210 0
434 -11 13 26 43 122 -157 160 199 210 0
-435 -11 0
-435 -13 0
-435 -26 0
-435 -43 0
-435 -122 0
-435 125 0
-435 160 0
-435 -199 0
-435 210 0
435 11 13 26 43 122 -125 -160 199 -210 0
-436 11 0
-436 13 0
-436 26 0
-436 43 0
-436 -122 0
-436 142 0
-436 -160 0
-436 -199 0
-436 -210 0
436 -11 -13 -26 -43 122 -142 160 199 210 0
-437 11 0
-437 13 0
-437 26 0
-437 43 0
-437 -122 0
-437 143 0
-437 160 0
-437 -199 0
-437 -210 0
437 -11 -13 -26 -43 122 -143 -160 199 210 0
-438 -433 0
-438 -434 0
-438 -435 0
-438 -436 0
-438 -437 0
438 433 434 435 436 437 0
-439 -55 0
-439 -58 0
-439 68 0
-439 -71 0
-439 -117 0
-439 -385 0
-439 -438 0
439 55 58 -68 71 117 385 438 0
-440 11 0
-440 -13 0
-440 -26 0
-440 -43 0
-440 -55 0
-440 -58 0
-440 68 0
-440 -71 0
-440 112 0
-440 -117 0
-440 122 0
-440 -160 0
-440 199 0
-440 -210 0
440 -11 13 26 43 55 58 -68 71 -112 117 -122 160 -199 210 0
-441 -11 0
-441 -13 0
-441 -26 0
-441 -43 0
-441 -55 0
-441 -58 0
-441 68 0
-441 -71 0
-441 87 0
-441 -117 0
-441 -122 0
-441 -160 0
-441 199 0
-441 210 0
441 11 13 26 43 55 58 -68 71 -87 117 122 160 -199 -210 0
-442 -11 0
-442 -13 0
-442 -26 0
-442 -43 0
-442 -55 0
-442 -58 0
-442 68 0
-442 -71 0
-442 80 0
-442 -117 0
-442 -122 0
-442 160 0
-442 199 0
-442 210 0
442 11 13 26 43 55 58 -68 71 -80 117 122 -160 -199 -210 0
-443 -421 0
-443 -422 0
-443 -430 0
-443 -431 0
-443 -432 0
-443 -439 0
-443 -440 0
-443 -441 0
-443 -442 0
443 421 422 430 431 432 439 440 441 442 0
-444 11 0
-444 -13 0
-444 -26 0
-444 35 0
-444 -43 0
-444 -55 0
-444 -58 0
-444 68 0
-444 -71 0
-444 -117 0
-444 -122 0
-444 -160 0
-444 199 0
-444 -210 0
444 -11 13 26 -35 43 55 58 -68 71 117 122 160 -199 210 0
-445 -71 0
-445 93 0
-445 -234 0
445 71 -93 234 0
-446 -18 0
-446 113 0
446 18 -113 0
-447 -11 0
-447 -13 0
-447 -26 0
-447 -43 0
-447 122 0
-447 160 0
-447 -199 0
-447 -210 0
-447 -446 0
447 11 13 26 43 -122 -160 199 210 446 0
-448 -11 0
-448 -13 0
-448 -26 0
-448 -43 0
-448 69 0
-448 -122 0
-448 -160 0
-448 -199 0
-448 -210 0
448 11 13 26 43 -69 122 160 199 210 0
-449 -32 0
-449 113 0
449 32 -113 0
-450 -11 0
-450 -13 0
-450 -26 0
-450 -43 0
-450 -122 0
-450 -160 0
-450 199 0
-450 -210 0
-450 -449 0
450 11 13 26 43 122 160 -199 210 449 0
-451 -45 0
-451 113 0
451 45 -113 0
-452 -11 0
-452 -13 0
-452 -26 0
-452 -43 0
-452 122 0
-452 -160 0
-452 199 0
-452 -210 0
-452 -451 0
452 11 13 26 43 -122 160 -199 210 451 0
-453 -447 0
-453 -448 0
-453 -450 0
-453 -452 0
453 447 448 450 452 0
-454 -55 0
-454 -58 0
-454 68 0
-454 -71 0
-454 -117 0
-454 -251 0
-454 -453 0
454 55 58 -68 71 117 251 453 0
-455 3 0
-455 -5 0
-455 -11 0
-455 -13 0
-455 -26 0
-455 -43 0
-455 -55 0
-455 -58 0
-455 68 0
-455 -71 0
-455 -117 0
-455 -122 0
-455 160 0
-455 199 0
-455 -210 0
455 -3 5 11 13 26 43 55 58 -68 71 117 122 -160 -199 210 0
-456 -11 0
-456 -13 0
-456 -26 0
-456 -43 0
-456 -55 0
-456 -58 0
-456 68 0
-456 -71 0
-456 -117 0
-456 -122 0
-456 -160 0
-456 -199 0
-456 210 0
-456 219 0
-456 -221 0
456 11 13 26 43 55 58 -68 71 117 122 160 199 -210 -219 221 0
-457 11 0
-457 -13 0
-457 -26 0
-457 -43 0
-457 -122 0
-457 158 0
-457 160 0
-457 -199 0
-457 -210 0
457 -11 13 26 43 122 -158 -160 199 210 0
-458 11 0
-458 -13 0
-458 -26 0
-458 -43 0
-458 -122 0
-458 159 0
-458 -160 0
-458 -199 0
-458 -210 0
458 -11 13 26 43 122 -159 160 199 210 0
-459 11 0
-459 13 0
-459 26 0
-459 43 0
-459 -122 0
-459 145 0
-459 -160 0
-459 -199 0
-459 -210 0
459 -11 -13 -26 -43 122 -145 160 199 210 0
-460 11 0
-460 13 0
-460 26 0
-460 43 0
-460 -122 0
-460 144 0
-460 160 0
-460 -199 0
-460 -210 0
460 -11 -13 -26 -43 122 -144 -160 199 210 0
-461 -457 0
-461 -458 0
-461 -459 0
-461 -460 0
461 457 458 459 460 0
-462 -55 0
-462 -58 0
-462 68 0
-462 -71 0
-462 -117 0
-462 -385 0
-462 -461 0
462 55 58 -68 71 117 385 461 0
-463 11 0
-463 -13 0
-463 -26 0
-463 -43 0
-463 -55 0
-463 -58 0
-463 68 0
-463 -71 0
-463 107 0
-463 -117 0
-463 122 0
-463 -160 0
-463 199 0
-463 -210 0
463 -11 13 26 43 55 58 -68 71 -107 117 -122 160 -199 210 0
-464 -11 0
-464 -13 0
-464 -26 0
-464 -43 0
-464 -55 0
-464 -58 0
-464 68 0
-464 -71 0
-464 88 0
-464 -117 0
-464 -122 0
-464 -160 0
-464 199 0
-464 210 0
464 11 13 26 43 55 58 -68 71 -88 117 122 160 -199 -210 0
-465 -11 0
-465 -13 0
-465 -26 0
-465 -43 0
-465 -55 0
-465 -58 0
-465 68 0
-465 -71 0
-465 81 0
-465 -117 0
-465 -122 0
-465 160 0
-465 199 0
-465 210 0
465 11 13 26 43 55 58 -68 71 -81 117 122 -160 -199 -210 0
-466 -444 0
-466 -445 0
-466 -454 0
-466 -455 0
-466 -456 0
-466 -462 0
-466 -463 0
-466 -464 0
-466 -465 0
466 444 445 454 455 456 462 463 464 465 0
-467 -443 0
-467 -466 0
467 443 466 0
-468 -443 0
-468 -467 0
468 443 467 0
-469 -466 0
-469 -467 0
469 466 467 0
-470 -468 0
-470 -469 0
470 468 469 0
-471 -420 0
-471 -470 0
471 420 470 0
-472 -420 0
-472 -471 0
472 420 471 0
-473 -470 0
-473 -471 0
473 470 471 0
-474 -472 0
-474 -473 0
474 472 473 0
-475 -362 0
-475 -474 0
475 362 474 0
-476 -362 0
-476 -475 0
476 362 475 0
-477 -474 0
-477 -475 0
477 474 475 0
-478 -476 0
-478 -477 0
478 476 477 0
-479 -58 0
-479 68 0
479 58 -68 0
-480 62 0
-480 -479 0
480 -62 479 0
-481 -478 0
-481 -480 0
481 478 480 0
-482 -478 0
-482 -481 0
482 478 481 0
-483 -480 0
-483 -481 0
483 480 481 0
-484 -482 0
-484 -483 0
484 482 483 0
-485 -58 0
-485 -68 0
-485 -71 0
-485 -484 0
485 58 68 71 484 0
-486 -128 0
-486 -485 0
486 128 485 0
-487 11 0
-487 13 0
-487 26 0
-487 43 0
-487 -122 0
-487 -160 0
-487 -199 0
-487 210 0
-487 225 0
-487 -271 0
487 -11 -13 -26 -43 122 160 199 -210 -225 271 0
-488 -486 0
-488 -487 0
488 486 487 0
129 488 -489 0
-129 -488 -489 0
129 -488 489 0
-129 488 489 0
-490 -191 0
-490 -192 0
-490 -197 0
-490 -198 0
-490 -203 0
-490 -204 0
-490 -208 0
-490 -209 0
490 191 192 197 198 203 204 208 209 0
-491 113 0
-491 -490 0
491 -113 490 0
-492 -167 0
-492 -168 0
-492 -172 0
-492 -173 0
-492 -177 0
-492 -178 0
-492 -182 0
-492 -183 0
492 167 168 172 173 177 178 182 183 0
-493 113 0
-493 -492 0
493 -113 492 0
-494 10 0
-494 -132 0
-494 -491 0
-494 -493 0
494 -10 132 491 493 0
-495 11 0
-495 13 0
-495 26 0
-495 43 0
-495 -122 0
-495 -160 0
-495 -199 0
-495 -210 0
-495 225 0
-495 -328 0
495 -11 -13 -26 -43 122 160 199 210 -225 328 0
-496 -494 0
-496 -495 0
496 494 495 0
134 496 -497 0
-134 -496 -497 0
134 -496 497 0
-134 496 497 0
-498 -187 0
-498 -188 0
-498 -193 0
-498 -195 0
-498 -200 0
-498 -201 0
-498 -205 0
-498 -206 0
498 187 188 193 195 200 201 205 206 0
-499 113 0
-499 -498 0
499 -113 498 0
-500 -164 0
-500 -165 0
-500 -169 0
-500 -170 0
-500 -174 0
-500 -175 0
-500 -179 0
-500 -180 0
500 164 165 169 170 174 175 179 180 0
-501 113 0
-501 -500 0
501 -113 500 0
-502 -189 0
-502 -196 0
-502 -202 0
-502 -207 0
502 189 196 202 207 0
-503 113 0
-503 -502 0
503 -113 502 0
-504 -166 0
-504 -171 0
-504 -176 0
-504 -181 0
504 166 171 176 181 0
-505 113 0
-505 -504 0
505 -113 504 0
-506 -119 0
-506 -120 0
506 119 120 0
-507 113 0
-507 -506 0
507 -113 506 0
-508 -114 0
-508 -115 0
508 114 115 0
-509 113 0
-509 -508 0
509 -113 508 0
-510 -108 0
-510 -109 0
510 108 109 0
-511 113 0
-511 -510 0
511 -113 510 0
-512 -74 0
-512 -75 0
512 74 75 0
-513 113 0
-513 -512 0
513 -113 512 0
-514 -63 0
-514 -64 0
514 63 64 0
-515 113 0
-515 -514 0
515 -113 514 0
-516 -49 0
-516 -50 0
516 49 50 0
-517 113 0
-517 -516 0
517 -113 516 0
-518 -36 0
-518 -37 0
518 36 37 0
-519 113 0
-519 -518 0
519 -113 518 0
-520 -29 0
-520 -30 0
520 29 30 0
-521 113 0
-521 -520 0
521 -113 520 0
-522 31 0
-522 113 0
522 -31 -113 0
-523 113 0
-523 121 0
523 -113 -121 0
-524 113 0
-524 116 0
524 -113 -116 0
-525 110 0
-525 113 0
525 -110 -113 0
-526 94 0
-526 113 0
526 -94 -113 0
-527 95 0
-527 113 0
527 -95 -113 0
-528 76 0
-528 113 0
528 -76 -113 0
-529 65 0
-529 113 0
529 -65 -113 0
-530 52 0
-530 113 0
530 -52 -113 0
-531 39 0
-531 113 0
531 -39 -113 0
-532 -134 0
-532 -136 0
-532 -499 0
-532 -501 0
-532 -503 0
-532 -505 0
-532 -507 0
-532 -509 0
-532 -511 0
-532 -513 0
-532 -515 0
-532 -517 0
-532 -519 0
-532 -521 0
-532 -522 0
-532 -523 0
-532 -524 0
-532 -525 0
-532 -526 0
-532 -527 0
-532 -528 0
-532 -529 0
-532 -530 0
-532 -531 0
532 134 136 499 501 503 505 507 509 511 513 515 517 519 521 522 523 524 525 526 527 528 529 530 531 0
-533 11 0
-533 13 0
-533 26 0
-533 43 0
-533 -122 0
-533 -160 0
-533 -199 0
-533 -210 0
-533 225 0
-533 -354 0
533 -11 -13 -26 -43 122 160 199 210 -225 354 0
-534 -532 0
-534 -533 0
534 532 533 0
137 534 -535 0
-137 -534 -535 0
137 -534 535 0
-137 534 535 0
-536 -104 0
-536 -106 0
-536 -137 0
536 104 106 137 0
-537 11 0
-537 13 0
-537 26 0
-537 43 0
-537 -122 0
-537 -160 0
-537 -199 0
-537 -210 0
-537 225 0
-537 -390 0
537 -11 -13 -26 -43 122 160 199 210 -225 390 0
-538 -536 0
-538 -537 0
538 536 537 0
140 538 -539 0
-140 -538 -539 0
140 -538 539 0
-140 538 539 0
-540 -125 0
-540 -139 0
540 125 139 0
-541 -11 0
-541 -13 0
-541 -26 0
-541 -43 0
-541 -122 0
-541 160 0
-541 -199 0
-541 210 0
-541 225 0
-541 -443 0
541 11 13 26 43 122 -160 199 -210 -225 443 0
-542 -540 0
-542 -541 0
542 540 541 0
-543 113 0
-543 227 0
543 -113 -227 0
542 543 -544 0
-542 -543 -544 0
542 -543 544 0
-542 543 544 0
-545 -2 0
-545 113 0
545 2 -113 0
-546 113 0
-546 -218 0
546 -113 218 0
-547 -130 0
-547 -545 0
-547 -546 0
547 130 545 546 0
-548 11 0
-548 13 0
-548 26 0
-548 43 0
-548 -122 0
-548 -160 0
-548 -199 0
-548 -210 0
-548 225 0
-548 -298 0
548 -11 -13 -26 -43 122 160 199 210 -225 298 0
-549 -547 0
-549 -548 0
549 547 548 0
132 549 -550 0
-132 -549 -550 0
132 -549 550 0
-132 549 550 0
-551 96 0
-551 -139 0
-551 -140 0
551 -96 139 140 0
-552 11 0
-552 13 0
-552 26 0
-552 43 0
-552 -122 0
-552 -160 0
-552 -199 0
-552 -210 0
-552 225 0
-552 -416 0
552 -11 -13 -26 -43 122 160 199 210 -225 416 0
-553 -551 0
-553 -552 0
553 551 552 0
142 553 -554 0
-142 -553 -554 0
142 -553 554 0
-142 553 554 0
-555 -1 0
-555 -231 0
555 1 231 0
-556 226 0
-556 -555 0
556 -226 555 0
-557 113 0
-557 -556 0
557 -113 556 0
-558 -216 0
-558 -217 0
558 216 217 0
-559 211 0
-559 -558 0
559 -211 558 0
-560 113 0
-560 -559 0
560 -113 559 0
-561 -142 0
-561 -557 0
-561 -560 0
561 142 557 560 0
-562 11 0
-562 13 0
-562 26 0
-562 43 0
-562 -122 0
-562 -160 0
-562 -199 0
-562 -210 0
-562 225 0
-562 -443 0
562 -11 -13 -26 -43 122 160 199 210 -225 443 0
-563 -561 0
-563 -562 0
563 561 562 0
145 563 -564 0
-145 -563 -564 0
145 -563 564 0
-145 563 564 0
-565 27 0
-565 -123 0
-565 -145 0
-565 -190 0
565 -27 123 145 190 0
-566 11 0
-566 13 0
-566 26 0
-566 43 0
-566 -122 0
-566 -160 0
-566 -199 0
-566 -210 0
-566 225 0
-566 -466 0
566 -11 -13 -26 -43 122 160 199 210 -225 466 0
-567 -565 0
-567 -566 0
567 565 566 0
131 567 -568 0
-131 -567 -568 0
131 -567 568 0
-131 567 568 0
-569 -117 0
-569 -129 0
569 117 129 0
-570 11 0
-570 13 0
-570 26 0
-570 43 0
-570 -122 0
-570 -160 0
-570 -199 0
-570 210 0
-570 225 0
-570 -298 0
570 -11 -13 -26 -43 122 160 199 -210 -225 298 0
-571 -569 0
-571 -570 0
571 569 570 0
149 571 -572 0
-149 -571 -572 0
149 -571 572 0
-149 571 572 0
-573 96 0
-573 -148 0
573 -96 148 0
-574 -11 0
-574 -13 0
-574 -26 0
-574 -43 0
-574 -122 0
-574 160 0
-574 -199 0
-574 210 0
-574 225 0
-574 -271 0
574 11 13 26 43 122 -160 199 -210 -225 271 0
-575 -573 0
-575 -574 0
575 573 574 0
152 575 -576 0
-152 -575 -576 0
152 -575 576 0
-152 575 576 0
-577 -136 0
-577 -149 0
577 136 149 0
-578 11 0
-578 -13 0
-578 -26 0
-578 -43 0
-578 -122 0
-578 160 0
-578 -199 0
-578 -210 0
-578 225 0
-578 -298 0
578 -11 13 26 43 122 -160 199 210 -225 298 0
-579 -577 0
-579 -578 0
579 577 578 0
151 579 -580 0
-151 -579 -580 0
151 -579 580 0
-151 579 580 0
-581 10 0
-581 -151 0
581 -10 151 0
-582 11 0
-582 -13 0
-582 -26 0
-582 -43 0
-582 -122 0
-582 160 0
-582 -199 0
-582 -210 0
-582 225 0
-582 -328 0
582 -11 13 26 43 122 -160 199 210 -225 328 0
-583 -581 0
-583 -582 0
583 581 582 0
150 583 -584 0
-150 -583 -584 0
150 -583 584 0
-150 583 584 0
-585 -150 0
-585 -491 0
-585 -493 0
585 150 491 493 0
-586 11 0
-586 -13 0
-586 -26 0
-586 -43 0
-586 -122 0
-586 160 0
-586 -199 0
-586 -210 0
-586 225 0
-586 -354 0
586 -11 13 26 43 122 -160 199 210 -225 354 0
-587 -585 0
-587 -586 0
587 585 586 0
146 587 -588 0
-146 -587 -588 0
146 -587 588 0
-146 587 588 0
-589 -146 0
-589 -507 0
-589 -509 0
-589 -511 0
-589 -513 0
-589 -515 0
-589 -517 0
-589 -519 0
-589 -521 0
589 146 507 509 511 513 515 517 519 521 0
-590 11 0
-590 -13 0
-590 -26 0
-590 -43 0
-590 -122 0
-590 160 0
-590 -199 0
-590 -210 0
-590 225 0
-590 -390 0
590 -11 13 26 43 122 -160 199 210 -225 390 0
-591 -589 0
-591 -590 0
591 589 590 0
154 591 -592 0
-154 -591 -592 0
154 -591 592 0
-154 591 592 0
-593 -154 0
-593 -522 0
-593 -523 0
-593 -524 0
-593 -525 0
-593 -526 0
-593 -527 0
-593 -528 0
-593 -529 0
-593 -530 0
-593 -531 0
593 154 522 523 524 525 526 527 528 529 530 531 0
-594 11 0
-594 -13 0
-594 -26 0
-594 -43 0
-594 -122 0
-594 160 0
-594 -199 0
-594 -210 0
-594 225 0
-594 -416 0
594 -11 13 26 43 122 -160 199 210 -225 416 0
-595 -593 0
-595 -594 0
595 593 594 0
156 595 -596 0
-156 -595 -596 0
156 -595 596 0
-156 595 596 0
-597 -156 0
-597 -499 0
-597 -501 0
597 156 499 501 0
-598 11 0
-598 -13 0
-598 -26 0
-598 -43 0
-598 -122 0
-598 160 0
-598 -199 0
-598 -210 0
-598 225 0
-598 -443 0
598 -11 13 26 43 122 -160 199 210 -225 443 0
-599 -597 0
-599 -598 0
599 597 598 0
158 599 -600 0
-158 -599 -600 0
158 -599 600 0
-158 599 600 0
-601 -158 0
-601 -503 0
-601 -505 0
601 158 503 505 0
-602 11 0
-602 -13 0
-602 -26 0
-602 -43 0
-602 -122 0
-602 160 0
-602 -199 0
-602 -210 0
-602 225 0
-602 -466 0
602 -11 13 26 43 122 -160 199 210 -225 466 0
-603 -601 0
-603 -602 0
603 601 602 0
7 603 -604 0
-7 -603 -604 0
7 -603 604 0
-7 603 604 0
-605 -11 0
-605 -13 0
-605 -26 0
-605 -43 0
-605 -122 0
-605 160 0
-605 -199 0
-605 210 0
-605 225 0
605 11 13 26 43 122 -160 199 -210 -225 0
-606 126 0
-606 -605 0
606 -126 605 0
-607 -11 0
-607 -13 0
-607 -26 0
-607 -43 0
-607 -122 0
-607 160 0
-607 -199 0
-607 210 0
-607 225 0
-607 -391 0
-607 -392 0
-607 -403 0
-607 -404 0
-607 -405 0
-607 -412 0
-607 -413 0
-607 -414 0
-607 -415 0
607 11 13 26 43 122 -160 199 -210 -225 391 392 403 404 405 412 413 414 415 0
-608 -606 0
-608 -607 0
608 606 607 0
125 608 -609 0
-125 -608 -609 0
125 -608 609 0
-125 608 609 0
-610 127 0
-610 -605 0
610 -127 605 0
-611 -11 0
-611 -13 0
-611 -26 0
-611 -43 0
-611 -122 0
-611 160 0
-611 -199 0
-611 210 0
-611 225 0
-611 -390 0
611 11 13 26 43 122 -160 199 -210 -225 390 0
-612 -610 0
-612 -611 0
612 610 611 0
126 612 -613 0
-126 -612 -613 0
126 -612 613 0
-126 612 613 0
-614 11 0
-614 13 0
-614 26 0
-614 43 0
-614 -122 0
-614 160 0
-614 -199 0
-614 -210 0
-614 225 0
614 -11 -13 -26 -43 122 -160 199 210 -225 0
-615 131 0
-615 -614 0
615 -131 614 0
-616 11 0
-616 13 0
-616 26 0
-616 43 0
-616 -122 0
-616 160 0
-616 -199 0
-616 -210 0
-616 225 0
-616 -298 0
616 -11 -13 -26 -43 122 -160 199 210 -225 298 0
-617 -615 0
-617 -616 0
617 615 616 0
133 617 -618 0
-133 -617 -618 0
133 -617 618 0
-133 617 618 0
-619 133 0
-619 -614 0
619 -133 614 0
-620 11 0
-620 13 0
-620 26 0
-620 43 0
-620 -122 0
-620 160 0
-620 -199 0
-620 -210 0
-620 225 0
-620 -328 0
620 -11 -13 -26 -43 122 -160 199 210 -225 328 0
-621 -619 0
-621 -620 0
621 619 620 0
135 621 -622 0
-135 -621 -622 0
135 -621 622 0
-135 621 622 0
-623 135 0
-623 -614 0
623 -135 614 0
-624 11 0
-624 13 0
-624 26 0
-624 43 0
-624 -122 0
-624 160 0
-624 -199 0
-624 -210 0
-624 225 0
-624 -354 0
624 -11 -13 -26 -43 122 -160 199 210 -225 354 0
-625 -623 0
-625 -624 0
625 623 624 0
138 625 -626 0
-138 -625 -626 0
138 -625 626 0
-138 625 626 0
-627 138 0
-627 -614 0
627 -138 614 0
-628 11 0
-628 13 0
-628 26 0
-628 43 0
-628 -122 0
-628 160 0
-628 -199 0
-628 -210 0
-628 225 0
-628 -390 0
628 -11 -13 -26 -43 122 -160 199 210 -225 390 0
-629 -627 0
-629 -628 0
629 627 628 0
141 629 -630 0
-141 -629 -630 0
141 -629 630 0
-141 629 630 0
-631 141 0
-631 -614 0
631 -141 614 0
-632 11 0
-632 13 0
-632 26 0
-632 43 0
-632 -122 0
-632 160 0
-632 -199 0
-632 -210 0
-632 225 0
-632 -416 0
632 -11 -13 -26 -43 122 -160 199 210 -225 416 0
-633 -631 0
-633 -632 0
633 631 632 0
143 633 -634 0
-143 -633 -634 0
143 -633 634 0
-143 633 634 0
-635 143 0
-635 -614 0
635 -143 614 0
-636 11 0
-636 13 0
-636 26 0
-636 43 0
-636 -122 0
-636 160 0
-636 -199 0
-636 -210 0
-636 225 0
-636 -443 0
636 -11 -13 -26 -43 122 -160 199 210 -225 443 0
-637 -635 0
-637 -636 0
637 635 636 0
144 637 -638 0
-144 -637 -638 0
144 -637 638 0
-144 637 638 0
-639 144 0
-639 -614 0
639 -144 614 0
-640 11 0
-640 13 0
-640 26 0
-640 43 0
-640 -122 0
-640 160 0
-640 -199 0
-640 -210 0
-640 225 0
-640 -466 0
640 -11 -13 -26 -43 122 -160 199 210 -225 466 0
-641 -639 0
-641 -640 0
641 639 640 0
128 641 -642 0
-128 -641 -642 0
128 -641 642 0
-128 641 642 0
-643 153 0
-643 -605 0
643 -153 605 0
-644 -11 0
-644 -13 0
-644 -26 0
-644 -43 0
-644 -122 0
-644 160 0
-644 -199 0
-644 210 0
-644 225 0
-644 -354 0
644 11 13 26 43 122 -160 199 -210 -225 354 0
-645 -643 0
-645 -644 0
645 643 644 0
127 645 -646 0
-127 -645 -646 0
127 -645 646 0
-127 645 646 0
-647 152 0
-647 -605 0
647 -152 605 0
-648 -11 0
-648 -13 0
-648 -26 0
-648 -43 0
-648 -122 0
-648 160 0
-648 -199 0
-648 210 0
-648 225 0
-648 -328 0
648 11 13 26 43 122 -160 199 -210 -225 328 0
-649 -647 0
-649 -648 0
649 647 648 0
153 649 -650 0
-153 -649 -650 0
153 -649 650 0
-153 649 650 0
-651 -11 0
-651 -13 0
-651 -26 0
-651 -43 0
-651 122 0
-651 160 0
-651 -199 0
-651 210 0
-651 225 0
651 11 13 26 43 -122 -160 199 -210 -225 0
-652 7 0
-652 -651 0
652 -7 651 0
-653 -11 0
-653 -13 0
-653 -26 0
-653 -43 0
-653 122 0
-653 160 0
-653 -199 0
-653 210 0
-653 225 0
-653 -328 0
653 11 13 26 43 -122 -160 199 -210 -225 328 0
-654 -652 0
-654 -653 0
654 652 653 0
111 654 -655 0
-111 -654 -655 0
111 -654 655 0
-111 654 655 0
-656 111 0
-656 -651 0
656 -111 651 0
-657 -11 0
-657 -13 0
-657 -26 0
-657 -43 0
-657 122 0
-657 160 0
-657 -199 0
-657 210 0
-657 225 0
-657 -354 0
657 11 13 26 43 -122 -160 199 -210 -225 354 0
-658 -656 0
-658 -657 0
658 656 657 0
147 658 -659 0
-147 -658 -659 0
147 -658 659 0
-147 658 659 0
-660 11 0
-660 -13 0
-660 -26 0
-660 -43 0
-660 -122 0
-660 -160 0
-660 -199 0
-660 -210 0
-660 225 0
660 -11 13 26 43 122 160 199 210 -225 0
-661 147 0
-661 -660 0
661 -147 660 0
-662 11 0
-662 -13 0
-662 -26 0
-662 -43 0
-662 -122 0
-662 -160 0
-662 -199 0
-662 -210 0
-662 225 0
-662 -390 0
662 -11 13 26 43 122 160 199 210 -225 390 0
-663 -661 0
-663 -662 0
663 661 662 0
155 663 -664 0
-155 -663 -664 0
155 -663 664 0
-155 663 664 0
-665 155 0
-665 -660 0
665 -155 660 0
-666 11 0
-666 -13 0
-666 -26 0
-666 -43 0
-666 -122 0
-666 -160 0
-666 -199 0
-666 -210 0
-666 225 0
-666 -416 0
666 -11 13 26 43 122 160 199 210 -225 416 0
-667 -665 0
-667 -666 0
667 665 666 0
157 667 -668 0
-157 -667 -668 0
157 -667 668 0
-157 667 668 0
-669 157 0
-669 -660 0
669 -157 660 0
-670 11 0
-670 -13 0
-670 -26 0
-670 -43 0
-670 -122 0
-670 -160 0
-670 -199 0
-670 -210 0
-670 225 0
-670 -443 0
670 -11 13 26 43 122 160 199 210 -225 443 0
-671 -669 0
-671 -670 0
671 669 670 0
159 671 -672 0
-159 -671 -672 0
159 -671 672 0
-159 671 672 0
-673 159 0
-673 -660 0
673 -159 660 0
-674 11 0
-674 -13 0
-674 -26 0
-674 -43 0
-674 -122 0
-674 -160 0
-674 -199 0
-674 -210 0
-674 225 0
-674 -466 0
674 -11 13 26 43 122 160 199 210 -225 466 0
-675 -673 0
-675 -674 0
675 673 674 0
148 675 -676 0
-148 -675 -676 0
148 -675 676 0
-148 675 676 0
-677 -124 0
-677 -130 0
-677 -489 0
-677 -497 0
-677 -535 0
-677 -539 0
-677 -544 0
-677 -550 0
-677 -554 0
-677 -564 0
-677 -568 0
-677 -572 0
-677 -576 0
-677 -580 0
-677 -584 0
-677 -588 0
-677 -592 0
-677 -596 0
-677 -600 0
-677 -604 0
-677 609 0
-677 613 0
-677 618 0
-677 622 0
-677 626 0
-677 630 0
-677 634 0
-677 638 0
-677 642 0
-677 646 0
-677 650 0
-677 655 0
-677 659 0
-677 664 0
-677 668 0
-677 672 0
-677 676 0
677 124 130 489 497 535 539 544 550 554 564 568 572 576 580 584 588 592 596 600 604 -609 -613 -618 -622 -626 -630 -634 -638 -642 -646 -650 -655 -659 -664 -668 -672 -676 0
-678 113 0
-678 -677 0
678 -113 677 0
