p cnf 76 189
-37 -15 0
-37 -24 0
37 15 24 0
-38 13 0
-38 -37 0
38 -13 37 0
-39 1 0
-39 -2 0
-39 3 0
-39 4 0
-39 -8 0
39 -1 2 -3 -4 8 0
-40 1 0
-40 2 0
-40 3 0
-40 -4 0
-40 -8 0
40 -1 -2 -3 4 8 0
-41 1 0
-41 -2 0
-41 -3 0
-41 4 0
-41 -8 0
41 -1 2 3 -4 8 0
-42 1 0
-42 2 0
-42 -3 0
-42 4 0
-42 -8 0
42 -1 -2 3 -4 8 0
-43 -1 0
-43 -2 0
-43 3 0
-43 4 0
-43 -8 0
43 1 2 -3 -4 8 0
-44 -1 0
-44 2 0
-44 3 0
-44 4 0
-44 -8 0
44 1 -2 -3 -4 8 0
-45 -39 0
-45 -40 0
-45 -41 0
-45 -42 0
-45 -43 0
-45 -44 0
45 39 40 41 42 43 44 0
-46 -35 0
-46 -38 0
-46 -45 0
46 35 38 45 0
-47 15 0
-47 17 0
-47 23 0
47 -15 -17 -23 0
-48 13 0
-48 -37 0
-48 -47 0
48 -13 37 47 0
-49 -39 0
-49 -40 0
-49 -41 0
-49 -42 0
49 39 40 41 42 0
-50 13 0
-50 36 0
-50 -37 0
-50 -49 0
50 -13 -36 37 49 0
-51 -43 0
-51 -44 0
51 43 44 0
-52 13 0
-52 -37 0
-52 -51 0
52 -13 37 51 0
-53 -48 0
-53 -50 0
-53 -52 0
53 48 50 52 0
-54 -25 0
-54 -53 0
54 25 53 0
-55 13 0
-55 -27 0
-55 -34 0
-55 -37 0
-55 -49 0
55 -13 27 34 37 49 0
-56 -21 0
-56 35 0
-56 -38 0
56 21 -35 38 0
-57 -33 0
-57 -38 0
-57 -47 0
57 33 38 47 0
33 57 -58 0
-33 -57 -58 0
33 -57 58 0
-33 57 58 0
-59 -54 0
-59 -55 0
-59 -56 0
-59 -58 0
59 54 55 56 58 0
-60 6 0
-60 14 0
-60 15 0
-60 -22 0
60 -6 -14 -15 22 0
-61 19 0
-61 -60 0
61 -19 60 0
-62 -18 0
-62 19 0
-62 20 0
62 18 -19 -20 0
-63 -5 0
-63 16 0
-63 -22 0
-63 -61 0
-63 -62 0
63 5 -16 22 61 62 0
-64 13 0
-64 -30 0
-64 -34 0
-64 -37 0
-64 -49 0
64 -13 30 34 37 49 0
-65 32 0
-65 -38 0
65 -32 38 0
-66 13 0
-66 -28 0
-66 -37 0
-66 -51 0
66 -13 28 37 51 0
-67 -65 0
-67 -66 0
67 65 66 0
-68 -26 0
-68 -67 0
68 26 67 0
-69 13 0
-69 28 0
-69 -29 0
-69 -37 0
69 -13 -28 29 37 0
-70 13 0
-70 -26 0
-70 -28 0
-70 34 0
-70 -37 0
-70 -43 0
-70 -44 0
70 -13 26 28 -34 37 43 44 0
-71 -32 0
-71 34 0
-71 -38 0
-71 -47 0
71 32 -34 38 47 0
-72 7 0
-72 9 0
-72 -10 0
-72 -11 0
-72 -12 0
-72 -71 0
72 -7 -9 10 11 12 71 0
71 72 -73 0
-71 -72 -73 0
71 -72 73 0
-71 72 73 0
-74 -31 0
-74 -63 0
-74 -64 0
-74 -68 0
-74 -69 0
-74 -70 0
-74 -73 0
74 31 63 64 68 69 70 73 0
-75 -59 0
-75 -74 0
75 59 74 0
-76 -46 0
-76 -75 0
76 46 75 0
