p cnf 148 481
-47 34 0
-47 35 0
-47 -36 0
-47 -38 0
-47 -39 0
47 -34 -35 36 38 39 0
-48 5 0
-48 10 0
-48 -13 0
-48 -14 0
-48 -15 0
-48 46 0
48 -5 -10 13 14 15 -46 0
-49 5 0
-49 6 0
-49 11 0
-49 12 0
-49 -13 0
-49 -14 0
-49 -15 0
-49 46 0
-49 -48 0
49 -5 -6 -11 -12 13 14 15 -46 48 0
-50 -8 0
-50 -9 0
50 8 9 0
-51 7 0
-51 10 0
-51 -11 0
-51 12 0
-51 13 0
-51 -14 0
-51 -15 0
-51 46 0
-51 -50 0
51 -7 -10 11 -12 -13 14 15 -46 50 0
-52 -49 0
-52 -51 0
52 49 51 0
-53 31 0
-53 -52 0
53 -31 52 0
-54 1 0
-54 -2 0
-54 3 0
-54 4 0
-54 -40 0
54 -1 2 -3 -4 40 0
-55 1 0
-55 2 0
-55 3 0
-55 -4 0
-55 -40 0
55 -1 -2 -3 4 40 0
-56 1 0
-56 -2 0
-56 -3 0
-56 4 0
-56 -40 0
56 -1 2 3 -4 40 0
-57 1 0
-57 2 0
-57 -3 0
-57 4 0
-57 -40 0
57 -1 -2 3 -4 40 0
-58 -54 0
-58 -55 0
-58 -56 0
-58 -57 0
58 54 55 56 57 0
-59 -37 0
-59 41 0
-59 42 0
-59 -43 0
-59 -44 0
59 37 -41 -42 43 44 0
-60 37 0
-60 41 0
-60 -42 0
-60 -43 0
-60 -44 0
60 -37 -41 42 43 44 0
-61 34 0
-61 -35 0
-61 -36 0
-61 38 0
-61 39 0
-61 -45 0
61 -34 35 36 -38 -39 45 0
-62 45 0
-62 -61 0
62 -45 61 0
-63 -43 0
-63 -53 0
-63 -58 0
-63 -59 0
-63 -60 0
-63 -62 0
63 43 53 58 59 60 62 0
-64 32 0
-64 -52 0
64 -32 52 0
-65 -43 0
-65 -58 0
-65 -59 0
-65 -60 0
-65 -62 0
-65 -64 0
65 43 58 59 60 62 64 0
-66 33 0
-66 -52 0
66 -33 52 0
-67 -43 0
-67 -58 0
-67 -59 0
-67 -60 0
-67 -62 0
-67 -66 0
67 43 58 59 60 62 66 0
-68 34 0
-68 -35 0
-68 -36 0
-68 38 0
-68 39 0
-68 45 0
68 -34 35 36 -38 -39 -45 0
-69 45 0
-69 -68 0
69 -45 68 0
-70 -43 0
-70 -58 0
-70 -59 0
-70 -60 0
-70 -69 0
70 43 58 59 60 69 0
-71 5 0
-71 23 0
-71 -70 0
71 -5 -23 70 0
-72 7 0
-72 32 0
-72 -70 0
72 -7 -32 70 0
-73 -70 0
-73 -71 0
-73 -72 0
73 70 71 72 0
-74 34 0
-74 -35 0
-74 -36 0
-74 38 0
-74 39 0
-74 -43 0
-74 45 0
-74 -58 0
-74 -59 0
-74 -60 0
74 -34 35 36 -38 -39 43 -45 58 59 60 0
-75 5 0
-75 23 0
-75 -74 0
75 -5 -23 74 0
-76 7 0
-76 32 0
-76 -74 0
76 -7 -32 74 0
-77 -74 0
-77 -75 0
-77 -76 0
77 74 75 76 0
73 77 -78 0
-73 -77 -78 0
73 -77 78 0
-73 77 78 0
-79 28 0
-79 -52 0
79 -28 52 0
-80 -43 0
-80 -58 0
-80 -59 0
-80 -60 0
-80 -62 0
-80 -79 0
80 43 58 59 60 62 79 0
-81 30 0
-81 -52 0
81 -30 52 0
-82 -43 0
-82 -58 0
-82 -59 0
-82 -60 0
-82 -62 0
-82 -81 0
82 43 58 59 60 62 81 0
-83 27 0
-83 -52 0
83 -27 52 0
-84 -43 0
-84 -58 0
-84 -59 0
-84 -60 0
-84 -62 0
-84 -83 0
84 43 58 59 60 62 83 0
-85 29 0
-85 -52 0
85 -29 52 0
-86 -43 0
-86 -58 0
-86 -59 0
-86 -60 0
-86 -62 0
-86 -85 0
86 43 58 59 60 62 85 0
-87 25 0
-87 -52 0
87 -25 52 0
-88 -43 0
-88 -58 0
-88 -59 0
-88 -60 0
-88 -62 0
-88 -87 0
88 43 58 59 60 62 87 0
-89 26 0
-89 -52 0
89 -26 52 0
-90 -43 0
-90 -58 0
-90 -59 0
-90 -60 0
-90 -62 0
-90 -89 0
90 43 58 59 60 62 89 0
-91 5 0
-91 16 0
-91 -70 0
91 -5 -16 70 0
-92 7 0
-92 25 0
-92 -70 0
92 -7 -25 70 0
-93 -70 0
-93 -91 0
-93 -92 0
93 70 91 92 0
-94 5 0
-94 16 0
-94 -74 0
94 -5 -16 74 0
-95 7 0
-95 25 0
-95 -74 0
95 -7 -25 74 0
-96 -74 0
-96 -94 0
-96 -95 0
96 74 94 95 0
93 96 -97 0
-93 -96 -97 0
93 -96 97 0
-93 96 97 0
-98 7 0
-98 31 0
-98 -70 0
98 -7 -31 70 0
-99 5 0
-99 22 0
-99 -70 0
99 -5 -22 70 0
-100 -70 0
-100 -98 0
-100 -99 0
100 70 98 99 0
-101 7 0
-101 31 0
-101 -74 0
101 -7 -31 74 0
-102 5 0
-102 22 0
-102 -74 0
102 -5 -22 74 0
-103 -74 0
-103 -101 0
-103 -102 0
103 74 101 102 0
100 103 -104 0
-100 -103 -104 0
100 -103 104 0
-100 103 104 0
-105 7 0
-105 27 0
-105 -70 0
105 -7 -27 70 0
-106 5 0
-106 18 0
-106 -70 0
106 -5 -18 70 0
-107 -70 0
-107 -105 0
-107 -106 0
107 70 105 106 0
-108 7 0
-108 27 0
-108 -74 0
108 -7 -27 74 0
-109 5 0
-109 18 0
-109 -74 0
109 -5 -18 74 0
-110 -74 0
-110 -108 0
-110 -109 0
110 74 108 109 0
107 110 -111 0
-107 -110 -111 0
107 -110 111 0
-107 110 111 0
-112 7 0
-112 33 0
-112 -70 0
112 -7 -33 70 0
-113 5 0
-113 24 0
-113 -70 0
113 -5 -24 70 0
-114 -70 0
-114 -112 0
-114 -113 0
114 70 112 113 0
-115 7 0
-115 33 0
-115 -74 0
115 -7 -33 74 0
-116 5 0
-116 24 0
-116 -74 0
116 -5 -24 74 0
-117 -74 0
-117 -115 0
-117 -116 0
117 74 115 116 0
114 117 -118 0
-114 -117 -118 0
114 -117 118 0
-114 117 118 0
-119 5 0
-119 17 0
-119 -70 0
119 -5 -17 70 0
-120 7 0
-120 26 0
-120 -70 0
120 -7 -26 70 0
-121 -70 0
-121 -119 0
-121 -120 0
121 70 119 120 0
-122 5 0
-122 17 0
-122 -74 0
122 -5 -17 74 0
-123 7 0
-123 26 0
-123 -74 0
123 -7 -26 74 0
-124 -74 0
-124 -122 0
-124 -123 0
124 74 122 123 0
121 124 -125 0
-121 -124 -125 0
121 -124 125 0
-121 124 125 0
-126 7 0
-126 30 0
-126 -70 0
126 -7 -30 70 0
-127 5 0
-127 21 0
-127 -70 0
127 -5 -21 70 0
-128 -70 0
-128 -126 0
-128 -127 0
128 70 126 127 0
-129 7 0
-129 30 0
-129 -74 0
129 -7 -30 74 0
-130 5 0
-130 21 0
-130 -74 0
130 -5 -21 74 0
-131 -74 0
-131 -129 0
-131 -130 0
131 74 129 130 0
128 131 -132 0
-128 -131 -132 0
128 -131 132 0
-128 131 132 0
-133 5 0
-133 19 0
-133 -70 0
133 -5 -19 70 0
-134 7 0
-134 28 0
-134 -70 0
134 -7 -28 70 0
-135 -70 0
-135 -133 0
-135 -134 0
135 70 133 134 0
-136 5 0
-136 19 0
-136 -74 0
136 -5 -19 74 0
-137 7 0
-137 28 0
-137 -74 0
137 -7 -28 74 0
-138 -74 0
-138 -136 0
-138 -137 0
138 74 136 137 0
135 138 -139 0
-135 -138 -139 0
135 -138 139 0
-135 138 139 0
-140 5 0
-140 20 0
-140 -70 0
140 -5 -20 70 0
-141 7 0
-141 29 0
-141 -70 0
141 -7 -29 70 0
-142 -70 0
-142 -140 0
-142 -141 0
142 70 140 141 0
-143 5 0
-143 20 0
-143 -74 0
143 -5 -20 74 0
-144 7 0
-144 29 0
-144 -74 0
144 -7 -29 74 0
-145 -74 0
-145 -143 0
-145 -144 0
145 74 143 144 0
142 145 -146 0
-142 -145 -146 0
142 -145 146 0
-142 145 146 0
-147 -63 0
-147 -65 0
-147 -67 0
-147 -78 0
-147 -80 0
-147 -82 0
-147 -84 0
-147 -86 0
-147 -88 0
-147 -90 0
-147 -97 0
-147 -104 0
-147 -111 0
-147 -118 0
-147 -125 0
-147 -132 0
-147 -139 0
-147 -146 0
147 63 65 67 78 80 82 84 86 88 90 97 104 111 118 125 132 139 146 0
-148 -47 0
-148 -147 0
148 47 147 0
