p cnf 153 431
-47 34 0
-47 35 0
-47 -36 0
-47 -38 0
-47 -39 0
-47 -45 0
47 -34 -35 36 38 39 45 0
-48 34 0
-48 -35 0
-48 -36 0
-48 38 0
-48 39 0
-48 45 0
48 -34 35 36 -38 -39 -45 0
-49 5 0
-49 10 0
-49 -13 0
-49 -14 0
-49 -15 0
-49 46 0
49 -5 -10 13 14 15 -46 0
-50 5 0
-50 6 0
-50 11 0
-50 12 0
-50 -13 0
-50 -14 0
-50 -15 0
-50 46 0
-50 -49 0
50 -5 -6 -11 -12 13 14 15 -46 49 0
-51 -8 0
-51 -9 0
51 8 9 0
-52 7 0
-52 10 0
-52 -11 0
-52 12 0
-52 13 0
-52 -14 0
-52 -15 0
-52 46 0
-52 -51 0
52 -7 -10 11 -12 -13 14 15 -46 51 0
-53 -50 0
-53 -52 0
53 50 52 0
-54 31 0
-54 -53 0
54 -31 53 0
-55 1 0
-55 -2 0
-55 3 0
-55 4 0
-55 -40 0
55 -1 2 -3 -4 40 0
-56 1 0
-56 2 0
-56 3 0
-56 -4 0
-56 -40 0
56 -1 -2 -3 4 40 0
-57 1 0
-57 -2 0
-57 -3 0
-57 4 0
-57 -40 0
57 -1 2 3 -4 40 0
-58 1 0
-58 2 0
-58 -3 0
-58 4 0
-58 -40 0
58 -1 -2 3 -4 40 0
-59 -55 0
-59 -56 0
-59 -57 0
-59 -58 0
59 55 56 57 58 0
-60 -37 0
-60 41 0
-60 42 0
-60 -43 0
-60 -44 0
60 37 -41 -42 43 44 0
-61 37 0
-61 41 0
-61 -42 0
-61 -43 0
-61 -44 0
61 -37 -41 42 43 44 0
-62 -43 0
-62 -59 0
-62 -60 0
-62 -61 0
62 43 59 60 61 0
-63 -54 0
-63 -62 0
63 54 62 0
54 63 -64 0
-54 -63 -64 0
54 -63 64 0
-54 63 64 0
-65 32 0
-65 -53 0
65 -32 53 0
-66 -62 0
-66 -65 0
66 62 65 0
65 66 -67 0
-65 -66 -67 0
65 -66 67 0
-65 66 67 0
-68 33 0
-68 -53 0
68 -33 53 0
-69 -62 0
-69 -68 0
69 62 68 0
68 69 -70 0
-68 -69 -70 0
68 -69 70 0
-68 69 70 0
-71 5 0
-71 23 0
-71 -62 0
71 -5 -23 62 0
-72 7 0
-72 32 0
-72 -62 0
72 -7 -32 62 0
-73 -62 0
-73 -71 0
-73 -72 0
73 62 71 72 0
-74 5 0
-74 23 0
74 -5 -23 0
-75 7 0
-75 32 0
75 -7 -32 0
-76 -74 0
-76 -75 0
76 74 75 0
73 76 -77 0
-73 -76 -77 0
73 -76 77 0
-73 76 77 0
-78 28 0
-78 -53 0
78 -28 53 0
-79 -62 0
-79 -78 0
79 62 78 0
78 79 -80 0
-78 -79 -80 0
78 -79 80 0
-78 79 80 0
-81 30 0
-81 -53 0
81 -30 53 0
-82 -62 0
-82 -81 0
82 62 81 0
81 82 -83 0
-81 -82 -83 0
81 -82 83 0
-81 82 83 0
-84 27 0
-84 -53 0
84 -27 53 0
-85 -62 0
-85 -84 0
85 62 84 0
84 85 -86 0
-84 -85 -86 0
84 -85 86 0
-84 85 86 0
-87 29 0
-87 -53 0
87 -29 53 0
-88 -62 0
-88 -87 0
88 62 87 0
87 88 -89 0
-87 -88 -89 0
87 -88 89 0
-87 88 89 0
-90 25 0
-90 -53 0
90 -25 53 0
-91 -62 0
-91 -90 0
91 62 90 0
90 91 -92 0
-90 -91 -92 0
90 -91 92 0
-90 91 92 0
-93 26 0
-93 -53 0
93 -26 53 0
-94 -62 0
-94 -93 0
94 62 93 0
93 94 -95 0
-93 -94 -95 0
93 -94 95 0
-93 94 95 0
-96 5 0
-96 16 0
-96 -62 0
96 -5 -16 62 0
-97 7 0
-97 25 0
-97 -62 0
97 -7 -25 62 0
-98 -62 0
-98 -96 0
-98 -97 0
98 62 96 97 0
-99 5 0
-99 16 0
99 -5 -16 0
-100 7 0
-100 25 0
100 -7 -25 0
-101 -99 0
-101 -100 0
101 99 100 0
98 101 -102 0
-98 -101 -102 0
98 -101 102 0
-98 101 102 0
-103 7 0
-103 31 0
-103 -62 0
103 -7 -31 62 0
-104 5 0
-104 22 0
-104 -62 0
104 -5 -22 62 0
-105 -62 0
-105 -103 0
-105 -104 0
105 62 103 104 0
-106 7 0
-106 31 0
106 -7 -31 0
-107 5 0
-107 22 0
107 -5 -22 0
-108 -106 0
-108 -107 0
108 106 107 0
105 108 -109 0
-105 -108 -109 0
105 -108 109 0
-105 108 109 0
-110 7 0
-110 27 0
-110 -62 0
110 -7 -27 62 0
-111 5 0
-111 18 0
-111 -62 0
111 -5 -18 62 0
-112 -62 0
-112 -110 0
-112 -111 0
112 62 110 111 0
-113 7 0
-113 27 0
113 -7 -27 0
-114 5 0
-114 18 0
114 -5 -18 0
-115 -113 0
-115 -114 0
115 113 114 0
112 115 -116 0
-112 -115 -116 0
112 -115 116 0
-112 115 116 0
-117 7 0
-117 33 0
-117 -62 0
117 -7 -33 62 0
-118 5 0
-118 24 0
-118 -62 0
118 -5 -24 62 0
-119 -62 0
-119 -117 0
-119 -118 0
119 62 117 118 0
-120 7 0
-120 33 0
120 -7 -33 0
-121 5 0
-121 24 0
121 -5 -24 0
-122 -120 0
-122 -121 0
122 120 121 0
119 122 -123 0
-119 -122 -123 0
119 -122 123 0
-119 122 123 0
-124 5 0
-124 17 0
-124 -62 0
124 -5 -17 62 0
-125 7 0
-125 26 0
-125 -62 0
125 -7 -26 62 0
-126 -62 0
-126 -124 0
-126 -125 0
126 62 124 125 0
-127 5 0
-127 17 0
127 -5 -17 0
-128 7 0
-128 26 0
128 -7 -26 0
-129 -127 0
-129 -128 0
129 127 128 0
126 129 -130 0
-126 -129 -130 0
126 -129 130 0
-126 129 130 0
-131 7 0
-131 30 0
-131 -62 0
131 -7 -30 62 0
-132 5 0
-132 21 0
-132 -62 0
132 -5 -21 62 0
-133 -62 0
-133 -131 0
-133 -132 0
133 62 131 132 0
-134 7 0
-134 30 0
134 -7 -30 0
-135 5 0
-135 21 0
135 -5 -21 0
-136 -134 0
-136 -135 0
136 134 135 0
133 136 -137 0
-133 -136 -137 0
133 -136 137 0
-133 136 137 0
-138 5 0
-138 19 0
-138 -62 0
138 -5 -19 62 0
-139 7 0
-139 28 0
-139 -62 0
139 -7 -28 62 0
-140 -62 0
-140 -138 0
-140 -139 0
140 62 138 139 0
-141 5 0
-141 19 0
141 -5 -19 0
-142 7 0
-142 28 0
142 -7 -28 0
-143 -141 0
-143 -142 0
143 141 142 0
140 143 -144 0
-140 -143 -144 0
140 -143 144 0
-140 143 144 0
-145 5 0
-145 20 0
-145 -62 0
145 -5 -20 62 0
-146 7 0
-146 29 0
-146 -62 0
146 -7 -29 62 0
-147 -62 0
-147 -145 0
-147 -146 0
147 62 145 146 0
-148 5 0
-148 20 0
148 -5 -20 0
-149 7 0
-149 29 0
149 -7 -29 0
-150 -148 0
-150 -149 0
150 148 149 0
147 150 -151 0
-147 -150 -151 0
147 -150 151 0
-147 150 151 0
-152 64 0
-152 67 0
-152 70 0
-152 -77 0
-152 80 0
-152 83 0
-152 86 0
-152 89 0
-152 92 0
-152 95 0
-152 -102 0
-152 -109 0
-152 -116 0
-152 -123 0
-152 -130 0
-152 -137 0
-152 -144 0
-152 -151 0
152 -64 -67 -70 77 -80 -83 -86 -89 -92 -95 102 109 116 123 130 137 144 151 0
-153 -47 0
-153 -48 0
-153 -152 0
153 47 48 152 0
