p cnf 333 1038
6 67 -326 0
-6 -67 -326 0
6 -67 326 0
-6 67 326 0
326 73 -105 0
-326 -73 -105 0
326 -73 105 0
-326 73 105 0
2 6 -327 0
-2 -6 -327 0
2 -6 327 0
-2 6 327 0
327 75 -328 0
-327 -75 -328 0
327 -75 328 0
-327 75 328 0
328 76 -106 0
-328 -76 -106 0
328 -76 106 0
-328 76 106 0
-107 -3 0
-107 -4 0
-107 -7 0
107 3 4 7 0
-108 -3 0
-108 4 0
-108 7 0
108 3 -4 -7 0
-109 3 0
-109 4 0
-109 -7 0
109 -3 -4 7 0
-110 3 0
-110 -4 0
-110 7 0
110 -3 4 -7 0
-111 -17 0
-111 -18 0
-111 20 0
-111 30 0
-111 -74 0
-111 -107 0
-111 -108 0
-111 -109 0
-111 -110 0
111 17 18 -20 -30 74 107 108 109 110 0
-112 -107 0
-112 -108 0
-112 -109 0
-112 -110 0
112 107 108 109 110 0
-113 -17 0
-113 -18 0
-113 20 0
-113 30 0
-113 -74 0
113 17 18 -20 -30 74 0
-114 -112 0
-114 -113 0
114 112 113 0
-115 -111 0
-115 -114 0
115 111 114 0
-116 73 0
-116 75 0
-116 105 0
-116 -106 0
-116 -115 0
116 -73 -75 -105 106 115 0
7 29 -117 0
-7 -29 -117 0
7 -29 117 0
-7 29 117 0
-118 -73 0
-118 -75 0
-118 -105 0
-118 106 0
-118 -117 0
118 73 75 105 -106 117 0
4 31 -329 0
-4 -31 -329 0
4 -31 329 0
-4 31 329 0
329 32 -119 0
-329 -32 -119 0
329 -32 119 0
-329 32 119 0
-120 73 0
-120 -75 0
-120 105 0
-120 106 0
-120 -119 0
120 -73 75 -105 -106 119 0
-121 -32 0
-121 -73 0
-121 -75 0
-121 105 0
-121 106 0
121 32 73 75 -105 -106 0
-122 -29 0
-122 73 0
-122 -75 0
-122 -105 0
-122 106 0
122 29 -73 75 105 -106 0
-123 -25 0
-123 73 0
-123 75 0
-123 105 0
-123 106 0
123 25 -73 -75 -105 -106 0
-124 -31 0
-124 -73 0
-124 75 0
-124 -105 0
-124 106 0
124 31 73 -75 105 -106 0
-125 -16 0
-125 -73 0
-125 75 0
-125 105 0
-125 106 0
125 16 73 -75 -105 -106 0
3 16 -330 0
-3 -16 -330 0
3 -16 330 0
-3 16 330 0
330 25 -126 0
-330 -25 -126 0
330 -25 126 0
-330 25 126 0
-127 73 0
-127 75 0
-127 -105 0
-127 106 0
-127 -126 0
127 -73 -75 105 -106 126 0
-128 -116 0
-128 -118 0
-128 -120 0
-128 -121 0
-128 -122 0
-128 -123 0
-128 -124 0
-128 -125 0
-128 -127 0
128 116 118 120 121 122 123 124 125 127 0
-129 -17 0
-129 18 0
-129 20 0
-129 30 0
-129 -74 0
129 17 -18 -20 -30 74 0
-130 -113 0
-130 -129 0
130 113 129 0
-131 -19 0
-131 81 0
-131 83 0
-131 88 0
131 19 -81 -83 -88 0
-132 81 0
-132 83 0
-132 88 0
132 -81 -83 -88 0
-133 -91 0
-133 -132 0
133 91 132 0
-134 -131 0
-134 -133 0
134 131 133 0
-135 73 0
-135 -75 0
-135 76 0
-135 105 0
-135 -106 0
-135 -134 0
135 -73 75 -76 -105 106 134 0
-136 -12 0
-136 81 0
-136 83 0
-136 88 0
136 12 -81 -83 -88 0
-137 -65 0
-137 -132 0
137 65 132 0
-138 -136 0
-138 -137 0
138 136 137 0
-139 -73 0
-139 75 0
-139 76 0
-139 -105 0
-139 -106 0
-139 -138 0
139 73 -75 -76 105 106 138 0
-140 -26 0
-140 81 0
-140 83 0
-140 88 0
140 26 -81 -83 -88 0
-141 -66 0
-141 -132 0
141 66 132 0
-142 -140 0
-142 -141 0
142 140 141 0
-143 -73 0
-143 -75 0
-143 76 0
-143 105 0
-143 -106 0
-143 -142 0
143 73 75 -76 -105 106 142 0
-144 -13 0
-144 81 0
-144 83 0
-144 88 0
144 13 -81 -83 -88 0
-145 -64 0
-145 -132 0
145 64 132 0
-146 -144 0
-146 -145 0
146 144 145 0
-147 73 0
-147 75 0
-147 76 0
-147 -105 0
-147 -106 0
-147 -146 0
147 -73 -75 -76 105 106 146 0
-148 17 0
-148 18 0
-148 20 0
-148 -30 0
-148 -74 0
148 -17 -18 -20 30 74 0
-149 -113 0
-149 -129 0
-149 -148 0
149 113 129 148 0
-150 -73 0
-150 75 0
-150 76 0
-150 105 0
-150 106 0
-150 -149 0
150 73 -75 -76 -105 -106 149 0
-151 79 0
-151 -148 0
151 -79 148 0
-152 73 0
-152 75 0
-152 76 0
-152 105 0
-152 106 0
-152 -151 0
152 -73 -75 -76 -105 -106 151 0
-153 -15 0
-153 81 0
-153 83 0
-153 88 0
153 15 -81 -83 -88 0
-154 -8 0
-154 -132 0
154 8 132 0
-155 -153 0
-155 -154 0
155 153 154 0
-156 73 0
-156 -75 0
-156 76 0
-156 105 0
-156 106 0
-156 -155 0
156 -73 75 -76 -105 -106 155 0
-157 -104 0
-157 -132 0
157 104 132 0
-158 -23 0
-158 81 0
-158 83 0
-158 88 0
158 23 -81 -83 -88 0
-159 -157 0
-159 -158 0
159 157 158 0
-160 73 0
-160 75 0
-160 76 0
-160 -105 0
-160 106 0
-160 -159 0
160 -73 -75 -76 105 -106 159 0
-161 -10 0
-161 -132 0
161 10 132 0
-162 -27 0
-162 81 0
-162 83 0
-162 88 0
162 27 -81 -83 -88 0
-163 -161 0
-163 -162 0
163 161 162 0
-164 -73 0
-164 -75 0
-164 76 0
-164 105 0
-164 106 0
-164 -163 0
164 73 75 -76 -105 -106 163 0
-165 -28 0
-165 81 0
-165 83 0
-165 88 0
165 28 -81 -83 -88 0
-166 -11 0
-166 -132 0
166 11 132 0
-167 -165 0
-167 -166 0
167 165 166 0
-168 -73 0
-168 75 0
-168 76 0
-168 -105 0
-168 106 0
-168 -167 0
168 73 -75 -76 105 -106 167 0
-169 -9 0
-169 81 0
-169 83 0
-169 88 0
169 9 -81 -83 -88 0
-170 -100 0
-170 -132 0
170 100 132 0
-171 -169 0
-171 -170 0
171 169 170 0
-172 -73 0
-172 75 0
-172 76 0
-172 105 0
-172 -106 0
-172 -171 0
172 73 -75 -76 -105 106 171 0
-173 -101 0
-173 -132 0
173 101 132 0
-174 -14 0
-174 81 0
-174 83 0
-174 88 0
174 14 -81 -83 -88 0
-175 -173 0
-175 -174 0
175 173 174 0
-176 73 0
-176 75 0
-176 76 0
-176 105 0
-176 -106 0
-176 -175 0
176 -73 -75 -76 -105 106 175 0
-177 -103 0
-177 -132 0
177 103 132 0
-178 -22 0
-178 81 0
-178 83 0
-178 88 0
178 22 -81 -83 -88 0
-179 -177 0
-179 -178 0
179 177 178 0
-180 -73 0
-180 -75 0
-180 76 0
-180 -105 0
-180 106 0
-180 -179 0
180 73 75 -76 105 -106 179 0
-181 -102 0
-181 -132 0
181 102 132 0
-182 -21 0
-182 81 0
-182 83 0
-182 88 0
182 21 -81 -83 -88 0
-183 -181 0
-183 -182 0
183 181 182 0
-184 73 0
-184 -75 0
-184 76 0
-184 -105 0
-184 106 0
-184 -183 0
184 -73 75 -76 105 -106 183 0
-185 -135 0
-185 -139 0
-185 -143 0
-185 -147 0
-185 -150 0
-185 -152 0
-185 -156 0
-185 -160 0
-185 -164 0
-185 -168 0
-185 -172 0
-185 -176 0
-185 -180 0
-185 -184 0
185 135 139 143 147 150 152 156 160 164 168 172 176 180 184 0
-186 98 0
-186 -185 0
186 -98 185 0
-187 -24 0
-187 -72 0
-187 82 0
187 24 72 -82 0
-188 -81 0
-188 -89 0
188 81 89 0
-189 78 0
-189 -188 0
189 -78 188 0
-190 -95 0
-190 -97 0
-190 -132 0
-190 -189 0
190 95 97 132 189 0
-191 78 0
-191 -90 0
-191 -97 0
-191 -132 0
-191 -188 0
191 -78 90 97 132 188 0
-192 -2 0
-192 -128 0
-192 -130 0
-192 -186 0
-192 -187 0
-192 -190 0
-192 -191 0
192 2 128 130 186 187 190 191 0
-193 -1 0
-193 -128 0
-193 -130 0
-193 -186 0
-193 -187 0
-193 -190 0
-193 -191 0
193 1 128 130 186 187 190 191 0
-194 34 0
-194 80 0
-194 81 0
-194 -87 0
194 -34 -80 -81 87 0
-195 85 0
-195 -194 0
195 -85 194 0
-196 -84 0
-196 85 0
-196 86 0
196 84 -85 -86 0
-197 -33 0
-197 82 0
-197 -87 0
-197 -195 0
-197 -196 0
197 33 -82 87 195 196 0
-198 17 0
-198 -18 0
-198 20 0
-198 30 0
-198 -74 0
198 -17 18 -20 -30 74 0
-199 17 0
-199 -18 0
-199 -20 0
-199 30 0
-199 -74 0
199 -17 18 20 -30 74 0
-200 17 0
-200 18 0
-200 -20 0
-200 30 0
-200 -74 0
200 -17 -18 20 -30 74 0
-201 -148 0
-201 -198 0
-201 -199 0
-201 -200 0
201 148 198 199 200 0
-202 78 0
-202 -94 0
-202 -97 0
-202 -188 0
-202 -201 0
202 -78 94 97 188 201 0
-203 96 0
-203 -189 0
203 -96 189 0
-204 78 0
-204 -92 0
-204 -130 0
-204 -188 0
204 -78 92 130 188 0
-205 -203 0
-205 -204 0
205 203 204 0
-206 -90 0
-206 -205 0
206 90 205 0
-207 -113 0
-207 -129 0
-207 -148 0
-207 -198 0
-207 -199 0
-207 -200 0
207 113 129 148 198 199 200 0
-208 -96 0
-208 97 0
-208 -132 0
-208 -189 0
208 96 -97 132 189 0
-209 78 0
-209 92 0
-209 -93 0
-209 -188 0
209 -78 -92 93 188 0
-210 78 0
-210 -90 0
-210 -92 0
-210 97 0
-210 -113 0
-210 -129 0
-210 -188 0
210 -78 90 92 -97 113 129 188 0
-211 73 0
-211 75 0
-211 -95 0
-211 -99 0
-211 -105 0
-211 -106 0
-211 -189 0
-211 -197 0
-211 -202 0
-211 -206 0
-211 -207 0
-211 -208 0
-211 -209 0
-211 -210 0
211 -73 -75 95 99 105 106 189 197 202 206 207 208 209 210 0
1 5 -331 0
-1 -5 -331 0
1 -5 331 0
-1 5 331 0
331 70 -332 0
-331 -70 -332 0
331 -70 332 0
-331 70 332 0
332 71 -212 0
-332 -71 -212 0
332 -71 212 0
-332 71 212 0
5 68 -333 0
-5 -68 -333 0
5 -68 333 0
-5 68 333 0
333 69 -213 0
-333 -69 -213 0
333 -69 213 0
-333 69 213 0
-214 -199 0
-214 -200 0
214 199 200 0
-215 69 0
-215 -70 0
-215 71 0
-215 -73 0
-215 75 0
-215 105 0
-215 -106 0
-215 212 0
-215 213 0
-215 -214 0
215 -69 70 -71 73 -75 -105 106 -212 -213 214 0
-216 -186 0
-216 -187 0
-216 -190 0
-216 -191 0
216 186 187 190 191 0
-217 -128 0
-217 -130 0
217 128 130 0
-218 -186 0
-218 -187 0
-218 -190 0
-218 -191 0
-218 -217 0
218 186 187 190 191 217 0
-219 -217 0
-219 -218 0
219 217 218 0
216 219 -220 0
-216 -219 -220 0
216 -219 220 0
-216 219 220 0
-221 -186 0
-221 -187 0
-221 -190 0
-221 -191 0
-221 -220 0
221 186 187 190 191 220 0
-222 35 0
-222 40 0
-222 -43 0
-222 -44 0
-222 -45 0
-222 82 0
222 -35 -40 43 44 45 -82 0
-223 35 0
-223 36 0
-223 41 0
-223 42 0
-223 -43 0
-223 -44 0
-223 -45 0
-223 82 0
-223 -222 0
223 -35 -36 -41 -42 43 44 45 -82 222 0
-224 -38 0
-224 -39 0
224 38 39 0
-225 37 0
-225 40 0
-225 -41 0
-225 42 0
-225 43 0
-225 -44 0
-225 -45 0
-225 82 0
-225 -224 0
225 -37 -40 41 -42 -43 44 45 -82 224 0
-226 -223 0
-226 -225 0
226 223 225 0
-227 61 0
-227 -226 0
227 -61 226 0
-228 73 0
-228 75 0
-228 -105 0
-228 -106 0
228 -73 -75 105 106 0
-229 -73 0
-229 75 0
-229 105 0
-229 -106 0
229 73 -75 -105 106 0
-230 69 0
-230 70 0
-230 -71 0
-230 -77 0
-230 -212 0
-230 -213 0
230 -69 -70 71 77 212 213 0
-231 69 0
-231 -70 0
-231 -71 0
-231 77 0
-231 212 0
-231 213 0
231 -69 70 71 -77 -212 -213 0
-232 -230 0
-232 -231 0
232 230 231 0
-233 -201 0
-233 -228 0
-233 -229 0
-233 -232 0
233 201 228 229 232 0
-234 -227 0
-234 -233 0
234 227 233 0
227 234 -235 0
-227 -234 -235 0
227 -234 235 0
-227 234 235 0
-236 62 0
-236 -226 0
236 -62 226 0
-237 -233 0
-237 -236 0
237 233 236 0
236 237 -238 0
-236 -237 -238 0
236 -237 238 0
-236 237 238 0
-239 63 0
-239 -226 0
239 -63 226 0
-240 -233 0
-240 -239 0
240 233 239 0
239 240 -241 0
-239 -240 -241 0
239 -240 241 0
-239 240 241 0
-242 35 0
-242 53 0
-242 -233 0
242 -35 -53 233 0
-243 37 0
-243 62 0
-243 -233 0
243 -37 -62 233 0
-244 -233 0
-244 -242 0
-244 -243 0
244 233 242 243 0
-245 35 0
-245 53 0
245 -35 -53 0
-246 37 0
-246 62 0
246 -37 -62 0
-247 -245 0
-247 -246 0
247 245 246 0
244 247 -248 0
-244 -247 -248 0
244 -247 248 0
-244 247 248 0
-249 58 0
-249 -226 0
249 -58 226 0
-250 -233 0
-250 -249 0
250 233 249 0
249 250 -251 0
-249 -250 -251 0
249 -250 251 0
-249 250 251 0
-252 60 0
-252 -226 0
252 -60 226 0
-253 -233 0
-253 -252 0
253 233 252 0
252 253 -254 0
-252 -253 -254 0
252 -253 254 0
-252 253 254 0
-255 57 0
-255 -226 0
255 -57 226 0
-256 -233 0
-256 -255 0
256 233 255 0
255 256 -257 0
-255 -256 -257 0
255 -256 257 0
-255 256 257 0
-258 59 0
-258 -226 0
258 -59 226 0
-259 -233 0
-259 -258 0
259 233 258 0
258 259 -260 0
-258 -259 -260 0
258 -259 260 0
-258 259 260 0
-261 55 0
-261 -226 0
261 -55 226 0
-262 -233 0
-262 -261 0
262 233 261 0
261 262 -263 0
-261 -262 -263 0
261 -262 263 0
-261 262 263 0
-264 56 0
-264 -226 0
264 -56 226 0
-265 -233 0
-265 -264 0
265 233 264 0
264 265 -266 0
-264 -265 -266 0
264 -265 266 0
-264 265 266 0
-267 35 0
-267 46 0
-267 -233 0
267 -35 -46 233 0
-268 37 0
-268 55 0
-268 -233 0
268 -37 -55 233 0
-269 -233 0
-269 -267 0
-269 -268 0
269 233 267 268 0
-270 35 0
-270 46 0
270 -35 -46 0
-271 37 0
-271 55 0
271 -37 -55 0
-272 -270 0
-272 -271 0
272 270 271 0
269 272 -273 0
-269 -272 -273 0
269 -272 273 0
-269 272 273 0
-274 37 0
-274 61 0
-274 -233 0
274 -37 -61 233 0
-275 35 0
-275 52 0
-275 -233 0
275 -35 -52 233 0
-276 -233 0
-276 -274 0
-276 -275 0
276 233 274 275 0
-277 37 0
-277 61 0
277 -37 -61 0
-278 35 0
-278 52 0
278 -35 -52 0
-279 -277 0
-279 -278 0
279 277 278 0
276 279 -280 0
-276 -279 -280 0
276 -279 280 0
-276 279 280 0
-281 37 0
-281 57 0
-281 -233 0
281 -37 -57 233 0
-282 35 0
-282 48 0
-282 -233 0
282 -35 -48 233 0
-283 -233 0
-283 -281 0
-283 -282 0
283 233 281 282 0
-284 37 0
-284 57 0
284 -37 -57 0
-285 35 0
-285 48 0
285 -35 -48 0
-286 -284 0
-286 -285 0
286 284 285 0
283 286 -287 0
-283 -286 -287 0
283 -286 287 0
-283 286 287 0
-288 37 0
-288 63 0
-288 -233 0
288 -37 -63 233 0
-289 35 0
-289 54 0
-289 -233 0
289 -35 -54 233 0
-290 -233 0
-290 -288 0
-290 -289 0
290 233 288 289 0
-291 37 0
-291 63 0
291 -37 -63 0
-292 35 0
-292 54 0
292 -35 -54 0
-293 -291 0
-293 -292 0
293 291 292 0
290 293 -294 0
-290 -293 -294 0
290 -293 294 0
-290 293 294 0
-295 35 0
-295 47 0
-295 -233 0
295 -35 -47 233 0
-296 37 0
-296 56 0
-296 -233 0
296 -37 -56 233 0
-297 -233 0
-297 -295 0
-297 -296 0
297 233 295 296 0
-298 35 0
-298 47 0
298 -35 -47 0
-299 37 0
-299 56 0
299 -37 -56 0
-300 -298 0
-300 -299 0
300 298 299 0
297 300 -301 0
-297 -300 -301 0
297 -300 301 0
-297 300 301 0
-302 37 0
-302 60 0
-302 -233 0
302 -37 -60 233 0
-303 35 0
-303 51 0
-303 -233 0
303 -35 -51 233 0
-304 -233 0
-304 -302 0
-304 -303 0
304 233 302 303 0
-305 37 0
-305 60 0
305 -37 -60 0
-306 35 0
-306 51 0
306 -35 -51 0
-307 -305 0
-307 -306 0
307 305 306 0
304 307 -308 0
-304 -307 -308 0
304 -307 308 0
-304 307 308 0
-309 35 0
-309 49 0
-309 -233 0
309 -35 -49 233 0
-310 37 0
-310 58 0
-310 -233 0
310 -37 -58 233 0
-311 -233 0
-311 -309 0
-311 -310 0
311 233 309 310 0
-312 35 0
-312 49 0
312 -35 -49 0
-313 37 0
-313 58 0
313 -37 -58 0
-314 -312 0
-314 -313 0
314 312 313 0
311 314 -315 0
-311 -314 -315 0
311 -314 315 0
-311 314 315 0
-316 35 0
-316 50 0
-316 -233 0
316 -35 -50 233 0
-317 37 0
-317 59 0
-317 -233 0
317 -37 -59 233 0
-318 -233 0
-318 -316 0
-318 -317 0
318 233 316 317 0
-319 35 0
-319 50 0
319 -35 -50 0
-320 37 0
-320 59 0
320 -37 -59 0
-321 -319 0
-321 -320 0
321 319 320 0
318 321 -322 0
-318 -321 -322 0
318 -321 322 0
-318 321 322 0
-323 69 0
-323 -70 0
-323 71 0
-323 73 0
-323 75 0
-323 105 0
-323 106 0
-323 212 0
-323 213 0
323 -69 70 -71 -73 -75 -105 -106 -212 -213 0
-324 -192 0
-324 -193 0
-324 -211 0
-324 -215 0
-324 -221 0
-324 235 0
-324 238 0
-324 241 0
-324 -248 0
-324 251 0
-324 254 0
-324 257 0
-324 260 0
-324 263 0
-324 266 0
-324 -273 0
-324 -280 0
-324 -287 0
-324 -294 0
-324 -301 0
-324 -308 0
-324 -315 0
-324 -322 0
-324 -323 0
324 192 193 211 215 221 -235 -238 -241 248 -251 -254 -257 -260 -263 -266 273 280 287 294 301 308 315 322 323 0
-325 76 0
-325 -324 0
325 -76 324 0
