p cnf 683 2855
24 69 -124 0
-24 -69 -124 0
24 -69 124 0
-24 69 124 0
13 71 -662 0
-13 -71 -662 0
13 -71 662 0
-13 71 662 0
662 72 -125 0
-662 -72 -125 0
662 -72 125 0
-662 72 125 0
1 13 -663 0
-1 -13 -663 0
1 -13 663 0
-1 13 663 0
663 24 -664 0
-663 -24 -664 0
663 -24 664 0
-663 24 664 0
664 70 -126 0
-664 -70 -126 0
664 -70 126 0
-664 70 126 0
-127 -67 0
-127 -68 0
127 67 68 0
-128 66 0
-128 70 0
-128 71 0
-128 -72 0
-128 111 0
-128 -124 0
-128 -125 0
-128 126 0
-128 -127 0
128 -66 -70 -71 72 -111 124 125 -126 127 0
-129 65 0
-129 70 0
-129 -71 0
-129 -72 0
-129 111 0
-129 124 0
-129 -125 0
-129 126 0
129 -65 -70 71 72 -111 -124 125 -126 0
-130 -128 0
-130 -129 0
130 128 129 0
128 130 -131 0
-128 -130 -131 0
128 -130 131 0
-128 130 131 0
-132 -71 0
-132 -72 0
-132 111 0
-132 -125 0
-132 126 0
132 71 72 -111 125 -126 0
-133 -71 0
-133 -72 0
-133 111 0
-133 124 0
-133 -125 0
133 71 72 -111 -124 125 0
-134 66 0
-134 -70 0
-134 -71 0
-134 -72 0
-134 111 0
-134 124 0
-134 -125 0
-134 126 0
134 -66 70 71 72 -111 -124 125 -126 0
-135 -108 0
-135 110 0
135 108 -110 0
-136 108 0
-136 -110 0
136 -108 110 0
-137 70 0
-137 -71 0
-137 -72 0
-137 108 0
-137 111 0
-137 -125 0
-137 -132 0
-137 -133 0
-137 -134 0
-137 -135 0
-137 -136 0
137 -70 71 72 -108 -111 125 132 133 134 135 136 0
-138 66 0
-138 124 0
138 -66 -124 0
-139 66 0
-139 72 0
139 -66 -72 0
-140 66 0
-140 125 0
140 -66 -125 0
-141 66 0
-141 70 0
-141 71 0
-141 124 0
-141 126 0
141 -66 -70 -71 -124 -126 0
-142 66 0
-142 126 0
142 -66 -126 0
-143 66 0
-143 71 0
143 -66 -71 0
-144 -142 0
-144 -143 0
144 142 143 0
-145 -138 0
-145 -139 0
-145 -140 0
-145 -141 0
-145 -144 0
145 138 139 140 141 144 0
-146 70 0
-146 -71 0
-146 -72 0
-146 124 0
-146 -125 0
-146 126 0
146 -70 71 72 -124 125 -126 0
-147 -145 0
-147 -146 0
147 145 146 0
-148 66 0
-148 70 0
148 -66 -70 0
-149 -124 0
-149 -148 0
149 124 148 0
-150 -70 0
-150 -142 0
150 70 142 0
-151 -116 0
-151 -126 0
-151 -143 0
-151 -149 0
-151 -150 0
151 116 126 143 149 150 0
-152 -126 0
-152 -143 0
152 126 143 0
-153 -29 0
-153 -70 0
-153 -142 0
-153 -149 0
-153 -152 0
153 29 70 142 149 152 0
4 33 -665 0
-4 -33 -665 0
4 -33 665 0
-4 33 665 0
665 40 -154 0
-665 -40 -154 0
665 -40 154 0
-665 40 154 0
-155 -149 0
-155 -150 0
-155 -152 0
-155 -154 0
155 149 150 152 154 0
23 51 -156 0
-23 -51 -156 0
23 -51 156 0
-23 51 156 0
-157 -124 0
-157 -148 0
-157 -150 0
-157 -152 0
-157 -156 0
157 124 148 150 152 156 0
-158 -45 0
-158 -124 0
-158 -126 0
-158 -143 0
-158 -148 0
-158 -150 0
158 45 124 126 143 148 150 0
-159 -151 0
-159 -153 0
-159 -155 0
-159 -157 0
-159 -158 0
159 151 153 155 157 158 0
-160 -147 0
-160 -159 0
160 147 159 0
25 118 -161 0
-25 -118 -161 0
25 -118 161 0
-25 118 161 0
-162 -124 0
-162 -148 0
-162 -150 0
-162 -152 0
-162 -161 0
162 124 148 150 152 161 0
-163 -28 0
-163 -126 0
-163 -143 0
-163 -149 0
-163 -150 0
163 28 126 143 149 150 0
-164 -48 0
-164 -70 0
-164 -142 0
-164 -149 0
-164 -152 0
164 48 70 142 149 152 0
-165 -162 0
-165 -163 0
-165 -164 0
165 162 163 164 0
-166 66 0
-166 124 0
-166 -139 0
-166 -140 0
-166 -141 0
-166 -144 0
166 -66 -124 139 140 141 144 0
-167 -70 0
-167 -126 0
167 70 126 0
-168 -71 0
-168 -72 0
-168 -125 0
-168 -167 0
168 71 72 125 167 0
-169 -166 0
-169 -168 0
169 166 168 0
-170 -165 0
-170 -169 0
170 165 169 0
-171 -160 0
-171 -170 0
171 160 170 0
-172 66 0
-172 70 0
-172 -116 0
-172 126 0
-172 -143 0
172 -66 -70 116 -126 143 0
-173 -29 0
-173 66 0
-173 70 0
-173 71 0
-173 -142 0
173 29 -66 -70 -71 142 0
-174 66 0
-174 70 0
-174 71 0
-174 126 0
-174 -154 0
174 -66 -70 -71 -126 154 0
-175 66 0
-175 71 0
-175 126 0
-175 -148 0
-175 -156 0
175 -66 -71 -126 148 156 0
-176 -45 0
-176 66 0
-176 126 0
-176 -143 0
-176 -148 0
176 45 -66 -126 143 148 0
-177 -172 0
-177 -173 0
-177 -174 0
-177 -175 0
-177 -176 0
177 172 173 174 175 176 0
-178 -138 0
-178 -139 0
-178 -140 0
-178 -141 0
-178 -144 0
-178 -177 0
178 138 139 140 141 144 177 0
-179 66 0
-179 71 0
-179 126 0
-179 -148 0
-179 -161 0
179 -66 -71 -126 148 161 0
-180 -28 0
-180 66 0
-180 70 0
-180 126 0
-180 -143 0
180 28 -66 -70 -126 143 0
-181 -48 0
-181 66 0
-181 70 0
-181 71 0
-181 -142 0
181 48 -66 -70 -71 142 0
-182 -179 0
-182 -180 0
-182 -181 0
182 179 180 181 0
-183 66 0
-183 124 0
-183 -139 0
-183 -140 0
-183 -141 0
-183 -144 0
-183 -182 0
183 -66 -124 139 140 141 144 182 0
-184 -178 0
-184 -183 0
184 178 183 0
171 184 -185 0
-171 -184 -185 0
171 -184 185 0
-171 184 185 0
-186 -117 0
-186 -126 0
-186 -143 0
-186 -149 0
-186 -150 0
186 117 126 143 149 150 0
-187 -40 0
-187 -149 0
-187 -150 0
-187 -152 0
187 40 149 150 152 0
-188 -37 0
-188 -70 0
-188 -142 0
-188 -149 0
-188 -152 0
188 37 70 142 149 152 0
-189 -51 0
-189 -124 0
-189 -148 0
-189 -150 0
-189 -152 0
189 51 124 148 150 152 0
-190 -186 0
-190 -187 0
-190 -188 0
-190 -189 0
190 186 187 188 189 0
-191 -147 0
-191 -190 0
191 147 190 0
6 36 -666 0
-6 -36 -666 0
6 -36 666 0
-6 36 666 0
666 48 -192 0
-666 -48 -192 0
666 -48 192 0
-666 48 192 0
-193 -70 0
-193 -142 0
-193 -149 0
-193 -152 0
-193 -192 0
193 70 142 149 152 192 0
-194 -32 0
-194 -126 0
-194 -143 0
-194 -149 0
-194 -150 0
194 32 126 143 149 150 0
-195 -118 0
-195 -124 0
-195 -148 0
-195 -150 0
-195 -152 0
195 118 124 148 150 152 0
-196 -193 0
-196 -194 0
-196 -195 0
196 193 194 195 0
-197 -169 0
-197 -196 0
197 169 196 0
-198 -191 0
-198 -197 0
198 191 197 0
-199 66 0
-199 70 0
-199 -117 0
-199 126 0
-199 -143 0
199 -66 -70 117 -126 143 0
-200 -40 0
-200 66 0
-200 70 0
-200 71 0
-200 126 0
200 40 -66 -70 -71 -126 0
-201 -37 0
-201 66 0
-201 70 0
-201 71 0
-201 -142 0
201 37 -66 -70 -71 142 0
-202 -51 0
-202 66 0
-202 71 0
-202 126 0
-202 -148 0
202 51 -66 -71 -126 148 0
-203 -199 0
-203 -200 0
-203 -201 0
-203 -202 0
203 199 200 201 202 0
-204 -138 0
-204 -139 0
-204 -140 0
-204 -141 0
-204 -144 0
-204 -203 0
204 138 139 140 141 144 203 0
-205 66 0
-205 70 0
-205 71 0
-205 -142 0
-205 -192 0
205 -66 -70 -71 142 192 0
-206 -32 0
-206 66 0
-206 70 0
-206 126 0
-206 -143 0
206 32 -66 -70 -126 143 0
-207 66 0
-207 71 0
-207 -118 0
-207 126 0
-207 -148 0
207 -66 -71 118 -126 148 0
-208 -205 0
-208 -206 0
-208 -207 0
208 205 206 207 0
-209 66 0
-209 124 0
-209 -139 0
-209 -140 0
-209 -141 0
-209 -144 0
-209 -208 0
209 -66 -124 139 140 141 144 208 0
-210 -204 0
-210 -209 0
210 204 209 0
198 210 -211 0
-198 -210 -211 0
198 -210 211 0
-198 210 211 0
-212 -121 0
-212 -124 0
-212 -148 0
-212 -150 0
-212 -152 0
212 121 124 148 150 152 0
-213 -54 0
-213 -126 0
-213 -143 0
-213 -149 0
-213 -150 0
213 54 126 143 149 150 0
-214 -49 0
-214 -70 0
-214 -142 0
-214 -149 0
-214 -152 0
214 49 70 142 149 152 0
-215 -212 0
-215 -213 0
-215 -214 0
215 212 213 214 0
-216 -169 0
-216 -215 0
216 169 215 0
-217 -63 0
-217 -124 0
-217 -148 0
-217 -150 0
-217 -152 0
217 63 124 148 150 152 0
-218 -41 0
-218 -149 0
-218 -150 0
-218 -152 0
218 41 149 150 152 0
18 30 -667 0
-18 -30 -667 0
18 -30 667 0
-18 30 667 0
667 120 -219 0
-667 -120 -219 0
667 -120 219 0
-667 120 219 0
-220 -126 0
-220 -143 0
-220 -149 0
-220 -150 0
-220 -219 0
220 126 143 149 150 219 0
-221 -43 0
-221 -70 0
-221 -142 0
-221 -149 0
-221 -152 0
221 43 70 142 149 152 0
-222 -217 0
-222 -218 0
-222 -220 0
-222 -221 0
222 217 218 220 221 0
-223 -147 0
-223 -222 0
223 147 222 0
-224 -216 0
-224 -223 0
224 216 223 0
-225 66 0
-225 71 0
-225 -121 0
-225 126 0
-225 -148 0
225 -66 -71 121 -126 148 0
-226 -54 0
-226 66 0
-226 70 0
-226 126 0
-226 -143 0
226 54 -66 -70 -126 143 0
-227 -49 0
-227 66 0
-227 70 0
-227 71 0
-227 -142 0
227 49 -66 -70 -71 142 0
-228 -225 0
-228 -226 0
-228 -227 0
228 225 226 227 0
-229 66 0
-229 124 0
-229 -139 0
-229 -140 0
-229 -141 0
-229 -144 0
-229 -228 0
229 -66 -124 139 140 141 144 228 0
-230 -63 0
-230 66 0
-230 71 0
-230 126 0
-230 -148 0
230 63 -66 -71 -126 148 0
-231 -41 0
-231 66 0
-231 70 0
-231 71 0
-231 126 0
231 41 -66 -70 -71 -126 0
-232 66 0
-232 70 0
-232 126 0
-232 -143 0
-232 -219 0
232 -66 -70 -126 143 219 0
-233 -43 0
-233 66 0
-233 70 0
-233 71 0
-233 -142 0
233 43 -66 -70 -71 142 0
-234 -230 0
-234 -231 0
-234 -232 0
-234 -233 0
234 230 231 232 233 0
-235 -138 0
-235 -139 0
-235 -140 0
-235 -141 0
-235 -144 0
-235 -234 0
235 138 139 140 141 144 234 0
-236 -229 0
-236 -235 0
236 229 235 0
224 236 -237 0
-224 -236 -237 0
224 -236 237 0
-224 236 237 0
10 49 -668 0
-10 -49 -668 0
10 -49 668 0
-10 49 668 0
668 50 -238 0
-668 -50 -238 0
668 -50 238 0
-668 50 238 0
-239 -70 0
-239 -142 0
-239 -149 0
-239 -152 0
-239 -238 0
239 70 142 149 152 238 0
-240 -55 0
-240 -126 0
-240 -143 0
-240 -149 0
-240 -150 0
240 55 126 143 149 150 0
20 27 -669 0
-20 -27 -669 0
20 -27 669 0
-20 27 669 0
669 121 -241 0
-669 -121 -241 0
669 -121 241 0
-669 121 241 0
-242 -124 0
-242 -148 0
-242 -150 0
-242 -152 0
-242 -241 0
242 124 148 150 152 241 0
-243 -239 0
-243 -240 0
-243 -242 0
243 239 240 242 0
-244 -169 0
-244 -243 0
244 169 243 0
12 62 -670 0
-12 -62 -670 0
12 -62 670 0
-12 62 670 0
670 63 -245 0
-670 -63 -245 0
670 -63 245 0
-670 63 245 0
-246 -124 0
-246 -148 0
-246 -150 0
-246 -152 0
-246 -245 0
246 124 148 150 152 245 0
-247 -120 0
-247 -126 0
-247 -143 0
-247 -149 0
-247 -150 0
247 120 126 143 149 150 0
-248 -56 0
-248 -149 0
-248 -150 0
-248 -152 0
248 56 149 150 152 0
-249 -42 0
-249 -70 0
-249 -142 0
-249 -149 0
-249 -152 0
249 42 70 142 149 152 0
-250 -246 0
-250 -247 0
-250 -248 0
-250 -249 0
250 246 247 248 249 0
-251 -147 0
-251 -250 0
251 147 250 0
-252 -244 0
-252 -251 0
252 244 251 0
-253 66 0
-253 70 0
-253 71 0
-253 -142 0
-253 -238 0
253 -66 -70 -71 142 238 0
-254 -55 0
-254 66 0
-254 70 0
-254 126 0
-254 -143 0
254 55 -66 -70 -126 143 0
-255 66 0
-255 71 0
-255 126 0
-255 -148 0
-255 -241 0
255 -66 -71 -126 148 241 0
-256 -253 0
-256 -254 0
-256 -255 0
256 253 254 255 0
-257 66 0
-257 124 0
-257 -139 0
-257 -140 0
-257 -141 0
-257 -144 0
-257 -256 0
257 -66 -124 139 140 141 144 256 0
-258 66 0
-258 71 0
-258 126 0
-258 -148 0
-258 -245 0
258 -66 -71 -126 148 245 0
-259 66 0
-259 70 0
-259 -120 0
-259 126 0
-259 -143 0
259 -66 -70 120 -126 143 0
-260 -56 0
-260 66 0
-260 70 0
-260 71 0
-260 126 0
260 56 -66 -70 -71 -126 0
-261 -42 0
-261 66 0
-261 70 0
-261 71 0
-261 -142 0
261 42 -66 -70 -71 142 0
-262 -258 0
-262 -259 0
-262 -260 0
-262 -261 0
262 258 259 260 261 0
-263 -138 0
-263 -139 0
-263 -140 0
-263 -141 0
-263 -144 0
-263 -262 0
263 138 139 140 141 144 262 0
-264 -257 0
-264 -263 0
264 257 263 0
252 264 -265 0
-252 -264 -265 0
252 -264 265 0
-252 264 265 0
7 42 -671 0
-7 -42 -671 0
7 -42 671 0
-7 42 671 0
671 43 -266 0
-671 -43 -266 0
671 -43 266 0
-671 43 266 0
-267 -70 0
-267 -142 0
-267 -149 0
-267 -152 0
-267 -266 0
267 70 142 149 152 266 0
-268 -30 0
-268 -126 0
-268 -143 0
-268 -149 0
-268 -150 0
268 30 126 143 149 150 0
11 41 -672 0
-11 -41 -672 0
11 -41 672 0
-11 41 672 0
672 56 -269 0
-672 -56 -269 0
672 -56 269 0
-672 56 269 0
-270 -149 0
-270 -150 0
-270 -152 0
-270 -269 0
270 149 150 152 269 0
-271 -62 0
-271 -124 0
-271 -148 0
-271 -150 0
-271 -152 0
271 62 124 148 150 152 0
-272 -267 0
-272 -268 0
-272 -270 0
-272 -271 0
272 267 268 270 271 0
-273 -147 0
-273 -272 0
273 147 272 0
-274 -50 0
-274 -70 0
-274 -142 0
-274 -149 0
-274 -152 0
274 50 70 142 149 152 0
14 54 -673 0
-14 -54 -673 0
14 -54 673 0
-14 54 673 0
673 55 -275 0
-673 -55 -275 0
673 -55 275 0
-673 55 275 0
-276 -126 0
-276 -143 0
-276 -149 0
-276 -150 0
-276 -275 0
276 126 143 149 150 275 0
-277 -27 0
-277 -124 0
-277 -148 0
-277 -150 0
-277 -152 0
277 27 124 148 150 152 0
-278 -274 0
-278 -276 0
-278 -277 0
278 274 276 277 0
-279 -169 0
-279 -278 0
279 169 278 0
-280 -273 0
-280 -279 0
280 273 279 0
-281 66 0
-281 70 0
-281 71 0
-281 -142 0
-281 -266 0
281 -66 -70 -71 142 266 0
-282 -30 0
-282 66 0
-282 70 0
-282 126 0
-282 -143 0
282 30 -66 -70 -126 143 0
-283 66 0
-283 70 0
-283 71 0
-283 126 0
-283 -269 0
283 -66 -70 -71 -126 269 0
-284 -62 0
-284 66 0
-284 71 0
-284 126 0
-284 -148 0
284 62 -66 -71 -126 148 0
-285 -281 0
-285 -282 0
-285 -283 0
-285 -284 0
285 281 282 283 284 0
-286 -138 0
-286 -139 0
-286 -140 0
-286 -141 0
-286 -144 0
-286 -285 0
286 138 139 140 141 144 285 0
-287 -50 0
-287 66 0
-287 70 0
-287 71 0
-287 -142 0
287 50 -66 -70 -71 142 0
-288 66 0
-288 70 0
-288 126 0
-288 -143 0
-288 -275 0
288 -66 -70 -126 143 275 0
-289 -27 0
-289 66 0
-289 71 0
-289 126 0
-289 -148 0
289 27 -66 -71 -126 148 0
-290 -287 0
-290 -288 0
-290 -289 0
290 287 288 289 0
-291 66 0
-291 124 0
-291 -139 0
-291 -140 0
-291 -141 0
-291 -144 0
-291 -290 0
291 -66 -124 139 140 141 144 290 0
-292 -286 0
-292 -291 0
292 286 291 0
280 292 -293 0
-280 -292 -293 0
280 -292 293 0
-280 292 293 0
5 34 -674 0
-5 -34 -674 0
5 -34 674 0
-5 34 674 0
674 35 -294 0
-674 -35 -294 0
674 -35 294 0
-674 35 294 0
-295 -70 0
-295 -142 0
-295 -149 0
-295 -152 0
-295 -294 0
295 70 142 149 152 294 0
15 91 -675 0
-15 -91 -675 0
15 -91 675 0
-15 91 675 0
675 92 -296 0
-675 -92 -296 0
675 -92 296 0
-675 92 296 0
-297 -126 0
-297 -143 0
-297 -149 0
-297 -150 0
-297 -296 0
297 126 143 149 150 296 0
-298 -122 0
-298 -124 0
-298 -148 0
-298 -150 0
-298 -152 0
298 122 124 148 150 152 0
-299 -295 0
-299 -297 0
-299 -298 0
299 295 297 298 0
-300 -169 0
-300 -299 0
300 169 299 0
-301 -26 0
-301 -126 0
-301 -143 0
-301 -149 0
-301 -150 0
301 26 126 143 149 150 0
9 39 -676 0
-9 -39 -676 0
9 -39 676 0
-9 39 676 0
676 47 -302 0
-676 -47 -302 0
676 -47 302 0
-676 47 302 0
-303 -124 0
-303 -148 0
-303 -150 0
-303 -152 0
-303 -302 0
303 124 148 150 152 302 0
-304 -38 0
-304 -70 0
-304 -142 0
-304 -149 0
-304 -152 0
304 38 70 142 149 152 0
16 59 -677 0
-16 -59 -677 0
16 -59 677 0
-16 59 677 0
677 93 -305 0
-677 -93 -305 0
677 -93 305 0
-677 93 305 0
-306 -149 0
-306 -150 0
-306 -152 0
-306 -305 0
306 149 150 152 305 0
-307 -301 0
-307 -303 0
-307 -304 0
-307 -306 0
307 301 303 304 306 0
-308 -147 0
-308 -307 0
308 147 307 0
-309 -300 0
-309 -308 0
309 300 308 0
-310 66 0
-310 70 0
-310 71 0
-310 -142 0
-310 -294 0
310 -66 -70 -71 142 294 0
-311 66 0
-311 70 0
-311 126 0
-311 -143 0
-311 -296 0
311 -66 -70 -126 143 296 0
-312 66 0
-312 71 0
-312 -122 0
-312 126 0
-312 -148 0
312 -66 -71 122 -126 148 0
-313 -310 0
-313 -311 0
-313 -312 0
313 310 311 312 0
-314 66 0
-314 124 0
-314 -139 0
-314 -140 0
-314 -141 0
-314 -144 0
-314 -313 0
314 -66 -124 139 140 141 144 313 0
-315 -26 0
-315 66 0
-315 70 0
-315 126 0
-315 -143 0
315 26 -66 -70 -126 143 0
-316 66 0
-316 71 0
-316 126 0
-316 -148 0
-316 -302 0
316 -66 -71 -126 148 302 0
-317 -38 0
-317 66 0
-317 70 0
-317 71 0
-317 -142 0
317 38 -66 -70 -71 142 0
-318 66 0
-318 70 0
-318 71 0
-318 126 0
-318 -305 0
318 -66 -70 -71 -126 305 0
-319 -315 0
-319 -316 0
-319 -317 0
-319 -318 0
319 315 316 317 318 0
-320 -138 0
-320 -139 0
-320 -140 0
-320 -141 0
-320 -144 0
-320 -319 0
320 138 139 140 141 144 319 0
-321 -314 0
-321 -320 0
321 314 320 0
309 321 -322 0
-309 -321 -322 0
309 -321 322 0
-309 321 322 0
-323 -34 0
-323 -70 0
-323 -142 0
-323 -149 0
-323 -152 0
323 34 70 142 149 152 0
-324 -92 0
-324 -126 0
-324 -143 0
-324 -149 0
-324 -150 0
324 92 126 143 149 150 0
-325 -123 0
-325 -124 0
-325 -148 0
-325 -150 0
-325 -152 0
325 123 124 148 150 152 0
-326 -323 0
-326 -324 0
-326 -325 0
326 323 324 325 0
-327 -169 0
-327 -326 0
327 169 326 0
-328 -59 0
-328 -149 0
-328 -150 0
-328 -152 0
328 59 149 150 152 0
-329 -31 0
-329 -126 0
-329 -143 0
-329 -149 0
-329 -150 0
329 31 126 143 149 150 0
-330 -39 0
-330 -124 0
-330 -148 0
-330 -150 0
-330 -152 0
330 39 124 148 150 152 0
8 38 -678 0
-8 -38 -678 0
8 -38 678 0
-8 38 678 0
678 44 -331 0
-678 -44 -331 0
678 -44 331 0
-678 44 331 0
-332 -70 0
-332 -142 0
-332 -149 0
-332 -152 0
-332 -331 0
332 70 142 149 152 331 0
-333 -328 0
-333 -329 0
-333 -330 0
-333 -332 0
333 328 329 330 332 0
-334 -147 0
-334 -333 0
334 147 333 0
-335 -327 0
-335 -334 0
335 327 334 0
-336 -34 0
-336 66 0
-336 70 0
-336 71 0
-336 -142 0
336 34 -66 -70 -71 142 0
-337 66 0
-337 70 0
-337 -92 0
-337 126 0
-337 -143 0
337 -66 -70 92 -126 143 0
-338 66 0
-338 71 0
-338 -123 0
-338 126 0
-338 -148 0
338 -66 -71 123 -126 148 0
-339 -336 0
-339 -337 0
-339 -338 0
339 336 337 338 0
-340 66 0
-340 124 0
-340 -139 0
-340 -140 0
-340 -141 0
-340 -144 0
-340 -339 0
340 -66 -124 139 140 141 144 339 0
-341 -59 0
-341 66 0
-341 70 0
-341 71 0
-341 126 0
341 59 -66 -70 -71 -126 0
-342 -31 0
-342 66 0
-342 70 0
-342 126 0
-342 -143 0
342 31 -66 -70 -126 143 0
-343 -39 0
-343 66 0
-343 71 0
-343 126 0
-343 -148 0
343 39 -66 -71 -126 148 0
-344 66 0
-344 70 0
-344 71 0
-344 -142 0
-344 -331 0
344 -66 -70 -71 142 331 0
-345 -341 0
-345 -342 0
-345 -343 0
-345 -344 0
345 341 342 343 344 0
-346 -138 0
-346 -139 0
-346 -140 0
-346 -141 0
-346 -144 0
-346 -345 0
346 138 139 140 141 144 345 0
-347 -340 0
-347 -346 0
347 340 346 0
335 347 -348 0
-335 -347 -348 0
335 -347 348 0
-335 347 348 0
-349 -93 0
-349 -149 0
-349 -150 0
-349 -152 0
349 93 149 150 152 0
19 26 -679 0
-19 -26 -679 0
19 -26 679 0
-19 26 679 0
679 31 -350 0
-679 -31 -350 0
679 -31 350 0
-679 31 350 0
-351 -126 0
-351 -143 0
-351 -149 0
-351 -150 0
-351 -350 0
351 126 143 149 150 350 0
-352 -47 0
-352 -124 0
-352 -148 0
-352 -150 0
-352 -152 0
352 47 124 148 150 152 0
-353 -44 0
-353 -70 0
-353 -142 0
-353 -149 0
-353 -152 0
353 44 70 142 149 152 0
-354 -349 0
-354 -351 0
-354 -352 0
-354 -353 0
354 349 351 352 353 0
-355 -147 0
-355 -354 0
355 147 354 0
21 122 -680 0
-21 -122 -680 0
21 -122 680 0
-21 122 680 0
680 123 -356 0
-680 -123 -356 0
680 -123 356 0
-680 123 356 0
-357 -124 0
-357 -148 0
-357 -150 0
-357 -152 0
-357 -356 0
357 124 148 150 152 356 0
-358 -91 0
-358 -126 0
-358 -143 0
-358 -149 0
-358 -150 0
358 91 126 143 149 150 0
-359 -35 0
-359 -70 0
-359 -142 0
-359 -149 0
-359 -152 0
359 35 70 142 149 152 0
-360 -357 0
-360 -358 0
-360 -359 0
360 357 358 359 0
-361 -169 0
-361 -360 0
361 169 360 0
-362 -355 0
-362 -361 0
362 355 361 0
-363 66 0
-363 70 0
-363 71 0
-363 -93 0
-363 126 0
363 -66 -70 -71 93 -126 0
-364 66 0
-364 70 0
-364 126 0
-364 -143 0
-364 -350 0
364 -66 -70 -126 143 350 0
-365 -47 0
-365 66 0
-365 71 0
-365 126 0
-365 -148 0
365 47 -66 -71 -126 148 0
-366 -44 0
-366 66 0
-366 70 0
-366 71 0
-366 -142 0
366 44 -66 -70 -71 142 0
-367 -363 0
-367 -364 0
-367 -365 0
-367 -366 0
367 363 364 365 366 0
-368 -138 0
-368 -139 0
-368 -140 0
-368 -141 0
-368 -144 0
-368 -367 0
368 138 139 140 141 144 367 0
-369 66 0
-369 71 0
-369 126 0
-369 -148 0
-369 -356 0
369 -66 -71 -126 148 356 0
-370 66 0
-370 70 0
-370 -91 0
-370 126 0
-370 -143 0
370 -66 -70 91 -126 143 0
-371 -35 0
-371 66 0
-371 70 0
-371 71 0
-371 -142 0
371 35 -66 -70 -71 142 0
-372 -369 0
-372 -370 0
-372 -371 0
372 369 370 371 0
-373 66 0
-373 124 0
-373 -139 0
-373 -140 0
-373 -141 0
-373 -144 0
-373 -372 0
373 -66 -124 139 140 141 144 372 0
-374 -368 0
-374 -373 0
374 368 373 0
362 374 -375 0
-362 -374 -375 0
362 -374 375 0
-362 374 375 0
-376 45 0
-376 -124 0
-376 -126 0
-376 -143 0
-376 -148 0
-376 -150 0
376 -45 124 126 143 148 150 0
-377 -70 0
-377 -124 0
-377 -142 0
-377 -148 0
-377 -152 0
377 70 124 142 148 152 0
3 29 -681 0
-3 -29 -681 0
3 -29 681 0
-3 29 681 0
681 37 -378 0
-681 -37 -378 0
681 -37 378 0
-681 37 378 0
-379 -70 0
-379 -142 0
-379 -149 0
-379 -152 0
-379 -378 0
379 70 142 149 152 378 0
17 116 -682 0
-17 -116 -682 0
17 -116 682 0
-17 116 682 0
682 117 -380 0
-682 -117 -380 0
682 -117 380 0
-682 117 380 0
-381 -126 0
-381 -143 0
-381 -149 0
-381 -150 0
-381 -380 0
381 126 143 149 150 380 0
-382 -33 0
-382 -149 0
-382 -150 0
-382 -152 0
382 33 149 150 152 0
-383 -9 0
-383 -12 0
-383 -23 0
383 9 12 23 0
-384 -9 0
-384 12 0
-384 23 0
384 9 -12 -23 0
-385 9 0
-385 12 0
-385 -23 0
385 -9 -12 23 0
-386 9 0
-386 -12 0
-386 23 0
386 -9 12 -23 0
-387 -383 0
-387 -384 0
-387 -385 0
-387 -386 0
387 383 384 385 386 0
-388 -124 0
-388 -148 0
-388 -150 0
-388 -152 0
-388 -387 0
388 124 148 150 152 387 0
-389 -376 0
-389 -377 0
-389 -379 0
-389 -381 0
-389 -382 0
-389 -388 0
389 376 377 379 381 382 388 0
-390 -147 0
-390 -389 0
390 147 389 0
-391 -20 0
-391 -21 0
-391 -25 0
391 20 21 25 0
-392 20 0
-392 -21 0
-392 25 0
392 -20 21 -25 0
-393 20 0
-393 21 0
-393 -25 0
393 -20 -21 25 0
-394 -20 0
-394 21 0
-394 25 0
394 20 -21 -25 0
-395 -391 0
-395 -392 0
-395 -393 0
-395 -394 0
395 391 392 393 394 0
-396 -124 0
-396 -148 0
-396 -150 0
-396 -152 0
-396 -395 0
396 124 148 150 152 395 0
-397 -36 0
-397 -70 0
-397 -142 0
-397 -149 0
-397 -152 0
397 36 70 142 149 152 0
22 28 -683 0
-22 -28 -683 0
22 -28 683 0
-22 28 683 0
683 32 -398 0
-683 -32 -398 0
683 -32 398 0
-683 32 398 0
-399 -126 0
-399 -143 0
-399 -149 0
-399 -150 0
-399 -398 0
399 126 143 149 150 398 0
-400 -396 0
-400 -397 0
-400 -399 0
400 396 397 399 0
-401 -169 0
-401 -400 0
401 169 400 0
-402 -390 0
-402 -401 0
402 390 401 0
-403 45 0
-403 66 0
-403 126 0
-403 -143 0
-403 -148 0
403 -45 -66 -126 143 148 0
-404 66 0
-404 71 0
-404 -142 0
-404 -148 0
404 -66 -71 142 148 0
-405 66 0
-405 70 0
-405 71 0
-405 -142 0
-405 -378 0
405 -66 -70 -71 142 378 0
-406 66 0
-406 70 0
-406 126 0
-406 -143 0
-406 -380 0
406 -66 -70 -126 143 380 0
-407 -33 0
-407 66 0
-407 70 0
-407 71 0
-407 126 0
407 33 -66 -70 -71 -126 0
-408 66 0
-408 71 0
-408 126 0
-408 -148 0
-408 -387 0
408 -66 -71 -126 148 387 0
-409 -403 0
-409 -404 0
-409 -405 0
-409 -406 0
-409 -407 0
-409 -408 0
409 403 404 405 406 407 408 0
-410 -138 0
-410 -139 0
-410 -140 0
-410 -141 0
-410 -144 0
-410 -409 0
410 138 139 140 141 144 409 0
-411 66 0
-411 71 0
-411 126 0
-411 -148 0
-411 -395 0
411 -66 -71 -126 148 395 0
-412 -36 0
-412 66 0
-412 70 0
-412 71 0
-412 -142 0
412 36 -66 -70 -71 142 0
-413 66 0
-413 70 0
-413 126 0
-413 -143 0
-413 -398 0
413 -66 -70 -126 143 398 0
-414 -411 0
-414 -412 0
-414 -413 0
414 411 412 413 0
-415 66 0
-415 124 0
-415 -139 0
-415 -140 0
-415 -141 0
-415 -144 0
-415 -414 0
415 -66 -124 139 140 141 144 414 0
-416 -410 0
-416 -415 0
416 410 415 0
402 416 -417 0
-402 -416 -417 0
402 -416 417 0
-402 416 417 0
-418 -71 0
-418 -72 0
-418 -125 0
-418 -167 0
-418 -389 0
418 71 72 125 167 389 0
-419 -2 0
-419 -418 0
419 2 418 0
2 419 -420 0
-2 -419 -420 0
2 -419 420 0
-2 419 420 0
-421 119 0
-421 -395 0
421 -119 395 0
-422 -119 0
-422 -391 0
-422 -392 0
-422 -393 0
-422 -394 0
422 119 391 392 393 394 0
-423 -421 0
-423 -422 0
423 421 422 0
-424 -71 0
-424 -72 0
-424 -125 0
-424 -159 0
-424 -167 0
424 71 72 125 159 167 0
-425 -423 0
-425 -424 0
425 423 424 0
423 425 -426 0
-423 -425 -426 0
423 -425 426 0
-423 425 426 0
-427 -46 0
-427 -383 0
-427 -384 0
-427 -385 0
-427 -386 0
427 46 383 384 385 386 0
-428 46 0
-428 -387 0
428 -46 387 0
-429 -427 0
-429 -428 0
429 427 428 0
-430 -71 0
-430 -72 0
-430 -125 0
-430 -167 0
-430 -190 0
430 71 72 125 167 190 0
-431 -429 0
-431 -430 0
431 429 430 0
429 431 -432 0
-429 -431 -432 0
429 -431 432 0
-429 431 432 0
-433 -5 0
-433 6 0
-433 -10 0
433 5 -6 10 0
-434 -5 0
-434 -6 0
-434 10 0
434 5 6 -10 0
-435 5 0
-435 6 0
-435 10 0
435 -5 -6 -10 0
-436 5 0
-436 -6 0
-436 -10 0
436 -5 6 10 0
-437 -433 0
-437 -434 0
-437 -435 0
-437 -436 0
437 433 434 435 436 0
-438 -71 0
-438 -72 0
-438 -125 0
-438 -167 0
-438 -222 0
438 71 72 125 167 222 0
-439 -437 0
-439 -438 0
439 437 438 0
437 439 -440 0
-437 -439 -440 0
437 -439 440 0
-437 439 440 0
-441 3 0
-441 -7 0
-441 -8 0
441 -3 7 8 0
-442 -3 0
-442 7 0
-442 -8 0
442 3 -7 8 0
-443 3 0
-443 7 0
-443 8 0
443 -3 -7 -8 0
-444 -3 0
-444 -7 0
-444 8 0
444 3 7 -8 0
-445 -441 0
-445 -442 0
-445 -443 0
-445 -444 0
445 441 442 443 444 0
-446 -71 0
-446 -72 0
-446 -125 0
-446 -167 0
-446 -250 0
446 71 72 125 167 250 0
-447 -445 0
-447 -446 0
447 445 446 0
445 447 -448 0
-445 -447 -448 0
445 -447 448 0
-445 447 448 0
-449 -14 0
-449 -15 0
-449 22 0
449 14 15 -22 0
-450 14 0
-450 -15 0
-450 -22 0
450 -14 15 22 0
-451 14 0
-451 15 0
-451 22 0
451 -14 -15 -22 0
-452 -14 0
-452 15 0
-452 -22 0
452 14 -15 22 0
-453 -449 0
-453 -450 0
-453 -451 0
-453 -452 0
453 449 450 451 452 0
-454 -71 0
-454 -72 0
-454 -125 0
-454 -167 0
-454 -272 0
454 71 72 125 167 272 0
-455 -453 0
-455 -454 0
455 453 454 0
453 455 -456 0
-453 -455 -456 0
453 -455 456 0
-453 455 456 0
-457 17 0
-457 -18 0
-457 -19 0
457 -17 18 19 0
-458 -17 0
-458 18 0
-458 -19 0
458 17 -18 19 0
-459 17 0
-459 18 0
-459 19 0
459 -17 -18 -19 0
-460 -17 0
-460 -18 0
-460 19 0
460 17 18 -19 0
-461 -457 0
-461 -458 0
-461 -459 0
-461 -460 0
461 457 458 459 460 0
-462 -71 0
-462 -72 0
-462 -125 0
-462 -167 0
-462 -307 0
462 71 72 125 167 307 0
-463 -461 0
-463 -462 0
463 461 462 0
461 463 -464 0
-461 -463 -464 0
461 -463 464 0
-461 463 464 0
-465 4 0
-465 -11 0
-465 -16 0
465 -4 11 16 0
-466 -4 0
-466 11 0
-466 -16 0
466 4 -11 16 0
-467 4 0
-467 11 0
-467 16 0
467 -4 -11 -16 0
-468 -4 0
-468 -11 0
-468 16 0
468 4 11 -16 0
-469 -465 0
-469 -466 0
-469 -467 0
-469 -468 0
469 465 466 467 468 0
-470 -71 0
-470 -72 0
-470 -125 0
-470 -167 0
-470 -333 0
470 71 72 125 167 333 0
-471 -469 0
-471 -470 0
471 469 470 0
469 471 -472 0
-469 -471 -472 0
469 -471 472 0
-469 471 472 0
-473 -71 0
-473 -72 0
-473 -125 0
-473 -167 0
-473 -354 0
473 71 72 125 167 354 0
-474 -1 0
-474 -473 0
474 1 473 0
1 474 -475 0
-1 -474 -475 0
1 -474 475 0
-1 474 475 0
-476 70 0
-476 -71 0
-476 -72 0
-476 111 0
-476 -125 0
476 -70 71 72 -111 125 0
-477 66 0
-477 -70 0
-477 71 0
-477 -72 0
-477 111 0
-477 124 0
-477 -125 0
-477 -126 0
-477 -127 0
477 -66 70 -71 72 -111 -124 125 126 127 0
-478 107 0
-478 -108 0
-478 -109 0
-478 -110 0
478 -107 108 109 110 0
-479 -108 0
-479 -110 0
479 108 110 0
-480 -107 0
-480 -479 0
480 107 479 0
-481 -107 0
-481 109 0
481 107 -109 0
-482 65 0
-482 -71 0
-482 -72 0
-482 111 0
-482 -125 0
-482 126 0
-482 -133 0
-482 -476 0
-482 -477 0
-482 -478 0
-482 -480 0
-482 -481 0
482 -65 71 72 -111 125 -126 133 476 477 478 480 481 0
-483 66 0
-483 -70 0
-483 -71 0
-483 -72 0
-483 111 0
-483 124 0
-483 -125 0
-483 126 0
-483 -127 0
483 -66 70 71 72 -111 -124 125 -126 127 0
-484 -107 0
-484 -108 0
-484 -109 0
-484 -110 0
-484 112 0
484 107 108 109 110 -112 0
-485 -107 0
-485 -108 0
-485 -109 0
-485 -110 0
485 107 108 109 110 0
-486 -112 0
-486 -485 0
486 112 485 0
-487 65 0
-487 70 0
-487 -71 0
-487 -72 0
-487 111 0
-487 -125 0
-487 -132 0
-487 -133 0
-487 -483 0
-487 -484 0
-487 -486 0
487 -65 -70 71 72 -111 125 132 133 483 484 486 0
-488 65 0
-488 -71 0
-488 -72 0
-488 111 0
-488 124 0
-488 -125 0
-488 126 0
-488 -476 0
488 -65 71 72 -111 -124 125 -126 476 0
-489 66 0
-489 70 0
-489 71 0
-489 -72 0
-489 111 0
-489 124 0
-489 -125 0
-489 -126 0
-489 -127 0
489 -66 -70 -71 72 -111 -124 125 126 127 0
-490 40 0
-490 -41 0
-490 56 0
-490 -97 0
-490 -101 0
-490 -113 0
-490 -114 0
-490 115 0
-490 -154 0
490 -40 41 -56 97 101 113 114 -115 154 0
-491 97 0
-491 -115 0
491 -97 115 0
-492 40 0
-492 -41 0
-492 56 0
-492 -101 0
-492 -113 0
-492 -114 0
-492 -154 0
492 -40 41 -56 101 113 114 154 0
-493 -115 0
-493 -492 0
493 115 492 0
-494 -490 0
-494 -491 0
-494 -493 0
494 490 491 493 0
-495 -488 0
-495 -489 0
-495 -494 0
495 488 489 494 0
-496 -488 0
-496 -489 0
496 488 489 0
-497 90 0
-497 -496 0
497 -90 496 0
-498 -495 0
-498 -497 0
498 495 497 0
-499 -489 0
-499 -494 0
499 489 494 0
-500 66 0
-500 70 0
-500 71 0
-500 -72 0
-500 90 0
-500 111 0
-500 124 0
-500 -125 0
-500 -126 0
-500 -127 0
500 -66 -70 -71 72 -90 -111 -124 125 126 127 0
-501 -499 0
-501 -500 0
501 499 500 0
498 501 -502 0
-498 -501 -502 0
498 -501 502 0
-498 501 502 0
-503 40 0
-503 -41 0
-503 56 0
-503 97 0
-503 -101 0
-503 -113 0
-503 -114 0
-503 -154 0
503 -40 41 -56 -97 101 113 114 154 0
-504 -97 0
-504 -492 0
504 97 492 0
-505 -503 0
-505 -504 0
505 503 504 0
-506 -488 0
-506 -489 0
-506 -505 0
506 488 489 505 0
-507 89 0
-507 -496 0
507 -89 496 0
-508 -506 0
-508 -507 0
508 506 507 0
-509 -489 0
-509 -505 0
509 489 505 0
-510 66 0
-510 70 0
-510 71 0
-510 -72 0
-510 89 0
-510 111 0
-510 124 0
-510 -125 0
-510 -126 0
-510 -127 0
510 -66 -70 -71 72 -89 -111 -124 125 126 127 0
-511 -509 0
-511 -510 0
511 509 510 0
508 511 -512 0
-508 -511 -512 0
508 -511 512 0
-508 511 512 0
-513 40 0
-513 -41 0
-513 56 0
-513 97 0
-513 -101 0
-513 -114 0
-513 -154 0
513 -40 41 -56 -97 101 114 154 0
-514 40 0
-514 -41 0
-514 56 0
-514 -101 0
-514 113 0
-514 -154 0
514 -40 41 -56 101 -113 154 0
-515 -513 0
-515 -514 0
515 513 514 0
-516 52 0
-516 -515 0
516 -52 515 0
-517 -52 0
-517 -513 0
-517 -514 0
517 52 513 514 0
-518 -516 0
-518 -517 0
518 516 517 0
-519 -488 0
-519 -489 0
-519 -518 0
519 488 489 518 0
-520 82 0
-520 -496 0
520 -82 496 0
-521 -519 0
-521 -520 0
521 519 520 0
-522 -489 0
-522 -518 0
522 489 518 0
-523 66 0
-523 70 0
-523 71 0
-523 -72 0
-523 82 0
-523 111 0
-523 124 0
-523 -125 0
-523 -126 0
-523 -127 0
523 -66 -70 -71 72 -82 -111 -124 125 126 127 0
-524 -522 0
-524 -523 0
524 522 523 0
521 524 -525 0
-521 -524 -525 0
521 -524 525 0
-521 524 525 0
-526 66 0
-526 70 0
-526 71 0
-526 -72 0
-526 86 0
-526 111 0
-526 -124 0
-526 -125 0
-526 -126 0
-526 -127 0
526 -66 -70 -71 72 -86 -111 124 125 126 127 0
-527 40 0
-527 -41 0
-527 56 0
-527 -57 0
-527 58 0
-527 -60 0
-527 -61 0
-527 -101 0
-527 154 0
527 -40 41 -56 57 -58 60 61 101 -154 0
-528 -58 0
-528 61 0
528 58 -61 0
-529 40 0
-529 -41 0
-529 56 0
-529 -57 0
-529 -60 0
-529 -101 0
-529 154 0
529 -40 41 -56 57 60 101 -154 0
-530 -58 0
-530 -529 0
530 58 529 0
-531 -527 0
-531 -528 0
-531 -530 0
531 527 528 530 0
-532 66 0
-532 70 0
-532 71 0
-532 -72 0
-532 111 0
-532 -124 0
-532 -125 0
-532 -126 0
-532 -127 0
532 -66 -70 -71 72 -111 124 125 126 127 0
-533 -531 0
-533 -532 0
533 531 532 0
-534 65 0
-534 -71 0
-534 -72 0
-534 77 0
-534 111 0
-534 124 0
-534 -125 0
-534 126 0
-534 -476 0
534 -65 71 72 -77 -111 -124 125 -126 476 0
-535 -488 0
-535 -531 0
-535 -532 0
535 488 531 532 0
-536 -534 0
-536 -535 0
536 534 535 0
533 536 -537 0
-533 -536 -537 0
533 -536 537 0
-533 536 537 0
-538 -526 0
-538 -537 0
538 526 537 0
-539 66 0
-539 70 0
-539 71 0
-539 -72 0
-539 85 0
-539 111 0
-539 -124 0
-539 -125 0
-539 -126 0
-539 -127 0
539 -66 -70 -71 72 -85 -111 124 125 126 127 0
-540 40 0
-540 -41 0
-540 56 0
-540 -57 0
-540 -60 0
-540 61 0
-540 -101 0
-540 154 0
540 -40 41 -56 57 60 -61 101 -154 0
-541 -61 0
-541 -529 0
541 61 529 0
-542 -540 0
-542 -541 0
542 540 541 0
-543 -532 0
-543 -542 0
543 532 542 0
-544 65 0
-544 -71 0
-544 -72 0
-544 76 0
-544 111 0
-544 124 0
-544 -125 0
-544 126 0
-544 -476 0
544 -65 71 72 -76 -111 -124 125 -126 476 0
-545 -488 0
-545 -532 0
-545 -542 0
545 488 532 542 0
-546 -544 0
-546 -545 0
546 544 545 0
543 546 -547 0
-543 -546 -547 0
543 -546 547 0
-543 546 547 0
-548 -539 0
-548 -547 0
548 539 547 0
-549 66 0
-549 70 0
-549 71 0
-549 -72 0
-549 82 0
-549 111 0
-549 -124 0
-549 -125 0
-549 -126 0
-549 -127 0
549 -66 -70 -71 72 -82 -111 124 125 126 127 0
-550 40 0
-550 -41 0
-550 56 0
-550 -60 0
-550 61 0
-550 -101 0
-550 154 0
550 -40 41 -56 60 -61 101 -154 0
-551 40 0
-551 -41 0
-551 56 0
-551 57 0
-551 -101 0
-551 154 0
551 -40 41 -56 -57 101 -154 0
-552 -53 0
-552 -550 0
-552 -551 0
552 53 550 551 0
-553 -550 0
-553 -551 0
553 550 551 0
-554 53 0
-554 -553 0
554 -53 553 0
-555 -552 0
-555 -554 0
555 552 554 0
-556 -532 0
-556 -555 0
556 532 555 0
-557 65 0
-557 -71 0
-557 -72 0
-557 73 0
-557 111 0
-557 124 0
-557 -125 0
-557 126 0
-557 -476 0
557 -65 71 72 -73 -111 -124 125 -126 476 0
-558 -488 0
-558 -532 0
-558 -555 0
558 488 532 555 0
-559 -557 0
-559 -558 0
559 557 558 0
556 559 -560 0
-556 -559 -560 0
556 -559 560 0
-556 559 560 0
-561 -549 0
-561 -560 0
561 549 560 0
-562 66 0
-562 70 0
-562 71 0
-562 -72 0
-562 83 0
-562 111 0
-562 -124 0
-562 -125 0
-562 -126 0
-562 -127 0
562 -66 -70 -71 72 -83 -111 124 125 126 127 0
-563 40 0
-563 -41 0
-563 56 0
-563 -101 0
-563 154 0
563 -40 41 -56 101 -154 0
-564 -57 0
-564 -563 0
564 57 563 0
-565 -551 0
-565 -564 0
565 551 564 0
-566 -532 0
-566 -565 0
566 532 565 0
-567 65 0
-567 -71 0
-567 -72 0
-567 74 0
-567 111 0
-567 124 0
-567 -125 0
-567 126 0
-567 -476 0
567 -65 71 72 -74 -111 -124 125 -126 476 0
-568 -488 0
-568 -532 0
-568 -565 0
568 488 532 565 0
-569 -567 0
-569 -568 0
569 567 568 0
566 569 -570 0
-566 -569 -570 0
566 -569 570 0
-566 569 570 0
-571 -562 0
-571 -570 0
571 562 570 0
-572 66 0
-572 70 0
-572 71 0
-572 -72 0
-572 84 0
-572 111 0
-572 -124 0
-572 -125 0
-572 -126 0
-572 -127 0
572 -66 -70 -71 72 -84 -111 124 125 126 127 0
-573 40 0
-573 -41 0
-573 56 0
-573 -57 0
-573 60 0
-573 -101 0
-573 154 0
573 -40 41 -56 57 -60 101 -154 0
-574 57 0
-574 -60 0
574 -57 60 0
-575 -60 0
-575 -563 0
575 60 563 0
-576 -573 0
-576 -574 0
-576 -575 0
576 573 574 575 0
-577 -532 0
-577 -576 0
577 532 576 0
-578 -488 0
-578 -532 0
-578 -576 0
578 488 532 576 0
-579 65 0
-579 -71 0
-579 -72 0
-579 75 0
-579 111 0
-579 124 0
-579 -125 0
-579 126 0
-579 -476 0
579 -65 71 72 -75 -111 -124 125 -126 476 0
-580 -578 0
-580 -579 0
580 578 579 0
577 580 -581 0
-577 -580 -581 0
577 -580 581 0
-577 580 581 0
-582 -572 0
-582 -581 0
582 572 581 0
-583 40 0
-583 -41 0
-583 56 0
-583 -101 0
-583 -154 0
583 -40 41 -56 101 154 0
-584 -113 0
-584 -583 0
584 113 583 0
-585 -514 0
-585 -584 0
585 514 584 0
-586 -488 0
-586 -489 0
-586 -585 0
586 488 489 585 0
-587 87 0
-587 -496 0
587 -87 496 0
-588 -586 0
-588 -587 0
588 586 587 0
-589 -489 0
-589 -585 0
589 489 585 0
-590 66 0
-590 70 0
-590 71 0
-590 -72 0
-590 87 0
-590 111 0
-590 124 0
-590 -125 0
-590 -126 0
-590 -127 0
590 -66 -70 -71 72 -87 -111 -124 125 126 127 0
-591 -589 0
-591 -590 0
591 589 590 0
588 591 -592 0
-588 -591 -592 0
588 -591 592 0
-588 591 592 0
-593 88 0
-593 -496 0
593 -88 496 0
-594 40 0
-594 -41 0
-594 56 0
-594 -101 0
-594 -113 0
-594 114 0
-594 -154 0
594 -40 41 -56 101 113 -114 154 0
-595 -114 0
-595 -583 0
595 114 583 0
-596 113 0
-596 -114 0
596 -113 114 0
-597 -594 0
-597 -595 0
-597 -596 0
597 594 595 596 0
-598 -488 0
-598 -489 0
-598 -597 0
598 488 489 597 0
-599 -593 0
-599 -598 0
599 593 598 0
-600 66 0
-600 70 0
-600 71 0
-600 -72 0
-600 88 0
-600 111 0
-600 124 0
-600 -125 0
-600 -126 0
-600 -127 0
600 -66 -70 -71 72 -88 -111 -124 125 126 127 0
-601 -489 0
-601 -597 0
601 489 597 0
-602 -600 0
-602 -601 0
602 600 601 0
599 602 -603 0
-599 -602 -603 0
599 -602 603 0
-599 602 603 0
-604 40 0
-604 41 0
-604 56 0
-604 -101 0
-604 -154 0
604 -40 -41 -56 101 154 0
-605 40 0
-605 41 0
-605 -56 0
-605 -101 0
-605 154 0
605 -40 -41 56 101 -154 0
-606 -563 0
-606 -583 0
-606 -604 0
-606 -605 0
606 563 583 604 605 0
-607 -98 0
-607 102 0
-607 103 0
-607 -104 0
-607 -105 0
607 98 -102 -103 104 105 0
-608 94 0
-608 95 0
-608 -96 0
-608 -99 0
-608 -100 0
-608 -106 0
608 -94 -95 96 99 100 106 0
-609 94 0
-609 -95 0
-609 -96 0
-609 99 0
-609 100 0
-609 106 0
609 -94 95 96 -99 -100 -106 0
-610 -608 0
-610 -609 0
610 608 609 0
-611 98 0
-611 102 0
-611 -103 0
-611 -104 0
-611 -105 0
611 -98 -102 103 104 105 0
-612 -104 0
-612 -606 0
-612 -607 0
-612 -610 0
-612 -611 0
612 104 606 607 610 611 0
-613 66 0
-613 -70 0
-613 71 0
-613 -72 0
-613 111 0
-613 124 0
-613 -125 0
-613 126 0
-613 -127 0
613 -66 70 -71 72 -111 -124 125 -126 127 0
-614 65 0
-614 70 0
-614 -71 0
-614 -72 0
-614 111 0
-614 -125 0
-614 126 0
-614 -133 0
614 -65 -70 71 72 -111 125 -126 133 0
-615 -613 0
-615 -614 0
615 613 614 0
613 615 -616 0
-613 -615 -616 0
613 -615 616 0
-613 615 616 0
-617 88 0
-617 -612 0
-617 -616 0
617 -88 612 616 0
-618 66 0
-618 70 0
-618 71 0
-618 -72 0
-618 88 0
-618 111 0
-618 -124 0
-618 -125 0
-618 -126 0
-618 -127 0
618 -66 -70 -71 72 -88 -111 124 125 126 127 0
-619 65 0
-619 -71 0
-619 -72 0
-619 79 0
-619 111 0
-619 124 0
-619 -125 0
-619 126 0
-619 -476 0
619 -65 71 72 -79 -111 -124 125 -126 476 0
-620 -618 0
-620 -619 0
620 618 619 0
618 620 -621 0
-618 -620 -621 0
618 -620 621 0
-618 620 621 0
-622 89 0
-622 -612 0
-622 -616 0
622 -89 612 616 0
-623 90 0
-623 -612 0
-623 -616 0
623 -90 612 616 0
-624 66 0
-624 89 0
-624 -612 0
624 -66 -89 612 0
-625 80 0
-625 -612 0
-625 -624 0
625 -80 612 624 0
-626 66 0
-626 70 0
-626 71 0
-626 -72 0
-626 90 0
-626 111 0
-626 -124 0
-626 -125 0
-626 -126 0
-626 -127 0
626 -66 -70 -71 72 -90 -111 124 125 126 127 0
-627 65 0
-627 -71 0
-627 -72 0
-627 81 0
-627 111 0
-627 124 0
-627 -125 0
-627 126 0
-627 -476 0
627 -65 71 72 -81 -111 -124 125 -126 476 0
-628 -626 0
-628 -627 0
628 626 627 0
626 628 -629 0
-626 -628 -629 0
626 -628 629 0
-626 628 629 0
-630 85 0
-630 -612 0
-630 -616 0
630 -85 612 616 0
-631 87 0
-631 -612 0
-631 -616 0
631 -87 612 616 0
-632 84 0
-632 -612 0
-632 -616 0
632 -84 612 616 0
-633 86 0
-633 -612 0
-633 -616 0
633 -86 612 616 0
-634 82 0
-634 -612 0
-634 -616 0
634 -82 612 616 0
-635 83 0
-635 -612 0
-635 -616 0
635 -83 612 616 0
-636 66 0
-636 70 0
-636 71 0
-636 -72 0
-636 89 0
-636 111 0
-636 -124 0
-636 -125 0
-636 -126 0
-636 -127 0
636 -66 -70 -71 72 -89 -111 124 125 126 127 0
-637 65 0
-637 -71 0
-637 -72 0
-637 80 0
-637 111 0
-637 124 0
-637 -125 0
-637 126 0
-637 -476 0
637 -65 71 72 -80 -111 -124 125 -126 476 0
-638 -636 0
-638 -637 0
638 636 637 0
636 638 -639 0
-636 -638 -639 0
636 -638 639 0
-636 638 639 0
-640 66 0
-640 82 0
-640 -612 0
640 -66 -82 612 0
-641 73 0
-641 -612 0
-641 -640 0
641 -73 612 640 0
-642 66 0
-642 88 0
-642 -612 0
642 -66 -88 612 0
-643 79 0
-643 -612 0
-643 -642 0
643 -79 612 642 0
-644 66 0
-644 84 0
-644 -612 0
644 -66 -84 612 0
-645 75 0
-645 -612 0
-645 -644 0
645 -75 612 644 0
-646 66 0
-646 70 0
-646 71 0
-646 -72 0
-646 87 0
-646 111 0
-646 -124 0
-646 -125 0
-646 -126 0
-646 -127 0
646 -66 -70 -71 72 -87 -111 124 125 126 127 0
-647 65 0
-647 -71 0
-647 -72 0
-647 78 0
-647 111 0
-647 124 0
-647 -125 0
-647 126 0
-647 -476 0
647 -65 71 72 -78 -111 -124 125 -126 476 0
-648 -646 0
-648 -647 0
648 646 647 0
646 648 -649 0
-646 -648 -649 0
646 -648 649 0
-646 648 649 0
-650 66 0
-650 90 0
-650 -612 0
650 -66 -90 612 0
-651 81 0
-651 -612 0
-651 -650 0
651 -81 612 650 0
-652 66 0
-652 83 0
-652 -612 0
652 -66 -83 612 0
-653 74 0
-653 -612 0
-653 -652 0
653 -74 612 652 0
-654 66 0
-654 87 0
-654 -612 0
654 -66 -87 612 0
-655 78 0
-655 -612 0
-655 -654 0
655 -78 612 654 0
-656 66 0
-656 85 0
-656 -612 0
656 -66 -85 612 0
-657 76 0
-657 -612 0
-657 -656 0
657 -76 612 656 0
-658 66 0
-658 86 0
-658 -612 0
658 -66 -86 612 0
-659 77 0
-659 -612 0
-659 -658 0
659 -77 612 658 0
-660 131 0
-660 -137 0
-660 -185 0
-660 -211 0
-660 -237 0
-660 -265 0
-660 -293 0
-660 -322 0
-660 -348 0
-660 -375 0
-660 -417 0
-660 420 0
-660 426 0
-660 432 0
-660 440 0
-660 448 0
-660 456 0
-660 464 0
-660 472 0
-660 475 0
-660 -482 0
-660 -487 0
-660 -502 0
-660 -512 0
-660 -525 0
-660 -538 0
-660 -548 0
-660 -561 0
-660 -571 0
-660 -582 0
-660 -592 0
-660 -603 0
-660 -617 0
-660 621 0
-660 -622 0
-660 -623 0
-660 -625 0
-660 629 0
-660 -630 0
-660 -631 0
-660 -632 0
-660 -633 0
-660 -634 0
-660 -635 0
-660 639 0
-660 -641 0
-660 -643 0
-660 -645 0
-660 649 0
-660 -651 0
-660 -653 0
-660 -655 0
-660 -657 0
-660 -659 0
660 -131 137 185 211 237 265 293 322 348 375 417 -420 -426 -432 -440 -448 -456 -464 -472 -475 482 487 502 512 525 538 548 561 571 582 592 603 617 -621 622 623 625 -629 630 631 632 633 634 635 -639 641 643 645 -649 651 653 655 657 659 0
-661 -64 0
-661 -660 0
661 64 660 0
