p cnf 236 788
8 52 -232 0
-8 -52 -232 0
8 -52 232 0
-8 52 232 0
232 54 -79 0
-232 -54 -79 0
232 -54 79 0
-232 54 79 0
2 8 -233 0
-2 -8 -233 0
2 -8 233 0
-2 8 233 0
233 56 -234 0
-233 -56 -234 0
233 -56 234 0
-233 56 234 0
234 57 -80 0
-234 -57 -80 0
234 -57 80 0
-234 57 80 0
-81 -4 0
-81 -5 0
-81 -9 0
81 4 5 9 0
-82 -4 0
-82 5 0
-82 9 0
82 4 -5 -9 0
-83 4 0
-83 5 0
-83 -9 0
83 -4 -5 9 0
-84 4 0
-84 -5 0
-84 9 0
84 -4 5 -9 0
-85 -24 0
-85 -25 0
-85 27 0
-85 38 0
-85 -55 0
-85 -81 0
-85 -82 0
-85 -83 0
-85 -84 0
85 24 25 -27 -38 55 81 82 83 84 0
-86 -81 0
-86 -82 0
-86 -83 0
-86 -84 0
86 81 82 83 84 0
-87 -24 0
-87 -25 0
-87 27 0
-87 38 0
-87 -55 0
87 24 25 -27 -38 55 0
-88 -86 0
-88 -87 0
88 86 87 0
-89 -85 0
-89 -88 0
89 85 88 0
-90 54 0
-90 56 0
-90 -57 0
-90 79 0
-90 -80 0
-90 -89 0
90 -54 -56 57 -79 80 89 0
9 37 -91 0
-9 -37 -91 0
9 -37 91 0
-9 37 91 0
-92 -54 0
-92 -56 0
-92 -57 0
-92 -79 0
-92 80 0
-92 -91 0
92 54 56 57 79 -80 91 0
5 39 -235 0
-5 -39 -235 0
5 -39 235 0
-5 39 235 0
235 40 -93 0
-235 -40 -93 0
235 -40 93 0
-235 40 93 0
-94 54 0
-94 -56 0
-94 -57 0
-94 79 0
-94 80 0
-94 -93 0
94 -54 56 57 -79 -80 93 0
-95 -40 0
-95 -54 0
-95 -56 0
-95 -57 0
-95 79 0
-95 80 0
95 40 54 56 57 -79 -80 0
-96 -37 0
-96 54 0
-96 -56 0
-96 -57 0
-96 -79 0
-96 80 0
96 37 -54 56 57 79 -80 0
-97 -32 0
-97 54 0
-97 56 0
-97 -57 0
-97 79 0
-97 80 0
97 32 -54 -56 57 -79 -80 0
-98 -39 0
-98 -54 0
-98 56 0
-98 -57 0
-98 -79 0
-98 80 0
98 39 54 -56 57 79 -80 0
-99 -23 0
-99 -54 0
-99 56 0
-99 -57 0
-99 79 0
-99 80 0
99 23 54 -56 57 -79 -80 0
4 23 -236 0
-4 -23 -236 0
4 -23 236 0
-4 23 236 0
236 32 -100 0
-236 -32 -100 0
236 -32 100 0
-236 32 100 0
-101 54 0
-101 56 0
-101 -57 0
-101 -79 0
-101 80 0
-101 -100 0
101 -54 -56 57 79 -80 100 0
-102 -90 0
-102 -92 0
-102 -94 0
-102 -95 0
-102 -96 0
-102 -97 0
-102 -98 0
-102 -99 0
-102 -101 0
102 90 92 94 95 96 97 98 99 101 0
-103 -24 0
-103 25 0
-103 27 0
-103 38 0
-103 -55 0
103 24 -25 -27 -38 55 0
-104 -87 0
-104 -103 0
104 87 103 0
-105 -102 0
-105 -104 0
105 102 104 0
-106 -26 0
-106 60 0
-106 62 0
-106 63 0
106 26 -60 -62 -63 0
-107 60 0
-107 62 0
-107 63 0
107 -60 -62 -63 0
-108 -66 0
-108 -107 0
108 66 107 0
-109 -106 0
-109 -108 0
109 106 108 0
-110 54 0
-110 -56 0
-110 57 0
-110 79 0
-110 -80 0
-110 -109 0
110 -54 56 -57 -79 80 109 0
-111 -17 0
-111 60 0
-111 62 0
-111 63 0
111 17 -60 -62 -63 0
-112 -50 0
-112 -107 0
112 50 107 0
-113 -111 0
-113 -112 0
113 111 112 0
-114 -54 0
-114 56 0
-114 57 0
-114 -79 0
-114 -80 0
-114 -113 0
114 54 -56 -57 79 80 113 0
-115 -34 0
-115 60 0
-115 62 0
-115 63 0
115 34 -60 -62 -63 0
-116 -51 0
-116 -107 0
116 51 107 0
-117 -115 0
-117 -116 0
117 115 116 0
-118 -54 0
-118 -56 0
-118 57 0
-118 79 0
-118 -80 0
-118 -117 0
118 54 56 -57 -79 80 117 0
-119 -18 0
-119 60 0
-119 62 0
-119 63 0
119 18 -60 -62 -63 0
-120 -49 0
-120 -107 0
120 49 107 0
-121 -119 0
-121 -120 0
121 119 120 0
-122 54 0
-122 56 0
-122 57 0
-122 -79 0
-122 -80 0
-122 -121 0
122 -54 -56 -57 79 80 121 0
-123 24 0
-123 25 0
-123 27 0
-123 -38 0
-123 -55 0
123 -24 -25 -27 38 55 0
-124 -87 0
-124 -103 0
-124 -123 0
124 87 103 123 0
-125 -54 0
-125 56 0
-125 57 0
-125 79 0
-125 80 0
-125 -124 0
125 54 -56 -57 -79 -80 124 0
-126 59 0
-126 -123 0
126 -59 123 0
-127 54 0
-127 56 0
-127 57 0
-127 79 0
-127 80 0
-127 -126 0
127 -54 -56 -57 -79 -80 126 0
-128 -22 0
-128 60 0
-128 62 0
-128 63 0
128 22 -60 -62 -63 0
-129 -11 0
-129 -107 0
129 11 107 0
-130 -128 0
-130 -129 0
130 128 129 0
-131 54 0
-131 -56 0
-131 57 0
-131 79 0
-131 80 0
-131 -130 0
131 -54 56 -57 -79 -80 130 0
-132 -77 0
-132 -107 0
132 77 107 0
-133 -30 0
-133 60 0
-133 62 0
-133 63 0
133 30 -60 -62 -63 0
-134 -132 0
-134 -133 0
134 132 133 0
-135 54 0
-135 56 0
-135 57 0
-135 -79 0
-135 80 0
-135 -134 0
135 -54 -56 -57 79 -80 134 0
-136 -14 0
-136 -107 0
136 14 107 0
-137 -35 0
-137 60 0
-137 62 0
-137 63 0
137 35 -60 -62 -63 0
-138 -136 0
-138 -137 0
138 136 137 0
-139 -54 0
-139 -56 0
-139 57 0
-139 79 0
-139 80 0
-139 -138 0
139 54 56 -57 -79 -80 138 0
-140 -36 0
-140 60 0
-140 62 0
-140 63 0
140 36 -60 -62 -63 0
-141 -15 0
-141 -107 0
141 15 107 0
-142 -140 0
-142 -141 0
142 140 141 0
-143 -54 0
-143 56 0
-143 57 0
-143 -79 0
-143 80 0
-143 -142 0
143 54 -56 -57 79 -80 142 0
-144 -13 0
-144 60 0
-144 62 0
-144 63 0
144 13 -60 -62 -63 0
-145 -70 0
-145 -107 0
145 70 107 0
-146 -144 0
-146 -145 0
146 144 145 0
-147 -54 0
-147 56 0
-147 57 0
-147 79 0
-147 -80 0
-147 -146 0
147 54 -56 -57 -79 80 146 0
-148 -71 0
-148 -107 0
148 71 107 0
-149 -20 0
-149 60 0
-149 62 0
-149 63 0
149 20 -60 -62 -63 0
-150 -148 0
-150 -149 0
150 148 149 0
-151 54 0
-151 56 0
-151 57 0
-151 79 0
-151 -80 0
-151 -150 0
151 -54 -56 -57 -79 80 150 0
-152 -76 0
-152 -107 0
152 76 107 0
-153 -29 0
-153 60 0
-153 62 0
-153 63 0
153 29 -60 -62 -63 0
-154 -152 0
-154 -153 0
154 152 153 0
-155 -54 0
-155 -56 0
-155 57 0
-155 -79 0
-155 80 0
-155 -154 0
155 54 56 -57 79 -80 154 0
-156 -75 0
-156 -107 0
156 75 107 0
-157 -28 0
-157 60 0
-157 62 0
-157 63 0
157 28 -60 -62 -63 0
-158 -156 0
-158 -157 0
158 156 157 0
-159 54 0
-159 -56 0
-159 57 0
-159 -79 0
-159 80 0
-159 -158 0
159 -54 56 -57 79 -80 158 0
-160 -110 0
-160 -114 0
-160 -118 0
-160 -122 0
-160 -125 0
-160 -127 0
-160 -131 0
-160 -135 0
-160 -139 0
-160 -143 0
-160 -147 0
-160 -151 0
-160 -155 0
-160 -159 0
160 110 114 118 122 125 127 131 135 139 143 147 151 155 159 0
-161 69 0
-161 -160 0
161 -69 160 0
-162 -60 0
-162 -64 0
162 60 64 0
-163 58 0
-163 -162 0
163 -58 162 0
-164 -67 0
-164 -68 0
-164 -107 0
-164 -163 0
164 67 68 107 163 0
-165 58 0
-165 -65 0
-165 -68 0
-165 -107 0
-165 -162 0
165 -58 65 68 107 162 0
-166 -2 0
-166 -53 0
-166 61 0
-166 -105 0
-166 -161 0
-166 -164 0
-166 -165 0
166 2 53 -61 105 161 164 165 0
-167 -1 0
-167 -53 0
-167 61 0
-167 -105 0
-167 -161 0
-167 -164 0
-167 -165 0
167 1 53 -61 105 161 164 165 0
-168 42 0
-168 44 0
168 -42 -44 0
-169 42 0
-169 46 0
169 -42 -46 0
-170 41 0
-170 45 0
170 -41 -45 0
-171 41 0
-171 43 0
171 -41 -43 0
-172 42 0
-172 43 0
172 -42 -43 0
-173 42 0
-173 47 0
173 -42 -47 0
-174 42 0
-174 48 0
174 -42 -48 0
-175 42 0
-175 43 0
-175 44 0
-175 45 0
-175 46 0
175 -42 -43 -44 -45 -46 0
-176 42 0
-176 45 0
176 -42 -45 0
-177 -169 0
-177 -176 0
177 169 176 0
-178 -172 0
-178 -173 0
-178 -174 0
-178 -175 0
-178 -177 0
178 172 173 174 175 177 0
-179 41 0
-179 46 0
179 -41 -46 0
-180 41 0
-180 48 0
180 -41 -48 0
-181 41 0
-181 47 0
181 -41 -47 0
-182 41 0
-182 43 0
-182 44 0
-182 45 0
-182 -179 0
-182 -180 0
-182 -181 0
182 -41 -43 -44 -45 179 180 181 0
-183 -178 0
-183 -182 0
183 178 182 0
-184 41 0
-184 44 0
184 -41 -44 0
-185 -176 0
-185 -184 0
185 176 184 0
-186 -168 0
-186 -171 0
186 168 171 0
-187 -70 0
-187 -169 0
-187 -170 0
-187 -185 0
-187 -186 0
187 70 169 170 185 186 0
-188 -169 0
-188 -170 0
188 169 170 0
-189 -13 0
-189 -176 0
-189 -184 0
-189 -186 0
-189 -188 0
189 13 176 184 186 188 0
-190 -25 0
-190 -185 0
-190 -186 0
-190 -188 0
190 25 185 186 188 0
-191 -91 0
-191 -168 0
-191 -171 0
-191 -185 0
-191 -188 0
191 91 168 171 185 188 0
10 72 -192 0
-10 -72 -192 0
10 -72 192 0
-10 72 192 0
-193 -168 0
-193 -171 0
-193 -185 0
-193 -188 0
-193 -192 0
193 168 171 185 188 192 0
-194 -12 0
-194 -169 0
-194 -170 0
-194 -185 0
-194 -186 0
194 12 169 170 185 186 0
-195 -33 0
-195 -176 0
-195 -184 0
-195 -186 0
-195 -188 0
195 33 176 184 186 188 0
-196 -193 0
-196 -194 0
-196 -195 0
196 193 194 195 0
-197 42 0
-197 43 0
-197 -173 0
-197 -174 0
-197 -175 0
-197 -177 0
197 -42 -43 173 174 175 177 0
-198 -170 0
-198 -184 0
198 170 184 0
-199 -179 0
-199 -180 0
-199 -181 0
-199 -198 0
199 179 180 181 198 0
-200 -197 0
-200 -199 0
200 197 199 0
-201 -196 0
-201 -200 0
201 196 200 0
-202 -168 0
-202 -169 0
-202 -170 0
-202 -171 0
-202 -183 0
-202 -185 0
-202 -187 0
-202 -189 0
-202 -190 0
-202 -191 0
-202 -201 0
202 168 169 170 171 183 185 187 189 190 191 201 0
-203 -168 0
-203 -171 0
-203 -176 0
-203 -184 0
-203 -188 0
203 168 171 176 184 188 0
-204 -21 0
-204 -176 0
-204 -184 0
-204 -186 0
-204 -188 0
204 21 176 184 186 188 0
-205 -73 0
-205 -169 0
-205 -170 0
-205 -185 0
-205 -186 0
205 73 169 170 185 186 0
-206 -16 0
-206 -185 0
-206 -186 0
-206 -188 0
206 16 185 186 188 0
-207 -86 0
-207 -168 0
-207 -171 0
-207 -185 0
-207 -188 0
207 86 168 171 185 188 0
-208 -6 0
-208 -7 0
-208 -10 0
208 6 7 10 0
-209 6 0
-209 -7 0
-209 10 0
209 -6 7 -10 0
-210 6 0
-210 7 0
-210 -10 0
210 -6 -7 10 0
-211 -6 0
-211 7 0
-211 10 0
211 6 -7 -10 0
-212 -208 0
-212 -209 0
-212 -210 0
-212 -211 0
212 208 209 210 211 0
-213 -168 0
-213 -171 0
-213 -185 0
-213 -188 0
-213 -212 0
213 168 171 185 188 212 0
-214 -19 0
-214 -176 0
-214 -184 0
-214 -186 0
-214 -188 0
214 19 176 184 186 188 0
-215 -78 0
-215 -169 0
-215 -170 0
-215 -185 0
-215 -186 0
215 78 169 170 185 186 0
-216 -213 0
-216 -214 0
-216 -215 0
216 213 214 215 0
-217 -200 0
-217 -216 0
217 200 216 0
-218 -168 0
-218 -169 0
-218 -170 0
-218 -171 0
-218 -183 0
-218 -185 0
-218 -203 0
-218 -204 0
-218 -205 0
-218 -206 0
-218 -207 0
-218 -217 0
218 168 169 170 171 183 185 203 204 205 206 207 217 0
-219 -3 0
-219 -168 0
-219 -169 0
-219 -170 0
-219 -171 0
-219 -179 0
-219 -180 0
-219 -181 0
-219 -185 0
-219 -198 0
-219 -203 0
-219 -204 0
-219 -205 0
-219 -206 0
-219 -207 0
219 3 168 169 170 171 179 180 181 185 198 203 204 205 206 207 0
-220 74 0
-220 -212 0
220 -74 212 0
-221 -74 0
-221 -208 0
-221 -209 0
-221 -210 0
-221 -211 0
221 74 208 209 210 211 0
-222 -220 0
-222 -221 0
222 220 221 0
-223 -168 0
-223 -169 0
-223 -170 0
-223 -171 0
-223 -179 0
-223 -180 0
-223 -181 0
-223 -185 0
-223 -187 0
-223 -189 0
-223 -190 0
-223 -191 0
-223 -198 0
-223 -222 0
223 168 169 170 171 179 180 181 185 187 189 190 191 198 222 0
-224 -105 0
-224 -161 0
-224 -164 0
-224 -165 0
224 105 161 164 165 0
-225 -53 0
-225 61 0
225 53 -61 0
-226 -105 0
-226 -161 0
-226 -164 0
-226 -165 0
-226 -225 0
226 105 161 164 165 225 0
-227 -225 0
-227 -226 0
227 225 226 0
224 227 -228 0
-224 -227 -228 0
224 -227 228 0
-224 227 228 0
-229 -105 0
-229 -161 0
-229 -164 0
-229 -165 0
-229 -228 0
229 105 161 164 165 228 0
-230 -166 0
-230 -167 0
-230 -202 0
-230 -218 0
-230 -219 0
-230 -223 0
-230 -229 0
230 166 167 202 218 219 223 229 0
-231 31 0
-231 -230 0
231 -31 230 0
