p cnf 323 1184
-75 58 0
-75 62 0
75 -58 -62 0
13 62 -302 0
-13 -62 -302 0
13 -62 302 0
-13 62 302 0
302 63 -76 0
-302 -63 -76 0
302 -63 76 0
-302 63 76 0
-77 58 0
-77 76 0
77 -58 -76 0
-78 58 0
-78 63 0
78 -58 -63 0
-79 58 0
-79 61 0
79 -58 -61 0
1 13 -303 0
-1 -13 -303 0
1 -13 303 0
-1 13 303 0
303 24 -304 0
-303 -24 -304 0
303 -24 304 0
-303 24 304 0
304 61 -80 0
-304 -61 -80 0
304 -61 80 0
-304 61 80 0
-81 58 0
-81 80 0
81 -58 -80 0
-82 -79 0
-82 -81 0
82 79 81 0
-83 -75 0
-83 -77 0
-83 -78 0
-83 -82 0
83 75 77 78 82 0
24 60 -84 0
-24 -60 -84 0
24 -60 84 0
-24 60 84 0
-85 59 0
-85 84 0
85 -59 -84 0
-86 59 0
-86 63 0
86 -59 -63 0
-87 59 0
-87 76 0
87 -59 -76 0
-88 59 0
-88 61 0
-88 62 0
-88 80 0
-88 84 0
88 -59 -61 -62 -80 -84 0
-89 59 0
-89 80 0
89 -59 -80 0
-90 59 0
-90 62 0
90 -59 -62 0
-91 -89 0
-91 -90 0
91 89 90 0
-92 -85 0
-92 -86 0
-92 -87 0
-92 -88 0
-92 -91 0
92 85 86 87 88 91 0
-93 58 0
-93 61 0
-93 -75 0
-93 -77 0
-93 -78 0
-93 80 0
-93 84 0
93 -58 -61 75 77 78 -80 -84 0
-94 -92 0
-94 -93 0
94 92 93 0
-95 59 0
-95 61 0
95 -59 -61 0
-96 58 0
-96 84 0
96 -58 -84 0
-97 -95 0
-97 -96 0
97 95 96 0
-98 -79 0
-98 -89 0
98 79 89 0
-99 -67 0
-99 -81 0
-99 -90 0
-99 -97 0
-99 -98 0
99 67 81 90 97 98 0
-100 -81 0
-100 -90 0
100 81 90 0
-101 -29 0
-101 -79 0
-101 -89 0
-101 -97 0
-101 -100 0
101 29 79 89 97 100 0
4 33 -305 0
-4 -33 -305 0
4 -33 305 0
-4 33 305 0
305 40 -102 0
-305 -40 -102 0
305 -40 102 0
-305 40 102 0
-103 -97 0
-103 -98 0
-103 -100 0
-103 -102 0
103 97 98 100 102 0
23 51 -104 0
-23 -51 -104 0
23 -51 104 0
-23 51 104 0
-105 -95 0
-105 -96 0
-105 -98 0
-105 -100 0
-105 -104 0
105 95 96 98 100 104 0
-106 -45 0
-106 -81 0
-106 -90 0
-106 -95 0
-106 -96 0
-106 -98 0
106 45 81 90 95 96 98 0
-107 -99 0
-107 -101 0
-107 -103 0
-107 -105 0
-107 -106 0
107 99 101 103 105 106 0
-108 -94 0
-108 -107 0
108 94 107 0
25 69 -109 0
-25 -69 -109 0
25 -69 109 0
-25 69 109 0
-110 -95 0
-110 -96 0
-110 -98 0
-110 -100 0
-110 -109 0
110 95 96 98 100 109 0
-111 -28 0
-111 -81 0
-111 -90 0
-111 -97 0
-111 -98 0
111 28 81 90 97 98 0
-112 -48 0
-112 -79 0
-112 -89 0
-112 -97 0
-112 -100 0
112 48 79 89 97 100 0
-113 -110 0
-113 -111 0
-113 -112 0
113 110 111 112 0
-114 59 0
-114 84 0
-114 -86 0
-114 -87 0
-114 -88 0
-114 -91 0
-114 -113 0
114 -59 -84 86 87 88 91 113 0
113 114 -115 0
-113 -114 -115 0
113 -114 115 0
-113 114 115 0
-116 -108 0
-116 -115 0
116 108 115 0
-117 -68 0
-117 -81 0
-117 -90 0
-117 -97 0
-117 -98 0
117 68 81 90 97 98 0
-118 -40 0
-118 -97 0
-118 -98 0
-118 -100 0
118 40 97 98 100 0
-119 -37 0
-119 -79 0
-119 -89 0
-119 -97 0
-119 -100 0
119 37 79 89 97 100 0
-120 -51 0
-120 -95 0
-120 -96 0
-120 -98 0
-120 -100 0
120 51 95 96 98 100 0
-121 -117 0
-121 -118 0
-121 -119 0
-121 -120 0
121 117 118 119 120 0
-122 -94 0
-122 -121 0
122 94 121 0
6 36 -306 0
-6 -36 -306 0
6 -36 306 0
-6 36 306 0
306 48 -123 0
-306 -48 -123 0
306 -48 123 0
-306 48 123 0
-124 -79 0
-124 -89 0
-124 -97 0
-124 -100 0
-124 -123 0
124 79 89 97 100 123 0
-125 -32 0
-125 -81 0
-125 -90 0
-125 -97 0
-125 -98 0
125 32 81 90 97 98 0
-126 -69 0
-126 -95 0
-126 -96 0
-126 -98 0
-126 -100 0
126 69 95 96 98 100 0
-127 -124 0
-127 -125 0
-127 -126 0
127 124 125 126 0
-128 59 0
-128 84 0
-128 -86 0
-128 -87 0
-128 -88 0
-128 -91 0
-128 -127 0
128 -59 -84 86 87 88 91 127 0
127 128 -129 0
-127 -128 -129 0
127 -128 129 0
-127 128 129 0
-130 -122 0
-130 -129 0
130 122 129 0
-131 -57 0
-131 -95 0
-131 -96 0
-131 -98 0
-131 -100 0
131 57 95 96 98 100 0
-132 -41 0
-132 -97 0
-132 -98 0
-132 -100 0
132 41 97 98 100 0
18 30 -307 0
-18 -30 -307 0
18 -30 307 0
-18 30 307 0
307 71 -133 0
-307 -71 -133 0
307 -71 133 0
-307 71 133 0
-134 -81 0
-134 -90 0
-134 -97 0
-134 -98 0
-134 -133 0
134 81 90 97 98 133 0
-135 -43 0
-135 -79 0
-135 -89 0
-135 -97 0
-135 -100 0
135 43 79 89 97 100 0
-136 -131 0
-136 -132 0
-136 -134 0
-136 -135 0
136 131 132 134 135 0
-137 -94 0
-137 -136 0
137 94 136 0
-138 -72 0
-138 -95 0
-138 -96 0
-138 -98 0
-138 -100 0
138 72 95 96 98 100 0
-139 -52 0
-139 -81 0
-139 -90 0
-139 -97 0
-139 -98 0
139 52 81 90 97 98 0
-140 -49 0
-140 -79 0
-140 -89 0
-140 -97 0
-140 -100 0
140 49 79 89 97 100 0
-141 -138 0
-141 -139 0
-141 -140 0
141 138 139 140 0
-142 59 0
-142 84 0
-142 -86 0
-142 -87 0
-142 -88 0
-142 -91 0
-142 -141 0
142 -59 -84 86 87 88 91 141 0
141 142 -143 0
-141 -142 -143 0
141 -142 143 0
-141 142 143 0
-144 -137 0
-144 -143 0
144 137 143 0
12 56 -308 0
-12 -56 -308 0
12 -56 308 0
-12 56 308 0
308 57 -145 0
-308 -57 -145 0
308 -57 145 0
-308 57 145 0
-146 -95 0
-146 -96 0
-146 -98 0
-146 -100 0
-146 -145 0
146 95 96 98 100 145 0
-147 -71 0
-147 -81 0
-147 -90 0
-147 -97 0
-147 -98 0
147 71 81 90 97 98 0
-148 -54 0
-148 -97 0
-148 -98 0
-148 -100 0
148 54 97 98 100 0
-149 -42 0
-149 -79 0
-149 -89 0
-149 -97 0
-149 -100 0
149 42 79 89 97 100 0
-150 -146 0
-150 -147 0
-150 -148 0
-150 -149 0
150 146 147 148 149 0
-151 -94 0
-151 -150 0
151 94 150 0
10 49 -309 0
-10 -49 -309 0
10 -49 309 0
-10 49 309 0
309 50 -152 0
-309 -50 -152 0
309 -50 152 0
-309 50 152 0
-153 -79 0
-153 -89 0
-153 -97 0
-153 -100 0
-153 -152 0
153 79 89 97 100 152 0
-154 -53 0
-154 -81 0
-154 -90 0
-154 -97 0
-154 -98 0
154 53 81 90 97 98 0
20 27 -310 0
-20 -27 -310 0
20 -27 310 0
-20 27 310 0
310 72 -155 0
-310 -72 -155 0
310 -72 155 0
-310 72 155 0
-156 -95 0
-156 -96 0
-156 -98 0
-156 -100 0
-156 -155 0
156 95 96 98 100 155 0
-157 -153 0
-157 -154 0
-157 -156 0
157 153 154 156 0
-158 59 0
-158 84 0
-158 -86 0
-158 -87 0
-158 -88 0
-158 -91 0
-158 -157 0
158 -59 -84 86 87 88 91 157 0
157 158 -159 0
-157 -158 -159 0
157 -158 159 0
-157 158 159 0
-160 -151 0
-160 -159 0
160 151 159 0
7 42 -311 0
-7 -42 -311 0
7 -42 311 0
-7 42 311 0
311 43 -161 0
-311 -43 -161 0
311 -43 161 0
-311 43 161 0
-162 -79 0
-162 -89 0
-162 -97 0
-162 -100 0
-162 -161 0
162 79 89 97 100 161 0
-163 -30 0
-163 -81 0
-163 -90 0
-163 -97 0
-163 -98 0
163 30 81 90 97 98 0
11 41 -312 0
-11 -41 -312 0
11 -41 312 0
-11 41 312 0
312 54 -164 0
-312 -54 -164 0
312 -54 164 0
-312 54 164 0
-165 -97 0
-165 -98 0
-165 -100 0
-165 -164 0
165 97 98 100 164 0
-166 -56 0
-166 -95 0
-166 -96 0
-166 -98 0
-166 -100 0
166 56 95 96 98 100 0
-167 -162 0
-167 -163 0
-167 -165 0
-167 -166 0
167 162 163 165 166 0
-168 -94 0
-168 -167 0
168 94 167 0
-169 -50 0
-169 -79 0
-169 -89 0
-169 -97 0
-169 -100 0
169 50 79 89 97 100 0
14 52 -313 0
-14 -52 -313 0
14 -52 313 0
-14 52 313 0
313 53 -170 0
-313 -53 -170 0
313 -53 170 0
-313 53 170 0
-171 -81 0
-171 -90 0
-171 -97 0
-171 -98 0
-171 -170 0
171 81 90 97 98 170 0
-172 -27 0
-172 -95 0
-172 -96 0
-172 -98 0
-172 -100 0
172 27 95 96 98 100 0
-173 -169 0
-173 -171 0
-173 -172 0
173 169 171 172 0
-174 59 0
-174 84 0
-174 -86 0
-174 -87 0
-174 -88 0
-174 -91 0
-174 -173 0
174 -59 -84 86 87 88 91 173 0
173 174 -175 0
-173 -174 -175 0
173 -174 175 0
-173 174 175 0
-176 -168 0
-176 -175 0
176 168 175 0
-177 -26 0
-177 -81 0
-177 -90 0
-177 -97 0
-177 -98 0
177 26 81 90 97 98 0
9 39 -314 0
-9 -39 -314 0
9 -39 314 0
-9 39 314 0
314 47 -178 0
-314 -47 -178 0
314 -47 178 0
-314 47 178 0
-179 -95 0
-179 -96 0
-179 -98 0
-179 -100 0
-179 -178 0
179 95 96 98 100 178 0
-180 -38 0
-180 -79 0
-180 -89 0
-180 -97 0
-180 -100 0
180 38 79 89 97 100 0
16 55 -315 0
-16 -55 -315 0
16 -55 315 0
-16 55 315 0
315 66 -181 0
-315 -66 -181 0
315 -66 181 0
-315 66 181 0
-182 -97 0
-182 -98 0
-182 -100 0
-182 -181 0
182 97 98 100 181 0
-183 -177 0
-183 -179 0
-183 -180 0
-183 -182 0
183 177 179 180 182 0
-184 -94 0
-184 -183 0
184 94 183 0
5 34 -316 0
-5 -34 -316 0
5 -34 316 0
-5 34 316 0
316 35 -185 0
-316 -35 -185 0
316 -35 185 0
-316 35 185 0
-186 -79 0
-186 -89 0
-186 -97 0
-186 -100 0
-186 -185 0
186 79 89 97 100 185 0
15 64 -317 0
-15 -64 -317 0
15 -64 317 0
-15 64 317 0
317 65 -187 0
-317 -65 -187 0
317 -65 187 0
-317 65 187 0
-188 -81 0
-188 -90 0
-188 -97 0
-188 -98 0
-188 -187 0
188 81 90 97 98 187 0
-189 -73 0
-189 -95 0
-189 -96 0
-189 -98 0
-189 -100 0
189 73 95 96 98 100 0
-190 -186 0
-190 -188 0
-190 -189 0
190 186 188 189 0
-191 59 0
-191 84 0
-191 -86 0
-191 -87 0
-191 -88 0
-191 -91 0
-191 -190 0
191 -59 -84 86 87 88 91 190 0
190 191 -192 0
-190 -191 -192 0
190 -191 192 0
-190 191 192 0
-193 -184 0
-193 -192 0
193 184 192 0
-194 -55 0
-194 -97 0
-194 -98 0
-194 -100 0
194 55 97 98 100 0
-195 -31 0
-195 -81 0
-195 -90 0
-195 -97 0
-195 -98 0
195 31 81 90 97 98 0
-196 -39 0
-196 -95 0
-196 -96 0
-196 -98 0
-196 -100 0
196 39 95 96 98 100 0
8 38 -318 0
-8 -38 -318 0
8 -38 318 0
-8 38 318 0
318 44 -197 0
-318 -44 -197 0
318 -44 197 0
-318 44 197 0
-198 -79 0
-198 -89 0
-198 -97 0
-198 -100 0
-198 -197 0
198 79 89 97 100 197 0
-199 -194 0
-199 -195 0
-199 -196 0
-199 -198 0
199 194 195 196 198 0
-200 -94 0
-200 -199 0
200 94 199 0
-201 -34 0
-201 -79 0
-201 -89 0
-201 -97 0
-201 -100 0
201 34 79 89 97 100 0
-202 -65 0
-202 -81 0
-202 -90 0
-202 -97 0
-202 -98 0
202 65 81 90 97 98 0
-203 -74 0
-203 -95 0
-203 -96 0
-203 -98 0
-203 -100 0
203 74 95 96 98 100 0
-204 -201 0
-204 -202 0
-204 -203 0
204 201 202 203 0
-205 59 0
-205 84 0
-205 -86 0
-205 -87 0
-205 -88 0
-205 -91 0
-205 -204 0
205 -59 -84 86 87 88 91 204 0
204 205 -206 0
-204 -205 -206 0
204 -205 206 0
-204 205 206 0
-207 -200 0
-207 -206 0
207 200 206 0
-208 -66 0
-208 -97 0
-208 -98 0
-208 -100 0
208 66 97 98 100 0
19 26 -319 0
-19 -26 -319 0
19 -26 319 0
-19 26 319 0
319 31 -209 0
-319 -31 -209 0
319 -31 209 0
-319 31 209 0
-210 -81 0
-210 -90 0
-210 -97 0
-210 -98 0
-210 -209 0
210 81 90 97 98 209 0
-211 -47 0
-211 -95 0
-211 -96 0
-211 -98 0
-211 -100 0
211 47 95 96 98 100 0
-212 -44 0
-212 -79 0
-212 -89 0
-212 -97 0
-212 -100 0
212 44 79 89 97 100 0
-213 -208 0
-213 -210 0
-213 -211 0
-213 -212 0
213 208 210 211 212 0
-214 -94 0
-214 -213 0
214 94 213 0
21 73 -320 0
-21 -73 -320 0
21 -73 320 0
-21 73 320 0
320 74 -215 0
-320 -74 -215 0
320 -74 215 0
-320 74 215 0
-216 -95 0
-216 -96 0
-216 -98 0
-216 -100 0
-216 -215 0
216 95 96 98 100 215 0
-217 -64 0
-217 -81 0
-217 -90 0
-217 -97 0
-217 -98 0
217 64 81 90 97 98 0
-218 -35 0
-218 -79 0
-218 -89 0
-218 -97 0
-218 -100 0
218 35 79 89 97 100 0
-219 -216 0
-219 -217 0
-219 -218 0
219 216 217 218 0
-220 59 0
-220 84 0
-220 -86 0
-220 -87 0
-220 -88 0
-220 -91 0
-220 -219 0
220 -59 -84 86 87 88 91 219 0
219 220 -221 0
-219 -220 -221 0
219 -220 221 0
-219 220 221 0
-222 -214 0
-222 -221 0
222 214 221 0
-223 45 0
-223 -81 0
-223 -90 0
-223 -95 0
-223 -96 0
-223 -98 0
223 -45 81 90 95 96 98 0
-224 -79 0
-224 -89 0
-224 -95 0
-224 -96 0
-224 -100 0
224 79 89 95 96 100 0
3 29 -321 0
-3 -29 -321 0
3 -29 321 0
-3 29 321 0
321 37 -225 0
-321 -37 -225 0
321 -37 225 0
-321 37 225 0
-226 -79 0
-226 -89 0
-226 -97 0
-226 -100 0
-226 -225 0
226 79 89 97 100 225 0
17 67 -322 0
-17 -67 -322 0
17 -67 322 0
-17 67 322 0
322 68 -227 0
-322 -68 -227 0
322 -68 227 0
-322 68 227 0
-228 -81 0
-228 -90 0
-228 -97 0
-228 -98 0
-228 -227 0
228 81 90 97 98 227 0
-229 -33 0
-229 -97 0
-229 -98 0
-229 -100 0
229 33 97 98 100 0
-230 -9 0
-230 -12 0
-230 -23 0
230 9 12 23 0
-231 -9 0
-231 12 0
-231 23 0
231 9 -12 -23 0
-232 9 0
-232 12 0
-232 -23 0
232 -9 -12 23 0
-233 9 0
-233 -12 0
-233 23 0
233 -9 12 -23 0
-234 -230 0
-234 -231 0
-234 -232 0
-234 -233 0
234 230 231 232 233 0
-235 -95 0
-235 -96 0
-235 -98 0
-235 -100 0
-235 -234 0
235 95 96 98 100 234 0
-236 -223 0
-236 -224 0
-236 -226 0
-236 -228 0
-236 -229 0
-236 -235 0
236 223 224 226 228 229 235 0
-237 -94 0
-237 -236 0
237 94 236 0
-238 -20 0
-238 -21 0
-238 -25 0
238 20 21 25 0
-239 20 0
-239 -21 0
-239 25 0
239 -20 21 -25 0
-240 20 0
-240 21 0
-240 -25 0
240 -20 -21 25 0
-241 -20 0
-241 21 0
-241 25 0
241 20 -21 -25 0
-242 -238 0
-242 -239 0
-242 -240 0
-242 -241 0
242 238 239 240 241 0
-243 -95 0
-243 -96 0
-243 -98 0
-243 -100 0
-243 -242 0
243 95 96 98 100 242 0
-244 -36 0
-244 -79 0
-244 -89 0
-244 -97 0
-244 -100 0
244 36 79 89 97 100 0
22 28 -323 0
-22 -28 -323 0
22 -28 323 0
-22 28 323 0
323 32 -245 0
-323 -32 -245 0
323 -32 245 0
-323 32 245 0
-246 -81 0
-246 -90 0
-246 -97 0
-246 -98 0
-246 -245 0
246 81 90 97 98 245 0
-247 -243 0
-247 -244 0
-247 -246 0
247 243 244 246 0
-248 59 0
-248 84 0
-248 -86 0
-248 -87 0
-248 -88 0
-248 -91 0
-248 -247 0
248 -59 -84 86 87 88 91 247 0
247 248 -249 0
-247 -248 -249 0
247 -248 249 0
-247 248 249 0
-250 -237 0
-250 -249 0
250 237 249 0
-251 -2 0
-251 -223 0
-251 -224 0
-251 -226 0
-251 -228 0
-251 -229 0
-251 -235 0
251 2 223 224 226 228 229 235 0
2 251 -252 0
-2 -251 -252 0
2 -251 252 0
-2 251 252 0
-253 70 0
-253 -242 0
253 -70 242 0
-254 -70 0
-254 -238 0
-254 -239 0
-254 -240 0
-254 -241 0
254 70 238 239 240 241 0
-255 -253 0
-255 -254 0
255 253 254 0
-256 -99 0
-256 -101 0
-256 -103 0
-256 -105 0
-256 -106 0
-256 -255 0
256 99 101 103 105 106 255 0
255 256 -257 0
-255 -256 -257 0
255 -256 257 0
-255 256 257 0
-258 -46 0
-258 -230 0
-258 -231 0
-258 -232 0
-258 -233 0
258 46 230 231 232 233 0
-259 46 0
-259 -234 0
259 -46 234 0
-260 -258 0
-260 -259 0
260 258 259 0
-261 -117 0
-261 -118 0
-261 -119 0
-261 -120 0
-261 -260 0
261 117 118 119 120 260 0
260 261 -262 0
-260 -261 -262 0
260 -261 262 0
-260 261 262 0
-263 -5 0
-263 6 0
-263 -10 0
263 5 -6 10 0
-264 -5 0
-264 -6 0
-264 10 0
264 5 6 -10 0
-265 5 0
-265 6 0
-265 10 0
265 -5 -6 -10 0
-266 5 0
-266 -6 0
-266 -10 0
266 -5 6 10 0
-267 -263 0
-267 -264 0
-267 -265 0
-267 -266 0
267 263 264 265 266 0
-268 -131 0
-268 -132 0
-268 -134 0
-268 -135 0
-268 -267 0
268 131 132 134 135 267 0
267 268 -269 0
-267 -268 -269 0
267 -268 269 0
-267 268 269 0
-270 3 0
-270 -7 0
-270 -8 0
270 -3 7 8 0
-271 -3 0
-271 7 0
-271 -8 0
271 3 -7 8 0
-272 3 0
-272 7 0
-272 8 0
272 -3 -7 -8 0
-273 -3 0
-273 -7 0
-273 8 0
273 3 7 -8 0
-274 -270 0
-274 -271 0
-274 -272 0
-274 -273 0
274 270 271 272 273 0
-275 -146 0
-275 -147 0
-275 -148 0
-275 -149 0
-275 -274 0
275 146 147 148 149 274 0
274 275 -276 0
-274 -275 -276 0
274 -275 276 0
-274 275 276 0
-277 -14 0
-277 -15 0
-277 22 0
277 14 15 -22 0
-278 14 0
-278 -15 0
-278 -22 0
278 -14 15 22 0
-279 14 0
-279 15 0
-279 22 0
279 -14 -15 -22 0
-280 -14 0
-280 15 0
-280 -22 0
280 14 -15 22 0
-281 -277 0
-281 -278 0
-281 -279 0
-281 -280 0
281 277 278 279 280 0
-282 -162 0
-282 -163 0
-282 -165 0
-282 -166 0
-282 -281 0
282 162 163 165 166 281 0
281 282 -283 0
-281 -282 -283 0
281 -282 283 0
-281 282 283 0
-284 17 0
-284 -18 0
-284 -19 0
284 -17 18 19 0
-285 -17 0
-285 18 0
-285 -19 0
285 17 -18 19 0
-286 17 0
-286 18 0
-286 19 0
286 -17 -18 -19 0
-287 -17 0
-287 -18 0
-287 19 0
287 17 18 -19 0
-288 -284 0
-288 -285 0
-288 -286 0
-288 -287 0
288 284 285 286 287 0
-289 -177 0
-289 -179 0
-289 -180 0
-289 -182 0
-289 -288 0
289 177 179 180 182 288 0
288 289 -290 0
-288 -289 -290 0
288 -289 290 0
-288 289 290 0
-291 4 0
-291 -11 0
-291 -16 0
291 -4 11 16 0
-292 -4 0
-292 11 0
-292 -16 0
292 4 -11 16 0
-293 4 0
-293 11 0
-293 16 0
293 -4 -11 -16 0
-294 -4 0
-294 -11 0
-294 16 0
294 4 11 -16 0
-295 -291 0
-295 -292 0
-295 -293 0
-295 -294 0
295 291 292 293 294 0
-296 -194 0
-296 -195 0
-296 -196 0
-296 -198 0
-296 -295 0
296 194 195 196 198 295 0
295 296 -297 0
-295 -296 -297 0
295 -296 297 0
-295 296 297 0
-298 -1 0
-298 -208 0
-298 -210 0
-298 -211 0
-298 -212 0
298 1 208 210 211 212 0
1 298 -299 0
-1 -298 -299 0
1 -298 299 0
-1 298 299 0
-300 -116 0
-300 -130 0
-300 -144 0
-300 -160 0
-300 -176 0
-300 -193 0
-300 -207 0
-300 -222 0
-300 -250 0
-300 252 0
-300 257 0
-300 262 0
-300 269 0
-300 276 0
-300 283 0
-300 290 0
-300 297 0
-300 299 0
300 116 130 144 160 176 193 207 222 250 -252 -257 -262 -269 -276 -283 -290 -297 -299 0
-301 -83 0
-301 -300 0
301 83 300 0
