p cnf 162 533
5 35 -158 0
-5 -35 -158 0
5 -35 158 0
-5 35 158 0
158 37 -58 0
-158 -37 -58 0
158 -37 58 0
-158 37 58 0
2 5 -159 0
-2 -5 -159 0
2 -5 159 0
-2 5 159 0
159 39 -160 0
-159 -39 -160 0
159 -39 160 0
-159 39 160 0
160 40 -59 0
-160 -40 -59 0
160 -40 59 0
-160 40 59 0
-60 37 0
-60 39 0
-60 -40 0
-60 58 0
-60 -59 0
60 -37 -39 40 -58 59 0
-61 -3 0
-61 -4 0
-61 -6 0
61 3 4 6 0
-62 -3 0
-62 4 0
-62 6 0
62 3 -4 -6 0
-63 3 0
-63 4 0
-63 -6 0
63 -3 -4 6 0
-64 3 0
-64 -4 0
-64 6 0
64 -3 4 -6 0
-65 -16 0
-65 -17 0
-65 19 0
-65 29 0
-65 -38 0
-65 -61 0
-65 -62 0
-65 -63 0
-65 -64 0
65 16 17 -19 -29 38 61 62 63 64 0
-66 -61 0
-66 -62 0
-66 -63 0
-66 -64 0
66 61 62 63 64 0
-67 -16 0
-67 -17 0
-67 19 0
-67 29 0
-67 -38 0
67 16 17 -19 -29 38 0
-68 -66 0
-68 -67 0
68 66 67 0
-69 -65 0
-69 -68 0
69 65 68 0
6 28 -70 0
-6 -28 -70 0
6 -28 70 0
-6 28 70 0
-71 -37 0
-71 -39 0
-71 -40 0
-71 -58 0
-71 59 0
-71 -70 0
71 37 39 40 58 -59 70 0
4 30 -161 0
-4 -30 -161 0
4 -30 161 0
-4 30 161 0
161 31 -72 0
-161 -31 -72 0
161 -31 72 0
-161 31 72 0
-73 37 0
-73 -39 0
-73 -40 0
-73 58 0
-73 59 0
-73 -72 0
73 -37 39 40 -58 -59 72 0
-74 -31 0
-74 -37 0
-74 -39 0
-74 -40 0
-74 58 0
-74 59 0
74 31 37 39 40 -58 -59 0
-75 -28 0
-75 37 0
-75 -39 0
-75 -40 0
-75 -58 0
-75 59 0
75 28 -37 39 40 58 -59 0
-76 -24 0
-76 37 0
-76 39 0
-76 -40 0
-76 58 0
-76 59 0
76 24 -37 -39 40 -58 -59 0
-77 -30 0
-77 -37 0
-77 39 0
-77 -40 0
-77 -58 0
-77 59 0
77 30 37 -39 40 58 -59 0
-78 -15 0
-78 -37 0
-78 39 0
-78 -40 0
-78 58 0
-78 59 0
78 15 37 -39 40 -58 -59 0
3 15 -162 0
-3 -15 -162 0
3 -15 162 0
-3 15 162 0
162 24 -79 0
-162 -24 -79 0
162 -24 79 0
-162 24 79 0
-80 37 0
-80 39 0
-80 -40 0
-80 -58 0
-80 59 0
-80 -79 0
80 -37 -39 40 58 -59 79 0
-81 -16 0
-81 17 0
-81 19 0
-81 29 0
-81 -38 0
81 16 -17 -19 -29 38 0
-82 -67 0
-82 -81 0
82 67 81 0
-83 -18 0
-83 43 0
-83 45 0
-83 46 0
83 18 -43 -45 -46 0
-84 43 0
-84 45 0
-84 46 0
84 -43 -45 -46 0
-85 -49 0
-85 -84 0
85 49 84 0
-86 -83 0
-86 -85 0
86 83 85 0
-87 37 0
-87 -39 0
-87 40 0
-87 58 0
-87 -59 0
-87 -86 0
87 -37 39 -40 -58 59 86 0
-88 -11 0
-88 43 0
-88 45 0
-88 46 0
88 11 -43 -45 -46 0
-89 -33 0
-89 -84 0
89 33 84 0
-90 -88 0
-90 -89 0
90 88 89 0
-91 -37 0
-91 39 0
-91 40 0
-91 -58 0
-91 -59 0
-91 -90 0
91 37 -39 -40 58 59 90 0
-92 -25 0
-92 43 0
-92 45 0
-92 46 0
92 25 -43 -45 -46 0
-93 -34 0
-93 -84 0
93 34 84 0
-94 -92 0
-94 -93 0
94 92 93 0
-95 -37 0
-95 -39 0
-95 40 0
-95 58 0
-95 -59 0
-95 -94 0
95 37 39 -40 -58 59 94 0
-96 -12 0
-96 43 0
-96 45 0
-96 46 0
96 12 -43 -45 -46 0
-97 -32 0
-97 -84 0
97 32 84 0
-98 -96 0
-98 -97 0
98 96 97 0
-99 37 0
-99 39 0
-99 40 0
-99 -58 0
-99 -59 0
-99 -98 0
99 -37 -39 -40 58 59 98 0
-100 16 0
-100 17 0
-100 19 0
-100 -29 0
-100 -38 0
100 -16 -17 -19 29 38 0
-101 -67 0
-101 -81 0
-101 -100 0
101 67 81 100 0
-102 -37 0
-102 39 0
-102 40 0
-102 58 0
-102 59 0
-102 -101 0
102 37 -39 -40 -58 -59 101 0
-103 42 0
-103 -100 0
103 -42 100 0
-104 37 0
-104 39 0
-104 40 0
-104 58 0
-104 59 0
-104 -103 0
104 -37 -39 -40 -58 -59 103 0
-105 -14 0
-105 43 0
-105 45 0
-105 46 0
105 14 -43 -45 -46 0
-106 -7 0
-106 -84 0
106 7 84 0
-107 -105 0
-107 -106 0
107 105 106 0
-108 37 0
-108 -39 0
-108 40 0
-108 58 0
-108 59 0
-108 -107 0
108 -37 39 -40 -58 -59 107 0
-109 -57 0
-109 -84 0
109 57 84 0
-110 -22 0
-110 43 0
-110 45 0
-110 46 0
110 22 -43 -45 -46 0
-111 -109 0
-111 -110 0
111 109 110 0
-112 37 0
-112 39 0
-112 40 0
-112 -58 0
-112 59 0
-112 -111 0
112 -37 -39 -40 58 -59 111 0
-113 -9 0
-113 -84 0
113 9 84 0
-114 -26 0
-114 43 0
-114 45 0
-114 46 0
114 26 -43 -45 -46 0
-115 -113 0
-115 -114 0
115 113 114 0
-116 -37 0
-116 -39 0
-116 40 0
-116 58 0
-116 59 0
-116 -115 0
116 37 39 -40 -58 -59 115 0
-117 -27 0
-117 43 0
-117 45 0
-117 46 0
117 27 -43 -45 -46 0
-118 -10 0
-118 -84 0
118 10 84 0
-119 -117 0
-119 -118 0
119 117 118 0
-120 -37 0
-120 39 0
-120 40 0
-120 -58 0
-120 59 0
-120 -119 0
120 37 -39 -40 58 -59 119 0
-121 -8 0
-121 43 0
-121 45 0
-121 46 0
121 8 -43 -45 -46 0
-122 -53 0
-122 -84 0
122 53 84 0
-123 -121 0
-123 -122 0
123 121 122 0
-124 -37 0
-124 39 0
-124 40 0
-124 58 0
-124 -59 0
-124 -123 0
124 37 -39 -40 -58 59 123 0
-125 -54 0
-125 -84 0
125 54 84 0
-126 -13 0
-126 43 0
-126 45 0
-126 46 0
126 13 -43 -45 -46 0
-127 -125 0
-127 -126 0
127 125 126 0
-128 37 0
-128 39 0
-128 40 0
-128 58 0
-128 -59 0
-128 -127 0
128 -37 -39 -40 -58 59 127 0
-129 -56 0
-129 -84 0
129 56 84 0
-130 -21 0
-130 43 0
-130 45 0
-130 46 0
130 21 -43 -45 -46 0
-131 -129 0
-131 -130 0
131 129 130 0
-132 -37 0
-132 -39 0
-132 40 0
-132 -58 0
-132 59 0
-132 -131 0
132 37 39 -40 58 -59 131 0
-133 -55 0
-133 -84 0
133 55 84 0
-134 -20 0
-134 43 0
-134 45 0
-134 46 0
134 20 -43 -45 -46 0
-135 -133 0
-135 -134 0
135 133 134 0
-136 37 0
-136 -39 0
-136 40 0
-136 -58 0
-136 59 0
-136 -135 0
136 -37 39 -40 58 -59 135 0
-137 -87 0
-137 -91 0
-137 -95 0
-137 -99 0
-137 -102 0
-137 -104 0
-137 -108 0
-137 -112 0
-137 -116 0
-137 -120 0
-137 -124 0
-137 -128 0
-137 -132 0
-137 -136 0
137 87 91 95 99 102 104 108 112 116 120 124 128 132 136 0
-138 52 0
-138 -137 0
138 -52 137 0
-139 -23 0
-139 -36 0
-139 44 0
139 23 36 -44 0
-140 -43 0
-140 -47 0
140 43 47 0
-141 41 0
-141 -140 0
141 -41 140 0
-142 -50 0
-142 -51 0
-142 -84 0
-142 -141 0
142 50 51 84 141 0
-143 41 0
-143 -48 0
-143 -51 0
-143 -84 0
-143 -140 0
143 -41 48 51 84 140 0
-144 -2 0
-144 -69 0
-144 -71 0
-144 -73 0
-144 -74 0
-144 -75 0
-144 -76 0
-144 -77 0
-144 -78 0
-144 -80 0
-144 -82 0
-144 -138 0
-144 -139 0
-144 -142 0
-144 -143 0
144 2 69 71 73 74 75 76 77 78 80 82 138 139 142 143 0
-145 -1 0
-145 -69 0
-145 -71 0
-145 -73 0
-145 -74 0
-145 -75 0
-145 -76 0
-145 -77 0
-145 -78 0
-145 -80 0
-145 -82 0
-145 -138 0
-145 -139 0
-145 -142 0
-145 -143 0
145 1 69 71 73 74 75 76 77 78 80 82 138 139 142 143 0
-146 -65 0
-146 -68 0
-146 -71 0
-146 -73 0
-146 -74 0
-146 -75 0
-146 -76 0
-146 -77 0
-146 -78 0
-146 -80 0
146 65 68 71 73 74 75 76 77 78 80 0
-147 -82 0
-147 -146 0
147 82 146 0
-148 -138 0
-148 -139 0
-148 -142 0
-148 -143 0
-148 -147 0
148 138 139 142 143 147 0
-149 -147 0
-149 -148 0
149 147 148 0
-150 -71 0
-150 -73 0
-150 -74 0
-150 -75 0
-150 -76 0
-150 -77 0
-150 -78 0
-150 -80 0
150 71 73 74 75 76 77 78 80 0
-151 -82 0
-151 -150 0
151 82 150 0
-152 -138 0
-152 -139 0
-152 -142 0
-152 -143 0
-152 -151 0
152 138 139 142 143 151 0
-153 -151 0
-153 -152 0
153 151 152 0
149 153 -154 0
-149 -153 -154 0
149 -153 154 0
-149 153 154 0
-155 -138 0
-155 -139 0
-155 -142 0
-155 -143 0
-155 154 0
155 138 139 142 143 -154 0
-156 -144 0
-156 -145 0
-156 -155 0
156 144 145 155 0
-157 -60 0
-157 -156 0
157 60 156 0
