p cnf 38 50
-15 -2 0
-15 -3 0
15 2 3 0
-16 -2 0
-16 -4 0
16 2 4 0
-17 -2 0
-17 -5 0
17 2 5 0
-18 -2 0
-18 -6 0
18 2 6 0
-19 -2 0
-19 -7 0
19 2 7 0
-20 -2 0
-20 -8 0
20 2 8 0
-21 -2 0
-21 -9 0
21 2 9 0
-22 -2 0
-22 -10 0
22 2 10 0
-23 -2 0
-23 -11 0
23 2 11 0
-24 -2 0
-24 -12 0
24 2 12 0
-25 -2 0
-25 -13 0
25 2 13 0
-26 -2 0
-26 -14 0
26 2 14 0
-27 1 0
-27 -15 0
-27 -16 0
-27 -17 0
-27 -18 0
-27 -19 0
-27 -20 0
-27 -21 0
-27 -22 0
-27 -23 0
-27 -24 0
-27 -25 0
-27 -26 0
27 -1 15 16 17 18 19 20 21 22 23 24 25 26 0
