p cnf 140 351
51 0
27 28 -52 0
27 -28 52 0
-27 28 52 0
-27 -28 52 0
26 52 -53 0
26 -52 -53 0
-26 52 -53 0
-26 -52 53 0
29 30 -54 0
29 -30 54 0
-29 30 54 0
-29 -30 54 0
53 54 -55 0
53 -54 -55 0
-53 54 -55 0
-53 -54 55 0
31 32 -56 0
31 -32 56 0
-31 32 56 0
-31 -32 56 0
55 56 -57 0
55 -56 -57 0
-55 56 -57 0
-55 -56 57 0
33 34 -58 0
33 -34 58 0
-33 34 58 0
-33 -34 58 0
57 58 -59 0
57 -58 -59 0
-57 58 -59 0
-57 -58 59 0
35 36 -60 0
35 -36 60 0
-35 36 60 0
-35 -36 60 0
59 60 -61 0
59 -60 -61 0
-59 60 -61 0
-59 -60 61 0
37 38 -62 0
37 -38 62 0
-37 38 62 0
-37 -38 62 0
61 62 -63 0
61 -62 -63 0
-61 62 -63 0
-61 -62 63 0
39 40 -64 0
39 -40 64 0
-39 40 64 0
-39 -40 64 0
63 64 -65 0
63 -64 -65 0
-63 64 -65 0
-63 -64 65 0
41 42 -66 0
41 -42 66 0
-41 42 66 0
-41 -42 66 0
65 66 -67 0
65 -66 -67 0
-65 66 -67 0
-65 -66 67 0
43 44 -68 0
43 -44 68 0
-43 44 68 0
-43 -44 68 0
67 68 -69 0
67 -68 -69 0
-67 68 -69 0
-67 -68 69 0
45 46 -70 0
45 -46 70 0
-45 46 70 0
-45 -46 70 0
69 70 -71 0
69 -70 -71 0
-69 70 -71 0
-69 -70 71 0
47 48 -72 0
47 -48 72 0
-47 48 72 0
-47 -48 72 0
71 72 -73 0
71 -72 -73 0
-71 72 -73 0
-71 -72 73 0
49 50 -74 0
49 -50 74 0
-49 50 74 0
-49 -50 74 0
73 74 -75 0
73 -74 -75 0
-73 74 -75 0
-73 -74 75 0
27 28 -76 0
27 -28 76 0
-27 28 76 0
-27 -28 76 0
-51 76 -77 0
-51 -76 -77 0
51 76 -77 0
51 -76 77 0
29 30 -78 0
29 -30 78 0
-29 30 78 0
-29 -30 78 0
77 78 -79 0
77 -78 -79 0
-77 78 -79 0
-77 -78 79 0
31 32 -80 0
31 -32 80 0
-31 32 80 0
-31 -32 80 0
79 80 -81 0
79 -80 -81 0
-79 80 -81 0
-79 -80 81 0
33 34 -82 0
33 -34 82 0
-33 34 82 0
-33 -34 82 0
81 82 -83 0
81 -82 -83 0
-81 82 -83 0
-81 -82 83 0
35 36 -84 0
35 -36 84 0
-35 36 84 0
-35 -36 84 0
83 84 -85 0
83 -84 -85 0
-83 84 -85 0
-83 -84 85 0
37 38 -86 0
37 -38 86 0
-37 38 86 0
-37 -38 86 0
85 86 -87 0
85 -86 -87 0
-85 86 -87 0
-85 -86 87 0
39 40 -88 0
39 -40 88 0
-39 40 88 0
-39 -40 88 0
87 88 -89 0
87 -88 -89 0
-87 88 -89 0
-87 -88 89 0
41 42 -90 0
41 -42 90 0
-41 42 90 0
-41 -42 90 0
89 90 -91 0
89 -90 -91 0
-89 90 -91 0
-89 -90 91 0
43 44 -92 0
43 -44 92 0
-43 44 92 0
-43 -44 92 0
91 92 -93 0
91 -92 -93 0
-91 92 -93 0
-91 -92 93 0
45 46 -94 0
45 -46 94 0
-45 46 94 0
-45 -46 94 0
93 94 -95 0
93 -94 -95 0
-93 94 -95 0
-93 -94 95 0
47 48 -96 0
47 -48 96 0
-47 48 96 0
-47 -48 96 0
95 96 -97 0
95 -96 -97 0
-95 96 -97 0
-95 -96 97 0
49 50 -98 0
49 -50 98 0
-49 50 98 0
-49 -50 98 0
97 98 -99 0
97 -98 -99 0
-97 98 -99 0
-97 -98 99 0
75 99 -100 0
75 -99 100 0
-75 99 100 0
-75 -99 -100 0
-100 101 0
-101 100 0
-1 26 0
1 -26 0
-2 27 0
2 -27 0
-3 28 0
3 -28 0
-4 29 0
4 -29 0
-5 30 0
5 -30 0
-6 31 0
6 -31 0
-7 32 0
7 -32 0
-8 33 0
8 -33 0
-9 34 0
9 -34 0
-10 35 0
10 -35 0
-11 36 0
11 -36 0
-12 37 0
12 -37 0
-13 38 0
13 -38 0
-14 39 0
14 -39 0
-15 40 0
15 -40 0
-16 41 0
16 -41 0
-17 42 0
17 -42 0
-18 43 0
18 -43 0
-19 44 0
19 -44 0
-20 45 0
20 -45 0
-21 46 0
21 -46 0
-22 47 0
22 -47 0
-23 48 0
23 -48 0
-24 49 0
24 -49 0
-25 50 0
25 -50 0
-102 1 0
102 -1 0
-103 -102 0
103 102 0
-104 2 0
104 -2 0
-105 3 0
105 -3 0
-106 -104 0
-106 -105 0
106 104 105 0
-107 4 0
107 -4 0
-108 5 0
108 -5 0
-109 -107 0
-109 -108 0
109 107 108 0
-110 6 0
110 -6 0
-111 7 0
111 -7 0
-112 -110 0
-112 -111 0
112 110 111 0
-113 8 0
113 -8 0
-114 9 0
114 -9 0
-115 -113 0
-115 -114 0
115 113 114 0
-116 10 0
116 -10 0
-117 11 0
117 -11 0
-118 -116 0
-118 -117 0
118 116 117 0
-119 12 0
119 -12 0
-120 13 0
120 -13 0
-121 -119 0
-121 -120 0
121 119 120 0
-122 14 0
122 -14 0
-123 15 0
123 -15 0
-124 -122 0
-124 -123 0
124 122 123 0
-125 16 0
125 -16 0
-126 17 0
126 -17 0
-127 -125 0
-127 -126 0
127 125 126 0
-128 18 0
128 -18 0
-129 19 0
129 -19 0
-130 -128 0
-130 -129 0
130 128 129 0
-131 20 0
131 -20 0
-132 21 0
132 -21 0
-133 -131 0
-133 -132 0
133 131 132 0
-134 22 0
134 -22 0
-135 23 0
135 -23 0
-136 -134 0
-136 -135 0
136 134 135 0
-137 24 0
137 -24 0
-138 25 0
138 -25 0
-139 -137 0
-139 -138 0
139 137 138 0
-140 -103 0
-140 -106 0
-140 -109 0
-140 -112 0
-140 -115 0
-140 -118 0
-140 -121 0
-140 -124 0
-140 -127 0
-140 -130 0
-140 -133 0
-140 -136 0
-140 -139 0
140 103 106 109 112 115 118 121 124 127 130 133 136 139 0
