p cnf 118 329
29 0
16 17 -30 0
16 -17 30 0
-16 17 30 0
-16 -17 30 0
15 30 -31 0
15 -30 -31 0
-15 30 -31 0
-15 -30 31 0
16 18 -32 0
16 -18 32 0
-16 18 32 0
-16 -18 32 0
31 32 -33 0
31 -32 -33 0
-31 32 -33 0
-31 -32 33 0
16 19 -34 0
16 -19 34 0
-16 19 34 0
-16 -19 34 0
33 34 -35 0
33 -34 -35 0
-33 34 -35 0
-33 -34 35 0
16 20 -36 0
16 -20 36 0
-16 20 36 0
-16 -20 36 0
35 36 -37 0
35 -36 -37 0
-35 36 -37 0
-35 -36 37 0
16 21 -38 0
16 -21 38 0
-16 21 38 0
-16 -21 38 0
37 38 -39 0
37 -38 -39 0
-37 38 -39 0
-37 -38 39 0
16 22 -40 0
16 -22 40 0
-16 22 40 0
-16 -22 40 0
39 40 -41 0
39 -40 -41 0
-39 40 -41 0
-39 -40 41 0
16 23 -42 0
16 -23 42 0
-16 23 42 0
-16 -23 42 0
41 42 -43 0
41 -42 -43 0
-41 42 -43 0
-41 -42 43 0
16 24 -44 0
16 -24 44 0
-16 24 44 0
-16 -24 44 0
43 44 -45 0
43 -44 -45 0
-43 44 -45 0
-43 -44 45 0
16 25 -46 0
16 -25 46 0
-16 25 46 0
-16 -25 46 0
45 46 -47 0
45 -46 -47 0
-45 46 -47 0
-45 -46 47 0
16 26 -48 0
16 -26 48 0
-16 26 48 0
-16 -26 48 0
47 48 -49 0
47 -48 -49 0
-47 48 -49 0
-47 -48 49 0
16 27 -50 0
16 -27 50 0
-16 27 50 0
-16 -27 50 0
49 50 -51 0
49 -50 -51 0
-49 50 -51 0
-49 -50 51 0
16 28 -52 0
16 -28 52 0
-16 28 52 0
-16 -28 52 0
51 52 -53 0
51 -52 -53 0
-51 52 -53 0
-51 -52 53 0
16 17 -54 0
16 -17 54 0
-16 17 54 0
-16 -17 54 0
-29 54 -55 0
-29 -54 -55 0
29 54 -55 0
29 -54 55 0
16 18 -56 0
16 -18 56 0
-16 18 56 0
-16 -18 56 0
55 56 -57 0
55 -56 -57 0
-55 56 -57 0
-55 -56 57 0
16 19 -58 0
16 -19 58 0
-16 19 58 0
-16 -19 58 0
57 58 -59 0
57 -58 -59 0
-57 58 -59 0
-57 -58 59 0
16 20 -60 0
16 -20 60 0
-16 20 60 0
-16 -20 60 0
59 60 -61 0
59 -60 -61 0
-59 60 -61 0
-59 -60 61 0
16 21 -62 0
16 -21 62 0
-16 21 62 0
-16 -21 62 0
61 62 -63 0
61 -62 -63 0
-61 62 -63 0
-61 -62 63 0
16 22 -64 0
16 -22 64 0
-16 22 64 0
-16 -22 64 0
63 64 -65 0
63 -64 -65 0
-63 64 -65 0
-63 -64 65 0
16 23 -66 0
16 -23 66 0
-16 23 66 0
-16 -23 66 0
65 66 -67 0
65 -66 -67 0
-65 66 -67 0
-65 -66 67 0
16 24 -68 0
16 -24 68 0
-16 24 68 0
-16 -24 68 0
67 68 -69 0
67 -68 -69 0
-67 68 -69 0
-67 -68 69 0
16 25 -70 0
16 -25 70 0
-16 25 70 0
-16 -25 70 0
69 70 -71 0
69 -70 -71 0
-69 70 -71 0
-69 -70 71 0
16 26 -72 0
16 -26 72 0
-16 26 72 0
-16 -26 72 0
71 72 -73 0
71 -72 -73 0
-71 72 -73 0
-71 -72 73 0
16 27 -74 0
16 -27 74 0
-16 27 74 0
-16 -27 74 0
73 74 -75 0
73 -74 -75 0
-73 74 -75 0
-73 -74 75 0
16 28 -76 0
16 -28 76 0
-16 28 76 0
-16 -28 76 0
75 76 -77 0
75 -76 -77 0
-75 76 -77 0
-75 -76 77 0
53 77 -78 0
53 -77 78 0
-53 77 78 0
-53 -77 -78 0
-78 79 0
-79 78 0
-1 15 0
1 -15 0
-2 16 0
2 -16 0
-3 17 0
3 -17 0
-4 18 0
4 -18 0
-5 19 0
5 -19 0
-6 20 0
6 -20 0
-7 21 0
7 -21 0
-8 22 0
8 -22 0
-9 23 0
9 -23 0
-10 24 0
10 -24 0
-11 25 0
11 -25 0
-12 26 0
12 -26 0
-13 27 0
13 -27 0
-14 28 0
14 -28 0
-80 1 0
80 -1 0
-81 -80 0
81 80 0
-82 2 0
82 -2 0
-83 3 0
83 -3 0
-84 -82 0
-84 -83 0
84 82 83 0
-85 2 0
85 -2 0
-86 4 0
86 -4 0
-87 -85 0
-87 -86 0
87 85 86 0
-88 2 0
88 -2 0
-89 5 0
89 -5 0
-90 -88 0
-90 -89 0
90 88 89 0
-91 2 0
91 -2 0
-92 6 0
92 -6 0
-93 -91 0
-93 -92 0
93 91 92 0
-94 2 0
94 -2 0
-95 7 0
95 -7 0
-96 -94 0
-96 -95 0
96 94 95 0
-97 2 0
97 -2 0
-98 8 0
98 -8 0
-99 -97 0
-99 -98 0
99 97 98 0
-100 2 0
100 -2 0
-101 9 0
101 -9 0
-102 -100 0
-102 -101 0
102 100 101 0
-103 2 0
103 -2 0
-104 10 0
104 -10 0
-105 -103 0
-105 -104 0
105 103 104 0
-106 2 0
106 -2 0
-107 11 0
107 -11 0
-108 -106 0
-108 -107 0
108 106 107 0
-109 2 0
109 -2 0
-110 12 0
110 -12 0
-111 -109 0
-111 -110 0
111 109 110 0
-112 2 0
112 -2 0
-113 13 0
113 -13 0
-114 -112 0
-114 -113 0
114 112 113 0
-115 2 0
115 -2 0
-116 14 0
116 -14 0
-117 -115 0
-117 -116 0
117 115 116 0
-118 -81 0
-118 -84 0
-118 -87 0
-118 -90 0
-118 -93 0
-118 -96 0
-118 -99 0
-118 -102 0
-118 -105 0
-118 -108 0
-118 -111 0
-118 -114 0
-118 -117 0
118 81 84 87 90 93 96 99 102 105 108 111 114 117 0
