p cnf 83 249
29 0
16 17 -30 0
16 -17 30 0
-16 17 30 0
-16 -17 30 0
15 30 -31 0
15 -30 -31 0
-15 30 -31 0
-15 -30 31 0
16 18 -32 0
16 -18 32 0
-16 18 32 0
-16 -18 32 0
31 32 -33 0
31 -32 -33 0
-31 32 -33 0
-31 -32 33 0
16 19 -34 0
16 -19 34 0
-16 19 34 0
-16 -19 34 0
33 34 -35 0
33 -34 -35 0
-33 34 -35 0
-33 -34 35 0
16 20 -36 0
16 -20 36 0
-16 20 36 0
-16 -20 36 0
35 36 -37 0
35 -36 -37 0
-35 36 -37 0
-35 -36 37 0
16 21 -38 0
16 -21 38 0
-16 21 38 0
-16 -21 38 0
37 38 -39 0
37 -38 -39 0
-37 38 -39 0
-37 -38 39 0
16 22 -40 0
16 -22 40 0
-16 22 40 0
-16 -22 40 0
39 40 -41 0
39 -40 -41 0
-39 40 -41 0
-39 -40 41 0
16 23 -42 0
16 -23 42 0
-16 23 42 0
-16 -23 42 0
41 42 -43 0
41 -42 -43 0
-41 42 -43 0
-41 -42 43 0
16 24 -44 0
16 -24 44 0
-16 24 44 0
-16 -24 44 0
43 44 -45 0
43 -44 -45 0
-43 44 -45 0
-43 -44 45 0
16 25 -46 0
16 -25 46 0
-16 25 46 0
-16 -25 46 0
45 46 -47 0
45 -46 -47 0
-45 46 -47 0
-45 -46 47 0
16 26 -48 0
16 -26 48 0
-16 26 48 0
-16 -26 48 0
47 48 -49 0
47 -48 -49 0
-47 48 -49 0
-47 -48 49 0
16 27 -50 0
16 -27 50 0
-16 27 50 0
-16 -27 50 0
49 50 -51 0
49 -50 -51 0
-49 50 -51 0
-49 -50 51 0
16 28 -52 0
16 -28 52 0
-16 28 52 0
-16 -28 52 0
51 52 -53 0
51 -52 -53 0
-51 52 -53 0
-51 -52 53 0
16 17 -54 0
16 -17 54 0
-16 17 54 0
-16 -17 54 0
-29 54 -55 0
-29 -54 -55 0
29 54 -55 0
29 -54 55 0
16 18 -56 0
16 -18 56 0
-16 18 56 0
-16 -18 56 0
55 56 -57 0
55 -56 -57 0
-55 56 -57 0
-55 -56 57 0
16 19 -58 0
16 -19 58 0
-16 19 58 0
-16 -19 58 0
57 58 -59 0
57 -58 -59 0
-57 58 -59 0
-57 -58 59 0
16 20 -60 0
16 -20 60 0
-16 20 60 0
-16 -20 60 0
59 60 -61 0
59 -60 -61 0
-59 60 -61 0
-59 -60 61 0
16 21 -62 0
16 -21 62 0
-16 21 62 0
-16 -21 62 0
61 62 -63 0
61 -62 -63 0
-61 62 -63 0
-61 -62 63 0
16 22 -64 0
16 -22 64 0
-16 22 64 0
-16 -22 64 0
63 64 -65 0
63 -64 -65 0
-63 64 -65 0
-63 -64 65 0
16 23 -66 0
16 -23 66 0
-16 23 66 0
-16 -23 66 0
65 66 -67 0
65 -66 -67 0
-65 66 -67 0
-65 -66 67 0
16 24 -68 0
16 -24 68 0
-16 24 68 0
-16 -24 68 0
67 68 -69 0
67 -68 -69 0
-67 68 -69 0
-67 -68 69 0
16 25 -70 0
16 -25 70 0
-16 25 70 0
-16 -25 70 0
69 70 -71 0
69 -70 -71 0
-69 70 -71 0
-69 -70 71 0
16 26 -72 0
16 -26 72 0
-16 26 72 0
-16 -26 72 0
71 72 -73 0
71 -72 -73 0
-71 72 -73 0
-71 -72 73 0
16 27 -74 0
16 -27 74 0
-16 27 74 0
-16 -27 74 0
73 74 -75 0
73 -74 -75 0
-73 74 -75 0
-73 -74 75 0
16 28 -76 0
16 -28 76 0
-16 28 76 0
-16 -28 76 0
75 76 -77 0
75 -76 -77 0
-75 76 -77 0
-75 -76 77 0
53 77 -78 0
53 -77 78 0
-53 77 78 0
-53 -77 -78 0
-78 79 0
-79 78 0
-1 15 0
1 -15 0
-2 16 0
2 -16 0
-3 17 0
3 -17 0
-4 18 0
4 -18 0
-5 19 0
5 -19 0
-6 20 0
6 -20 0
-7 21 0
7 -21 0
-8 22 0
8 -22 0
-9 23 0
9 -23 0
-10 24 0
10 -24 0
-11 25 0
11 -25 0
-12 26 0
12 -26 0
-13 27 0
13 -27 0
-14 28 0
14 -28 0
-80 1 0
-80 2 0
80 -1 -2 0
-81 1 0
-81 3 0
-81 4 0
-81 5 0
-81 6 0
-81 7 0
-81 8 0
-81 9 0
-81 10 0
-81 11 0
-81 12 0
-81 13 0
-81 14 0
81 -1 -3 -4 -5 -6 -7 -8 -9 -10 -11 -12 -13 -14 0
-82 -80 0
-82 -81 0
82 80 81 0
-83 -82 0
83 82 0
