p cnf 49 50
-26 -2 0
-26 -3 0
26 2 3 0
-27 -4 0
-27 -5 0
27 4 5 0
-28 -6 0
-28 -7 0
28 6 7 0
-29 -8 0
-29 -9 0
29 8 9 0
-30 -10 0
-30 -11 0
30 10 11 0
-31 -12 0
-31 -13 0
31 12 13 0
-32 -14 0
-32 -15 0
32 14 15 0
-33 -16 0
-33 -17 0
33 16 17 0
-34 -18 0
-34 -19 0
34 18 19 0
-35 -20 0
-35 -21 0
35 20 21 0
-36 -22 0
-36 -23 0
36 22 23 0
-37 -24 0
-37 -25 0
37 24 25 0
-38 1 0
-38 -26 0
-38 -27 0
-38 -28 0
-38 -29 0
-38 -30 0
-38 -31 0
-38 -32 0
-38 -33 0
-38 -34 0
-38 -35 0
-38 -36 0
-38 -37 0
38 -1 26 27 28 29 30 31 32 33 34 35 36 37 0
