p cnf 1258 1127
-364 163 0
-364 166 0
-364 173 0
364 -163 -166 -173 0
-374 16 0
-374 17 0
-374 19 0
-374 -39 0
-374 -116 0
374 -16 -17 -19 39 116 0
-384 -16 0
-384 17 0
-384 19 0
-384 39 0
-384 -116 0
384 16 -17 -19 -39 116 0
-387 -16 0
-387 -17 0
-387 19 0
-387 39 0
-387 -116 0
387 16 17 -19 -39 116 0
-396 -15 0
-396 -25 0
-396 -33 0
396 15 25 33 0
-397 15 0
-397 -25 0
-397 33 0
397 -15 25 -33 0
-398 15 0
-398 25 0
-398 -33 0
398 -15 -25 33 0
-399 -15 0
-399 25 0
-399 33 0
399 15 -25 -33 0
-400 -396 0
-400 -397 0
-400 -398 0
-400 -399 0
400 396 397 398 399 0
-401 32 0
-401 -42 0
401 -32 42 0
-402 -32 0
-402 42 0
402 32 -42 0
-403 -401 0
-403 -402 0
403 401 402 0
-404 -47 0
-404 -48 0
-404 -49 0
404 47 48 49 0
-405 -47 0
-405 48 0
-405 49 0
405 47 -48 -49 0
-406 47 0
-406 -48 0
-406 49 0
406 -47 48 -49 0
-407 47 0
-407 48 0
-407 -49 0
407 -47 -48 49 0
-408 -404 0
-408 -405 0
-408 -406 0
-408 -407 0
408 404 405 406 407 0
-409 -400 0
-409 -401 0
-409 -402 0
-409 -408 0
409 400 401 402 408 0
-410 -400 0
-410 -403 0
-410 -404 0
-410 -405 0
-410 -406 0
-410 -407 0
410 400 403 404 405 406 407 0
-411 -396 0
-411 -397 0
-411 -398 0
-411 -399 0
-411 -401 0
-411 -402 0
-411 -404 0
-411 -405 0
-411 -406 0
-411 -407 0
411 396 397 398 399 401 402 404 405 406 407 0
-412 -396 0
-412 -397 0
-412 -398 0
-412 -399 0
-412 -403 0
-412 -408 0
412 396 397 398 399 403 408 0
-413 -409 0
-413 -410 0
-413 -411 0
-413 -412 0
413 409 410 411 412 0
-414 -16 0
-414 -17 0
-414 19 0
-414 39 0
-414 -116 0
-414 -409 0
-414 -410 0
-414 -411 0
-414 -412 0
414 16 17 -19 -39 116 409 410 411 412 0
-415 -387 0
-415 -413 0
415 387 413 0
-416 -414 0
-416 -415 0
416 414 415 0
-417 100 0
-417 122 0
-417 126 0
-417 -133 0
-417 -134 0
-417 -416 0
417 -100 -122 -126 133 134 416 0
-421 -42 0
-421 -100 0
-421 -122 0
-421 -126 0
-421 -133 0
-421 134 0
421 42 100 122 126 133 -134 0
-424 -49 0
-424 100 0
-424 -122 0
-424 126 0
-424 -133 0
-424 134 0
424 49 -100 122 -126 133 -134 0
-427 -48 0
-427 -100 0
-427 -122 0
-427 126 0
-427 -133 0
-427 134 0
427 48 100 122 -126 133 -134 0
-430 -32 0
-430 100 0
-430 -122 0
-430 -126 0
-430 -133 0
-430 134 0
430 32 -100 122 126 133 -134 0
-433 -25 0
-433 100 0
-433 122 0
-433 126 0
-433 -133 0
-433 134 0
433 25 -100 -122 -126 133 -134 0
-436 -47 0
-436 -100 0
-436 122 0
-436 -126 0
-436 -133 0
-436 134 0
436 47 100 -122 126 133 -134 0
-439 -15 0
-439 -100 0
-439 122 0
-439 126 0
-439 -133 0
-439 134 0
439 15 100 -122 -126 133 -134 0
-442 -33 0
-442 100 0
-442 122 0
-442 -126 0
-442 -133 0
-442 134 0
442 33 -100 -122 126 133 -134 0
-444 -417 0
-444 -421 0
-444 -424 0
-444 -427 0
-444 -430 0
-444 -433 0
-444 -436 0
-444 -439 0
-444 -442 0
444 417 421 424 427 430 433 436 439 442 0
-445 -384 0
-445 -387 0
445 384 387 0
-446 -444 0
-446 -445 0
446 444 445 0
-449 -18 0
-449 163 0
-449 166 0
-449 173 0
449 18 -163 -166 -173 0
-450 -179 0
-450 -364 0
450 179 364 0
-451 -449 0
-451 -450 0
451 449 450 0
-452 100 0
-452 -122 0
-452 126 0
-452 133 0
-452 -134 0
-452 -451 0
452 -100 122 -126 -133 134 451 0
-453 -9 0
-453 163 0
-453 166 0
-453 173 0
453 9 -163 -166 -173 0
-454 -86 0
-454 -364 0
454 86 364 0
-455 -453 0
-455 -454 0
455 453 454 0
-457 -100 0
-457 122 0
-457 -126 0
-457 133 0
-457 -134 0
-457 -455 0
457 100 -122 126 -133 134 455 0
-459 -29 0
-459 163 0
-459 166 0
-459 173 0
459 29 -163 -166 -173 0
-460 -87 0
-460 -364 0
460 87 364 0
-461 -459 0
-461 -460 0
461 459 460 0
-462 -100 0
-462 -122 0
-462 126 0
-462 133 0
-462 -134 0
-462 -461 0
462 100 122 -126 -133 134 461 0
-464 -10 0
-464 163 0
-464 166 0
-464 173 0
464 10 -163 -166 -173 0
-465 -85 0
-465 -364 0
465 85 364 0
-466 -464 0
-466 -465 0
466 464 465 0
-467 100 0
-467 122 0
-467 -126 0
-467 133 0
-467 -134 0
-467 -466 0
467 -100 -122 126 -133 134 466 0
-471 -374 0
-471 -384 0
-471 -387 0
471 374 384 387 0
-472 -100 0
-472 122 0
-472 126 0
-472 133 0
-472 134 0
-472 -471 0
472 100 -122 -126 -133 -134 471 0
-473 152 0
-473 -374 0
473 -152 374 0
-475 100 0
-475 122 0
-475 126 0
-475 133 0
-475 134 0
-475 -473 0
475 -100 -122 -126 -133 -134 473 0
-477 -14 0
-477 163 0
-477 166 0
-477 173 0
477 14 -163 -166 -173 0
-478 -1 0
-478 -364 0
478 1 364 0
-479 -477 0
-479 -478 0
479 477 478 0
-481 100 0
-481 -122 0
-481 126 0
-481 133 0
-481 134 0
-481 -479 0
481 -100 122 -126 -133 -134 479 0
-482 -211 0
-482 -364 0
482 211 364 0
-483 -22 0
-483 163 0
-483 166 0
-483 173 0
483 22 -163 -166 -173 0
-484 -482 0
-484 -483 0
484 482 483 0
-486 100 0
-486 122 0
-486 -126 0
-486 133 0
-486 134 0
-486 -484 0
486 -100 -122 126 -133 -134 484 0
-487 -5 0
-487 -364 0
487 5 364 0
-488 -30 0
-488 163 0
-488 166 0
-488 173 0
488 30 -163 -166 -173 0
-489 -487 0
-489 -488 0
489 487 488 0
-491 -100 0
-491 -122 0
-491 126 0
-491 133 0
-491 134 0
-491 -489 0
491 100 122 -126 -133 -134 489 0
-492 -31 0
-492 163 0
-492 166 0
-492 173 0
492 31 -163 -166 -173 0
-493 -6 0
-493 -364 0
493 6 364 0
-494 -492 0
-494 -493 0
494 492 493 0
-496 -100 0
-496 122 0
-496 -126 0
-496 133 0
-496 134 0
-496 -494 0
496 100 -122 126 -133 -134 494 0
-498 -4 0
-498 163 0
-498 166 0
-498 173 0
498 4 -163 -166 -173 0
-499 -200 0
-499 -364 0
499 200 364 0
-500 -498 0
-500 -499 0
500 498 499 0
-502 -100 0
-502 122 0
-502 126 0
-502 133 0
-502 -134 0
-502 -500 0
502 100 -122 -126 -133 134 500 0
-504 -201 0
-504 -364 0
504 201 364 0
-505 -12 0
-505 163 0
-505 166 0
-505 173 0
505 12 -163 -166 -173 0
-506 -504 0
-506 -505 0
506 504 505 0
-507 100 0
-507 122 0
-507 126 0
-507 133 0
-507 -134 0
-507 -506 0
507 -100 -122 -126 -133 134 506 0
-509 -209 0
-509 -364 0
509 209 364 0
-510 -21 0
-510 163 0
-510 166 0
-510 173 0
510 21 -163 -166 -173 0
-511 -509 0
-511 -510 0
511 509 510 0
-512 -100 0
-512 -122 0
-512 -126 0
-512 133 0
-512 134 0
-512 -511 0
512 100 122 126 -133 -134 511 0
-514 -206 0
-514 -364 0
514 206 364 0
-515 -20 0
-515 163 0
-515 166 0
-515 173 0
515 20 -163 -166 -173 0
-516 -514 0
-516 -515 0
516 514 515 0
-517 100 0
-517 -122 0
-517 -126 0
-517 133 0
-517 134 0
-517 -516 0
517 -100 122 126 -133 -134 516 0
-519 -452 0
-519 -457 0
-519 -462 0
-519 -467 0
-519 -472 0
-519 -475 0
-519 -481 0
-519 -486 0
-519 -491 0
-519 -496 0
-519 -502 0
-519 -507 0
-519 -512 0
-519 -517 0
519 452 457 462 467 472 475 481 486 491 496 502 507 512 517 0
-520 193 0
-520 -519 0
520 -193 519 0
-521 -97 0
-521 164 0
521 97 -164 0
-522 -163 0
-522 -174 0
522 163 174 0
-523 148 0
-523 -522 0
523 -148 522 0
-525 -186 0
-525 -192 0
-525 -364 0
-525 -523 0
525 186 192 364 523 0
-527 148 0
-527 -177 0
-527 -192 0
-527 -364 0
-527 -522 0
527 -148 177 192 364 522 0
-529 -446 0
-529 -520 0
-529 -521 0
-529 -525 0
-529 -527 0
529 446 520 521 525 527 0
-530 91 0
-530 -100 0
-530 -126 0
530 -91 100 126 0
-531 -91 0
-531 100 0
-531 -126 0
531 91 -100 126 0
-532 91 0
-532 100 0
-532 126 0
532 -91 -100 -126 0
-533 -91 0
-533 -100 0
-533 126 0
533 91 100 -126 0
-535 -122 0
-535 -133 0
-535 -134 0
535 122 133 134 0
-536 122 0
-536 -133 0
-536 134 0
536 -122 133 -134 0
-537 -122 0
-537 133 0
-537 134 0
537 122 -133 -134 0
-538 122 0
-538 133 0
-538 -134 0
538 -122 -133 134 0
-540 -530 0
-540 -531 0
-540 -532 0
-540 -533 0
-540 -535 0
-540 -536 0
-540 -537 0
-540 -538 0
540 530 531 532 533 535 536 537 538 0
-541 -530 0
-541 -531 0
-541 -532 0
-541 -533 0
-541 -540 0
541 530 531 532 533 540 0
-542 -535 0
-542 -536 0
-542 -537 0
-542 -538 0
-542 -540 0
542 535 536 537 538 540 0
-543 -541 0
-543 -542 0
543 541 542 0
-546 -446 0
-546 -520 0
-546 -525 0
-546 -527 0
546 446 520 525 527 0
-548 -97 0
-548 164 0
-548 -446 0
-548 -520 0
-548 -525 0
-548 -527 0
-548 -543 0
548 97 -164 446 520 525 527 543 0
-549 94 0
-549 -95 0
-549 -110 0
549 -94 95 110 0
-550 -94 0
-550 -95 0
-550 110 0
550 94 95 -110 0
-551 94 0
-551 95 0
-551 110 0
551 -94 -95 -110 0
-552 -94 0
-552 95 0
-552 -110 0
552 94 -95 110 0
-554 -92 0
-554 -93 0
-554 -101 0
554 92 93 101 0
-555 92 0
-555 -93 0
-555 101 0
555 -92 93 -101 0
-556 -92 0
-556 93 0
-556 101 0
556 92 -93 -101 0
-557 92 0
-557 93 0
-557 -101 0
557 -92 -93 101 0
-559 -549 0
-559 -550 0
-559 -551 0
-559 -552 0
-559 -554 0
-559 -555 0
-559 -556 0
-559 -557 0
559 549 550 551 552 554 555 556 557 0
-560 -549 0
-560 -550 0
-560 -551 0
-560 -552 0
-560 -559 0
560 549 550 551 552 559 0
-561 -554 0
-561 -555 0
-561 -556 0
-561 -557 0
-561 -559 0
561 554 555 556 557 559 0
-562 -560 0
-562 -561 0
562 560 561 0
-565 -97 0
-565 164 0
-565 -446 0
-565 -520 0
-565 -525 0
-565 -527 0
-565 -562 0
565 97 -164 446 520 525 527 562 0
-608 56 0
-608 61 0
608 -56 -61 0
-609 56 0
-609 65 0
609 -56 -65 0
-610 56 0
-610 66 0
610 -56 -66 0
-612 56 0
-612 62 0
612 -56 -62 0
-613 56 0
-613 63 0
613 -56 -63 0
-614 56 0
-614 64 0
614 -56 -64 0
-615 56 0
-615 61 0
-615 62 0
-615 63 0
-615 64 0
615 -56 -61 -62 -63 -64 0
-616 -613 0
-616 -614 0
616 613 614 0
-618 -608 0
-618 -609 0
-618 -610 0
-618 -615 0
-618 -616 0
618 608 609 610 615 616 0
-619 54 0
-619 64 0
619 -54 -64 0
-620 54 0
-620 66 0
620 -54 -66 0
-621 54 0
-621 65 0
621 -54 -65 0
-623 54 0
-623 63 0
623 -54 -63 0
-624 54 0
-624 62 0
624 -54 -62 0
-625 54 0
-625 61 0
625 -54 -61 0
-627 54 0
-627 61 0
-627 62 0
-627 63 0
-627 -619 0
-627 -620 0
-627 -621 0
627 -54 -61 -62 -63 619 620 621 0
-628 -618 0
-628 -627 0
628 618 627 0
-629 -614 0
-629 -623 0
629 614 623 0
-630 -612 0
-630 -625 0
630 612 625 0
-631 -613 0
-631 -624 0
631 613 624 0
-633 -200 0
-633 -614 0
-633 -623 0
-633 -630 0
-633 -631 0
633 200 614 623 630 631 0
-635 -4 0
-635 -613 0
-635 -624 0
-635 -629 0
-635 -630 0
635 4 613 624 629 630 0
-637 -17 0
-637 -629 0
-637 -630 0
-637 -631 0
637 17 629 630 631 0
-639 -42 0
-639 -612 0
-639 -625 0
-639 -629 0
-639 -631 0
639 42 612 625 629 631 0
-644 -204 0
-644 -612 0
-644 -625 0
-644 -629 0
-644 -631 0
644 204 612 625 629 631 0
-645 -3 0
-645 -614 0
-645 -623 0
-645 -630 0
-645 -631 0
645 3 614 623 630 631 0
-646 -26 0
-646 -613 0
-646 -624 0
-646 -629 0
-646 -630 0
646 26 613 624 629 630 0
-648 -644 0
-648 -645 0
-648 -646 0
648 644 645 646 0
-649 56 0
-649 61 0
-649 -609 0
-649 -610 0
-649 -615 0
-649 -616 0
649 -56 -61 609 610 615 616 0
-650 -623 0
-650 -624 0
650 623 624 0
-651 -619 0
-651 -620 0
-651 -621 0
-651 -650 0
651 619 620 621 650 0
-652 -649 0
-652 -651 0
652 649 651 0
-653 -648 0
-653 -652 0
653 648 652 0
-659 -612 0
-659 -614 0
-659 -623 0
-659 -625 0
-659 -628 0
-659 -631 0
-659 -633 0
-659 -635 0
-659 -637 0
-659 -639 0
-659 -653 0
659 612 614 623 625 628 631 633 635 637 639 653 0
-751 -612 0
-751 -613 0
-751 -624 0
-751 -625 0
-751 -629 0
751 612 613 624 625 629 0
-752 -13 0
-752 -613 0
-752 -624 0
-752 -629 0
-752 -630 0
752 13 613 624 629 630 0
-753 -203 0
-753 -614 0
-753 -623 0
-753 -630 0
-753 -631 0
753 203 614 623 630 631 0
-754 -8 0
-754 -629 0
-754 -630 0
-754 -631 0
754 8 629 630 631 0
-755 -413 0
-755 -612 0
-755 -625 0
-755 -629 0
-755 -631 0
755 413 612 625 629 631 0
-759 -208 0
-759 -210 0
-759 -213 0
759 208 210 213 0
-760 208 0
-760 210 0
-760 -213 0
760 -208 -210 213 0
-761 -208 0
-761 210 0
-761 213 0
761 208 -210 -213 0
-762 208 0
-762 -210 0
-762 213 0
762 -208 210 -213 0
-763 -759 0
-763 -760 0
-763 -761 0
-763 -762 0
763 759 760 761 762 0
-764 202 0
-764 -204 0
764 -202 204 0
-765 -202 0
-765 204 0
765 202 -204 0
-766 -764 0
-766 -765 0
766 764 765 0
-767 -2 0
-767 -207 0
-767 -212 0
767 2 207 212 0
-768 -2 0
-768 207 0
-768 212 0
768 2 -207 -212 0
-769 2 0
-769 -207 0
-769 212 0
769 -2 207 -212 0
-770 2 0
-770 207 0
-770 -212 0
770 -2 -207 212 0
-771 -767 0
-771 -768 0
-771 -769 0
-771 -770 0
771 767 768 769 770 0
-772 -763 0
-772 -764 0
-772 -765 0
-772 -771 0
772 763 764 765 771 0
-773 -763 0
-773 -766 0
-773 -767 0
-773 -768 0
-773 -769 0
-773 -770 0
773 763 766 767 768 769 770 0
-774 -759 0
-774 -760 0
-774 -761 0
-774 -762 0
-774 -764 0
-774 -765 0
-774 -767 0
-774 -768 0
-774 -769 0
-774 -770 0
774 759 760 761 762 764 765 767 768 769 770 0
-775 -759 0
-775 -760 0
-775 -761 0
-775 -762 0
-775 -766 0
-775 -771 0
775 759 760 761 762 766 771 0
-776 -772 0
-776 -773 0
-776 -774 0
-776 -775 0
776 772 773 774 775 0
-777 -612 0
-777 -625 0
-777 -629 0
-777 -631 0
-777 -776 0
777 612 625 629 631 776 0
-778 -11 0
-778 -613 0
-778 -624 0
-778 -629 0
-778 -630 0
778 11 613 624 629 630 0
-779 -214 0
-779 -614 0
-779 -623 0
-779 -630 0
-779 -631 0
779 214 614 623 630 631 0
-781 -777 0
-781 -778 0
-781 -779 0
781 777 778 779 0
-782 -652 0
-782 -781 0
782 652 781 0
-790 -612 0
-790 -614 0
-790 -623 0
-790 -625 0
-790 -628 0
-790 -631 0
-790 -751 0
-790 -752 0
-790 -753 0
-790 -754 0
-790 -755 0
-790 -782 0
790 612 614 623 625 628 631 751 752 753 754 755 782 0
-792 109 0
-792 124 0
792 -109 -124 0
-793 -109 0
-793 -124 0
793 109 124 0
-795 -127 0
-795 130 0
795 127 -130 0
-796 127 0
-796 -130 0
796 -127 130 0
-798 -792 0
-798 -793 0
-798 -795 0
-798 -796 0
798 792 793 795 796 0
-799 -792 0
-799 -793 0
-799 -798 0
799 792 793 798 0
-800 -795 0
-800 -796 0
-800 -798 0
800 795 796 798 0
-801 -799 0
-801 -800 0
801 799 800 0
-806 -612 0
-806 -614 0
-806 -619 0
-806 -620 0
-806 -621 0
-806 -623 0
-806 -625 0
-806 -631 0
-806 -650 0
-806 -751 0
-806 -752 0
-806 -753 0
-806 -754 0
-806 -755 0
-806 -801 0
806 612 614 619 620 621 623 625 631 650 751 752 753 754 755 801 0
-808 205 0
-808 -776 0
808 -205 776 0
-809 -205 0
-809 -772 0
-809 -773 0
-809 -774 0
-809 -775 0
809 205 772 773 774 775 0
-810 -808 0
-810 -809 0
810 808 809 0
-815 -612 0
-815 -614 0
-815 -619 0
-815 -620 0
-815 -621 0
-815 -623 0
-815 -625 0
-815 -631 0
-815 -633 0
-815 -635 0
-815 -637 0
-815 -639 0
-815 -650 0
-815 -810 0
815 612 614 619 620 621 623 625 631 633 635 637 639 650 810 0
-1027 -521 0
-1027 -529 0
1027 521 529 0
546 1027 -1028 0
-546 -1027 -1028 0
546 -1027 1028 0
-546 1027 1028 0
-1029 -446 0
-1029 -520 0
-1029 -525 0
-1029 -527 0
-1029 -1028 0
1029 446 520 525 527 1028 0
-1220 -548 0
-1220 -565 0
-1220 -659 0
-1220 -790 0
-1220 -806 0
-1220 -815 0
-1220 -1029 0
1220 548 565 659 790 806 815 1029 0
-1221 -23 0
-1221 -97 0
-1221 164 0
1221 23 97 -164 0
-1223 -446 0
-1223 -520 0
-1223 -525 0
-1223 -527 0
-1223 -1221 0
1223 446 520 525 527 1221 0
-1226 23 0
-1226 -97 0
-1226 164 0
-1226 -446 0
-1226 -520 0
-1226 -525 0
-1226 -527 0
-1226 -543 0
1226 -23 97 -164 446 520 525 527 543 0
-1228 23 0
-1228 -97 0
-1228 164 0
-1228 -446 0
-1228 -520 0
-1228 -525 0
-1228 -527 0
-1228 -562 0
1228 -23 97 -164 446 520 525 527 562 0
-1236 23 0
-1236 -612 0
-1236 -614 0
-1236 -623 0
-1236 -625 0
-1236 -628 0
-1236 -631 0
-1236 -633 0
-1236 -635 0
-1236 -637 0
-1236 -639 0
-1236 -653 0
1236 -23 612 614 623 625 628 631 633 635 637 639 653 0
-1243 23 0
-1243 -612 0
-1243 -614 0
-1243 -623 0
-1243 -625 0
-1243 -628 0
-1243 -631 0
-1243 -751 0
-1243 -752 0
-1243 -753 0
-1243 -754 0
-1243 -755 0
-1243 -782 0
1243 -23 612 614 623 625 628 631 751 752 753 754 755 782 0
-1247 23 0
-1247 -612 0
-1247 -614 0
-1247 -619 0
-1247 -620 0
-1247 -621 0
-1247 -623 0
-1247 -625 0
-1247 -631 0
-1247 -650 0
-1247 -751 0
-1247 -752 0
-1247 -753 0
-1247 -754 0
-1247 -755 0
-1247 -801 0
1247 -23 612 614 619 620 621 623 625 631 650 751 752 753 754 755 801 0
-1251 23 0
-1251 -612 0
-1251 -614 0
-1251 -619 0
-1251 -620 0
-1251 -621 0
-1251 -623 0
-1251 -625 0
-1251 -631 0
-1251 -633 0
-1251 -635 0
-1251 -637 0
-1251 -639 0
-1251 -650 0
-1251 -810 0
1251 -23 612 614 619 620 621 623 625 631 633 635 637 639 650 810 0
-1253 -1221 0
-1253 -1223 0
1253 1221 1223 0
1027 1253 -1254 0
-1027 -1253 -1254 0
1027 -1253 1254 0
-1027 1253 1254 0
-1255 -446 0
-1255 -520 0
-1255 -525 0
-1255 -527 0
-1255 1254 0
1255 446 520 525 527 -1254 0
-1256 -1226 0
-1256 -1228 0
-1256 -1236 0
-1256 -1243 0
-1256 -1247 0
-1256 -1251 0
-1256 -1255 0
1256 1226 1228 1236 1243 1247 1251 1255 0
-1257 23 0
-1257 -1220 0
1257 -23 1220 0
1256 1257 -1258 0
-1256 -1257 -1258 0
1256 -1257 1258 0
-1256 1257 1258 0
