p cnf 1211 673
-218 -15 0
-218 -25 0
-218 -33 0
218 15 25 33 0
-219 15 0
-219 -25 0
-219 33 0
219 -15 25 -33 0
-220 15 0
-220 25 0
-220 -33 0
220 -15 -25 33 0
-221 -15 0
-221 25 0
-221 33 0
221 15 -25 -33 0
-222 -218 0
-222 -219 0
-222 -220 0
-222 -221 0
222 218 219 220 221 0
-223 32 0
-223 -42 0
223 -32 42 0
-224 -32 0
-224 42 0
224 32 -42 0
-225 -223 0
-225 -224 0
225 223 224 0
-226 -47 0
-226 -48 0
-226 -49 0
226 47 48 49 0
-227 -47 0
-227 48 0
-227 49 0
227 47 -48 -49 0
-228 47 0
-228 -48 0
-228 49 0
228 -47 48 -49 0
-229 47 0
-229 48 0
-229 -49 0
229 -47 -48 49 0
-230 -226 0
-230 -227 0
-230 -228 0
-230 -229 0
230 226 227 228 229 0
-231 -222 0
-231 -223 0
-231 -224 0
-231 -230 0
231 222 223 224 230 0
-232 -222 0
-232 -225 0
-232 -226 0
-232 -227 0
-232 -228 0
-232 -229 0
232 222 225 226 227 228 229 0
-233 -218 0
-233 -219 0
-233 -220 0
-233 -221 0
-233 -223 0
-233 -224 0
-233 -226 0
-233 -227 0
-233 -228 0
-233 -229 0
233 218 219 220 221 223 224 226 227 228 229 0
-234 -218 0
-234 -219 0
-234 -220 0
-234 -221 0
-234 -225 0
-234 -230 0
234 218 219 220 221 225 230 0
-235 -231 0
-235 -232 0
-235 -233 0
-235 -234 0
235 231 232 233 234 0
-239 -16 0
-239 -17 0
-239 19 0
-239 39 0
-239 -116 0
239 16 17 -19 -39 116 0
-240 -16 0
-240 -17 0
-240 19 0
-240 39 0
-240 -116 0
-240 -231 0
-240 -232 0
-240 -233 0
-240 -234 0
240 16 17 -19 -39 116 231 232 233 234 0
-241 -235 0
-241 -239 0
241 235 239 0
-242 -240 0
-242 -241 0
242 240 241 0
-246 -42 0
-246 -100 0
-246 -122 0
-246 -126 0
-246 -133 0
-246 134 0
246 42 100 122 126 133 -134 0
-249 -49 0
-249 100 0
-249 -122 0
-249 126 0
-249 -133 0
-249 134 0
249 49 -100 122 -126 133 -134 0
-252 -48 0
-252 -100 0
-252 -122 0
-252 126 0
-252 -133 0
-252 134 0
252 48 100 122 -126 133 -134 0
-255 -32 0
-255 100 0
-255 -122 0
-255 -126 0
-255 -133 0
-255 134 0
255 32 -100 122 126 133 -134 0
-258 -25 0
-258 100 0
-258 122 0
-258 126 0
-258 -133 0
-258 134 0
258 25 -100 -122 -126 133 -134 0
-261 -47 0
-261 -100 0
-261 122 0
-261 -126 0
-261 -133 0
-261 134 0
261 47 100 -122 126 133 -134 0
-264 -15 0
-264 -100 0
-264 122 0
-264 126 0
-264 -133 0
-264 134 0
264 15 100 -122 -126 133 -134 0
-267 -33 0
-267 100 0
-267 122 0
-267 -126 0
-267 -133 0
-267 134 0
267 33 -100 -122 126 133 -134 0
-271 -16 0
-271 17 0
-271 19 0
-271 39 0
-271 -116 0
271 16 -17 -19 -39 116 0
-272 -239 0
-272 -271 0
272 239 271 0
-275 163 0
-275 166 0
-275 173 0
275 -163 -166 -173 0
-276 -18 0
-276 163 0
-276 166 0
-276 173 0
276 18 -163 -166 -173 0
-277 -179 0
-277 -275 0
277 179 275 0
-278 -276 0
-278 -277 0
278 276 277 0
-279 100 0
-279 -122 0
-279 126 0
-279 133 0
-279 -134 0
-279 -278 0
279 -100 122 -126 -133 134 278 0
-280 -9 0
-280 163 0
-280 166 0
-280 173 0
280 9 -163 -166 -173 0
-281 -86 0
-281 -275 0
281 86 275 0
-282 -280 0
-282 -281 0
282 280 281 0
-284 -100 0
-284 122 0
-284 -126 0
-284 133 0
-284 -134 0
-284 -282 0
284 100 -122 126 -133 134 282 0
-286 -29 0
-286 163 0
-286 166 0
-286 173 0
286 29 -163 -166 -173 0
-287 -87 0
-287 -275 0
287 87 275 0
-288 -286 0
-288 -287 0
288 286 287 0
-289 -100 0
-289 -122 0
-289 126 0
-289 133 0
-289 -134 0
-289 -288 0
289 100 122 -126 -133 134 288 0
-291 -10 0
-291 163 0
-291 166 0
-291 173 0
291 10 -163 -166 -173 0
-292 -85 0
-292 -275 0
292 85 275 0
-293 -291 0
-293 -292 0
293 291 292 0
-294 100 0
-294 122 0
-294 -126 0
-294 133 0
-294 -134 0
-294 -293 0
294 -100 -122 126 -133 134 293 0
-301 16 0
-301 17 0
-301 19 0
-301 -39 0
-301 -116 0
301 -16 -17 -19 39 116 0
-302 -239 0
-302 -271 0
-302 -301 0
302 239 271 301 0
-303 -100 0
-303 122 0
-303 126 0
-303 133 0
-303 134 0
-303 -302 0
303 100 -122 -126 -133 -134 302 0
-304 152 0
-304 -301 0
304 -152 301 0
-306 100 0
-306 122 0
-306 126 0
-306 133 0
-306 134 0
-306 -304 0
306 -100 -122 -126 -133 -134 304 0
-308 -14 0
-308 163 0
-308 166 0
-308 173 0
308 14 -163 -166 -173 0
-309 -1 0
-309 -275 0
309 1 275 0
-310 -308 0
-310 -309 0
310 308 309 0
-312 100 0
-312 -122 0
-312 126 0
-312 133 0
-312 134 0
-312 -310 0
312 -100 122 -126 -133 -134 310 0
-313 -211 0
-313 -275 0
313 211 275 0
-314 -22 0
-314 163 0
-314 166 0
-314 173 0
314 22 -163 -166 -173 0
-315 -313 0
-315 -314 0
315 313 314 0
-317 100 0
-317 122 0
-317 -126 0
-317 133 0
-317 134 0
-317 -315 0
317 -100 -122 126 -133 -134 315 0
-318 -5 0
-318 -275 0
318 5 275 0
-319 -30 0
-319 163 0
-319 166 0
-319 173 0
319 30 -163 -166 -173 0
-320 -318 0
-320 -319 0
320 318 319 0
-322 -100 0
-322 -122 0
-322 126 0
-322 133 0
-322 134 0
-322 -320 0
322 100 122 -126 -133 -134 320 0
-323 -31 0
-323 163 0
-323 166 0
-323 173 0
323 31 -163 -166 -173 0
-324 -6 0
-324 -275 0
324 6 275 0
-325 -323 0
-325 -324 0
325 323 324 0
-327 -100 0
-327 122 0
-327 -126 0
-327 133 0
-327 134 0
-327 -325 0
327 100 -122 126 -133 -134 325 0
-329 -4 0
-329 163 0
-329 166 0
-329 173 0
329 4 -163 -166 -173 0
-330 -200 0
-330 -275 0
330 200 275 0
-331 -329 0
-331 -330 0
331 329 330 0
-333 -100 0
-333 122 0
-333 126 0
-333 133 0
-333 -134 0
-333 -331 0
333 100 -122 -126 -133 134 331 0
-335 -201 0
-335 -275 0
335 201 275 0
-336 -12 0
-336 163 0
-336 166 0
-336 173 0
336 12 -163 -166 -173 0
-337 -335 0
-337 -336 0
337 335 336 0
-338 100 0
-338 122 0
-338 126 0
-338 133 0
-338 -134 0
-338 -337 0
338 -100 -122 -126 -133 134 337 0
-340 -209 0
-340 -275 0
340 209 275 0
-341 -21 0
-341 163 0
-341 166 0
-341 173 0
341 21 -163 -166 -173 0
-342 -340 0
-342 -341 0
342 340 341 0
-343 -100 0
-343 -122 0
-343 -126 0
-343 133 0
-343 134 0
-343 -342 0
343 100 122 126 -133 -134 342 0
-345 -206 0
-345 -275 0
345 206 275 0
-346 -20 0
-346 163 0
-346 166 0
-346 173 0
346 20 -163 -166 -173 0
-347 -345 0
-347 -346 0
347 345 346 0
-348 100 0
-348 -122 0
-348 -126 0
-348 133 0
-348 134 0
-348 -347 0
348 -100 122 126 -133 -134 347 0
-350 -279 0
-350 -284 0
-350 -289 0
-350 -294 0
-350 -303 0
-350 -306 0
-350 -312 0
-350 -317 0
-350 -322 0
-350 -327 0
-350 -333 0
-350 -338 0
-350 -343 0
-350 -348 0
350 279 284 289 294 303 306 312 317 322 327 333 338 343 348 0
-351 193 0
-351 -350 0
351 -193 350 0
-352 -23 0
-352 -97 0
-352 164 0
352 23 97 -164 0
-353 -163 0
-353 -174 0
353 163 174 0
-354 148 0
-354 -353 0
354 -148 353 0
-356 -186 0
-356 -192 0
-356 -275 0
-356 -354 0
356 186 192 275 354 0
-358 148 0
-358 -177 0
-358 -192 0
-358 -275 0
-358 -353 0
358 -148 177 192 275 353 0
-526 91 0
-526 -100 0
-526 -126 0
526 -91 100 126 0
-527 -91 0
-527 100 0
-527 -126 0
527 91 -100 126 0
-528 91 0
-528 100 0
-528 126 0
528 -91 -100 -126 0
-529 -91 0
-529 -100 0
-529 126 0
529 91 100 -126 0
-531 -122 0
-531 -133 0
-531 -134 0
531 122 133 134 0
-532 122 0
-532 -133 0
-532 134 0
532 -122 133 -134 0
-533 -122 0
-533 133 0
-533 134 0
533 122 -133 -134 0
-534 122 0
-534 133 0
-534 -134 0
534 -122 -133 134 0
-536 -526 0
-536 -527 0
-536 -528 0
-536 -529 0
-536 -531 0
-536 -532 0
-536 -533 0
-536 -534 0
536 526 527 528 529 531 532 533 534 0
-537 -526 0
-537 -527 0
-537 -528 0
-537 -529 0
-537 -536 0
537 526 527 528 529 536 0
-538 -531 0
-538 -532 0
-538 -533 0
-538 -534 0
-538 -536 0
538 531 532 533 534 536 0
-539 -537 0
-539 -538 0
539 537 538 0
-540 94 0
-540 -95 0
-540 -110 0
540 -94 95 110 0
-541 -94 0
-541 -95 0
-541 110 0
541 94 95 -110 0
-542 94 0
-542 95 0
-542 110 0
542 -94 -95 -110 0
-543 -94 0
-543 95 0
-543 -110 0
543 94 -95 110 0
-545 -92 0
-545 -93 0
-545 -101 0
545 92 93 101 0
-546 92 0
-546 -93 0
-546 101 0
546 -92 93 -101 0
-547 -92 0
-547 93 0
-547 101 0
547 92 -93 -101 0
-548 92 0
-548 93 0
-548 -101 0
548 -92 -93 101 0
-550 -540 0
-550 -541 0
-550 -542 0
-550 -543 0
-550 -545 0
-550 -546 0
-550 -547 0
-550 -548 0
550 540 541 542 543 545 546 547 548 0
-551 -540 0
-551 -541 0
-551 -542 0
-551 -543 0
-551 -550 0
551 540 541 542 543 550 0
-552 -545 0
-552 -546 0
-552 -547 0
-552 -548 0
-552 -550 0
552 545 546 547 548 550 0
-553 -551 0
-553 -552 0
553 551 552 0
-1187 100 0
-1187 122 0
-1187 126 0
-1187 -133 0
-1187 -134 0
-1187 -242 0
1187 -100 -122 -126 133 134 242 0
-1188 -246 0
-1188 -249 0
-1188 -252 0
-1188 -255 0
-1188 -258 0
-1188 -261 0
-1188 -264 0
-1188 -267 0
-1188 -1187 0
1188 246 249 252 255 258 261 264 267 1187 0
-1189 -272 0
-1189 -1188 0
1189 272 1188 0
-1190 -351 0
-1190 -352 0
-1190 -356 0
-1190 -358 0
-1190 -1189 0
1190 351 352 356 358 1189 0
-1192 -240 0
-1192 -241 0
-1192 -246 0
-1192 -249 0
-1192 -252 0
-1192 -255 0
-1192 -258 0
-1192 -261 0
-1192 -264 0
-1192 -267 0
1192 240 241 246 249 252 255 258 261 264 267 0
-1193 -272 0
-1193 -1192 0
1193 272 1192 0
-1194 -351 0
-1194 -352 0
-1194 -356 0
-1194 -358 0
-1194 -1193 0
1194 351 352 356 358 1193 0
242 1187 -1196 0
-242 -1187 -1196 0
242 -1187 1196 0
-242 1187 1196 0
-1199 -246 0
-1199 -249 0
-1199 -252 0
-1199 -255 0
-1199 -258 0
-1199 -261 0
-1199 -264 0
-1199 -267 0
-1199 -272 0
-1199 -351 0
-1199 -352 0
-1199 -356 0
-1199 -358 0
-1199 -539 0
-1199 -1196 0
1199 246 249 252 255 258 261 264 267 272 351 352 356 358 539 1196 0
-1202 -246 0
-1202 -249 0
-1202 -252 0
-1202 -255 0
-1202 -258 0
-1202 -261 0
-1202 -264 0
-1202 -267 0
-1202 -272 0
-1202 -351 0
-1202 -352 0
-1202 -356 0
-1202 -358 0
-1202 -553 0
-1202 -1196 0
1202 246 249 252 255 258 261 264 267 272 351 352 356 358 553 1196 0
-1205 -1193 0
-1205 -1194 0
1205 1193 1194 0
-1206 -1189 0
-1206 -1190 0
1206 1189 1190 0
1205 1206 -1207 0
-1205 -1206 -1207 0
1205 -1206 1207 0
-1205 1206 1207 0
-1208 -351 0
-1208 -352 0
-1208 -356 0
-1208 -358 0
-1208 1207 0
1208 351 352 356 358 -1207 0
-1209 -1199 0
-1209 -1202 0
-1209 -1208 0
1209 1199 1202 1208 0
