p cnf 1295 1619
-215 54 0
-215 64 0
215 -54 -64 0
-216 54 0
-216 66 0
216 -54 -66 0
-217 54 0
-217 65 0
217 -54 -65 0
-219 54 0
-219 62 0
219 -54 -62 0
-220 54 0
-220 63 0
220 -54 -63 0
-221 -219 0
-221 -220 0
221 219 220 0
-222 -215 0
-222 -216 0
-222 -217 0
-222 -221 0
222 215 216 217 221 0
-223 -1 0
-223 -6 0
-223 -211 0
223 1 6 211 0
-224 1 0
-224 6 0
-224 -211 0
224 -1 -6 211 0
-225 -1 0
-225 6 0
-225 211 0
225 1 -6 -211 0
-226 1 0
-226 -6 0
-226 211 0
226 -1 6 -211 0
-227 -223 0
-227 -224 0
-227 -225 0
-227 -226 0
227 223 224 225 226 0
-228 -200 0
-228 -201 0
-228 -203 0
228 200 201 203 0
-229 200 0
-229 -201 0
-229 203 0
229 -200 201 -203 0
-230 200 0
-230 201 0
-230 -203 0
230 -200 -201 203 0
-231 -200 0
-231 201 0
-231 203 0
231 200 -201 -203 0
-232 -228 0
-232 -229 0
-232 -230 0
-232 -231 0
232 228 229 230 231 0
-233 -5 0
-233 -206 0
-233 -209 0
233 5 206 209 0
-234 -5 0
-234 206 0
-234 209 0
234 5 -206 -209 0
-235 5 0
-235 206 0
-235 -209 0
235 -5 -206 209 0
-236 5 0
-236 -206 0
-236 209 0
236 -5 206 -209 0
-237 -233 0
-237 -234 0
-237 -235 0
-237 -236 0
237 233 234 235 236 0
-238 -227 0
-238 -228 0
-238 -229 0
-238 -230 0
-238 -231 0
-238 -237 0
238 227 228 229 230 231 237 0
-239 -227 0
-239 -232 0
-239 -233 0
-239 -234 0
-239 -235 0
-239 -236 0
239 227 232 233 234 235 236 0
-240 -223 0
-240 -224 0
-240 -225 0
-240 -226 0
-240 -228 0
-240 -229 0
-240 -230 0
-240 -231 0
-240 -233 0
-240 -234 0
-240 -235 0
-240 -236 0
240 223 224 225 226 228 229 230 231 233 234 235 236 0
-241 -223 0
-241 -224 0
-241 -225 0
-241 -226 0
-241 -232 0
-241 -237 0
241 223 224 225 226 232 237 0
-242 -238 0
-242 -239 0
-242 -240 0
-242 -241 0
242 238 239 240 241 0
-257 64 0
-257 65 0
-257 66 0
257 -64 -65 -66 0
-258 -64 0
-258 -65 0
-258 66 0
258 64 65 -66 0
-259 64 0
-259 -65 0
-259 -66 0
259 -64 65 66 0
-260 -64 0
-260 65 0
-260 -66 0
260 64 -65 66 0
-261 -257 0
-261 -258 0
-261 -259 0
-261 -260 0
261 257 258 259 260 0
-262 60 0
-262 -61 0
262 -60 61 0
-263 -60 0
-263 61 0
263 60 -61 0
-264 -262 0
-264 -263 0
264 262 263 0
-265 -62 0
-265 63 0
265 62 -63 0
-266 62 0
-266 -63 0
266 -62 63 0
-267 -265 0
-267 -266 0
267 265 266 0
-268 -261 0
-268 -262 0
-268 -263 0
-268 -267 0
268 261 262 263 267 0
-269 -261 0
-269 -264 0
-269 -265 0
-269 -266 0
269 261 264 265 266 0
-270 -257 0
-270 -258 0
-270 -259 0
-270 -260 0
-270 -262 0
-270 -263 0
-270 -265 0
-270 -266 0
270 257 258 259 260 262 263 265 266 0
-271 -257 0
-271 -258 0
-271 -259 0
-271 -260 0
-271 -264 0
-271 -267 0
271 257 258 259 260 264 267 0
-272 -268 0
-272 -269 0
-272 -270 0
-272 -271 0
272 268 269 270 271 0
-273 -14 0
-273 -22 0
-273 -31 0
273 14 22 31 0
-274 14 0
-274 -22 0
-274 31 0
274 -14 22 -31 0
-275 -14 0
-275 22 0
-275 31 0
275 14 -22 -31 0
-276 14 0
-276 22 0
-276 -31 0
276 -14 -22 31 0
-277 -273 0
-277 -274 0
-277 -275 0
-277 -276 0
277 273 274 275 276 0
-278 -4 0
-278 -12 0
-278 -13 0
278 4 12 13 0
-279 4 0
-279 -12 0
-279 13 0
279 -4 12 -13 0
-280 4 0
-280 12 0
-280 -13 0
280 -4 -12 13 0
-281 -4 0
-281 12 0
-281 13 0
281 4 -12 -13 0
-282 -278 0
-282 -279 0
-282 -280 0
-282 -281 0
282 278 279 280 281 0
-283 -20 0
-283 -21 0
-283 -30 0
283 20 21 30 0
-284 20 0
-284 21 0
-284 -30 0
284 -20 -21 30 0
-285 20 0
-285 -21 0
-285 30 0
285 -20 21 -30 0
-286 -20 0
-286 21 0
-286 30 0
286 20 -21 -30 0
-287 -283 0
-287 -284 0
-287 -285 0
-287 -286 0
287 283 284 285 286 0
-288 -277 0
-288 -278 0
-288 -279 0
-288 -280 0
-288 -281 0
-288 -287 0
288 277 278 279 280 281 287 0
-289 -277 0
-289 -282 0
-289 -283 0
-289 -284 0
-289 -285 0
-289 -286 0
289 277 282 283 284 285 286 0
-290 -273 0
-290 -274 0
-290 -275 0
-290 -276 0
-290 -278 0
-290 -279 0
-290 -280 0
-290 -281 0
-290 -283 0
-290 -284 0
-290 -285 0
-290 -286 0
290 273 274 275 276 278 279 280 281 283 284 285 286 0
-291 -273 0
-291 -274 0
-291 -275 0
-291 -276 0
-291 -282 0
-291 -287 0
291 273 274 275 276 282 287 0
-292 -288 0
-292 -289 0
-292 -290 0
-292 -291 0
292 288 289 290 291 0
-293 -85 0
-293 -86 0
-293 -179 0
293 85 86 179 0
-294 -85 0
-294 86 0
-294 179 0
294 85 -86 -179 0
-295 85 0
-295 86 0
-295 -179 0
295 -85 -86 179 0
-296 85 0
-296 -86 0
-296 179 0
296 -85 86 -179 0
-297 -293 0
-297 -294 0
-297 -295 0
-297 -296 0
297 293 294 295 296 0
-298 -3 0
-298 -7 0
-298 -214 0
298 3 7 214 0
-299 3 0
-299 -7 0
-299 214 0
299 -3 7 -214 0
-300 3 0
-300 7 0
-300 -214 0
300 -3 -7 214 0
-301 -3 0
-301 7 0
-301 214 0
301 3 -7 -214 0
-302 -298 0
-302 -299 0
-302 -300 0
-302 -301 0
302 298 299 300 301 0
-303 -37 0
-303 -38 0
-303 -87 0
303 37 38 87 0
-304 37 0
-304 38 0
-304 -87 0
304 -37 -38 87 0
-305 -37 0
-305 38 0
-305 87 0
305 37 -38 -87 0
-306 37 0
-306 -38 0
-306 87 0
306 -37 38 -87 0
-307 -303 0
-307 -304 0
-307 -305 0
-307 -306 0
307 303 304 305 306 0
-308 -297 0
-308 -298 0
-308 -299 0
-308 -300 0
-308 -301 0
-308 -307 0
308 297 298 299 300 301 307 0
-309 -297 0
-309 -302 0
-309 -303 0
-309 -304 0
-309 -305 0
-309 -306 0
309 297 302 303 304 305 306 0
-310 -293 0
-310 -294 0
-310 -295 0
-310 -296 0
-310 -298 0
-310 -299 0
-310 -300 0
-310 -301 0
-310 -303 0
-310 -304 0
-310 -305 0
-310 -306 0
310 293 294 295 296 298 299 300 301 303 304 305 306 0
-311 -293 0
-311 -294 0
-311 -295 0
-311 -296 0
-311 -302 0
-311 -307 0
311 293 294 295 296 302 307 0
-312 -308 0
-312 -309 0
-312 -310 0
-312 -311 0
312 308 309 310 311 0
-313 -9 0
-313 -10 0
-313 -18 0
313 9 10 18 0
-314 9 0
-314 -10 0
-314 18 0
314 -9 10 -18 0
-315 9 0
-315 10 0
-315 -18 0
315 -9 -10 18 0
-316 -9 0
-316 10 0
-316 18 0
316 9 -10 -18 0
-317 -313 0
-317 -314 0
-317 -315 0
-317 -316 0
317 313 314 315 316 0
-318 -11 0
-318 -26 0
-318 -27 0
318 11 26 27 0
-319 11 0
-319 26 0
-319 -27 0
319 -11 -26 27 0
-320 -11 0
-320 26 0
-320 27 0
320 11 -26 -27 0
-321 11 0
-321 -26 0
-321 27 0
321 -11 26 -27 0
-322 -318 0
-322 -319 0
-322 -320 0
-322 -321 0
322 318 319 320 321 0
-323 -28 0
-323 -29 0
-323 -34 0
323 28 29 34 0
-324 28 0
-324 -29 0
-324 34 0
324 -28 29 -34 0
-325 -28 0
-325 29 0
-325 34 0
325 28 -29 -34 0
-326 28 0
-326 29 0
-326 -34 0
326 -28 -29 34 0
-327 -323 0
-327 -324 0
-327 -325 0
-327 -326 0
327 323 324 325 326 0
-328 -317 0
-328 -318 0
-328 -319 0
-328 -320 0
-328 -321 0
-328 -327 0
328 317 318 319 320 321 327 0
-329 -317 0
-329 -322 0
-329 -323 0
-329 -324 0
-329 -325 0
-329 -326 0
329 317 322 323 324 325 326 0
-330 -313 0
-330 -314 0
-330 -315 0
-330 -316 0
-330 -318 0
-330 -319 0
-330 -320 0
-330 -321 0
-330 -323 0
-330 -324 0
-330 -325 0
-330 -326 0
330 313 314 315 316 318 319 320 321 323 324 325 326 0
-331 -313 0
-331 -314 0
-331 -315 0
-331 -316 0
-331 -322 0
-331 -327 0
331 313 314 315 316 322 327 0
-332 -328 0
-332 -329 0
-332 -330 0
-332 -331 0
332 328 329 330 331 0
-333 -44 0
-333 -88 0
-333 -180 0
333 44 88 180 0
-334 44 0
-334 -88 0
-334 180 0
334 -44 88 -180 0
-335 44 0
-335 88 0
-335 -180 0
335 -44 -88 180 0
-336 -44 0
-336 88 0
-336 180 0
336 44 -88 -180 0
-337 -333 0
-337 -334 0
-337 -335 0
-337 -336 0
337 333 334 335 336 0
-338 -8 0
-338 -16 0
-338 -17 0
338 8 16 17 0
-339 8 0
-339 -16 0
-339 17 0
339 -8 16 -17 0
-340 -8 0
-340 16 0
-340 17 0
340 8 -16 -17 0
-341 8 0
-341 16 0
-341 -17 0
341 -8 -16 17 0
-342 -338 0
-342 -339 0
-342 -340 0
-342 -341 0
342 338 339 340 341 0
-343 -19 0
-343 -39 0
-343 -43 0
343 19 39 43 0
-344 19 0
-344 39 0
-344 -43 0
344 -19 -39 43 0
-345 -19 0
-345 39 0
-345 43 0
345 19 -39 -43 0
-346 19 0
-346 -39 0
-346 43 0
346 -19 39 -43 0
-347 -343 0
-347 -344 0
-347 -345 0
-347 -346 0
347 343 344 345 346 0
-348 -337 0
-348 -338 0
-348 -339 0
-348 -340 0
-348 -341 0
-348 -347 0
348 337 338 339 340 341 347 0
-349 -337 0
-349 -342 0
-349 -343 0
-349 -344 0
-349 -345 0
-349 -346 0
349 337 342 343 344 345 346 0
-350 -333 0
-350 -334 0
-350 -335 0
-350 -336 0
-350 -338 0
-350 -339 0
-350 -340 0
-350 -341 0
-350 -343 0
-350 -344 0
-350 -345 0
-350 -346 0
350 333 334 335 336 338 339 340 341 343 344 345 346 0
-351 -333 0
-351 -334 0
-351 -335 0
-351 -336 0
-351 -342 0
-351 -347 0
351 333 334 335 336 342 347 0
-352 -348 0
-352 -349 0
-352 -350 0
-352 -351 0
352 348 349 350 351 0
-404 -15 0
-404 -25 0
-404 -33 0
404 15 25 33 0
-405 15 0
-405 -25 0
-405 33 0
405 -15 25 -33 0
-406 15 0
-406 25 0
-406 -33 0
406 -15 -25 33 0
-407 -15 0
-407 25 0
-407 33 0
407 15 -25 -33 0
-408 -404 0
-408 -405 0
-408 -406 0
-408 -407 0
408 404 405 406 407 0
-409 32 0
-409 -42 0
409 -32 42 0
-410 -32 0
-410 42 0
410 32 -42 0
-411 -409 0
-411 -410 0
411 409 410 0
-412 -47 0
-412 -48 0
-412 -49 0
412 47 48 49 0
-413 -47 0
-413 48 0
-413 49 0
413 47 -48 -49 0
-414 47 0
-414 -48 0
-414 49 0
414 -47 48 -49 0
-415 47 0
-415 48 0
-415 -49 0
415 -47 -48 49 0
-416 -412 0
-416 -413 0
-416 -414 0
-416 -415 0
416 412 413 414 415 0
-417 -408 0
-417 -409 0
-417 -410 0
-417 -416 0
417 408 409 410 416 0
-418 -408 0
-418 -411 0
-418 -412 0
-418 -413 0
-418 -414 0
-418 -415 0
418 408 411 412 413 414 415 0
-419 -404 0
-419 -405 0
-419 -406 0
-419 -407 0
-419 -409 0
-419 -410 0
-419 -412 0
-419 -413 0
-419 -414 0
-419 -415 0
419 404 405 406 407 409 410 412 413 414 415 0
-420 -404 0
-420 -405 0
-420 -406 0
-420 -407 0
-420 -411 0
-420 -416 0
420 404 405 406 407 411 416 0
-421 -417 0
-421 -418 0
-421 -419 0
-421 -420 0
421 417 418 419 420 0
-610 56 0
-610 61 0
610 -56 -61 0
-611 56 0
-611 65 0
611 -56 -65 0
-612 56 0
-612 66 0
612 -56 -66 0
-614 56 0
-614 62 0
614 -56 -62 0
-615 56 0
-615 63 0
615 -56 -63 0
-616 56 0
-616 64 0
616 -56 -64 0
-617 56 0
-617 61 0
-617 62 0
-617 63 0
-617 64 0
617 -56 -61 -62 -63 -64 0
-618 -615 0
-618 -616 0
618 615 616 0
-620 -610 0
-620 -611 0
-620 -612 0
-620 -617 0
-620 -618 0
620 610 611 612 617 618 0
-621 54 0
-621 61 0
621 -54 -61 0
-623 54 0
-623 61 0
-623 62 0
-623 63 0
-623 -215 0
-623 -216 0
-623 -217 0
623 -54 -61 -62 -63 215 216 217 0
-624 -620 0
-624 -623 0
624 620 623 0
-625 -220 0
-625 -616 0
625 220 616 0
-626 -614 0
-626 -621 0
626 614 621 0
-627 -219 0
-627 -615 0
627 219 615 0
-629 -200 0
-629 -220 0
-629 -616 0
-629 -626 0
-629 -627 0
629 200 220 616 626 627 0
-631 -4 0
-631 -219 0
-631 -615 0
-631 -625 0
-631 -626 0
631 4 219 615 625 626 0
-633 -17 0
-633 -625 0
-633 -626 0
-633 -627 0
633 17 625 626 627 0
-635 -42 0
-635 -614 0
-635 -621 0
-635 -625 0
-635 -627 0
635 42 614 621 625 627 0
-638 -23 0
-638 -220 0
-638 -614 0
-638 -616 0
-638 -621 0
-638 -627 0
638 23 220 614 616 621 627 0
-639 -629 0
-639 -631 0
-639 -633 0
-639 -635 0
-639 -638 0
639 629 631 633 635 638 0
-640 -624 0
-640 -639 0
640 624 639 0
-641 -204 0
-641 -614 0
-641 -621 0
-641 -625 0
-641 -627 0
641 204 614 621 625 627 0
-642 -3 0
-642 -220 0
-642 -616 0
-642 -626 0
-642 -627 0
642 3 220 616 626 627 0
-643 -26 0
-643 -219 0
-643 -615 0
-643 -625 0
-643 -626 0
643 26 219 615 625 626 0
-645 -641 0
-645 -642 0
-645 -643 0
645 641 642 643 0
-646 56 0
-646 61 0
-646 -611 0
-646 -612 0
-646 -617 0
-646 -618 0
646 -56 -61 611 612 617 618 0
-652 -201 0
-652 -220 0
-652 -616 0
-652 -626 0
-652 -627 0
652 201 220 616 626 627 0
-653 -16 0
-653 -625 0
-653 -626 0
-653 -627 0
653 16 625 626 627 0
-654 -12 0
-654 -219 0
-654 -615 0
-654 -625 0
-654 -626 0
654 12 219 615 625 626 0
-655 -32 0
-655 -614 0
-655 -621 0
-655 -625 0
-655 -627 0
655 32 614 621 625 627 0
-656 -652 0
-656 -653 0
-656 -654 0
-656 -655 0
656 652 653 654 655 0
-657 -624 0
-657 -656 0
657 624 656 0
-658 -27 0
-658 -219 0
-658 -615 0
-658 -625 0
-658 -626 0
658 27 219 615 625 626 0
-659 -7 0
-659 -220 0
-659 -616 0
-659 -626 0
-659 -627 0
659 7 220 616 626 627 0
-661 -202 0
-661 -614 0
-661 -621 0
-661 -625 0
-661 -627 0
661 202 614 621 625 627 0
-662 -658 0
-662 -659 0
-662 -661 0
662 658 659 661 0
-668 -207 0
-668 -614 0
-668 -621 0
-668 -625 0
-668 -627 0
668 207 614 621 625 627 0
-669 -37 0
-669 -220 0
-669 -616 0
-669 -626 0
-669 -627 0
669 37 220 616 626 627 0
-670 -28 0
-670 -219 0
-670 -615 0
-670 -625 0
-670 -626 0
670 28 219 615 625 626 0
-672 -668 0
-672 -669 0
-672 -670 0
672 668 669 670 0
-674 -48 0
-674 -614 0
-674 -621 0
-674 -625 0
-674 -627 0
674 48 614 621 625 627 0
-675 -19 0
-675 -625 0
-675 -626 0
-675 -627 0
675 19 625 626 627 0
-676 -209 0
-676 -220 0
-676 -616 0
-676 -626 0
-676 -627 0
676 209 220 616 626 627 0
-677 -21 0
-677 -219 0
-677 -615 0
-677 -625 0
-677 -626 0
677 21 219 615 625 626 0
-678 -674 0
-678 -675 0
-678 -676 0
-678 -677 0
678 674 675 676 677 0
-679 -624 0
-679 -678 0
679 624 678 0
-684 -34 0
-684 -219 0
-684 -615 0
-684 -625 0
-684 -626 0
684 34 219 615 625 626 0
-685 -38 0
-685 -220 0
-685 -616 0
-685 -626 0
-685 -627 0
685 38 220 616 626 627 0
-687 -212 0
-687 -614 0
-687 -621 0
-687 -625 0
-687 -627 0
687 212 614 621 625 627 0
-688 -684 0
-688 -685 0
-688 -687 0
688 684 685 687 0
-690 -49 0
-690 -614 0
-690 -621 0
-690 -625 0
-690 -627 0
690 49 614 621 625 627 0
-691 -206 0
-691 -220 0
-691 -616 0
-691 -626 0
-691 -627 0
691 206 220 616 626 627 0
-692 -39 0
-692 -625 0
-692 -626 0
-692 -627 0
692 39 625 626 627 0
-693 -20 0
-693 -219 0
-693 -615 0
-693 -625 0
-693 -626 0
693 20 219 615 625 626 0
-694 -690 0
-694 -691 0
-694 -692 0
-694 -693 0
694 690 691 692 693 0
-695 -624 0
-695 -694 0
695 624 694 0
-700 -30 0
-700 -219 0
-700 -615 0
-700 -625 0
-700 -626 0
700 30 219 615 625 626 0
-701 -5 0
-701 -220 0
-701 -616 0
-701 -626 0
-701 -627 0
701 5 220 616 626 627 0
-702 -43 0
-702 -625 0
-702 -626 0
-702 -627 0
702 43 625 626 627 0
-703 -47 0
-703 -614 0
-703 -621 0
-703 -625 0
-703 -627 0
703 47 614 621 625 627 0
-704 -700 0
-704 -701 0
-704 -702 0
-704 -703 0
704 700 701 702 703 0
-705 -624 0
-705 -704 0
705 624 704 0
-706 -29 0
-706 -219 0
-706 -615 0
-706 -625 0
-706 -626 0
706 29 219 615 625 626 0
-707 -87 0
-707 -220 0
-707 -616 0
-707 -626 0
-707 -627 0
707 87 220 616 626 627 0
-709 -2 0
-709 -614 0
-709 -621 0
-709 -625 0
-709 -627 0
709 2 614 621 625 627 0
-710 -706 0
-710 -707 0
-710 -709 0
710 706 707 709 0
-716 -18 0
-716 -219 0
-716 -615 0
-716 -625 0
-716 -626 0
716 18 219 615 625 626 0
-717 -179 0
-717 -220 0
-717 -616 0
-717 -626 0
-717 -627 0
717 179 220 616 626 627 0
-719 -208 0
-719 -614 0
-719 -621 0
-719 -625 0
-719 -627 0
719 208 614 621 625 627 0
-720 -716 0
-720 -717 0
-720 -719 0
720 716 717 719 0
-722 -1 0
-722 -220 0
-722 -616 0
-722 -626 0
-722 -627 0
722 1 220 616 626 627 0
-723 -33 0
-723 -614 0
-723 -621 0
-723 -625 0
-723 -627 0
723 33 614 621 625 627 0
-724 -14 0
-724 -219 0
-724 -615 0
-724 -625 0
-724 -626 0
724 14 219 615 625 626 0
-725 -180 0
-725 -625 0
-725 -626 0
-725 -627 0
725 180 625 626 627 0
-726 -722 0
-726 -723 0
-726 -724 0
-726 -725 0
726 722 723 724 725 0
-727 -624 0
-727 -726 0
727 624 726 0
-732 -9 0
-732 -219 0
-732 -615 0
-732 -625 0
-732 -626 0
732 9 219 615 625 626 0
-733 -86 0
-733 -220 0
-733 -616 0
-733 -626 0
-733 -627 0
733 86 220 616 626 627 0
-735 -210 0
-735 -614 0
-735 -621 0
-735 -625 0
-735 -627 0
735 210 614 621 625 627 0
-736 -732 0
-736 -733 0
-736 -735 0
736 732 733 735 0
-738 -44 0
-738 -625 0
-738 -626 0
-738 -627 0
738 44 625 626 627 0
-739 -6 0
-739 -220 0
-739 -616 0
-739 -626 0
-739 -627 0
739 6 220 616 626 627 0
-740 -15 0
-740 -614 0
-740 -621 0
-740 -625 0
-740 -627 0
740 15 614 621 625 627 0
-741 -31 0
-741 -219 0
-741 -615 0
-741 -625 0
-741 -626 0
741 31 219 615 625 626 0
-742 -738 0
-742 -739 0
-742 -740 0
-742 -741 0
742 738 739 740 741 0
-743 -624 0
-743 -742 0
743 624 742 0
-748 -88 0
-748 -625 0
-748 -626 0
-748 -627 0
748 88 625 626 627 0
-749 -211 0
-749 -220 0
-749 -616 0
-749 -626 0
-749 -627 0
749 211 220 616 626 627 0
-750 -25 0
-750 -614 0
-750 -621 0
-750 -625 0
-750 -627 0
750 25 614 621 625 627 0
-751 -22 0
-751 -219 0
-751 -615 0
-751 -625 0
-751 -626 0
751 22 219 615 625 626 0
-752 -748 0
-752 -749 0
-752 -750 0
-752 -751 0
752 748 749 750 751 0
-753 -624 0
-753 -752 0
753 624 752 0
-754 -213 0
-754 -614 0
-754 -621 0
-754 -625 0
-754 -627 0
754 213 614 621 625 627 0
-755 -85 0
-755 -220 0
-755 -616 0
-755 -626 0
-755 -627 0
755 85 220 616 626 627 0
-756 -10 0
-756 -219 0
-756 -615 0
-756 -625 0
-756 -626 0
756 10 219 615 625 626 0
-758 -754 0
-758 -755 0
-758 -756 0
758 754 755 756 0
-764 23 0
-764 -220 0
-764 -614 0
-764 -616 0
-764 -621 0
-764 -627 0
764 -23 220 614 616 621 627 0
-765 -219 0
-765 -614 0
-765 -615 0
-765 -621 0
-765 -625 0
765 219 614 615 621 625 0
-767 -13 0
-767 -219 0
-767 -615 0
-767 -625 0
-767 -626 0
767 13 219 615 625 626 0
-768 -203 0
-768 -220 0
-768 -616 0
-768 -626 0
-768 -627 0
768 203 220 616 626 627 0
-769 -8 0
-769 -625 0
-769 -626 0
-769 -627 0
769 8 625 626 627 0
-770 -421 0
-770 -614 0
-770 -621 0
-770 -625 0
-770 -627 0
770 421 614 621 625 627 0
-772 -764 0
-772 -765 0
-772 -767 0
-772 -768 0
-772 -769 0
-772 -770 0
772 764 765 767 768 769 770 0
-773 -624 0
-773 -772 0
773 624 772 0
-774 -208 0
-774 -210 0
-774 -213 0
774 208 210 213 0
-775 208 0
-775 210 0
-775 -213 0
775 -208 -210 213 0
-776 -208 0
-776 210 0
-776 213 0
776 208 -210 -213 0
-777 208 0
-777 -210 0
-777 213 0
777 -208 210 -213 0
-778 -774 0
-778 -775 0
-778 -776 0
-778 -777 0
778 774 775 776 777 0
-779 202 0
-779 -204 0
779 -202 204 0
-780 -202 0
-780 204 0
780 202 -204 0
-781 -779 0
-781 -780 0
781 779 780 0
-782 -2 0
-782 -207 0
-782 -212 0
782 2 207 212 0
-783 -2 0
-783 207 0
-783 212 0
783 2 -207 -212 0
-784 2 0
-784 -207 0
-784 212 0
784 -2 207 -212 0
-785 2 0
-785 207 0
-785 -212 0
785 -2 -207 212 0
-786 -782 0
-786 -783 0
-786 -784 0
-786 -785 0
786 782 783 784 785 0
-787 -778 0
-787 -779 0
-787 -780 0
-787 -786 0
787 778 779 780 786 0
-788 -778 0
-788 -781 0
-788 -782 0
-788 -783 0
-788 -784 0
-788 -785 0
788 778 781 782 783 784 785 0
-789 -774 0
-789 -775 0
-789 -776 0
-789 -777 0
-789 -779 0
-789 -780 0
-789 -782 0
-789 -783 0
-789 -784 0
-789 -785 0
789 774 775 776 777 779 780 782 783 784 785 0
-790 -774 0
-790 -775 0
-790 -776 0
-790 -777 0
-790 -781 0
-790 -786 0
790 774 775 776 777 781 786 0
-791 -787 0
-791 -788 0
-791 -789 0
-791 -790 0
791 787 788 789 790 0
-792 -614 0
-792 -621 0
-792 -625 0
-792 -627 0
-792 -791 0
792 614 621 625 627 791 0
-793 -11 0
-793 -219 0
-793 -615 0
-793 -625 0
-793 -626 0
793 11 219 615 625 626 0
-794 -214 0
-794 -220 0
-794 -616 0
-794 -626 0
-794 -627 0
794 214 220 616 626 627 0
-796 -792 0
-796 -793 0
-796 -794 0
796 792 793 794 0
-802 109 0
-802 124 0
802 -109 -124 0
-803 -109 0
-803 -124 0
803 109 124 0
-805 -127 0
-805 130 0
805 127 -130 0
-806 127 0
-806 -130 0
806 -127 130 0
-808 -802 0
-808 -803 0
-808 -805 0
-808 -806 0
808 802 803 805 806 0
-809 -802 0
-809 -803 0
-809 -808 0
809 802 803 808 0
-810 -805 0
-810 -806 0
-810 -808 0
810 805 806 808 0
-811 -809 0
-811 -810 0
811 809 810 0
-814 205 0
-814 -791 0
814 -205 791 0
-815 -205 0
-815 -787 0
-815 -788 0
-815 -789 0
-815 -790 0
815 205 787 788 789 790 0
-816 -814 0
-816 -815 0
816 814 815 0
-819 -24 0
-819 -417 0
-819 -418 0
-819 -419 0
-819 -420 0
819 24 417 418 419 420 0
-820 24 0
-820 -421 0
820 -24 421 0
-821 -819 0
-821 -820 0
821 819 820 0
-1220 -222 0
-1220 -646 0
1220 222 646 0
-1221 -645 0
-1221 -1220 0
1221 645 1220 0
645 1221 -1223 0
-645 -1221 -1223 0
645 -1221 1223 0
-645 1221 1223 0
-1224 -640 0
-1224 -1223 0
1224 640 1223 0
-1225 -662 0
-1225 -1220 0
1225 662 1220 0
662 1225 -1227 0
-662 -1225 -1227 0
662 -1225 1227 0
-662 1225 1227 0
-1228 -657 0
-1228 -1227 0
1228 657 1227 0
-1229 -672 0
-1229 -1220 0
1229 672 1220 0
672 1229 -1231 0
-672 -1229 -1231 0
672 -1229 1231 0
-672 1229 1231 0
-1232 -679 0
-1232 -1231 0
1232 679 1231 0
-1233 -688 0
-1233 -1220 0
1233 688 1220 0
688 1233 -1235 0
-688 -1233 -1235 0
688 -1233 1235 0
-688 1233 1235 0
-1236 -695 0
-1236 -1235 0
1236 695 1235 0
-1237 -710 0
-1237 -1220 0
1237 710 1220 0
710 1237 -1239 0
-710 -1237 -1239 0
710 -1237 1239 0
-710 1237 1239 0
-1240 -705 0
-1240 -1239 0
1240 705 1239 0
-1241 -720 0
-1241 -1220 0
1241 720 1220 0
720 1241 -1243 0
-720 -1241 -1243 0
720 -1241 1243 0
-720 1241 1243 0
-1244 -727 0
-1244 -1243 0
1244 727 1243 0
-1245 -736 0
-1245 -1220 0
1245 736 1220 0
736 1245 -1247 0
-736 -1245 -1247 0
736 -1245 1247 0
-736 1245 1247 0
-1248 -743 0
-1248 -1247 0
1248 743 1247 0
-1249 -758 0
-1249 -1220 0
1249 758 1220 0
758 1249 -1251 0
-758 -1249 -1251 0
758 -1249 1251 0
-758 1249 1251 0
-1252 -753 0
-1252 -1251 0
1252 753 1251 0
-1253 -796 0
-1253 -1220 0
1253 796 1220 0
796 1253 -1255 0
-796 -1253 -1255 0
796 -1253 1255 0
-796 1253 1255 0
-1256 -773 0
-1256 -1255 0
1256 773 1255 0
-1257 -215 0
-1257 -216 0
-1257 -217 0
-1257 -221 0
-1257 -772 0
1257 215 216 217 221 772 0
772 1257 -1259 0
-772 -1257 -1259 0
772 -1257 1259 0
-772 1257 1259 0
-1260 -811 0
-1260 -1259 0
1260 811 1259 0
-1261 -215 0
-1261 -216 0
-1261 -217 0
-1261 -221 0
-1261 -639 0
1261 215 216 217 221 639 0
639 1261 -1263 0
-639 -1261 -1263 0
639 -1261 1263 0
-639 1261 1263 0
-1264 -816 0
-1264 -1263 0
1264 816 1263 0
-1265 -215 0
-1265 -216 0
-1265 -217 0
-1265 -221 0
-1265 -656 0
1265 215 216 217 221 656 0
656 1265 -1267 0
-656 -1265 -1267 0
656 -1265 1267 0
-656 1265 1267 0
-1268 -821 0
-1268 -1267 0
1268 821 1267 0
-1269 -215 0
-1269 -216 0
-1269 -217 0
-1269 -221 0
-1269 -678 0
1269 215 216 217 221 678 0
678 1269 -1271 0
-678 -1269 -1271 0
678 -1269 1271 0
-678 1269 1271 0
-1272 -332 0
-1272 -1271 0
1272 332 1271 0
-1273 -215 0
-1273 -216 0
-1273 -217 0
-1273 -221 0
-1273 -694 0
1273 215 216 217 221 694 0
694 1273 -1275 0
-694 -1273 -1275 0
694 -1273 1275 0
-694 1273 1275 0
-1276 -292 0
-1276 -1275 0
1276 292 1275 0
-1277 -215 0
-1277 -216 0
-1277 -217 0
-1277 -221 0
-1277 -704 0
1277 215 216 217 221 704 0
704 1277 -1279 0
-704 -1277 -1279 0
704 -1277 1279 0
-704 1277 1279 0
-1280 -312 0
-1280 -1279 0
1280 312 1279 0
-1281 -215 0
-1281 -216 0
-1281 -217 0
-1281 -221 0
-1281 -726 0
1281 215 216 217 221 726 0
726 1281 -1283 0
-726 -1281 -1283 0
726 -1281 1283 0
-726 1281 1283 0
-1284 -242 0
-1284 -1283 0
1284 242 1283 0
-1285 -215 0
-1285 -216 0
-1285 -217 0
-1285 -221 0
-1285 -742 0
1285 215 216 217 221 742 0
742 1285 -1287 0
-742 -1285 -1287 0
742 -1285 1287 0
-742 1285 1287 0
-1288 -352 0
-1288 -1287 0
1288 352 1287 0
-1289 -215 0
-1289 -216 0
-1289 -217 0
-1289 -221 0
-1289 -752 0
1289 215 216 217 221 752 0
752 1289 -1291 0
-752 -1289 -1291 0
752 -1289 1291 0
-752 1289 1291 0
-1292 -272 0
-1292 -1291 0
1292 272 1291 0
-1293 -1224 0
-1293 -1228 0
-1293 -1232 0
-1293 -1236 0
-1293 -1240 0
-1293 -1244 0
-1293 -1248 0
-1293 -1252 0
-1293 -1256 0
-1293 -1260 0
-1293 -1264 0
-1293 -1268 0
-1293 -1272 0
-1293 -1276 0
-1293 -1280 0
-1293 -1284 0
-1293 -1288 0
-1293 -1292 0
1293 1224 1228 1232 1236 1240 1244 1248 1252 1256 1260 1264 1268 1272 1276 1280 1284 1288 1292 0
