p cnf 6671 24818
429 0
425 430 0
-425 -430 0
430 431 0
-430 -431 0
431 432 0
-431 -432 0
432 433 0
-432 -433 0
215 434 0
-215 -434 0
434 435 0
-434 -435 0
435 436 0
-435 -436 0
436 437 0
-436 -437 0
220 438 0
-220 -438 0
438 439 0
-438 -439 0
439 440 0
-439 -440 0
440 441 0
-440 -441 0
433 437 441 442 0
433 437 -441 -442 0
433 -437 441 -442 0
433 -437 -441 -442 0
-433 437 441 -442 0
-433 437 -441 -442 0
-433 -437 441 -442 0
-433 -437 -441 -442 0
215 443 0
-215 -443 0
443 444 0
-443 -444 0
444 445 0
-444 -445 0
220 446 0
-220 -446 0
446 447 0
-446 -447 0
447 448 0
-447 -448 0
433 445 448 449 0
433 445 -448 -449 0
433 -445 448 -449 0
433 -445 -448 -449 0
-433 445 448 -449 0
-433 445 -448 -449 0
-433 -445 448 -449 0
-433 -445 -448 -449 0
425 450 0
-425 -450 0
450 451 0
-450 -451 0
451 452 0
-451 -452 0
452 437 448 453 0
452 437 -448 -453 0
452 -437 448 -453 0
452 -437 -448 -453 0
-452 437 448 -453 0
-452 437 -448 -453 0
-452 -437 448 -453 0
-452 -437 -448 -453 0
452 445 441 454 0
452 445 -441 -454 0
452 -445 441 -454 0
452 -445 -441 -454 0
-452 445 441 -454 0
-452 445 -441 -454 0
-452 -445 441 -454 0
-452 -445 -441 -454 0
442 449 453 454 -455 0
442 449 453 -454 455 0
442 449 -453 454 455 0
442 449 -453 -454 455 0
442 -449 453 454 455 0
442 -449 453 -454 455 0
442 -449 -453 454 455 0
442 -449 -453 -454 455 0
-442 449 453 454 455 0
-442 449 453 -454 455 0
-442 449 -453 454 455 0
-442 449 -453 -454 455 0
-442 -449 453 454 455 0
-442 -449 453 -454 455 0
-442 -449 -453 454 455 0
-442 -449 -453 -454 455 0
455 456 0
-455 -456 0
456 457 0
-456 -457 0
457 458 0
-457 -458 0
415 459 0
-415 -459 0
459 460 0
-459 -460 0
460 461 0
-460 -461 0
461 462 0
-461 -462 0
417 463 0
-417 -463 0
463 464 0
-463 -464 0
464 465 0
-464 -465 0
465 466 0
-465 -466 0
414 467 0
-414 -467 0
467 468 0
-467 -468 0
468 469 0
-468 -469 0
469 470 0
-469 -470 0
462 466 470 471 0
462 466 -470 -471 0
462 -466 470 -471 0
462 -466 -470 -471 0
-462 466 470 -471 0
-462 466 -470 -471 0
-462 -466 470 -471 0
-462 -466 -470 -471 0
417 472 0
-417 -472 0
472 473 0
-472 -473 0
473 474 0
-473 -474 0
414 475 0
-414 -475 0
475 476 0
-475 -476 0
476 477 0
-476 -477 0
462 474 477 478 0
462 474 -477 -478 0
462 -474 477 -478 0
462 -474 -477 -478 0
-462 474 477 -478 0
-462 474 -477 -478 0
-462 -474 477 -478 0
-462 -474 -477 -478 0
415 479 0
-415 -479 0
479 480 0
-479 -480 0
480 481 0
-480 -481 0
481 466 477 482 0
481 466 -477 -482 0
481 -466 477 -482 0
481 -466 -477 -482 0
-481 466 477 -482 0
-481 466 -477 -482 0
-481 -466 477 -482 0
-481 -466 -477 -482 0
481 474 470 483 0
481 474 -470 -483 0
481 -474 470 -483 0
481 -474 -470 -483 0
-481 474 470 -483 0
-481 474 -470 -483 0
-481 -474 470 -483 0
-481 -474 -470 -483 0
471 478 482 483 -484 0
471 478 482 -483 484 0
471 478 -482 483 484 0
471 478 -482 -483 484 0
471 -478 482 483 484 0
471 -478 482 -483 484 0
471 -478 -482 483 484 0
471 -478 -482 -483 484 0
-471 478 482 483 484 0
-471 478 482 -483 484 0
-471 478 -482 483 484 0
-471 478 -482 -483 484 0
-471 -478 482 483 484 0
-471 -478 482 -483 484 0
-471 -478 -482 483 484 0
-471 -478 -482 -483 484 0
484 485 0
-484 -485 0
485 486 0
-485 -486 0
219 487 0
-219 -487 0
487 488 0
-487 -488 0
488 489 0
-488 -489 0
489 490 0
-489 -490 0
423 491 0
-423 -491 0
491 492 0
-491 -492 0
492 493 0
-492 -493 0
493 494 0
-493 -494 0
420 495 0
-420 -495 0
495 496 0
-495 -496 0
496 497 0
-496 -497 0
497 498 0
-497 -498 0
490 494 498 499 0
490 494 -498 -499 0
490 -494 498 -499 0
490 -494 -498 -499 0
-490 494 498 -499 0
-490 494 -498 -499 0
-490 -494 498 -499 0
-490 -494 -498 -499 0
423 500 0
-423 -500 0
500 501 0
-500 -501 0
501 502 0
-501 -502 0
420 503 0
-420 -503 0
503 504 0
-503 -504 0
504 505 0
-504 -505 0
490 502 505 506 0
490 502 -505 -506 0
490 -502 505 -506 0
490 -502 -505 -506 0
-490 502 505 -506 0
-490 502 -505 -506 0
-490 -502 505 -506 0
-490 -502 -505 -506 0
219 507 0
-219 -507 0
507 508 0
-507 -508 0
508 509 0
-508 -509 0
509 494 505 510 0
509 494 -505 -510 0
509 -494 505 -510 0
509 -494 -505 -510 0
-509 494 505 -510 0
-509 494 -505 -510 0
-509 -494 505 -510 0
-509 -494 -505 -510 0
509 502 498 511 0
509 502 -498 -511 0
509 -502 498 -511 0
509 -502 -498 -511 0
-509 502 498 -511 0
-509 502 -498 -511 0
-509 -502 498 -511 0
-509 -502 -498 -511 0
499 506 510 511 -512 0
499 506 510 -511 512 0
499 506 -510 511 512 0
499 506 -510 -511 512 0
499 -506 510 511 512 0
499 -506 510 -511 512 0
499 -506 -510 511 512 0
499 -506 -510 -511 512 0
-499 506 510 511 512 0
-499 506 510 -511 512 0
-499 506 -510 511 512 0
-499 506 -510 -511 512 0
-499 -506 510 511 512 0
-499 -506 510 -511 512 0
-499 -506 -510 511 512 0
-499 -506 -510 -511 512 0
512 513 0
-512 -513 0
513 514 0
-513 -514 0
514 515 0
-514 -515 0
458 486 515 516 0
458 486 -515 -516 0
458 -486 515 -516 0
458 -486 -515 -516 0
-458 486 515 -516 0
-458 486 -515 -516 0
-458 -486 515 -516 0
-458 -486 -515 -516 0
484 517 0
-484 -517 0
517 518 0
-517 -518 0
518 519 0
-518 -519 0
512 520 0
-512 -520 0
520 521 0
-520 -521 0
458 519 521 522 0
458 519 -521 -522 0
458 -519 521 -522 0
458 -519 -521 -522 0
-458 519 521 -522 0
-458 519 -521 -522 0
-458 -519 521 -522 0
-458 -519 -521 -522 0
455 523 0
-455 -523 0
523 524 0
-523 -524 0
524 486 521 525 0
524 486 -521 -525 0
524 -486 521 -525 0
524 -486 -521 -525 0
-524 486 521 -525 0
-524 486 -521 -525 0
-524 -486 521 -525 0
-524 -486 -521 -525 0
524 519 515 526 0
524 519 -515 -526 0
524 -519 515 -526 0
524 -519 -515 -526 0
-524 519 515 -526 0
-524 519 -515 -526 0
-524 -519 515 -526 0
-524 -519 -515 -526 0
516 522 525 526 -527 0
516 522 525 -526 527 0
516 522 -525 526 527 0
516 522 -525 -526 527 0
516 -522 525 526 527 0
516 -522 525 -526 527 0
516 -522 -525 526 527 0
516 -522 -525 -526 527 0
-516 522 525 526 527 0
-516 522 525 -526 527 0
-516 522 -525 526 527 0
-516 522 -525 -526 527 0
-516 -522 525 526 527 0
-516 -522 525 -526 527 0
-516 -522 -525 526 527 0
-516 -522 -525 -526 527 0
425 528 0
-425 -528 0
528 529 0
-528 -529 0
529 530 0
-529 -530 0
530 531 0
-530 -531 0
215 532 0
-215 -532 0
532 533 0
-532 -533 0
533 534 0
-533 -534 0
534 535 0
-534 -535 0
220 536 0
-220 -536 0
536 537 0
-536 -537 0
537 538 0
-537 -538 0
538 539 0
-538 -539 0
531 535 539 540 0
531 535 -539 -540 0
531 -535 539 -540 0
531 -535 -539 -540 0
-531 535 539 -540 0
-531 535 -539 -540 0
-531 -535 539 -540 0
-531 -535 -539 -540 0
215 541 0
-215 -541 0
541 542 0
-541 -542 0
542 543 0
-542 -543 0
220 544 0
-220 -544 0
544 545 0
-544 -545 0
545 546 0
-545 -546 0
531 543 546 547 0
531 543 -546 -547 0
531 -543 546 -547 0
531 -543 -546 -547 0
-531 543 546 -547 0
-531 543 -546 -547 0
-531 -543 546 -547 0
-531 -543 -546 -547 0
425 548 0
-425 -548 0
548 549 0
-548 -549 0
549 550 0
-549 -550 0
550 535 546 551 0
550 535 -546 -551 0
550 -535 546 -551 0
550 -535 -546 -551 0
-550 535 546 -551 0
-550 535 -546 -551 0
-550 -535 546 -551 0
-550 -535 -546 -551 0
550 543 539 552 0
550 543 -539 -552 0
550 -543 539 -552 0
550 -543 -539 -552 0
-550 543 539 -552 0
-550 543 -539 -552 0
-550 -543 539 -552 0
-550 -543 -539 -552 0
540 547 551 552 -553 0
540 547 551 -552 553 0
540 547 -551 552 553 0
540 547 -551 -552 553 0
540 -547 551 552 553 0
540 -547 551 -552 553 0
540 -547 -551 552 553 0
540 -547 -551 -552 553 0
-540 547 551 552 553 0
-540 547 551 -552 553 0
-540 547 -551 552 553 0
-540 547 -551 -552 553 0
-540 -547 551 552 553 0
-540 -547 551 -552 553 0
-540 -547 -551 552 553 0
-540 -547 -551 -552 553 0
553 554 0
-553 -554 0
554 555 0
-554 -555 0
555 556 0
-555 -556 0
415 557 0
-415 -557 0
557 558 0
-557 -558 0
558 559 0
-558 -559 0
559 560 0
-559 -560 0
417 561 0
-417 -561 0
561 562 0
-561 -562 0
562 563 0
-562 -563 0
563 564 0
-563 -564 0
414 565 0
-414 -565 0
565 566 0
-565 -566 0
566 567 0
-566 -567 0
567 568 0
-567 -568 0
560 564 568 569 0
560 564 -568 -569 0
560 -564 568 -569 0
560 -564 -568 -569 0
-560 564 568 -569 0
-560 564 -568 -569 0
-560 -564 568 -569 0
-560 -564 -568 -569 0
417 570 0
-417 -570 0
570 571 0
-570 -571 0
571 572 0
-571 -572 0
414 573 0
-414 -573 0
573 574 0
-573 -574 0
574 575 0
-574 -575 0
560 572 575 576 0
560 572 -575 -576 0
560 -572 575 -576 0
560 -572 -575 -576 0
-560 572 575 -576 0
-560 572 -575 -576 0
-560 -572 575 -576 0
-560 -572 -575 -576 0
415 577 0
-415 -577 0
577 578 0
-577 -578 0
578 579 0
-578 -579 0
579 564 575 580 0
579 564 -575 -580 0
579 -564 575 -580 0
579 -564 -575 -580 0
-579 564 575 -580 0
-579 564 -575 -580 0
-579 -564 575 -580 0
-579 -564 -575 -580 0
579 572 568 581 0
579 572 -568 -581 0
579 -572 568 -581 0
579 -572 -568 -581 0
-579 572 568 -581 0
-579 572 -568 -581 0
-579 -572 568 -581 0
-579 -572 -568 -581 0
569 576 580 581 -582 0
569 576 580 -581 582 0
569 576 -580 581 582 0
569 576 -580 -581 582 0
569 -576 580 581 582 0
569 -576 580 -581 582 0
569 -576 -580 581 582 0
569 -576 -580 -581 582 0
-569 576 580 581 582 0
-569 576 580 -581 582 0
-569 576 -580 581 582 0
-569 576 -580 -581 582 0
-569 -576 580 581 582 0
-569 -576 580 -581 582 0
-569 -576 -580 581 582 0
-569 -576 -580 -581 582 0
582 583 0
-582 -583 0
583 584 0
-583 -584 0
219 585 0
-219 -585 0
585 586 0
-585 -586 0
586 587 0
-586 -587 0
587 588 0
-587 -588 0
423 589 0
-423 -589 0
589 590 0
-589 -590 0
590 591 0
-590 -591 0
591 592 0
-591 -592 0
420 593 0
-420 -593 0
593 594 0
-593 -594 0
594 595 0
-594 -595 0
595 596 0
-595 -596 0
588 592 596 597 0
588 592 -596 -597 0
588 -592 596 -597 0
588 -592 -596 -597 0
-588 592 596 -597 0
-588 592 -596 -597 0
-588 -592 596 -597 0
-588 -592 -596 -597 0
423 598 0
-423 -598 0
598 599 0
-598 -599 0
599 600 0
-599 -600 0
420 601 0
-420 -601 0
601 602 0
-601 -602 0
602 603 0
-602 -603 0
588 600 603 604 0
588 600 -603 -604 0
588 -600 603 -604 0
588 -600 -603 -604 0
-588 600 603 -604 0
-588 600 -603 -604 0
-588 -600 603 -604 0
-588 -600 -603 -604 0
219 605 0
-219 -605 0
605 606 0
-605 -606 0
606 607 0
-606 -607 0
607 592 603 608 0
607 592 -603 -608 0
607 -592 603 -608 0
607 -592 -603 -608 0
-607 592 603 -608 0
-607 592 -603 -608 0
-607 -592 603 -608 0
-607 -592 -603 -608 0
607 600 596 609 0
607 600 -596 -609 0
607 -600 596 -609 0
607 -600 -596 -609 0
-607 600 596 -609 0
-607 600 -596 -609 0
-607 -600 596 -609 0
-607 -600 -596 -609 0
597 604 608 609 -610 0
597 604 608 -609 610 0
597 604 -608 609 610 0
597 604 -608 -609 610 0
597 -604 608 609 610 0
597 -604 608 -609 610 0
597 -604 -608 609 610 0
597 -604 -608 -609 610 0
-597 604 608 609 610 0
-597 604 608 -609 610 0
-597 604 -608 609 610 0
-597 604 -608 -609 610 0
-597 -604 608 609 610 0
-597 -604 608 -609 610 0
-597 -604 -608 609 610 0
-597 -604 -608 -609 610 0
610 611 0
-610 -611 0
611 612 0
-611 -612 0
612 613 0
-612 -613 0
556 584 613 614 0
556 584 -613 -614 0
556 -584 613 -614 0
556 -584 -613 -614 0
-556 584 613 -614 0
-556 584 -613 -614 0
-556 -584 613 -614 0
-556 -584 -613 -614 0
582 615 0
-582 -615 0
615 616 0
-615 -616 0
616 617 0
-616 -617 0
610 618 0
-610 -618 0
618 619 0
-618 -619 0
556 617 619 620 0
556 617 -619 -620 0
556 -617 619 -620 0
556 -617 -619 -620 0
-556 617 619 -620 0
-556 617 -619 -620 0
-556 -617 619 -620 0
-556 -617 -619 -620 0
553 621 0
-553 -621 0
621 622 0
-621 -622 0
622 584 619 623 0
622 584 -619 -623 0
622 -584 619 -623 0
622 -584 -619 -623 0
-622 584 619 -623 0
-622 584 -619 -623 0
-622 -584 619 -623 0
-622 -584 -619 -623 0
622 617 613 624 0
622 617 -613 -624 0
622 -617 613 -624 0
622 -617 -613 -624 0
-622 617 613 -624 0
-622 617 -613 -624 0
-622 -617 613 -624 0
-622 -617 -613 -624 0
614 620 623 624 -625 0
614 620 623 -624 625 0
614 620 -623 624 625 0
614 620 -623 -624 625 0
614 -620 623 624 625 0
614 -620 623 -624 625 0
614 -620 -623 624 625 0
614 -620 -623 -624 625 0
-614 620 623 624 625 0
-614 620 623 -624 625 0
-614 620 -623 624 625 0
-614 620 -623 -624 625 0
-614 -620 623 624 625 0
-614 -620 623 -624 625 0
-614 -620 -623 624 625 0
-614 -620 -623 -624 625 0
527 625 -626 0
527 -625 626 0
-527 625 626 0
-527 -625 -626 0
218 627 0
-218 -627 0
218 628 0
-218 -628 0
627 628 -629 0
627 -628 629 0
-627 628 629 0
-627 -628 -629 0
223 630 0
-223 -630 0
223 631 0
-223 -631 0
630 631 -632 0
630 -631 632 0
-630 631 632 0
-630 -631 -632 0
224 633 0
-224 -633 0
224 634 0
-224 -634 0
633 634 -635 0
633 -634 635 0
-633 634 635 0
-633 -634 -635 0
225 636 0
-225 -636 0
225 637 0
-225 -637 0
636 637 -638 0
636 -637 638 0
-636 637 638 0
-636 -637 -638 0
275 639 0
-275 -639 0
639 640 0
-639 -640 0
640 641 0
-640 -641 0
641 642 0
-641 -642 0
276 643 0
-276 -643 0
643 644 0
-643 -644 0
644 645 0
-644 -645 0
642 645 646 0
642 -645 -646 0
-642 645 -646 0
-642 -645 -646 0
646 647 0
-646 -647 0
378 648 0
-378 -648 0
648 649 0
-648 -649 0
649 650 0
-649 -650 0
279 651 0
-279 -651 0
651 652 0
-651 -652 0
652 653 0
-652 -653 0
653 654 0
-653 -654 0
280 655 0
-280 -655 0
655 656 0
-655 -656 0
656 657 0
-656 -657 0
657 658 0
-657 -658 0
270 659 0
-270 -659 0
659 660 0
-659 -660 0
660 661 0
-660 -661 0
661 662 0
-661 -662 0
662 663 0
-662 -663 0
650 654 658 663 664 0
650 654 658 -663 -664 0
650 654 -658 663 -664 0
650 654 -658 -663 -664 0
650 -654 658 663 -664 0
650 -654 658 -663 -664 0
650 -654 -658 663 -664 0
650 -654 -658 -663 -664 0
-650 654 658 663 -664 0
-650 654 658 -663 -664 0
-650 654 -658 663 -664 0
-650 654 -658 -663 -664 0
-650 -654 658 663 -664 0
-650 -654 658 -663 -664 0
-650 -654 -658 663 -664 0
-650 -654 -658 -663 -664 0
664 665 0
-664 -665 0
278 666 0
-278 -666 0
666 667 0
-666 -667 0
667 668 0
-667 -668 0
277 669 0
-277 -669 0
669 670 0
-669 -670 0
670 671 0
-670 -671 0
668 671 672 0
668 -671 -672 0
-668 671 -672 0
-668 -671 -672 0
672 673 0
-672 -673 0
647 665 673 674 0
647 665 -673 -674 0
647 -665 673 -674 0
647 -665 -673 -674 0
-647 665 673 -674 0
-647 665 -673 -674 0
-647 -665 673 -674 0
-647 -665 -673 -674 0
674 675 0
-674 -675 0
272 271 -676 0
272 -271 676 0
-272 271 676 0
-272 -271 676 0
676 677 0
-676 -677 0
677 678 0
-677 -678 0
678 679 0
-678 -679 0
675 679 680 0
675 -679 -680 0
-675 679 -680 0
-675 -679 -680 0
269 681 0
-269 -681 0
681 682 0
-681 -682 0
682 683 0
-682 -683 0
683 684 0
-683 -684 0
684 685 0
-684 -685 0
268 686 0
-268 -686 0
686 687 0
-686 -687 0
687 688 0
-687 -688 0
688 689 0
-688 -689 0
689 690 0
-689 -690 0
648 691 0
-648 -691 0
691 692 0
-691 -692 0
667 693 0
-667 -693 0
693 694 0
-693 -694 0
694 658 654 -695 0
694 658 -654 695 0
694 -658 654 695 0
694 -658 -654 695 0
-694 658 654 695 0
-694 658 -654 695 0
-694 -658 654 695 0
-694 -658 -654 695 0
690 692 695 -696 0
690 692 -695 696 0
690 -692 695 696 0
690 -692 -695 696 0
-690 692 695 696 0
-690 692 -695 696 0
-690 -692 695 696 0
-690 -692 -695 696 0
696 697 0
-696 -697 0
697 698 0
-697 -698 0
698 645 699 0
698 -645 -699 0
-698 645 -699 0
-698 -645 -699 0
699 700 0
-699 -700 0
698 671 701 0
698 -671 -701 0
-698 671 -701 0
-698 -671 -701 0
701 702 0
-701 -702 0
640 703 0
-640 -703 0
698 703 704 0
698 -703 -704 0
-698 703 -704 0
-698 -703 -704 0
704 705 0
-704 -705 0
700 702 705 706 0
700 702 -705 -706 0
700 -702 705 -706 0
700 -702 -705 -706 0
-700 702 705 -706 0
-700 702 -705 -706 0
-700 -702 705 -706 0
-700 -702 -705 -706 0
706 707 0
-706 -707 0
685 707 708 0
685 -707 -708 0
-685 707 -708 0
-685 -707 -708 0
680 708 709 0
680 -708 -709 0
-680 708 -709 0
-680 -708 -709 0
709 710 0
-709 -710 0
275 711 0
-275 -711 0
711 712 0
-711 -712 0
712 713 0
-712 -713 0
713 714 0
-713 -714 0
276 715 0
-276 -715 0
715 716 0
-715 -716 0
716 717 0
-716 -717 0
714 717 718 0
714 -717 -718 0
-714 717 -718 0
-714 -717 -718 0
718 719 0
-718 -719 0
378 720 0
-378 -720 0
720 721 0
-720 -721 0
721 722 0
-721 -722 0
279 723 0
-279 -723 0
723 724 0
-723 -724 0
724 725 0
-724 -725 0
725 726 0
-725 -726 0
280 727 0
-280 -727 0
727 728 0
-727 -728 0
728 729 0
-728 -729 0
729 730 0
-729 -730 0
270 731 0
-270 -731 0
731 732 0
-731 -732 0
732 733 0
-732 -733 0
733 734 0
-733 -734 0
734 735 0
-734 -735 0
722 726 730 735 736 0
722 726 730 -735 -736 0
722 726 -730 735 -736 0
722 726 -730 -735 -736 0
722 -726 730 735 -736 0
722 -726 730 -735 -736 0
722 -726 -730 735 -736 0
722 -726 -730 -735 -736 0
-722 726 730 735 -736 0
-722 726 730 -735 -736 0
-722 726 -730 735 -736 0
-722 726 -730 -735 -736 0
-722 -726 730 735 -736 0
-722 -726 730 -735 -736 0
-722 -726 -730 735 -736 0
-722 -726 -730 -735 -736 0
736 737 0
-736 -737 0
278 738 0
-278 -738 0
738 739 0
-738 -739 0
739 740 0
-739 -740 0
277 741 0
-277 -741 0
741 742 0
-741 -742 0
742 743 0
-742 -743 0
740 743 744 0
740 -743 -744 0
-740 743 -744 0
-740 -743 -744 0
744 745 0
-744 -745 0
719 737 745 746 0
719 737 -745 -746 0
719 -737 745 -746 0
719 -737 -745 -746 0
-719 737 745 -746 0
-719 737 -745 -746 0
-719 -737 745 -746 0
-719 -737 -745 -746 0
746 747 0
-746 -747 0
272 271 -748 0
272 -271 748 0
-272 271 748 0
-272 -271 748 0
748 749 0
-748 -749 0
749 750 0
-749 -750 0
750 751 0
-750 -751 0
747 751 752 0
747 -751 -752 0
-747 751 -752 0
-747 -751 -752 0
269 753 0
-269 -753 0
753 754 0
-753 -754 0
754 755 0
-754 -755 0
755 756 0
-755 -756 0
756 757 0
-756 -757 0
268 758 0
-268 -758 0
758 759 0
-758 -759 0
759 760 0
-759 -760 0
760 761 0
-760 -761 0
761 762 0
-761 -762 0
720 763 0
-720 -763 0
763 764 0
-763 -764 0
739 765 0
-739 -765 0
765 766 0
-765 -766 0
766 730 726 -767 0
766 730 -726 767 0
766 -730 726 767 0
766 -730 -726 767 0
-766 730 726 767 0
-766 730 -726 767 0
-766 -730 726 767 0
-766 -730 -726 767 0
762 764 767 -768 0
762 764 -767 768 0
762 -764 767 768 0
762 -764 -767 768 0
-762 764 767 768 0
-762 764 -767 768 0
-762 -764 767 768 0
-762 -764 -767 768 0
768 769 0
-768 -769 0
769 770 0
-769 -770 0
770 717 771 0
770 -717 -771 0
-770 717 -771 0
-770 -717 -771 0
771 772 0
-771 -772 0
770 743 773 0
770 -743 -773 0
-770 743 -773 0
-770 -743 -773 0
773 774 0
-773 -774 0
712 775 0
-712 -775 0
770 775 776 0
770 -775 -776 0
-770 775 -776 0
-770 -775 -776 0
776 777 0
-776 -777 0
772 774 777 778 0
772 774 -777 -778 0
772 -774 777 -778 0
772 -774 -777 -778 0
-772 774 777 -778 0
-772 774 -777 -778 0
-772 -774 777 -778 0
-772 -774 -777 -778 0
778 779 0
-778 -779 0
757 779 780 0
757 -779 -780 0
-757 779 -780 0
-757 -779 -780 0
752 780 781 0
752 -780 -781 0
-752 780 -781 0
-752 -780 -781 0
781 782 0
-781 -782 0
710 782 -783 0
710 -782 783 0
-710 782 783 0
-710 -782 -783 0
226 784 0
-226 -784 0
226 785 0
-226 -785 0
784 785 -786 0
784 -785 786 0
-784 785 786 0
-784 -785 -786 0
227 787 0
-227 -787 0
227 788 0
-227 -788 0
787 788 -789 0
787 -788 789 0
-787 788 789 0
-787 -788 -789 0
656 790 0
-656 -790 0
790 791 0
-790 -791 0
791 792 0
-791 -792 0
668 793 0
-668 -793 0
793 794 0
-793 -794 0
652 795 0
-652 -795 0
795 796 0
-795 -796 0
796 797 0
-796 -797 0
792 794 797 798 0
792 794 -797 -798 0
792 -794 797 -798 0
792 -794 -797 -798 0
-792 794 797 -798 0
-792 794 -797 -798 0
-792 -794 797 -798 0
-792 -794 -797 -798 0
694 799 0
-694 -799 0
799 800 0
-799 -800 0
654 801 0
-654 -801 0
801 802 0
-801 -802 0
792 800 802 803 0
792 800 -802 -803 0
792 -800 802 -803 0
792 -800 -802 -803 0
-792 800 802 -803 0
-792 800 -802 -803 0
-792 -800 802 -803 0
-792 -800 -802 -803 0
658 804 0
-658 -804 0
804 805 0
-804 -805 0
805 794 802 806 0
805 794 -802 -806 0
805 -794 802 -806 0
805 -794 -802 -806 0
-805 794 802 -806 0
-805 794 -802 -806 0
-805 -794 802 -806 0
-805 -794 -802 -806 0
805 800 797 807 0
805 800 -797 -807 0
805 -800 797 -807 0
805 -800 -797 -807 0
-805 800 797 -807 0
-805 800 -797 -807 0
-805 -800 797 -807 0
-805 -800 -797 -807 0
798 803 806 807 -808 0
798 803 806 -807 808 0
798 803 -806 807 808 0
798 803 -806 -807 808 0
798 -803 806 807 808 0
798 -803 806 -807 808 0
798 -803 -806 807 808 0
798 -803 -806 -807 808 0
-798 803 806 807 808 0
-798 803 806 -807 808 0
-798 803 -806 807 808 0
-798 803 -806 -807 808 0
-798 -803 806 807 808 0
-798 -803 806 -807 808 0
-798 -803 -806 807 808 0
-798 -803 -806 -807 808 0
808 809 0
-808 -809 0
809 810 0
-809 -810 0
810 811 0
-810 -811 0
274 812 0
-274 -812 0
812 813 0
-812 -813 0
813 814 0
-813 -814 0
642 814 815 0
642 -814 -815 0
-642 814 -815 0
-642 -814 -815 0
813 816 0
-813 -816 0
816 817 0
-816 -817 0
703 817 818 0
703 -817 -818 0
-703 817 -818 0
-703 -817 -818 0
815 818 -819 0
815 -818 819 0
-815 818 819 0
-815 -818 819 0
819 820 0
-819 -820 0
820 821 0
-820 -821 0
644 822 0
-644 -822 0
822 823 0
-822 -823 0
823 671 824 0
823 -671 -824 0
-823 671 -824 0
-823 -671 -824 0
670 825 0
-670 -825 0
825 826 0
-825 -826 0
645 826 827 0
645 -826 -827 0
-645 826 -827 0
-645 -826 -827 0
824 827 -828 0
824 -827 828 0
-824 827 828 0
-824 -827 828 0
828 829 0
-828 -829 0
829 830 0
-829 -830 0
830 831 0
-830 -831 0
811 821 831 832 0
811 821 -831 -832 0
811 -821 831 -832 0
811 -821 -831 -832 0
-811 821 831 -832 0
-811 821 -831 -832 0
-811 -821 831 -832 0
-811 -821 -831 -832 0
819 833 0
-819 -833 0
833 834 0
-833 -834 0
834 835 0
-834 -835 0
828 836 0
-828 -836 0
836 837 0
-836 -837 0
811 835 837 838 0
811 835 -837 -838 0
811 -835 837 -838 0
811 -835 -837 -838 0
-811 835 837 -838 0
-811 835 -837 -838 0
-811 -835 837 -838 0
-811 -835 -837 -838 0
808 839 0
-808 -839 0
839 840 0
-839 -840 0
840 821 837 841 0
840 821 -837 -841 0
840 -821 837 -841 0
840 -821 -837 -841 0
-840 821 837 -841 0
-840 821 -837 -841 0
-840 -821 837 -841 0
-840 -821 -837 -841 0
840 835 831 842 0
840 835 -831 -842 0
840 -835 831 -842 0
840 -835 -831 -842 0
-840 835 831 -842 0
-840 835 -831 -842 0
-840 -835 831 -842 0
-840 -835 -831 -842 0
832 838 841 842 -843 0
832 838 841 -842 843 0
832 838 -841 842 843 0
832 838 -841 -842 843 0
832 -838 841 842 843 0
832 -838 841 -842 843 0
832 -838 -841 842 843 0
832 -838 -841 -842 843 0
-832 838 841 842 843 0
-832 838 841 -842 843 0
-832 838 -841 842 843 0
-832 838 -841 -842 843 0
-832 -838 841 842 843 0
-832 -838 841 -842 843 0
-832 -838 -841 842 843 0
-832 -838 -841 -842 843 0
728 844 0
-728 -844 0
844 845 0
-844 -845 0
845 846 0
-845 -846 0
740 847 0
-740 -847 0
847 848 0
-847 -848 0
724 849 0
-724 -849 0
849 850 0
-849 -850 0
850 851 0
-850 -851 0
846 848 851 852 0
846 848 -851 -852 0
846 -848 851 -852 0
846 -848 -851 -852 0
-846 848 851 -852 0
-846 848 -851 -852 0
-846 -848 851 -852 0
-846 -848 -851 -852 0
766 853 0
-766 -853 0
853 854 0
-853 -854 0
726 855 0
-726 -855 0
855 856 0
-855 -856 0
846 854 856 857 0
846 854 -856 -857 0
846 -854 856 -857 0
846 -854 -856 -857 0
-846 854 856 -857 0
-846 854 -856 -857 0
-846 -854 856 -857 0
-846 -854 -856 -857 0
730 858 0
-730 -858 0
858 859 0
-858 -859 0
859 848 856 860 0
859 848 -856 -860 0
859 -848 856 -860 0
859 -848 -856 -860 0
-859 848 856 -860 0
-859 848 -856 -860 0
-859 -848 856 -860 0
-859 -848 -856 -860 0
859 854 851 861 0
859 854 -851 -861 0
859 -854 851 -861 0
859 -854 -851 -861 0
-859 854 851 -861 0
-859 854 -851 -861 0
-859 -854 851 -861 0
-859 -854 -851 -861 0
852 857 860 861 -862 0
852 857 860 -861 862 0
852 857 -860 861 862 0
852 857 -860 -861 862 0
852 -857 860 861 862 0
852 -857 860 -861 862 0
852 -857 -860 861 862 0
852 -857 -860 -861 862 0
-852 857 860 861 862 0
-852 857 860 -861 862 0
-852 857 -860 861 862 0
-852 857 -860 -861 862 0
-852 -857 860 861 862 0
-852 -857 860 -861 862 0
-852 -857 -860 861 862 0
-852 -857 -860 -861 862 0
862 863 0
-862 -863 0
863 864 0
-863 -864 0
864 865 0
-864 -865 0
274 866 0
-274 -866 0
866 867 0
-866 -867 0
867 868 0
-867 -868 0
714 868 869 0
714 -868 -869 0
-714 868 -869 0
-714 -868 -869 0
867 870 0
-867 -870 0
870 871 0
-870 -871 0
775 871 872 0
775 -871 -872 0
-775 871 -872 0
-775 -871 -872 0
869 872 -873 0
869 -872 873 0
-869 872 873 0
-869 -872 873 0
873 874 0
-873 -874 0
874 875 0
-874 -875 0
716 876 0
-716 -876 0
876 877 0
-876 -877 0
877 743 878 0
877 -743 -878 0
-877 743 -878 0
-877 -743 -878 0
742 879 0
-742 -879 0
879 880 0
-879 -880 0
717 880 881 0
717 -880 -881 0
-717 880 -881 0
-717 -880 -881 0
878 881 -882 0
878 -881 882 0
-878 881 882 0
-878 -881 882 0
882 883 0
-882 -883 0
883 884 0
-883 -884 0
884 885 0
-884 -885 0
865 875 885 886 0
865 875 -885 -886 0
865 -875 885 -886 0
865 -875 -885 -886 0
-865 875 885 -886 0
-865 875 -885 -886 0
-865 -875 885 -886 0
-865 -875 -885 -886 0
873 887 0
-873 -887 0
887 888 0
-887 -888 0
888 889 0
-888 -889 0
882 890 0
-882 -890 0
890 891 0
-890 -891 0
865 889 891 892 0
865 889 -891 -892 0
865 -889 891 -892 0
865 -889 -891 -892 0
-865 889 891 -892 0
-865 889 -891 -892 0
-865 -889 891 -892 0
-865 -889 -891 -892 0
862 893 0
-862 -893 0
893 894 0
-893 -894 0
894 875 891 895 0
894 875 -891 -895 0
894 -875 891 -895 0
894 -875 -891 -895 0
-894 875 891 -895 0
-894 875 -891 -895 0
-894 -875 891 -895 0
-894 -875 -891 -895 0
894 889 885 896 0
894 889 -885 -896 0
894 -889 885 -896 0
894 -889 -885 -896 0
-894 889 885 -896 0
-894 889 -885 -896 0
-894 -889 885 -896 0
-894 -889 -885 -896 0
886 892 895 896 -897 0
886 892 895 -896 897 0
886 892 -895 896 897 0
886 892 -895 -896 897 0
886 -892 895 896 897 0
886 -892 895 -896 897 0
886 -892 -895 896 897 0
886 -892 -895 -896 897 0
-886 892 895 896 897 0
-886 892 895 -896 897 0
-886 892 -895 896 897 0
-886 892 -895 -896 897 0
-886 -892 895 896 897 0
-886 -892 895 -896 897 0
-886 -892 -895 896 897 0
-886 -892 -895 -896 897 0
843 897 -898 0
843 -897 898 0
-843 897 898 0
-843 -897 -898 0
232 899 0
-232 -899 0
232 900 0
-232 -900 0
899 900 -901 0
899 -900 901 0
-899 900 901 0
-899 -900 -901 0
234 902 0
-234 -902 0
234 903 0
-234 -903 0
902 903 -904 0
902 -903 904 0
-902 903 904 0
-902 -903 -904 0
235 905 0
-235 -905 0
235 906 0
-235 -906 0
905 906 -907 0
905 -906 907 0
-905 906 907 0
-905 -906 -907 0
243 908 0
-243 -908 0
243 909 0
-243 -909 0
908 909 -910 0
908 -909 910 0
-908 909 910 0
-908 -909 -910 0
236 911 0
-236 -911 0
911 912 0
-911 -912 0
912 913 0
-912 -913 0
913 914 0
-913 -914 0
228 915 0
-228 -915 0
915 916 0
-915 -916 0
916 917 0
-916 -917 0
917 918 0
-917 -918 0
245 919 0
-245 -919 0
919 920 0
-919 -920 0
920 921 0
-920 -921 0
921 922 0
-921 -922 0
914 918 922 923 0
914 918 -922 -923 0
914 -918 922 -923 0
914 -918 -922 -923 0
-914 918 922 -923 0
-914 918 -922 -923 0
-914 -918 922 -923 0
-914 -918 -922 -923 0
228 924 0
-228 -924 0
924 925 0
-924 -925 0
925 926 0
-925 -926 0
245 927 0
-245 -927 0
927 928 0
-927 -928 0
928 929 0
-928 -929 0
914 926 929 930 0
914 926 -929 -930 0
914 -926 929 -930 0
914 -926 -929 -930 0
-914 926 929 -930 0
-914 926 -929 -930 0
-914 -926 929 -930 0
-914 -926 -929 -930 0
236 931 0
-236 -931 0
931 932 0
-931 -932 0
932 933 0
-932 -933 0
933 918 929 934 0
933 918 -929 -934 0
933 -918 929 -934 0
933 -918 -929 -934 0
-933 918 929 -934 0
-933 918 -929 -934 0
-933 -918 929 -934 0
-933 -918 -929 -934 0
933 926 922 935 0
933 926 -922 -935 0
933 -926 922 -935 0
933 -926 -922 -935 0
-933 926 922 -935 0
-933 926 -922 -935 0
-933 -926 922 -935 0
-933 -926 -922 -935 0
923 930 934 935 -936 0
923 930 934 -935 936 0
923 930 -934 935 936 0
923 930 -934 -935 936 0
923 -930 934 935 936 0
923 -930 934 -935 936 0
923 -930 -934 935 936 0
923 -930 -934 -935 936 0
-923 930 934 935 936 0
-923 930 934 -935 936 0
-923 930 -934 935 936 0
-923 930 -934 -935 936 0
-923 -930 934 935 936 0
-923 -930 934 -935 936 0
-923 -930 -934 935 936 0
-923 -930 -934 -935 936 0
936 937 0
-936 -937 0
937 938 0
-937 -938 0
938 939 0
-938 -939 0
226 940 0
-226 -940 0
940 941 0
-940 -941 0
941 942 0
-941 -942 0
942 943 0
-942 -943 0
227 944 0
-227 -944 0
944 945 0
-944 -945 0
945 946 0
-945 -946 0
946 947 0
-946 -947 0
218 948 0
-218 -948 0
948 949 0
-948 -949 0
949 950 0
-949 -950 0
950 951 0
-950 -951 0
943 947 951 952 0
943 947 -951 -952 0
943 -947 951 -952 0
943 -947 -951 -952 0
-943 947 951 -952 0
-943 947 -951 -952 0
-943 -947 951 -952 0
-943 -947 -951 -952 0
787 953 0
-787 -953 0
953 954 0
-953 -954 0
627 955 0
-627 -955 0
955 956 0
-955 -956 0
943 954 956 957 0
943 954 -956 -957 0
943 -954 956 -957 0
943 -954 -956 -957 0
-943 954 956 -957 0
-943 954 -956 -957 0
-943 -954 956 -957 0
-943 -954 -956 -957 0
784 958 0
-784 -958 0
958 959 0
-958 -959 0
959 947 956 960 0
959 947 -956 -960 0
959 -947 956 -960 0
959 -947 -956 -960 0
-959 947 956 -960 0
-959 947 -956 -960 0
-959 -947 956 -960 0
-959 -947 -956 -960 0
959 954 951 961 0
959 954 -951 -961 0
959 -954 951 -961 0
959 -954 -951 -961 0
-959 954 951 -961 0
-959 954 -951 -961 0
-959 -954 951 -961 0
-959 -954 -951 -961 0
952 957 960 961 -962 0
952 957 960 -961 962 0
952 957 -960 961 962 0
952 957 -960 -961 962 0
952 -957 960 961 962 0
952 -957 960 -961 962 0
952 -957 -960 961 962 0
952 -957 -960 -961 962 0
-952 957 960 961 962 0
-952 957 960 -961 962 0
-952 957 -960 961 962 0
-952 957 -960 -961 962 0
-952 -957 960 961 962 0
-952 -957 960 -961 962 0
-952 -957 -960 961 962 0
-952 -957 -960 -961 962 0
962 963 0
-962 -963 0
963 964 0
-963 -964 0
244 965 0
-244 -965 0
965 966 0
-965 -966 0
966 967 0
-966 -967 0
967 968 0
-967 -968 0
235 969 0
-235 -969 0
969 970 0
-969 -970 0
970 971 0
-970 -971 0
971 972 0
-971 -972 0
234 973 0
-234 -973 0
973 974 0
-973 -974 0
974 975 0
-974 -975 0
975 976 0
-975 -976 0
968 972 976 977 0
968 972 -976 -977 0
968 -972 976 -977 0
968 -972 -976 -977 0
-968 972 976 -977 0
-968 972 -976 -977 0
-968 -972 976 -977 0
-968 -972 -976 -977 0
905 978 0
-905 -978 0
978 979 0
-978 -979 0
902 980 0
-902 -980 0
980 981 0
-980 -981 0
968 979 981 982 0
968 979 -981 -982 0
968 -979 981 -982 0
968 -979 -981 -982 0
-968 979 981 -982 0
-968 979 -981 -982 0
-968 -979 981 -982 0
-968 -979 -981 -982 0
244 983 0
-244 -983 0
983 984 0
-983 -984 0
984 985 0
-984 -985 0
985 972 981 986 0
985 972 -981 -986 0
985 -972 981 -986 0
985 -972 -981 -986 0
-985 972 981 -986 0
-985 972 -981 -986 0
-985 -972 981 -986 0
-985 -972 -981 -986 0
985 979 976 987 0
985 979 -976 -987 0
985 -979 976 -987 0
985 -979 -976 -987 0
-985 979 976 -987 0
-985 979 -976 -987 0
-985 -979 976 -987 0
-985 -979 -976 -987 0
977 982 986 987 -988 0
977 982 986 -987 988 0
977 982 -986 987 988 0
977 982 -986 -987 988 0
977 -982 986 987 988 0
977 -982 986 -987 988 0
977 -982 -986 987 988 0
977 -982 -986 -987 988 0
-977 982 986 987 988 0
-977 982 986 -987 988 0
-977 982 -986 987 988 0
-977 982 -986 -987 988 0
-977 -982 986 987 988 0
-977 -982 986 -987 988 0
-977 -982 -986 987 988 0
-977 -982 -986 -987 988 0
988 989 0
-988 -989 0
989 990 0
-989 -990 0
990 991 0
-990 -991 0
939 964 991 992 0
939 964 -991 -992 0
939 -964 991 -992 0
939 -964 -991 -992 0
-939 964 991 -992 0
-939 964 -991 -992 0
-939 -964 991 -992 0
-939 -964 -991 -992 0
962 993 0
-962 -993 0
993 994 0
-993 -994 0
994 995 0
-994 -995 0
988 996 0
-988 -996 0
996 997 0
-996 -997 0
939 995 997 998 0
939 995 -997 -998 0
939 -995 997 -998 0
939 -995 -997 -998 0
-939 995 997 -998 0
-939 995 -997 -998 0
-939 -995 997 -998 0
-939 -995 -997 -998 0
936 999 0
-936 -999 0
999 1000 0
-999 -1000 0
1000 964 997 1001 0
1000 964 -997 -1001 0
1000 -964 997 -1001 0
1000 -964 -997 -1001 0
-1000 964 997 -1001 0
-1000 964 -997 -1001 0
-1000 -964 997 -1001 0
-1000 -964 -997 -1001 0
1000 995 991 1002 0
1000 995 -991 -1002 0
1000 -995 991 -1002 0
1000 -995 -991 -1002 0
-1000 995 991 -1002 0
-1000 995 -991 -1002 0
-1000 -995 991 -1002 0
-1000 -995 -991 -1002 0
992 998 1001 1002 -1003 0
992 998 1001 -1002 1003 0
992 998 -1001 1002 1003 0
992 998 -1001 -1002 1003 0
992 -998 1001 1002 1003 0
992 -998 1001 -1002 1003 0
992 -998 -1001 1002 1003 0
992 -998 -1001 -1002 1003 0
-992 998 1001 1002 1003 0
-992 998 1001 -1002 1003 0
-992 998 -1001 1002 1003 0
-992 998 -1001 -1002 1003 0
-992 -998 1001 1002 1003 0
-992 -998 1001 -1002 1003 0
-992 -998 -1001 1002 1003 0
-992 -998 -1001 -1002 1003 0
236 1004 0
-236 -1004 0
1004 1005 0
-1004 -1005 0
1005 1006 0
-1005 -1006 0
1006 1007 0
-1006 -1007 0
228 1008 0
-228 -1008 0
1008 1009 0
-1008 -1009 0
1009 1010 0
-1009 -1010 0
1010 1011 0
-1010 -1011 0
245 1012 0
-245 -1012 0
1012 1013 0
-1012 -1013 0
1013 1014 0
-1013 -1014 0
1014 1015 0
-1014 -1015 0
1007 1011 1015 1016 0
1007 1011 -1015 -1016 0
1007 -1011 1015 -1016 0
1007 -1011 -1015 -1016 0
-1007 1011 1015 -1016 0
-1007 1011 -1015 -1016 0
-1007 -1011 1015 -1016 0
-1007 -1011 -1015 -1016 0
228 1017 0
-228 -1017 0
1017 1018 0
-1017 -1018 0
1018 1019 0
-1018 -1019 0
245 1020 0
-245 -1020 0
1020 1021 0
-1020 -1021 0
1021 1022 0
-1021 -1022 0
1007 1019 1022 1023 0
1007 1019 -1022 -1023 0
1007 -1019 1022 -1023 0
1007 -1019 -1022 -1023 0
-1007 1019 1022 -1023 0
-1007 1019 -1022 -1023 0
-1007 -1019 1022 -1023 0
-1007 -1019 -1022 -1023 0
236 1024 0
-236 -1024 0
1024 1025 0
-1024 -1025 0
1025 1026 0
-1025 -1026 0
1026 1011 1022 1027 0
1026 1011 -1022 -1027 0
1026 -1011 1022 -1027 0
1026 -1011 -1022 -1027 0
-1026 1011 1022 -1027 0
-1026 1011 -1022 -1027 0
-1026 -1011 1022 -1027 0
-1026 -1011 -1022 -1027 0
1026 1019 1015 1028 0
1026 1019 -1015 -1028 0
1026 -1019 1015 -1028 0
1026 -1019 -1015 -1028 0
-1026 1019 1015 -1028 0
-1026 1019 -1015 -1028 0
-1026 -1019 1015 -1028 0
-1026 -1019 -1015 -1028 0
1016 1023 1027 1028 -1029 0
1016 1023 1027 -1028 1029 0
1016 1023 -1027 1028 1029 0
1016 1023 -1027 -1028 1029 0
1016 -1023 1027 1028 1029 0
1016 -1023 1027 -1028 1029 0
1016 -1023 -1027 1028 1029 0
1016 -1023 -1027 -1028 1029 0
-1016 1023 1027 1028 1029 0
-1016 1023 1027 -1028 1029 0
-1016 1023 -1027 1028 1029 0
-1016 1023 -1027 -1028 1029 0
-1016 -1023 1027 1028 1029 0
-1016 -1023 1027 -1028 1029 0
-1016 -1023 -1027 1028 1029 0
-1016 -1023 -1027 -1028 1029 0
1029 1030 0
-1029 -1030 0
1030 1031 0
-1030 -1031 0
1031 1032 0
-1031 -1032 0
226 1033 0
-226 -1033 0
1033 1034 0
-1033 -1034 0
1034 1035 0
-1034 -1035 0
1035 1036 0
-1035 -1036 0
227 1037 0
-227 -1037 0
1037 1038 0
-1037 -1038 0
1038 1039 0
-1038 -1039 0
1039 1040 0
-1039 -1040 0
218 1041 0
-218 -1041 0
1041 1042 0
-1041 -1042 0
1042 1043 0
-1042 -1043 0
1043 1044 0
-1043 -1044 0
1036 1040 1044 1045 0
1036 1040 -1044 -1045 0
1036 -1040 1044 -1045 0
1036 -1040 -1044 -1045 0
-1036 1040 1044 -1045 0
-1036 1040 -1044 -1045 0
-1036 -1040 1044 -1045 0
-1036 -1040 -1044 -1045 0
788 1046 0
-788 -1046 0
1046 1047 0
-1046 -1047 0
628 1048 0
-628 -1048 0
1048 1049 0
-1048 -1049 0
1036 1047 1049 1050 0
1036 1047 -1049 -1050 0
1036 -1047 1049 -1050 0
1036 -1047 -1049 -1050 0
-1036 1047 1049 -1050 0
-1036 1047 -1049 -1050 0
-1036 -1047 1049 -1050 0
-1036 -1047 -1049 -1050 0
785 1051 0
-785 -1051 0
1051 1052 0
-1051 -1052 0
1052 1040 1049 1053 0
1052 1040 -1049 -1053 0
1052 -1040 1049 -1053 0
1052 -1040 -1049 -1053 0
-1052 1040 1049 -1053 0
-1052 1040 -1049 -1053 0
-1052 -1040 1049 -1053 0
-1052 -1040 -1049 -1053 0
1052 1047 1044 1054 0
1052 1047 -1044 -1054 0
1052 -1047 1044 -1054 0
1052 -1047 -1044 -1054 0
-1052 1047 1044 -1054 0
-1052 1047 -1044 -1054 0
-1052 -1047 1044 -1054 0
-1052 -1047 -1044 -1054 0
1045 1050 1053 1054 -1055 0
1045 1050 1053 -1054 1055 0
1045 1050 -1053 1054 1055 0
1045 1050 -1053 -1054 1055 0
1045 -1050 1053 1054 1055 0
1045 -1050 1053 -1054 1055 0
1045 -1050 -1053 1054 1055 0
1045 -1050 -1053 -1054 1055 0
-1045 1050 1053 1054 1055 0
-1045 1050 1053 -1054 1055 0
-1045 1050 -1053 1054 1055 0
-1045 1050 -1053 -1054 1055 0
-1045 -1050 1053 1054 1055 0
-1045 -1050 1053 -1054 1055 0
-1045 -1050 -1053 1054 1055 0
-1045 -1050 -1053 -1054 1055 0
1055 1056 0
-1055 -1056 0
1056 1057 0
-1056 -1057 0
244 1058 0
-244 -1058 0
1058 1059 0
-1058 -1059 0
1059 1060 0
-1059 -1060 0
1060 1061 0
-1060 -1061 0
235 1062 0
-235 -1062 0
1062 1063 0
-1062 -1063 0
1063 1064 0
-1063 -1064 0
1064 1065 0
-1064 -1065 0
234 1066 0
-234 -1066 0
1066 1067 0
-1066 -1067 0
1067 1068 0
-1067 -1068 0
1068 1069 0
-1068 -1069 0
1061 1065 1069 1070 0
1061 1065 -1069 -1070 0
1061 -1065 1069 -1070 0
1061 -1065 -1069 -1070 0
-1061 1065 1069 -1070 0
-1061 1065 -1069 -1070 0
-1061 -1065 1069 -1070 0
-1061 -1065 -1069 -1070 0
906 1071 0
-906 -1071 0
1071 1072 0
-1071 -1072 0
903 1073 0
-903 -1073 0
1073 1074 0
-1073 -1074 0
1061 1072 1074 1075 0
1061 1072 -1074 -1075 0
1061 -1072 1074 -1075 0
1061 -1072 -1074 -1075 0
-1061 1072 1074 -1075 0
-1061 1072 -1074 -1075 0
-1061 -1072 1074 -1075 0
-1061 -1072 -1074 -1075 0
244 1076 0
-244 -1076 0
1076 1077 0
-1076 -1077 0
1077 1078 0
-1077 -1078 0
1078 1065 1074 1079 0
1078 1065 -1074 -1079 0
1078 -1065 1074 -1079 0
1078 -1065 -1074 -1079 0
-1078 1065 1074 -1079 0
-1078 1065 -1074 -1079 0
-1078 -1065 1074 -1079 0
-1078 -1065 -1074 -1079 0
1078 1072 1069 1080 0
1078 1072 -1069 -1080 0
1078 -1072 1069 -1080 0
1078 -1072 -1069 -1080 0
-1078 1072 1069 -1080 0
-1078 1072 -1069 -1080 0
-1078 -1072 1069 -1080 0
-1078 -1072 -1069 -1080 0
1070 1075 1079 1080 -1081 0
1070 1075 1079 -1080 1081 0
1070 1075 -1079 1080 1081 0
1070 1075 -1079 -1080 1081 0
1070 -1075 1079 1080 1081 0
1070 -1075 1079 -1080 1081 0
1070 -1075 -1079 1080 1081 0
1070 -1075 -1079 -1080 1081 0
-1070 1075 1079 1080 1081 0
-1070 1075 1079 -1080 1081 0
-1070 1075 -1079 1080 1081 0
-1070 1075 -1079 -1080 1081 0
-1070 -1075 1079 1080 1081 0
-1070 -1075 1079 -1080 1081 0
-1070 -1075 -1079 1080 1081 0
-1070 -1075 -1079 -1080 1081 0
1081 1082 0
-1081 -1082 0
1082 1083 0
-1082 -1083 0
1083 1084 0
-1083 -1084 0
1032 1057 1084 1085 0
1032 1057 -1084 -1085 0
1032 -1057 1084 -1085 0
1032 -1057 -1084 -1085 0
-1032 1057 1084 -1085 0
-1032 1057 -1084 -1085 0
-1032 -1057 1084 -1085 0
-1032 -1057 -1084 -1085 0
1055 1086 0
-1055 -1086 0
1086 1087 0
-1086 -1087 0
1087 1088 0
-1087 -1088 0
1081 1089 0
-1081 -1089 0
1089 1090 0
-1089 -1090 0
1032 1088 1090 1091 0
1032 1088 -1090 -1091 0
1032 -1088 1090 -1091 0
1032 -1088 -1090 -1091 0
-1032 1088 1090 -1091 0
-1032 1088 -1090 -1091 0
-1032 -1088 1090 -1091 0
-1032 -1088 -1090 -1091 0
1029 1092 0
-1029 -1092 0
1092 1093 0
-1092 -1093 0
1093 1057 1090 1094 0
1093 1057 -1090 -1094 0
1093 -1057 1090 -1094 0
1093 -1057 -1090 -1094 0
-1093 1057 1090 -1094 0
-1093 1057 -1090 -1094 0
-1093 -1057 1090 -1094 0
-1093 -1057 -1090 -1094 0
1093 1088 1084 1095 0
1093 1088 -1084 -1095 0
1093 -1088 1084 -1095 0
1093 -1088 -1084 -1095 0
-1093 1088 1084 -1095 0
-1093 1088 -1084 -1095 0
-1093 -1088 1084 -1095 0
-1093 -1088 -1084 -1095 0
1085 1091 1094 1095 -1096 0
1085 1091 1094 -1095 1096 0
1085 1091 -1094 1095 1096 0
1085 1091 -1094 -1095 1096 0
1085 -1091 1094 1095 1096 0
1085 -1091 1094 -1095 1096 0
1085 -1091 -1094 1095 1096 0
1085 -1091 -1094 -1095 1096 0
-1085 1091 1094 1095 1096 0
-1085 1091 1094 -1095 1096 0
-1085 1091 -1094 1095 1096 0
-1085 1091 -1094 -1095 1096 0
-1085 -1091 1094 1095 1096 0
-1085 -1091 1094 -1095 1096 0
-1085 -1091 -1094 1095 1096 0
-1085 -1091 -1094 -1095 1096 0
1003 1096 -1097 0
1003 -1096 1097 0
-1003 1096 1097 0
-1003 -1096 -1097 0
299 1098 0
-299 -1098 0
1098 1099 0
-1098 -1099 0
1099 1100 0
-1099 -1100 0
1100 1101 0
-1100 -1101 0
393 1102 0
-393 -1102 0
1102 1103 0
-1102 -1103 0
1103 1104 0
-1103 -1104 0
1104 1105 0
-1104 -1105 0
300 1106 0
-300 -1106 0
1106 1107 0
-1106 -1107 0
1107 1108 0
-1107 -1108 0
1108 1109 0
-1108 -1109 0
1101 1105 1109 1110 0
1101 1105 -1109 -1110 0
1101 -1105 1109 -1110 0
1101 -1105 -1109 -1110 0
-1101 1105 1109 -1110 0
-1101 1105 -1109 -1110 0
-1101 -1105 1109 -1110 0
-1101 -1105 -1109 -1110 0
393 1111 0
-393 -1111 0
1111 1112 0
-1111 -1112 0
1112 1113 0
-1112 -1113 0
300 1114 0
-300 -1114 0
1114 1115 0
-1114 -1115 0
1115 1116 0
-1115 -1116 0
1101 1113 1116 1117 0
1101 1113 -1116 -1117 0
1101 -1113 1116 -1117 0
1101 -1113 -1116 -1117 0
-1101 1113 1116 -1117 0
-1101 1113 -1116 -1117 0
-1101 -1113 1116 -1117 0
-1101 -1113 -1116 -1117 0
299 1118 0
-299 -1118 0
1118 1119 0
-1118 -1119 0
1119 1120 0
-1119 -1120 0
1120 1105 1116 1121 0
1120 1105 -1116 -1121 0
1120 -1105 1116 -1121 0
1120 -1105 -1116 -1121 0
-1120 1105 1116 -1121 0
-1120 1105 -1116 -1121 0
-1120 -1105 1116 -1121 0
-1120 -1105 -1116 -1121 0
1120 1113 1109 1122 0
1120 1113 -1109 -1122 0
1120 -1113 1109 -1122 0
1120 -1113 -1109 -1122 0
-1120 1113 1109 -1122 0
-1120 1113 -1109 -1122 0
-1120 -1113 1109 -1122 0
-1120 -1113 -1109 -1122 0
1110 1117 1121 1122 -1123 0
1110 1117 1121 -1122 1123 0
1110 1117 -1121 1122 1123 0
1110 1117 -1121 -1122 1123 0
1110 -1117 1121 1122 1123 0
1110 -1117 1121 -1122 1123 0
1110 -1117 -1121 1122 1123 0
1110 -1117 -1121 -1122 1123 0
-1110 1117 1121 1122 1123 0
-1110 1117 1121 -1122 1123 0
-1110 1117 -1121 1122 1123 0
-1110 1117 -1121 -1122 1123 0
-1110 -1117 1121 1122 1123 0
-1110 -1117 1121 -1122 1123 0
-1110 -1117 -1121 1122 1123 0
-1110 -1117 -1121 -1122 1123 0
1123 1124 0
-1123 -1124 0
1124 1125 0
-1124 -1125 0
1125 1126 0
-1125 -1126 0
221 1127 0
-221 -1127 0
1127 1128 0
-1127 -1128 0
1128 1129 0
-1128 -1129 0
1129 1130 0
-1129 -1130 0
428 1131 0
-428 -1131 0
1131 1132 0
-1131 -1132 0
1132 1133 0
-1132 -1133 0
1133 1134 0
-1133 -1134 0
217 1135 0
-217 -1135 0
1135 1136 0
-1135 -1136 0
1136 1137 0
-1136 -1137 0
1137 1138 0
-1137 -1138 0
1130 1134 1138 1139 0
1130 1134 -1138 -1139 0
1130 -1134 1138 -1139 0
1130 -1134 -1138 -1139 0
-1130 1134 1138 -1139 0
-1130 1134 -1138 -1139 0
-1130 -1134 1138 -1139 0
-1130 -1134 -1138 -1139 0
428 1140 0
-428 -1140 0
1140 1141 0
-1140 -1141 0
1141 1142 0
-1141 -1142 0
217 1143 0
-217 -1143 0
1143 1144 0
-1143 -1144 0
1144 1145 0
-1144 -1145 0
1130 1142 1145 1146 0
1130 1142 -1145 -1146 0
1130 -1142 1145 -1146 0
1130 -1142 -1145 -1146 0
-1130 1142 1145 -1146 0
-1130 1142 -1145 -1146 0
-1130 -1142 1145 -1146 0
-1130 -1142 -1145 -1146 0
221 1147 0
-221 -1147 0
1147 1148 0
-1147 -1148 0
1148 1149 0
-1148 -1149 0
1149 1134 1145 1150 0
1149 1134 -1145 -1150 0
1149 -1134 1145 -1150 0
1149 -1134 -1145 -1150 0
-1149 1134 1145 -1150 0
-1149 1134 -1145 -1150 0
-1149 -1134 1145 -1150 0
-1149 -1134 -1145 -1150 0
1149 1142 1138 1151 0
1149 1142 -1138 -1151 0
1149 -1142 1138 -1151 0
1149 -1142 -1138 -1151 0
-1149 1142 1138 -1151 0
-1149 1142 -1138 -1151 0
-1149 -1142 1138 -1151 0
-1149 -1142 -1138 -1151 0
1139 1146 1150 1151 -1152 0
1139 1146 1150 -1151 1152 0
1139 1146 -1150 1151 1152 0
1139 1146 -1150 -1151 1152 0
1139 -1146 1150 1151 1152 0
1139 -1146 1150 -1151 1152 0
1139 -1146 -1150 1151 1152 0
1139 -1146 -1150 -1151 1152 0
-1139 1146 1150 1151 1152 0
-1139 1146 1150 -1151 1152 0
-1139 1146 -1150 1151 1152 0
-1139 1146 -1150 -1151 1152 0
-1139 -1146 1150 1151 1152 0
-1139 -1146 1150 -1151 1152 0
-1139 -1146 -1150 1151 1152 0
-1139 -1146 -1150 -1151 1152 0
1152 1153 0
-1152 -1153 0
1153 1154 0
-1153 -1154 0
301 1155 0
-301 -1155 0
1155 1156 0
-1155 -1156 0
1156 1157 0
-1156 -1157 0
1157 1158 0
-1157 -1158 0
251 1159 0
-251 -1159 0
1159 1160 0
-1159 -1160 0
1160 1161 0
-1160 -1161 0
1161 1162 0
-1161 -1162 0
252 1163 0
-252 -1163 0
1163 1164 0
-1163 -1164 0
1164 1165 0
-1164 -1165 0
1165 1166 0
-1165 -1166 0
1158 1162 1166 1167 0
1158 1162 -1166 -1167 0
1158 -1162 1166 -1167 0
1158 -1162 -1166 -1167 0
-1158 1162 1166 -1167 0
-1158 1162 -1166 -1167 0
-1158 -1162 1166 -1167 0
-1158 -1162 -1166 -1167 0
251 1168 0
-251 -1168 0
1168 1169 0
-1168 -1169 0
1169 1170 0
-1169 -1170 0
252 1171 0
-252 -1171 0
1171 1172 0
-1171 -1172 0
1172 1173 0
-1172 -1173 0
1158 1170 1173 1174 0
1158 1170 -1173 -1174 0
1158 -1170 1173 -1174 0
1158 -1170 -1173 -1174 0
-1158 1170 1173 -1174 0
-1158 1170 -1173 -1174 0
-1158 -1170 1173 -1174 0
-1158 -1170 -1173 -1174 0
301 1175 0
-301 -1175 0
1175 1176 0
-1175 -1176 0
1176 1177 0
-1176 -1177 0
1177 1162 1173 1178 0
1177 1162 -1173 -1178 0
1177 -1162 1173 -1178 0
1177 -1162 -1173 -1178 0
-1177 1162 1173 -1178 0
-1177 1162 -1173 -1178 0
-1177 -1162 1173 -1178 0
-1177 -1162 -1173 -1178 0
1177 1170 1166 1179 0
1177 1170 -1166 -1179 0
1177 -1170 1166 -1179 0
1177 -1170 -1166 -1179 0
-1177 1170 1166 -1179 0
-1177 1170 -1166 -1179 0
-1177 -1170 1166 -1179 0
-1177 -1170 -1166 -1179 0
1167 1174 1178 1179 -1180 0
1167 1174 1178 -1179 1180 0
1167 1174 -1178 1179 1180 0
1167 1174 -1178 -1179 1180 0
1167 -1174 1178 1179 1180 0
1167 -1174 1178 -1179 1180 0
1167 -1174 -1178 1179 1180 0
1167 -1174 -1178 -1179 1180 0
-1167 1174 1178 1179 1180 0
-1167 1174 1178 -1179 1180 0
-1167 1174 -1178 1179 1180 0
-1167 1174 -1178 -1179 1180 0
-1167 -1174 1178 1179 1180 0
-1167 -1174 1178 -1179 1180 0
-1167 -1174 -1178 1179 1180 0
-1167 -1174 -1178 -1179 1180 0
1180 1181 0
-1180 -1181 0
1181 1182 0
-1181 -1182 0
1182 1183 0
-1182 -1183 0
1126 1154 1183 1184 0
1126 1154 -1183 -1184 0
1126 -1154 1183 -1184 0
1126 -1154 -1183 -1184 0
-1126 1154 1183 -1184 0
-1126 1154 -1183 -1184 0
-1126 -1154 1183 -1184 0
-1126 -1154 -1183 -1184 0
1152 1185 0
-1152 -1185 0
1185 1186 0
-1185 -1186 0
1186 1187 0
-1186 -1187 0
1180 1188 0
-1180 -1188 0
1188 1189 0
-1188 -1189 0
1126 1187 1189 1190 0
1126 1187 -1189 -1190 0
1126 -1187 1189 -1190 0
1126 -1187 -1189 -1190 0
-1126 1187 1189 -1190 0
-1126 1187 -1189 -1190 0
-1126 -1187 1189 -1190 0
-1126 -1187 -1189 -1190 0
1123 1191 0
-1123 -1191 0
1191 1192 0
-1191 -1192 0
1192 1154 1189 1193 0
1192 1154 -1189 -1193 0
1192 -1154 1189 -1193 0
1192 -1154 -1189 -1193 0
-1192 1154 1189 -1193 0
-1192 1154 -1189 -1193 0
-1192 -1154 1189 -1193 0
-1192 -1154 -1189 -1193 0
1192 1187 1183 1194 0
1192 1187 -1183 -1194 0
1192 -1187 1183 -1194 0
1192 -1187 -1183 -1194 0
-1192 1187 1183 -1194 0
-1192 1187 -1183 -1194 0
-1192 -1187 1183 -1194 0
-1192 -1187 -1183 -1194 0
1184 1190 1193 1194 -1195 0
1184 1190 1193 -1194 1195 0
1184 1190 -1193 1194 1195 0
1184 1190 -1193 -1194 1195 0
1184 -1190 1193 1194 1195 0
1184 -1190 1193 -1194 1195 0
1184 -1190 -1193 1194 1195 0
1184 -1190 -1193 -1194 1195 0
-1184 1190 1193 1194 1195 0
-1184 1190 1193 -1194 1195 0
-1184 1190 -1193 1194 1195 0
-1184 1190 -1193 -1194 1195 0
-1184 -1190 1193 1194 1195 0
-1184 -1190 1193 -1194 1195 0
-1184 -1190 -1193 1194 1195 0
-1184 -1190 -1193 -1194 1195 0
299 1196 0
-299 -1196 0
1196 1197 0
-1196 -1197 0
1197 1198 0
-1197 -1198 0
1198 1199 0
-1198 -1199 0
393 1200 0
-393 -1200 0
1200 1201 0
-1200 -1201 0
1201 1202 0
-1201 -1202 0
1202 1203 0
-1202 -1203 0
300 1204 0
-300 -1204 0
1204 1205 0
-1204 -1205 0
1205 1206 0
-1205 -1206 0
1206 1207 0
-1206 -1207 0
1199 1203 1207 1208 0
1199 1203 -1207 -1208 0
1199 -1203 1207 -1208 0
1199 -1203 -1207 -1208 0
-1199 1203 1207 -1208 0
-1199 1203 -1207 -1208 0
-1199 -1203 1207 -1208 0
-1199 -1203 -1207 -1208 0
393 1209 0
-393 -1209 0
1209 1210 0
-1209 -1210 0
1210 1211 0
-1210 -1211 0
300 1212 0
-300 -1212 0
1212 1213 0
-1212 -1213 0
1213 1214 0
-1213 -1214 0
1199 1211 1214 1215 0
1199 1211 -1214 -1215 0
1199 -1211 1214 -1215 0
1199 -1211 -1214 -1215 0
-1199 1211 1214 -1215 0
-1199 1211 -1214 -1215 0
-1199 -1211 1214 -1215 0
-1199 -1211 -1214 -1215 0
299 1216 0
-299 -1216 0
1216 1217 0
-1216 -1217 0
1217 1218 0
-1217 -1218 0
1218 1203 1214 1219 0
1218 1203 -1214 -1219 0
1218 -1203 1214 -1219 0
1218 -1203 -1214 -1219 0
-1218 1203 1214 -1219 0
-1218 1203 -1214 -1219 0
-1218 -1203 1214 -1219 0
-1218 -1203 -1214 -1219 0
1218 1211 1207 1220 0
1218 1211 -1207 -1220 0
1218 -1211 1207 -1220 0
1218 -1211 -1207 -1220 0
-1218 1211 1207 -1220 0
-1218 1211 -1207 -1220 0
-1218 -1211 1207 -1220 0
-1218 -1211 -1207 -1220 0
1208 1215 1219 1220 -1221 0
1208 1215 1219 -1220 1221 0
1208 1215 -1219 1220 1221 0
1208 1215 -1219 -1220 1221 0
1208 -1215 1219 1220 1221 0
1208 -1215 1219 -1220 1221 0
1208 -1215 -1219 1220 1221 0
1208 -1215 -1219 -1220 1221 0
-1208 1215 1219 1220 1221 0
-1208 1215 1219 -1220 1221 0
-1208 1215 -1219 1220 1221 0
-1208 1215 -1219 -1220 1221 0
-1208 -1215 1219 1220 1221 0
-1208 -1215 1219 -1220 1221 0
-1208 -1215 -1219 1220 1221 0
-1208 -1215 -1219 -1220 1221 0
1221 1222 0
-1221 -1222 0
1222 1223 0
-1222 -1223 0
1223 1224 0
-1223 -1224 0
221 1225 0
-221 -1225 0
1225 1226 0
-1225 -1226 0
1226 1227 0
-1226 -1227 0
1227 1228 0
-1227 -1228 0
428 1229 0
-428 -1229 0
1229 1230 0
-1229 -1230 0
1230 1231 0
-1230 -1231 0
1231 1232 0
-1231 -1232 0
217 1233 0
-217 -1233 0
1233 1234 0
-1233 -1234 0
1234 1235 0
-1234 -1235 0
1235 1236 0
-1235 -1236 0
1228 1232 1236 1237 0
1228 1232 -1236 -1237 0
1228 -1232 1236 -1237 0
1228 -1232 -1236 -1237 0
-1228 1232 1236 -1237 0
-1228 1232 -1236 -1237 0
-1228 -1232 1236 -1237 0
-1228 -1232 -1236 -1237 0
428 1238 0
-428 -1238 0
1238 1239 0
-1238 -1239 0
1239 1240 0
-1239 -1240 0
217 1241 0
-217 -1241 0
1241 1242 0
-1241 -1242 0
1242 1243 0
-1242 -1243 0
1228 1240 1243 1244 0
1228 1240 -1243 -1244 0
1228 -1240 1243 -1244 0
1228 -1240 -1243 -1244 0
-1228 1240 1243 -1244 0
-1228 1240 -1243 -1244 0
-1228 -1240 1243 -1244 0
-1228 -1240 -1243 -1244 0
221 1245 0
-221 -1245 0
1245 1246 0
-1245 -1246 0
1246 1247 0
-1246 -1247 0
1247 1232 1243 1248 0
1247 1232 -1243 -1248 0
1247 -1232 1243 -1248 0
1247 -1232 -1243 -1248 0
-1247 1232 1243 -1248 0
-1247 1232 -1243 -1248 0
-1247 -1232 1243 -1248 0
-1247 -1232 -1243 -1248 0
1247 1240 1236 1249 0
1247 1240 -1236 -1249 0
1247 -1240 1236 -1249 0
1247 -1240 -1236 -1249 0
-1247 1240 1236 -1249 0
-1247 1240 -1236 -1249 0
-1247 -1240 1236 -1249 0
-1247 -1240 -1236 -1249 0
1237 1244 1248 1249 -1250 0
1237 1244 1248 -1249 1250 0
1237 1244 -1248 1249 1250 0
1237 1244 -1248 -1249 1250 0
1237 -1244 1248 1249 1250 0
1237 -1244 1248 -1249 1250 0
1237 -1244 -1248 1249 1250 0
1237 -1244 -1248 -1249 1250 0
-1237 1244 1248 1249 1250 0
-1237 1244 1248 -1249 1250 0
-1237 1244 -1248 1249 1250 0
-1237 1244 -1248 -1249 1250 0
-1237 -1244 1248 1249 1250 0
-1237 -1244 1248 -1249 1250 0
-1237 -1244 -1248 1249 1250 0
-1237 -1244 -1248 -1249 1250 0
1250 1251 0
-1250 -1251 0
1251 1252 0
-1251 -1252 0
301 1253 0
-301 -1253 0
1253 1254 0
-1253 -1254 0
1254 1255 0
-1254 -1255 0
1255 1256 0
-1255 -1256 0
251 1257 0
-251 -1257 0
1257 1258 0
-1257 -1258 0
1258 1259 0
-1258 -1259 0
1259 1260 0
-1259 -1260 0
252 1261 0
-252 -1261 0
1261 1262 0
-1261 -1262 0
1262 1263 0
-1262 -1263 0
1263 1264 0
-1263 -1264 0
1256 1260 1264 1265 0
1256 1260 -1264 -1265 0
1256 -1260 1264 -1265 0
1256 -1260 -1264 -1265 0
-1256 1260 1264 -1265 0
-1256 1260 -1264 -1265 0
-1256 -1260 1264 -1265 0
-1256 -1260 -1264 -1265 0
251 1266 0
-251 -1266 0
1266 1267 0
-1266 -1267 0
1267 1268 0
-1267 -1268 0
252 1269 0
-252 -1269 0
1269 1270 0
-1269 -1270 0
1270 1271 0
-1270 -1271 0
1256 1268 1271 1272 0
1256 1268 -1271 -1272 0
1256 -1268 1271 -1272 0
1256 -1268 -1271 -1272 0
-1256 1268 1271 -1272 0
-1256 1268 -1271 -1272 0
-1256 -1268 1271 -1272 0
-1256 -1268 -1271 -1272 0
301 1273 0
-301 -1273 0
1273 1274 0
-1273 -1274 0
1274 1275 0
-1274 -1275 0
1275 1260 1271 1276 0
1275 1260 -1271 -1276 0
1275 -1260 1271 -1276 0
1275 -1260 -1271 -1276 0
-1275 1260 1271 -1276 0
-1275 1260 -1271 -1276 0
-1275 -1260 1271 -1276 0
-1275 -1260 -1271 -1276 0
1275 1268 1264 1277 0
1275 1268 -1264 -1277 0
1275 -1268 1264 -1277 0
1275 -1268 -1264 -1277 0
-1275 1268 1264 -1277 0
-1275 1268 -1264 -1277 0
-1275 -1268 1264 -1277 0
-1275 -1268 -1264 -1277 0
1265 1272 1276 1277 -1278 0
1265 1272 1276 -1277 1278 0
1265 1272 -1276 1277 1278 0
1265 1272 -1276 -1277 1278 0
1265 -1272 1276 1277 1278 0
1265 -1272 1276 -1277 1278 0
1265 -1272 -1276 1277 1278 0
1265 -1272 -1276 -1277 1278 0
-1265 1272 1276 1277 1278 0
-1265 1272 1276 -1277 1278 0
-1265 1272 -1276 1277 1278 0
-1265 1272 -1276 -1277 1278 0
-1265 -1272 1276 1277 1278 0
-1265 -1272 1276 -1277 1278 0
-1265 -1272 -1276 1277 1278 0
-1265 -1272 -1276 -1277 1278 0
1278 1279 0
-1278 -1279 0
1279 1280 0
-1279 -1280 0
1280 1281 0
-1280 -1281 0
1224 1252 1281 1282 0
1224 1252 -1281 -1282 0
1224 -1252 1281 -1282 0
1224 -1252 -1281 -1282 0
-1224 1252 1281 -1282 0
-1224 1252 -1281 -1282 0
-1224 -1252 1281 -1282 0
-1224 -1252 -1281 -1282 0
1250 1283 0
-1250 -1283 0
1283 1284 0
-1283 -1284 0
1284 1285 0
-1284 -1285 0
1278 1286 0
-1278 -1286 0
1286 1287 0
-1286 -1287 0
1224 1285 1287 1288 0
1224 1285 -1287 -1288 0
1224 -1285 1287 -1288 0
1224 -1285 -1287 -1288 0
-1224 1285 1287 -1288 0
-1224 1285 -1287 -1288 0
-1224 -1285 1287 -1288 0
-1224 -1285 -1287 -1288 0
1221 1289 0
-1221 -1289 0
1289 1290 0
-1289 -1290 0
1290 1252 1287 1291 0
1290 1252 -1287 -1291 0
1290 -1252 1287 -1291 0
1290 -1252 -1287 -1291 0
-1290 1252 1287 -1291 0
-1290 1252 -1287 -1291 0
-1290 -1252 1287 -1291 0
-1290 -1252 -1287 -1291 0
1290 1285 1281 1292 0
1290 1285 -1281 -1292 0
1290 -1285 1281 -1292 0
1290 -1285 -1281 -1292 0
-1290 1285 1281 -1292 0
-1290 1285 -1281 -1292 0
-1290 -1285 1281 -1292 0
-1290 -1285 -1281 -1292 0
1282 1288 1291 1292 -1293 0
1282 1288 1291 -1292 1293 0
1282 1288 -1291 1292 1293 0
1282 1288 -1291 -1292 1293 0
1282 -1288 1291 1292 1293 0
1282 -1288 1291 -1292 1293 0
1282 -1288 -1291 1292 1293 0
1282 -1288 -1291 -1292 1293 0
-1282 1288 1291 1292 1293 0
-1282 1288 1291 -1292 1293 0
-1282 1288 -1291 1292 1293 0
-1282 1288 -1291 -1292 1293 0
-1282 -1288 1291 1292 1293 0
-1282 -1288 1291 -1292 1293 0
-1282 -1288 -1291 1292 1293 0
-1282 -1288 -1291 -1292 1293 0
1195 1293 -1294 0
1195 -1293 1294 0
-1195 1293 1294 0
-1195 -1293 -1294 0
224 1295 0
-224 -1295 0
1295 1296 0
-1295 -1296 0
1296 1297 0
-1296 -1297 0
1297 1298 0
-1297 -1298 0
232 1299 0
-232 -1299 0
1299 1300 0
-1299 -1300 0
1300 1301 0
-1300 -1301 0
1301 1302 0
-1301 -1302 0
223 1303 0
-223 -1303 0
1303 1304 0
-1303 -1304 0
1304 1305 0
-1304 -1305 0
1305 1306 0
-1305 -1306 0
1298 1302 1306 1307 0
1298 1302 -1306 -1307 0
1298 -1302 1306 -1307 0
1298 -1302 -1306 -1307 0
-1298 1302 1306 -1307 0
-1298 1302 -1306 -1307 0
-1298 -1302 1306 -1307 0
-1298 -1302 -1306 -1307 0
899 1308 0
-899 -1308 0
1308 1309 0
-1308 -1309 0
630 1310 0
-630 -1310 0
1310 1311 0
-1310 -1311 0
1298 1309 1311 1312 0
1298 1309 -1311 -1312 0
1298 -1309 1311 -1312 0
1298 -1309 -1311 -1312 0
-1298 1309 1311 -1312 0
-1298 1309 -1311 -1312 0
-1298 -1309 1311 -1312 0
-1298 -1309 -1311 -1312 0
633 1313 0
-633 -1313 0
1313 1314 0
-1313 -1314 0
1314 1302 1311 1315 0
1314 1302 -1311 -1315 0
1314 -1302 1311 -1315 0
1314 -1302 -1311 -1315 0
-1314 1302 1311 -1315 0
-1314 1302 -1311 -1315 0
-1314 -1302 1311 -1315 0
-1314 -1302 -1311 -1315 0
1314 1309 1306 1316 0
1314 1309 -1306 -1316 0
1314 -1309 1306 -1316 0
1314 -1309 -1306 -1316 0
-1314 1309 1306 -1316 0
-1314 1309 -1306 -1316 0
-1314 -1309 1306 -1316 0
-1314 -1309 -1306 -1316 0
1307 1312 1315 1316 -1317 0
1307 1312 1315 -1316 1317 0
1307 1312 -1315 1316 1317 0
1307 1312 -1315 -1316 1317 0
1307 -1312 1315 1316 1317 0
1307 -1312 1315 -1316 1317 0
1307 -1312 -1315 1316 1317 0
1307 -1312 -1315 -1316 1317 0
-1307 1312 1315 1316 1317 0
-1307 1312 1315 -1316 1317 0
-1307 1312 -1315 1316 1317 0
-1307 1312 -1315 -1316 1317 0
-1307 -1312 1315 1316 1317 0
-1307 -1312 1315 -1316 1317 0
-1307 -1312 -1315 1316 1317 0
-1307 -1312 -1315 -1316 1317 0
1317 1318 0
-1317 -1318 0
1318 1319 0
-1318 -1319 0
1319 1320 0
-1319 -1320 0
241 1321 0
-241 -1321 0
1321 1322 0
-1321 -1322 0
1322 1323 0
-1322 -1323 0
1323 1324 0
-1323 -1324 0
225 1325 0
-225 -1325 0
1325 1326 0
-1325 -1326 0
1326 1327 0
-1326 -1327 0
1327 1328 0
-1327 -1328 0
240 1329 0
-240 -1329 0
1329 1330 0
-1329 -1330 0
1330 1331 0
-1330 -1331 0
1331 1332 0
-1331 -1332 0
1324 1328 1332 1333 0
1324 1328 -1332 -1333 0
1324 -1328 1332 -1333 0
1324 -1328 -1332 -1333 0
-1324 1328 1332 -1333 0
-1324 1328 -1332 -1333 0
-1324 -1328 1332 -1333 0
-1324 -1328 -1332 -1333 0
636 1334 0
-636 -1334 0
1334 1335 0
-1334 -1335 0
240 1336 0
-240 -1336 0
1336 1337 0
-1336 -1337 0
1337 1338 0
-1337 -1338 0
1324 1335 1338 1339 0
1324 1335 -1338 -1339 0
1324 -1335 1338 -1339 0
1324 -1335 -1338 -1339 0
-1324 1335 1338 -1339 0
-1324 1335 -1338 -1339 0
-1324 -1335 1338 -1339 0
-1324 -1335 -1338 -1339 0
241 1340 0
-241 -1340 0
1340 1341 0
-1340 -1341 0
1341 1342 0
-1341 -1342 0
1342 1328 1338 1343 0
1342 1328 -1338 -1343 0
1342 -1328 1338 -1343 0
1342 -1328 -1338 -1343 0
-1342 1328 1338 -1343 0
-1342 1328 -1338 -1343 0
-1342 -1328 1338 -1343 0
-1342 -1328 -1338 -1343 0
1342 1335 1332 1344 0
1342 1335 -1332 -1344 0
1342 -1335 1332 -1344 0
1342 -1335 -1332 -1344 0
-1342 1335 1332 -1344 0
-1342 1335 -1332 -1344 0
-1342 -1335 1332 -1344 0
-1342 -1335 -1332 -1344 0
1333 1339 1343 1344 -1345 0
1333 1339 1343 -1344 1345 0
1333 1339 -1343 1344 1345 0
1333 1339 -1343 -1344 1345 0
1333 -1339 1343 1344 1345 0
1333 -1339 1343 -1344 1345 0
1333 -1339 -1343 1344 1345 0
1333 -1339 -1343 -1344 1345 0
-1333 1339 1343 1344 1345 0
-1333 1339 1343 -1344 1345 0
-1333 1339 -1343 1344 1345 0
-1333 1339 -1343 -1344 1345 0
-1333 -1339 1343 1344 1345 0
-1333 -1339 1343 -1344 1345 0
-1333 -1339 -1343 1344 1345 0
-1333 -1339 -1343 -1344 1345 0
1345 1346 0
-1345 -1346 0
1346 1347 0
-1346 -1347 0
243 1348 0
-243 -1348 0
1348 1349 0
-1348 -1349 0
1349 1350 0
-1349 -1350 0
1350 1351 0
-1350 -1351 0
242 1352 0
-242 -1352 0
1352 1353 0
-1352 -1353 0
1353 1354 0
-1353 -1354 0
1354 1355 0
-1354 -1355 0
248 1356 0
-248 -1356 0
1356 1357 0
-1356 -1357 0
1357 1358 0
-1357 -1358 0
1358 1359 0
-1358 -1359 0
1351 1355 1359 1360 0
1351 1355 -1359 -1360 0
1351 -1355 1359 -1360 0
1351 -1355 -1359 -1360 0
-1351 1355 1359 -1360 0
-1351 1355 -1359 -1360 0
-1351 -1355 1359 -1360 0
-1351 -1355 -1359 -1360 0
242 1361 0
-242 -1361 0
1361 1362 0
-1361 -1362 0
1362 1363 0
-1362 -1363 0
248 1364 0
-248 -1364 0
1364 1365 0
-1364 -1365 0
1365 1366 0
-1365 -1366 0
1351 1363 1366 1367 0
1351 1363 -1366 -1367 0
1351 -1363 1366 -1367 0
1351 -1363 -1366 -1367 0
-1351 1363 1366 -1367 0
-1351 1363 -1366 -1367 0
-1351 -1363 1366 -1367 0
-1351 -1363 -1366 -1367 0
908 1368 0
-908 -1368 0
1368 1369 0
-1368 -1369 0
1369 1355 1366 1370 0
1369 1355 -1366 -1370 0
1369 -1355 1366 -1370 0
1369 -1355 -1366 -1370 0
-1369 1355 1366 -1370 0
-1369 1355 -1366 -1370 0
-1369 -1355 1366 -1370 0
-1369 -1355 -1366 -1370 0
1369 1363 1359 1371 0
1369 1363 -1359 -1371 0
1369 -1363 1359 -1371 0
1369 -1363 -1359 -1371 0
-1369 1363 1359 -1371 0
-1369 1363 -1359 -1371 0
-1369 -1363 1359 -1371 0
-1369 -1363 -1359 -1371 0
1360 1367 1370 1371 -1372 0
1360 1367 1370 -1371 1372 0
1360 1367 -1370 1371 1372 0
1360 1367 -1370 -1371 1372 0
1360 -1367 1370 1371 1372 0
1360 -1367 1370 -1371 1372 0
1360 -1367 -1370 1371 1372 0
1360 -1367 -1370 -1371 1372 0
-1360 1367 1370 1371 1372 0
-1360 1367 1370 -1371 1372 0
-1360 1367 -1370 1371 1372 0
-1360 1367 -1370 -1371 1372 0
-1360 -1367 1370 1371 1372 0
-1360 -1367 1370 -1371 1372 0
-1360 -1367 -1370 1371 1372 0
-1360 -1367 -1370 -1371 1372 0
1372 1373 0
-1372 -1373 0
1373 1374 0
-1373 -1374 0
1374 1375 0
-1374 -1375 0
1320 1347 1375 1376 0
1320 1347 -1375 -1376 0
1320 -1347 1375 -1376 0
1320 -1347 -1375 -1376 0
-1320 1347 1375 -1376 0
-1320 1347 -1375 -1376 0
-1320 -1347 1375 -1376 0
-1320 -1347 -1375 -1376 0
1345 1377 0
-1345 -1377 0
1377 1378 0
-1377 -1378 0
1378 1379 0
-1378 -1379 0
1372 1380 0
-1372 -1380 0
1380 1381 0
-1380 -1381 0
1320 1379 1381 1382 0
1320 1379 -1381 -1382 0
1320 -1379 1381 -1382 0
1320 -1379 -1381 -1382 0
-1320 1379 1381 -1382 0
-1320 1379 -1381 -1382 0
-1320 -1379 1381 -1382 0
-1320 -1379 -1381 -1382 0
1317 1383 0
-1317 -1383 0
1383 1384 0
-1383 -1384 0
1384 1347 1381 1385 0
1384 1347 -1381 -1385 0
1384 -1347 1381 -1385 0
1384 -1347 -1381 -1385 0
-1384 1347 1381 -1385 0
-1384 1347 -1381 -1385 0
-1384 -1347 1381 -1385 0
-1384 -1347 -1381 -1385 0
1384 1379 1375 1386 0
1384 1379 -1375 -1386 0
1384 -1379 1375 -1386 0
1384 -1379 -1375 -1386 0
-1384 1379 1375 -1386 0
-1384 1379 -1375 -1386 0
-1384 -1379 1375 -1386 0
-1384 -1379 -1375 -1386 0
1376 1382 1385 1386 -1387 0
1376 1382 1385 -1386 1387 0
1376 1382 -1385 1386 1387 0
1376 1382 -1385 -1386 1387 0
1376 -1382 1385 1386 1387 0
1376 -1382 1385 -1386 1387 0
1376 -1382 -1385 1386 1387 0
1376 -1382 -1385 -1386 1387 0
-1376 1382 1385 1386 1387 0
-1376 1382 1385 -1386 1387 0
-1376 1382 -1385 1386 1387 0
-1376 1382 -1385 -1386 1387 0
-1376 -1382 1385 1386 1387 0
-1376 -1382 1385 -1386 1387 0
-1376 -1382 -1385 1386 1387 0
-1376 -1382 -1385 -1386 1387 0
224 1388 0
-224 -1388 0
1388 1389 0
-1388 -1389 0
1389 1390 0
-1389 -1390 0
1390 1391 0
-1390 -1391 0
232 1392 0
-232 -1392 0
1392 1393 0
-1392 -1393 0
1393 1394 0
-1393 -1394 0
1394 1395 0
-1394 -1395 0
223 1396 0
-223 -1396 0
1396 1397 0
-1396 -1397 0
1397 1398 0
-1397 -1398 0
1398 1399 0
-1398 -1399 0
1391 1395 1399 1400 0
1391 1395 -1399 -1400 0
1391 -1395 1399 -1400 0
1391 -1395 -1399 -1400 0
-1391 1395 1399 -1400 0
-1391 1395 -1399 -1400 0
-1391 -1395 1399 -1400 0
-1391 -1395 -1399 -1400 0
900 1401 0
-900 -1401 0
1401 1402 0
-1401 -1402 0
631 1403 0
-631 -1403 0
1403 1404 0
-1403 -1404 0
1391 1402 1404 1405 0
1391 1402 -1404 -1405 0
1391 -1402 1404 -1405 0
1391 -1402 -1404 -1405 0
-1391 1402 1404 -1405 0
-1391 1402 -1404 -1405 0
-1391 -1402 1404 -1405 0
-1391 -1402 -1404 -1405 0
634 1406 0
-634 -1406 0
1406 1407 0
-1406 -1407 0
1407 1395 1404 1408 0
1407 1395 -1404 -1408 0
1407 -1395 1404 -1408 0
1407 -1395 -1404 -1408 0
-1407 1395 1404 -1408 0
-1407 1395 -1404 -1408 0
-1407 -1395 1404 -1408 0
-1407 -1395 -1404 -1408 0
1407 1402 1399 1409 0
1407 1402 -1399 -1409 0
1407 -1402 1399 -1409 0
1407 -1402 -1399 -1409 0
-1407 1402 1399 -1409 0
-1407 1402 -1399 -1409 0
-1407 -1402 1399 -1409 0
-1407 -1402 -1399 -1409 0
1400 1405 1408 1409 -1410 0
1400 1405 1408 -1409 1410 0
1400 1405 -1408 1409 1410 0
1400 1405 -1408 -1409 1410 0
1400 -1405 1408 1409 1410 0
1400 -1405 1408 -1409 1410 0
1400 -1405 -1408 1409 1410 0
1400 -1405 -1408 -1409 1410 0
-1400 1405 1408 1409 1410 0
-1400 1405 1408 -1409 1410 0
-1400 1405 -1408 1409 1410 0
-1400 1405 -1408 -1409 1410 0
-1400 -1405 1408 1409 1410 0
-1400 -1405 1408 -1409 1410 0
-1400 -1405 -1408 1409 1410 0
-1400 -1405 -1408 -1409 1410 0
1410 1411 0
-1410 -1411 0
1411 1412 0
-1411 -1412 0
1412 1413 0
-1412 -1413 0
241 1414 0
-241 -1414 0
1414 1415 0
-1414 -1415 0
1415 1416 0
-1415 -1416 0
1416 1417 0
-1416 -1417 0
225 1418 0
-225 -1418 0
1418 1419 0
-1418 -1419 0
1419 1420 0
-1419 -1420 0
1420 1421 0
-1420 -1421 0
240 1422 0
-240 -1422 0
1422 1423 0
-1422 -1423 0
1423 1424 0
-1423 -1424 0
1424 1425 0
-1424 -1425 0
1417 1421 1425 1426 0
1417 1421 -1425 -1426 0
1417 -1421 1425 -1426 0
1417 -1421 -1425 -1426 0
-1417 1421 1425 -1426 0
-1417 1421 -1425 -1426 0
-1417 -1421 1425 -1426 0
-1417 -1421 -1425 -1426 0
637 1427 0
-637 -1427 0
1427 1428 0
-1427 -1428 0
240 1429 0
-240 -1429 0
1429 1430 0
-1429 -1430 0
1430 1431 0
-1430 -1431 0
1417 1428 1431 1432 0
1417 1428 -1431 -1432 0
1417 -1428 1431 -1432 0
1417 -1428 -1431 -1432 0
-1417 1428 1431 -1432 0
-1417 1428 -1431 -1432 0
-1417 -1428 1431 -1432 0
-1417 -1428 -1431 -1432 0
241 1433 0
-241 -1433 0
1433 1434 0
-1433 -1434 0
1434 1435 0
-1434 -1435 0
1435 1421 1431 1436 0
1435 1421 -1431 -1436 0
1435 -1421 1431 -1436 0
1435 -1421 -1431 -1436 0
-1435 1421 1431 -1436 0
-1435 1421 -1431 -1436 0
-1435 -1421 1431 -1436 0
-1435 -1421 -1431 -1436 0
1435 1428 1425 1437 0
1435 1428 -1425 -1437 0
1435 -1428 1425 -1437 0
1435 -1428 -1425 -1437 0
-1435 1428 1425 -1437 0
-1435 1428 -1425 -1437 0
-1435 -1428 1425 -1437 0
-1435 -1428 -1425 -1437 0
1426 1432 1436 1437 -1438 0
1426 1432 1436 -1437 1438 0
1426 1432 -1436 1437 1438 0
1426 1432 -1436 -1437 1438 0
1426 -1432 1436 1437 1438 0
1426 -1432 1436 -1437 1438 0
1426 -1432 -1436 1437 1438 0
1426 -1432 -1436 -1437 1438 0
-1426 1432 1436 1437 1438 0
-1426 1432 1436 -1437 1438 0
-1426 1432 -1436 1437 1438 0
-1426 1432 -1436 -1437 1438 0
-1426 -1432 1436 1437 1438 0
-1426 -1432 1436 -1437 1438 0
-1426 -1432 -1436 1437 1438 0
-1426 -1432 -1436 -1437 1438 0
1438 1439 0
-1438 -1439 0
1439 1440 0
-1439 -1440 0
243 1441 0
-243 -1441 0
1441 1442 0
-1441 -1442 0
1442 1443 0
-1442 -1443 0
1443 1444 0
-1443 -1444 0
242 1445 0
-242 -1445 0
1445 1446 0
-1445 -1446 0
1446 1447 0
-1446 -1447 0
1447 1448 0
-1447 -1448 0
248 1449 0
-248 -1449 0
1449 1450 0
-1449 -1450 0
1450 1451 0
-1450 -1451 0
1451 1452 0
-1451 -1452 0
1444 1448 1452 1453 0
1444 1448 -1452 -1453 0
1444 -1448 1452 -1453 0
1444 -1448 -1452 -1453 0
-1444 1448 1452 -1453 0
-1444 1448 -1452 -1453 0
-1444 -1448 1452 -1453 0
-1444 -1448 -1452 -1453 0
242 1454 0
-242 -1454 0
1454 1455 0
-1454 -1455 0
1455 1456 0
-1455 -1456 0
248 1457 0
-248 -1457 0
1457 1458 0
-1457 -1458 0
1458 1459 0
-1458 -1459 0
1444 1456 1459 1460 0
1444 1456 -1459 -1460 0
1444 -1456 1459 -1460 0
1444 -1456 -1459 -1460 0
-1444 1456 1459 -1460 0
-1444 1456 -1459 -1460 0
-1444 -1456 1459 -1460 0
-1444 -1456 -1459 -1460 0
909 1461 0
-909 -1461 0
1461 1462 0
-1461 -1462 0
1462 1448 1459 1463 0
1462 1448 -1459 -1463 0
1462 -1448 1459 -1463 0
1462 -1448 -1459 -1463 0
-1462 1448 1459 -1463 0
-1462 1448 -1459 -1463 0
-1462 -1448 1459 -1463 0
-1462 -1448 -1459 -1463 0
1462 1456 1452 1464 0
1462 1456 -1452 -1464 0
1462 -1456 1452 -1464 0
1462 -1456 -1452 -1464 0
-1462 1456 1452 -1464 0
-1462 1456 -1452 -1464 0
-1462 -1456 1452 -1464 0
-1462 -1456 -1452 -1464 0
1453 1460 1463 1464 -1465 0
1453 1460 1463 -1464 1465 0
1453 1460 -1463 1464 1465 0
1453 1460 -1463 -1464 1465 0
1453 -1460 1463 1464 1465 0
1453 -1460 1463 -1464 1465 0
1453 -1460 -1463 1464 1465 0
1453 -1460 -1463 -1464 1465 0
-1453 1460 1463 1464 1465 0
-1453 1460 1463 -1464 1465 0
-1453 1460 -1463 1464 1465 0
-1453 1460 -1463 -1464 1465 0
-1453 -1460 1463 1464 1465 0
-1453 -1460 1463 -1464 1465 0
-1453 -1460 -1463 1464 1465 0
-1453 -1460 -1463 -1464 1465 0
1465 1466 0
-1465 -1466 0
1466 1467 0
-1466 -1467 0
1467 1468 0
-1467 -1468 0
1413 1440 1468 1469 0
1413 1440 -1468 -1469 0
1413 -1440 1468 -1469 0
1413 -1440 -1468 -1469 0
-1413 1440 1468 -1469 0
-1413 1440 -1468 -1469 0
-1413 -1440 1468 -1469 0
-1413 -1440 -1468 -1469 0
1438 1470 0
-1438 -1470 0
1470 1471 0
-1470 -1471 0
1471 1472 0
-1471 -1472 0
1465 1473 0
-1465 -1473 0
1473 1474 0
-1473 -1474 0
1413 1472 1474 1475 0
1413 1472 -1474 -1475 0
1413 -1472 1474 -1475 0
1413 -1472 -1474 -1475 0
-1413 1472 1474 -1475 0
-1413 1472 -1474 -1475 0
-1413 -1472 1474 -1475 0
-1413 -1472 -1474 -1475 0
1410 1476 0
-1410 -1476 0
1476 1477 0
-1476 -1477 0
1477 1440 1474 1478 0
1477 1440 -1474 -1478 0
1477 -1440 1474 -1478 0
1477 -1440 -1474 -1478 0
-1477 1440 1474 -1478 0
-1477 1440 -1474 -1478 0
-1477 -1440 1474 -1478 0
-1477 -1440 -1474 -1478 0
1477 1472 1468 1479 0
1477 1472 -1468 -1479 0
1477 -1472 1468 -1479 0
1477 -1472 -1468 -1479 0
-1477 1472 1468 -1479 0
-1477 1472 -1468 -1479 0
-1477 -1472 1468 -1479 0
-1477 -1472 -1468 -1479 0
1469 1475 1478 1479 -1480 0
1469 1475 1478 -1479 1480 0
1469 1475 -1478 1479 1480 0
1469 1475 -1478 -1479 1480 0
1469 -1475 1478 1479 1480 0
1469 -1475 1478 -1479 1480 0
1469 -1475 -1478 1479 1480 0
1469 -1475 -1478 -1479 1480 0
-1469 1475 1478 1479 1480 0
-1469 1475 1478 -1479 1480 0
-1469 1475 -1478 1479 1480 0
-1469 1475 -1478 -1479 1480 0
-1469 -1475 1478 1479 1480 0
-1469 -1475 1478 -1479 1480 0
-1469 -1475 -1478 1479 1480 0
-1469 -1475 -1478 -1479 1480 0
1387 1480 -1481 0
1387 -1480 1481 0
-1387 1480 1481 0
-1387 -1480 -1481 0
302 1482 0
-302 -1482 0
1482 1483 0
-1482 -1483 0
1483 1484 0
-1483 -1484 0
1484 1485 0
-1484 -1485 0
394 1486 0
-394 -1486 0
1486 1487 0
-1486 -1487 0
1487 1488 0
-1487 -1488 0
1488 1489 0
-1488 -1489 0
258 1490 0
-258 -1490 0
1490 1491 0
-1490 -1491 0
1491 1492 0
-1491 -1492 0
1492 1493 0
-1492 -1493 0
1485 1489 1493 1494 0
1485 1489 -1493 -1494 0
1485 -1489 1493 -1494 0
1485 -1489 -1493 -1494 0
-1485 1489 1493 -1494 0
-1485 1489 -1493 -1494 0
-1485 -1489 1493 -1494 0
-1485 -1489 -1493 -1494 0
394 1495 0
-394 -1495 0
1495 1496 0
-1495 -1496 0
1496 1497 0
-1496 -1497 0
258 1498 0
-258 -1498 0
1498 1499 0
-1498 -1499 0
1499 1500 0
-1499 -1500 0
1485 1497 1500 1501 0
1485 1497 -1500 -1501 0
1485 -1497 1500 -1501 0
1485 -1497 -1500 -1501 0
-1485 1497 1500 -1501 0
-1485 1497 -1500 -1501 0
-1485 -1497 1500 -1501 0
-1485 -1497 -1500 -1501 0
302 1502 0
-302 -1502 0
1502 1503 0
-1502 -1503 0
1503 1504 0
-1503 -1504 0
1504 1489 1500 1505 0
1504 1489 -1500 -1505 0
1504 -1489 1500 -1505 0
1504 -1489 -1500 -1505 0
-1504 1489 1500 -1505 0
-1504 1489 -1500 -1505 0
-1504 -1489 1500 -1505 0
-1504 -1489 -1500 -1505 0
1504 1497 1493 1506 0
1504 1497 -1493 -1506 0
1504 -1497 1493 -1506 0
1504 -1497 -1493 -1506 0
-1504 1497 1493 -1506 0
-1504 1497 -1493 -1506 0
-1504 -1497 1493 -1506 0
-1504 -1497 -1493 -1506 0
1494 1501 1505 1506 -1507 0
1494 1501 1505 -1506 1507 0
1494 1501 -1505 1506 1507 0
1494 1501 -1505 -1506 1507 0
1494 -1501 1505 1506 1507 0
1494 -1501 1505 -1506 1507 0
1494 -1501 -1505 1506 1507 0
1494 -1501 -1505 -1506 1507 0
-1494 1501 1505 1506 1507 0
-1494 1501 1505 -1506 1507 0
-1494 1501 -1505 1506 1507 0
-1494 1501 -1505 -1506 1507 0
-1494 -1501 1505 1506 1507 0
-1494 -1501 1505 -1506 1507 0
-1494 -1501 -1505 1506 1507 0
-1494 -1501 -1505 -1506 1507 0
1507 1508 0
-1507 -1508 0
1508 1509 0
-1508 -1509 0
1509 1510 0
-1509 -1510 0
230 1511 0
-230 -1511 0
1511 1512 0
-1511 -1512 0
1512 1513 0
-1512 -1513 0
1513 1514 0
-1513 -1514 0
222 1515 0
-222 -1515 0
1515 1516 0
-1515 -1516 0
1516 1517 0
-1516 -1517 0
1517 1518 0
-1517 -1518 0
231 1519 0
-231 -1519 0
1519 1520 0
-1519 -1520 0
1520 1521 0
-1520 -1521 0
1521 1522 0
-1521 -1522 0
1514 1518 1522 1523 0
1514 1518 -1522 -1523 0
1514 -1518 1522 -1523 0
1514 -1518 -1522 -1523 0
-1514 1518 1522 -1523 0
-1514 1518 -1522 -1523 0
-1514 -1518 1522 -1523 0
-1514 -1518 -1522 -1523 0
222 1524 0
-222 -1524 0
1524 1525 0
-1524 -1525 0
1525 1526 0
-1525 -1526 0
231 1527 0
-231 -1527 0
1527 1528 0
-1527 -1528 0
1528 1529 0
-1528 -1529 0
1514 1526 1529 1530 0
1514 1526 -1529 -1530 0
1514 -1526 1529 -1530 0
1514 -1526 -1529 -1530 0
-1514 1526 1529 -1530 0
-1514 1526 -1529 -1530 0
-1514 -1526 1529 -1530 0
-1514 -1526 -1529 -1530 0
230 1531 0
-230 -1531 0
1531 1532 0
-1531 -1532 0
1532 1533 0
-1532 -1533 0
1533 1518 1529 1534 0
1533 1518 -1529 -1534 0
1533 -1518 1529 -1534 0
1533 -1518 -1529 -1534 0
-1533 1518 1529 -1534 0
-1533 1518 -1529 -1534 0
-1533 -1518 1529 -1534 0
-1533 -1518 -1529 -1534 0
1533 1526 1522 1535 0
1533 1526 -1522 -1535 0
1533 -1526 1522 -1535 0
1533 -1526 -1522 -1535 0
-1533 1526 1522 -1535 0
-1533 1526 -1522 -1535 0
-1533 -1526 1522 -1535 0
-1533 -1526 -1522 -1535 0
1523 1530 1534 1535 -1536 0
1523 1530 1534 -1535 1536 0
1523 1530 -1534 1535 1536 0
1523 1530 -1534 -1535 1536 0
1523 -1530 1534 1535 1536 0
1523 -1530 1534 -1535 1536 0
1523 -1530 -1534 1535 1536 0
1523 -1530 -1534 -1535 1536 0
-1523 1530 1534 1535 1536 0
-1523 1530 1534 -1535 1536 0
-1523 1530 -1534 1535 1536 0
-1523 1530 -1534 -1535 1536 0
-1523 -1530 1534 1535 1536 0
-1523 -1530 1534 -1535 1536 0
-1523 -1530 -1534 1535 1536 0
-1523 -1530 -1534 -1535 1536 0
1536 1537 0
-1536 -1537 0
1537 1538 0
-1537 -1538 0
257 1539 0
-257 -1539 0
1539 1540 0
-1539 -1540 0
1540 1541 0
-1540 -1541 0
1541 1542 0
-1541 -1542 0
233 1543 0
-233 -1543 0
1543 1544 0
-1543 -1544 0
1544 1545 0
-1544 -1545 0
1545 1546 0
-1545 -1546 0
253 1547 0
-253 -1547 0
1547 1548 0
-1547 -1548 0
1548 1549 0
-1548 -1549 0
1549 1550 0
-1549 -1550 0
1542 1546 1550 1551 0
1542 1546 -1550 -1551 0
1542 -1546 1550 -1551 0
1542 -1546 -1550 -1551 0
-1542 1546 1550 -1551 0
-1542 1546 -1550 -1551 0
-1542 -1546 1550 -1551 0
-1542 -1546 -1550 -1551 0
233 1552 0
-233 -1552 0
1552 1553 0
-1552 -1553 0
1553 1554 0
-1553 -1554 0
253 1555 0
-253 -1555 0
1555 1556 0
-1555 -1556 0
1556 1557 0
-1556 -1557 0
1542 1554 1557 1558 0
1542 1554 -1557 -1558 0
1542 -1554 1557 -1558 0
1542 -1554 -1557 -1558 0
-1542 1554 1557 -1558 0
-1542 1554 -1557 -1558 0
-1542 -1554 1557 -1558 0
-1542 -1554 -1557 -1558 0
257 1559 0
-257 -1559 0
1559 1560 0
-1559 -1560 0
1560 1561 0
-1560 -1561 0
1561 1546 1557 1562 0
1561 1546 -1557 -1562 0
1561 -1546 1557 -1562 0
1561 -1546 -1557 -1562 0
-1561 1546 1557 -1562 0
-1561 1546 -1557 -1562 0
-1561 -1546 1557 -1562 0
-1561 -1546 -1557 -1562 0
1561 1554 1550 1563 0
1561 1554 -1550 -1563 0
1561 -1554 1550 -1563 0
1561 -1554 -1550 -1563 0
-1561 1554 1550 -1563 0
-1561 1554 -1550 -1563 0
-1561 -1554 1550 -1563 0
-1561 -1554 -1550 -1563 0
1551 1558 1562 1563 -1564 0
1551 1558 1562 -1563 1564 0
1551 1558 -1562 1563 1564 0
1551 1558 -1562 -1563 1564 0
1551 -1558 1562 1563 1564 0
1551 -1558 1562 -1563 1564 0
1551 -1558 -1562 1563 1564 0
1551 -1558 -1562 -1563 1564 0
-1551 1558 1562 1563 1564 0
-1551 1558 1562 -1563 1564 0
-1551 1558 -1562 1563 1564 0
-1551 1558 -1562 -1563 1564 0
-1551 -1558 1562 1563 1564 0
-1551 -1558 1562 -1563 1564 0
-1551 -1558 -1562 1563 1564 0
-1551 -1558 -1562 -1563 1564 0
1564 1565 0
-1564 -1565 0
1565 1566 0
-1565 -1566 0
1566 1567 0
-1566 -1567 0
1510 1538 1567 1568 0
1510 1538 -1567 -1568 0
1510 -1538 1567 -1568 0
1510 -1538 -1567 -1568 0
-1510 1538 1567 -1568 0
-1510 1538 -1567 -1568 0
-1510 -1538 1567 -1568 0
-1510 -1538 -1567 -1568 0
1536 1569 0
-1536 -1569 0
1569 1570 0
-1569 -1570 0
1570 1571 0
-1570 -1571 0
1564 1572 0
-1564 -1572 0
1572 1573 0
-1572 -1573 0
1510 1571 1573 1574 0
1510 1571 -1573 -1574 0
1510 -1571 1573 -1574 0
1510 -1571 -1573 -1574 0
-1510 1571 1573 -1574 0
-1510 1571 -1573 -1574 0
-1510 -1571 1573 -1574 0
-1510 -1571 -1573 -1574 0
1507 1575 0
-1507 -1575 0
1575 1576 0
-1575 -1576 0
1576 1538 1573 1577 0
1576 1538 -1573 -1577 0
1576 -1538 1573 -1577 0
1576 -1538 -1573 -1577 0
-1576 1538 1573 -1577 0
-1576 1538 -1573 -1577 0
-1576 -1538 1573 -1577 0
-1576 -1538 -1573 -1577 0
1576 1571 1567 1578 0
1576 1571 -1567 -1578 0
1576 -1571 1567 -1578 0
1576 -1571 -1567 -1578 0
-1576 1571 1567 -1578 0
-1576 1571 -1567 -1578 0
-1576 -1571 1567 -1578 0
-1576 -1571 -1567 -1578 0
1568 1574 1577 1578 -1579 0
1568 1574 1577 -1578 1579 0
1568 1574 -1577 1578 1579 0
1568 1574 -1577 -1578 1579 0
1568 -1574 1577 1578 1579 0
1568 -1574 1577 -1578 1579 0
1568 -1574 -1577 1578 1579 0
1568 -1574 -1577 -1578 1579 0
-1568 1574 1577 1578 1579 0
-1568 1574 1577 -1578 1579 0
-1568 1574 -1577 1578 1579 0
-1568 1574 -1577 -1578 1579 0
-1568 -1574 1577 1578 1579 0
-1568 -1574 1577 -1578 1579 0
-1568 -1574 -1577 1578 1579 0
-1568 -1574 -1577 -1578 1579 0
302 1580 0
-302 -1580 0
1580 1581 0
-1580 -1581 0
1581 1582 0
-1581 -1582 0
1582 1583 0
-1582 -1583 0
394 1584 0
-394 -1584 0
1584 1585 0
-1584 -1585 0
1585 1586 0
-1585 -1586 0
1586 1587 0
-1586 -1587 0
258 1588 0
-258 -1588 0
1588 1589 0
-1588 -1589 0
1589 1590 0
-1589 -1590 0
1590 1591 0
-1590 -1591 0
1583 1587 1591 1592 0
1583 1587 -1591 -1592 0
1583 -1587 1591 -1592 0
1583 -1587 -1591 -1592 0
-1583 1587 1591 -1592 0
-1583 1587 -1591 -1592 0
-1583 -1587 1591 -1592 0
-1583 -1587 -1591 -1592 0
394 1593 0
-394 -1593 0
1593 1594 0
-1593 -1594 0
1594 1595 0
-1594 -1595 0
258 1596 0
-258 -1596 0
1596 1597 0
-1596 -1597 0
1597 1598 0
-1597 -1598 0
1583 1595 1598 1599 0
1583 1595 -1598 -1599 0
1583 -1595 1598 -1599 0
1583 -1595 -1598 -1599 0
-1583 1595 1598 -1599 0
-1583 1595 -1598 -1599 0
-1583 -1595 1598 -1599 0
-1583 -1595 -1598 -1599 0
302 1600 0
-302 -1600 0
1600 1601 0
-1600 -1601 0
1601 1602 0
-1601 -1602 0
1602 1587 1598 1603 0
1602 1587 -1598 -1603 0
1602 -1587 1598 -1603 0
1602 -1587 -1598 -1603 0
-1602 1587 1598 -1603 0
-1602 1587 -1598 -1603 0
-1602 -1587 1598 -1603 0
-1602 -1587 -1598 -1603 0
1602 1595 1591 1604 0
1602 1595 -1591 -1604 0
1602 -1595 1591 -1604 0
1602 -1595 -1591 -1604 0
-1602 1595 1591 -1604 0
-1602 1595 -1591 -1604 0
-1602 -1595 1591 -1604 0
-1602 -1595 -1591 -1604 0
1592 1599 1603 1604 -1605 0
1592 1599 1603 -1604 1605 0
1592 1599 -1603 1604 1605 0
1592 1599 -1603 -1604 1605 0
1592 -1599 1603 1604 1605 0
1592 -1599 1603 -1604 1605 0
1592 -1599 -1603 1604 1605 0
1592 -1599 -1603 -1604 1605 0
-1592 1599 1603 1604 1605 0
-1592 1599 1603 -1604 1605 0
-1592 1599 -1603 1604 1605 0
-1592 1599 -1603 -1604 1605 0
-1592 -1599 1603 1604 1605 0
-1592 -1599 1603 -1604 1605 0
-1592 -1599 -1603 1604 1605 0
-1592 -1599 -1603 -1604 1605 0
1605 1606 0
-1605 -1606 0
1606 1607 0
-1606 -1607 0
1607 1608 0
-1607 -1608 0
230 1609 0
-230 -1609 0
1609 1610 0
-1609 -1610 0
1610 1611 0
-1610 -1611 0
1611 1612 0
-1611 -1612 0
222 1613 0
-222 -1613 0
1613 1614 0
-1613 -1614 0
1614 1615 0
-1614 -1615 0
1615 1616 0
-1615 -1616 0
231 1617 0
-231 -1617 0
1617 1618 0
-1617 -1618 0
1618 1619 0
-1618 -1619 0
1619 1620 0
-1619 -1620 0
1612 1616 1620 1621 0
1612 1616 -1620 -1621 0
1612 -1616 1620 -1621 0
1612 -1616 -1620 -1621 0
-1612 1616 1620 -1621 0
-1612 1616 -1620 -1621 0
-1612 -1616 1620 -1621 0
-1612 -1616 -1620 -1621 0
222 1622 0
-222 -1622 0
1622 1623 0
-1622 -1623 0
1623 1624 0
-1623 -1624 0
231 1625 0
-231 -1625 0
1625 1626 0
-1625 -1626 0
1626 1627 0
-1626 -1627 0
1612 1624 1627 1628 0
1612 1624 -1627 -1628 0
1612 -1624 1627 -1628 0
1612 -1624 -1627 -1628 0
-1612 1624 1627 -1628 0
-1612 1624 -1627 -1628 0
-1612 -1624 1627 -1628 0
-1612 -1624 -1627 -1628 0
230 1629 0
-230 -1629 0
1629 1630 0
-1629 -1630 0
1630 1631 0
-1630 -1631 0
1631 1616 1627 1632 0
1631 1616 -1627 -1632 0
1631 -1616 1627 -1632 0
1631 -1616 -1627 -1632 0
-1631 1616 1627 -1632 0
-1631 1616 -1627 -1632 0
-1631 -1616 1627 -1632 0
-1631 -1616 -1627 -1632 0
1631 1624 1620 1633 0
1631 1624 -1620 -1633 0
1631 -1624 1620 -1633 0
1631 -1624 -1620 -1633 0
-1631 1624 1620 -1633 0
-1631 1624 -1620 -1633 0
-1631 -1624 1620 -1633 0
-1631 -1624 -1620 -1633 0
1621 1628 1632 1633 -1634 0
1621 1628 1632 -1633 1634 0
1621 1628 -1632 1633 1634 0
1621 1628 -1632 -1633 1634 0
1621 -1628 1632 1633 1634 0
1621 -1628 1632 -1633 1634 0
1621 -1628 -1632 1633 1634 0
1621 -1628 -1632 -1633 1634 0
-1621 1628 1632 1633 1634 0
-1621 1628 1632 -1633 1634 0
-1621 1628 -1632 1633 1634 0
-1621 1628 -1632 -1633 1634 0
-1621 -1628 1632 1633 1634 0
-1621 -1628 1632 -1633 1634 0
-1621 -1628 -1632 1633 1634 0
-1621 -1628 -1632 -1633 1634 0
1634 1635 0
-1634 -1635 0
1635 1636 0
-1635 -1636 0
257 1637 0
-257 -1637 0
1637 1638 0
-1637 -1638 0
1638 1639 0
-1638 -1639 0
1639 1640 0
-1639 -1640 0
233 1641 0
-233 -1641 0
1641 1642 0
-1641 -1642 0
1642 1643 0
-1642 -1643 0
1643 1644 0
-1643 -1644 0
253 1645 0
-253 -1645 0
1645 1646 0
-1645 -1646 0
1646 1647 0
-1646 -1647 0
1647 1648 0
-1647 -1648 0
1640 1644 1648 1649 0
1640 1644 -1648 -1649 0
1640 -1644 1648 -1649 0
1640 -1644 -1648 -1649 0
-1640 1644 1648 -1649 0
-1640 1644 -1648 -1649 0
-1640 -1644 1648 -1649 0
-1640 -1644 -1648 -1649 0
233 1650 0
-233 -1650 0
1650 1651 0
-1650 -1651 0
1651 1652 0
-1651 -1652 0
253 1653 0
-253 -1653 0
1653 1654 0
-1653 -1654 0
1654 1655 0
-1654 -1655 0
1640 1652 1655 1656 0
1640 1652 -1655 -1656 0
1640 -1652 1655 -1656 0
1640 -1652 -1655 -1656 0
-1640 1652 1655 -1656 0
-1640 1652 -1655 -1656 0
-1640 -1652 1655 -1656 0
-1640 -1652 -1655 -1656 0
257 1657 0
-257 -1657 0
1657 1658 0
-1657 -1658 0
1658 1659 0
-1658 -1659 0
1659 1644 1655 1660 0
1659 1644 -1655 -1660 0
1659 -1644 1655 -1660 0
1659 -1644 -1655 -1660 0
-1659 1644 1655 -1660 0
-1659 1644 -1655 -1660 0
-1659 -1644 1655 -1660 0
-1659 -1644 -1655 -1660 0
1659 1652 1648 1661 0
1659 1652 -1648 -1661 0
1659 -1652 1648 -1661 0
1659 -1652 -1648 -1661 0
-1659 1652 1648 -1661 0
-1659 1652 -1648 -1661 0
-1659 -1652 1648 -1661 0
-1659 -1652 -1648 -1661 0
1649 1656 1660 1661 -1662 0
1649 1656 1660 -1661 1662 0
1649 1656 -1660 1661 1662 0
1649 1656 -1660 -1661 1662 0
1649 -1656 1660 1661 1662 0
1649 -1656 1660 -1661 1662 0
1649 -1656 -1660 1661 1662 0
1649 -1656 -1660 -1661 1662 0
-1649 1656 1660 1661 1662 0
-1649 1656 1660 -1661 1662 0
-1649 1656 -1660 1661 1662 0
-1649 1656 -1660 -1661 1662 0
-1649 -1656 1660 1661 1662 0
-1649 -1656 1660 -1661 1662 0
-1649 -1656 -1660 1661 1662 0
-1649 -1656 -1660 -1661 1662 0
1662 1663 0
-1662 -1663 0
1663 1664 0
-1663 -1664 0
1664 1665 0
-1664 -1665 0
1608 1636 1665 1666 0
1608 1636 -1665 -1666 0
1608 -1636 1665 -1666 0
1608 -1636 -1665 -1666 0
-1608 1636 1665 -1666 0
-1608 1636 -1665 -1666 0
-1608 -1636 1665 -1666 0
-1608 -1636 -1665 -1666 0
1634 1667 0
-1634 -1667 0
1667 1668 0
-1667 -1668 0
1668 1669 0
-1668 -1669 0
1662 1670 0
-1662 -1670 0
1670 1671 0
-1670 -1671 0
1608 1669 1671 1672 0
1608 1669 -1671 -1672 0
1608 -1669 1671 -1672 0
1608 -1669 -1671 -1672 0
-1608 1669 1671 -1672 0
-1608 1669 -1671 -1672 0
-1608 -1669 1671 -1672 0
-1608 -1669 -1671 -1672 0
1605 1673 0
-1605 -1673 0
1673 1674 0
-1673 -1674 0
1674 1636 1671 1675 0
1674 1636 -1671 -1675 0
1674 -1636 1671 -1675 0
1674 -1636 -1671 -1675 0
-1674 1636 1671 -1675 0
-1674 1636 -1671 -1675 0
-1674 -1636 1671 -1675 0
-1674 -1636 -1671 -1675 0
1674 1669 1665 1676 0
1674 1669 -1665 -1676 0
1674 -1669 1665 -1676 0
1674 -1669 -1665 -1676 0
-1674 1669 1665 -1676 0
-1674 1669 -1665 -1676 0
-1674 -1669 1665 -1676 0
-1674 -1669 -1665 -1676 0
1666 1672 1675 1676 -1677 0
1666 1672 1675 -1676 1677 0
1666 1672 -1675 1676 1677 0
1666 1672 -1675 -1676 1677 0
1666 -1672 1675 1676 1677 0
1666 -1672 1675 -1676 1677 0
1666 -1672 -1675 1676 1677 0
1666 -1672 -1675 -1676 1677 0
-1666 1672 1675 1676 1677 0
-1666 1672 1675 -1676 1677 0
-1666 1672 -1675 1676 1677 0
-1666 1672 -1675 -1676 1677 0
-1666 -1672 1675 1676 1677 0
-1666 -1672 1675 -1676 1677 0
-1666 -1672 -1675 1676 1677 0
-1666 -1672 -1675 -1676 1677 0
1579 1677 -1678 0
1579 -1677 1678 0
-1579 1677 1678 0
-1579 -1677 -1678 0
668 826 1679 0
668 -826 -1679 0
-668 826 -1679 0
-668 -826 -1679 0
1679 1680 0
-1679 -1680 0
823 703 1681 0
823 -703 -1681 0
-823 703 -1681 0
-823 -703 -1681 0
1681 1682 0
-1681 -1682 0
665 1680 1682 1683 0
665 1680 -1682 -1683 0
665 -1680 1682 -1683 0
665 -1680 -1682 -1683 0
-665 1680 1682 -1683 0
-665 1680 -1682 -1683 0
-665 -1680 1682 -1683 0
-665 -1680 -1682 -1683 0
699 702 704 1684 0
699 702 -704 -1684 0
699 -702 704 -1684 0
699 -702 -704 -1684 0
-699 702 704 -1684 0
-699 702 -704 -1684 0
-699 -702 704 -1684 0
-699 -702 -704 -1684 0
1683 1684 1685 0
1683 -1684 -1685 0
-1683 1684 -1685 0
-1683 -1684 -1685 0
1685 1686 0
-1685 -1686 0
376 1687 0
-376 -1687 0
1687 1688 0
-1687 -1688 0
1688 1689 0
-1688 -1689 0
1689 1690 0
-1689 -1690 0
1690 1691 0
-1690 -1691 0
1691 1692 0
-1691 -1692 0
376 1693 0
-376 -1693 0
1693 1694 0
-1693 -1694 0
1694 1695 0
-1694 -1695 0
1695 1696 0
-1695 -1696 0
1696 1697 0
-1696 -1697 0
1692 1697 -1698 0
1692 -1697 1698 0
-1692 1697 1698 0
-1692 -1697 1698 0
1698 1699 0
-1698 -1699 0
1699 1700 0
-1699 -1700 0
1686 1700 -1701 0
1686 -1700 1701 0
-1686 1700 1701 0
-1686 -1700 1701 0
1701 1702 0
-1701 -1702 0
1702 1703 0
-1702 -1703 0
1703 1704 0
-1703 -1704 0
1704 1705 0
-1704 -1705 0
740 880 1706 0
740 -880 -1706 0
-740 880 -1706 0
-740 -880 -1706 0
1706 1707 0
-1706 -1707 0
877 775 1708 0
877 -775 -1708 0
-877 775 -1708 0
-877 -775 -1708 0
1708 1709 0
-1708 -1709 0
737 1707 1709 1710 0
737 1707 -1709 -1710 0
737 -1707 1709 -1710 0
737 -1707 -1709 -1710 0
-737 1707 1709 -1710 0
-737 1707 -1709 -1710 0
-737 -1707 1709 -1710 0
-737 -1707 -1709 -1710 0
771 774 776 1711 0
771 774 -776 -1711 0
771 -774 776 -1711 0
771 -774 -776 -1711 0
-771 774 776 -1711 0
-771 774 -776 -1711 0
-771 -774 776 -1711 0
-771 -774 -776 -1711 0
1710 1711 1712 0
1710 -1711 -1712 0
-1710 1711 -1712 0
-1710 -1711 -1712 0
1712 1713 0
-1712 -1713 0
376 1714 0
-376 -1714 0
1714 1715 0
-1714 -1715 0
1715 1716 0
-1715 -1716 0
1716 1717 0
-1716 -1717 0
1717 1718 0
-1717 -1718 0
1718 1719 0
-1718 -1719 0
376 1720 0
-376 -1720 0
1720 1721 0
-1720 -1721 0
1721 1722 0
-1721 -1722 0
1722 1723 0
-1722 -1723 0
1723 1724 0
-1723 -1724 0
1719 1724 -1725 0
1719 -1724 1725 0
-1719 1724 1725 0
-1719 -1724 1725 0
1725 1726 0
-1725 -1726 0
1726 1727 0
-1726 -1727 0
1713 1727 -1728 0
1713 -1727 1728 0
-1713 1727 1728 0
-1713 -1727 1728 0
1728 1729 0
-1728 -1729 0
1729 1730 0
-1729 -1730 0
1730 1731 0
-1730 -1731 0
1731 1732 0
-1731 -1732 0
1705 1732 -1733 0
1705 -1732 1733 0
-1705 1732 1733 0
-1705 -1732 -1733 0
700 704 701 1734 0
700 704 -701 -1734 0
700 -704 701 -1734 0
700 -704 -701 -1734 0
-700 704 701 -1734 0
-700 704 -701 -1734 0
-700 -704 701 -1734 0
-700 -704 -701 -1734 0
664 1735 0
-664 -1735 0
671 694 1736 0
671 -694 -1736 0
-671 694 -1736 0
-671 -694 -1736 0
1736 1737 0
-1736 -1737 0
1735 1737 1682 1738 0
1735 1737 -1682 -1738 0
1735 -1737 1682 -1738 0
1735 -1737 -1682 -1738 0
-1735 1737 1682 -1738 0
-1735 1737 -1682 -1738 0
-1735 -1737 1682 -1738 0
-1735 -1737 -1682 -1738 0
1734 1738 1739 0
1734 -1738 -1739 0
-1734 1738 -1739 0
-1734 -1738 -1739 0
1739 1740 0
-1739 -1740 0
356 1741 0
-356 -1741 0
1741 1742 0
-1741 -1742 0
1742 1743 0
-1742 -1743 0
1743 1744 0
-1743 -1744 0
1744 1745 0
-1744 -1745 0
1689 1742 1746 0
1689 -1742 -1746 0
-1689 1742 -1746 0
-1689 -1742 -1746 0
356 1747 0
-356 -1747 0
1747 1748 0
-1747 -1748 0
1748 1749 0
-1748 -1749 0
1694 1749 1750 0
1694 -1749 -1750 0
-1694 1749 -1750 0
-1694 -1749 -1750 0
1745 1746 1750 -1751 0
1745 1746 -1750 1751 0
1745 -1746 1750 1751 0
1745 -1746 -1750 1751 0
-1745 1746 1750 1751 0
-1745 1746 -1750 1751 0
-1745 -1746 1750 1751 0
-1745 -1746 -1750 1751 0
1751 1752 0
-1751 -1752 0
1752 1753 0
-1752 -1753 0
1740 1753 -1754 0
1740 -1753 1754 0
-1740 1753 1754 0
-1740 -1753 1754 0
1754 1755 0
-1754 -1755 0
1755 1756 0
-1755 -1756 0
1756 1757 0
-1756 -1757 0
1757 1758 0
-1757 -1758 0
772 776 773 1759 0
772 776 -773 -1759 0
772 -776 773 -1759 0
772 -776 -773 -1759 0
-772 776 773 -1759 0
-772 776 -773 -1759 0
-772 -776 773 -1759 0
-772 -776 -773 -1759 0
736 1760 0
-736 -1760 0
743 766 1761 0
743 -766 -1761 0
-743 766 -1761 0
-743 -766 -1761 0
1761 1762 0
-1761 -1762 0
1760 1762 1709 1763 0
1760 1762 -1709 -1763 0
1760 -1762 1709 -1763 0
1760 -1762 -1709 -1763 0
-1760 1762 1709 -1763 0
-1760 1762 -1709 -1763 0
-1760 -1762 1709 -1763 0
-1760 -1762 -1709 -1763 0
1759 1763 1764 0
1759 -1763 -1764 0
-1759 1763 -1764 0
-1759 -1763 -1764 0
1764 1765 0
-1764 -1765 0
356 1766 0
-356 -1766 0
1766 1767 0
-1766 -1767 0
1767 1768 0
-1767 -1768 0
1768 1769 0
-1768 -1769 0
1769 1770 0
-1769 -1770 0
1716 1767 1771 0
1716 -1767 -1771 0
-1716 1767 -1771 0
-1716 -1767 -1771 0
356 1772 0
-356 -1772 0
1772 1773 0
-1772 -1773 0
1773 1774 0
-1773 -1774 0
1721 1774 1775 0
1721 -1774 -1775 0
-1721 1774 -1775 0
-1721 -1774 -1775 0
1770 1771 1775 -1776 0
1770 1771 -1775 1776 0
1770 -1771 1775 1776 0
1770 -1771 -1775 1776 0
-1770 1771 1775 1776 0
-1770 1771 -1775 1776 0
-1770 -1771 1775 1776 0
-1770 -1771 -1775 1776 0
1776 1777 0
-1776 -1777 0
1777 1778 0
-1777 -1778 0
1765 1778 -1779 0
1765 -1778 1779 0
-1765 1778 1779 0
-1765 -1778 1779 0
1779 1780 0
-1779 -1780 0
1780 1781 0
-1780 -1781 0
1781 1782 0
-1781 -1782 0
1782 1783 0
-1782 -1783 0
1758 1783 -1784 0
1758 -1783 1784 0
-1758 1783 1784 0
-1758 -1783 -1784 0
330 1785 0
-330 -1785 0
1785 1786 0
-1785 -1786 0
1786 1491 1787 0
1786 -1491 -1787 0
-1786 1491 -1787 0
-1786 -1491 -1787 0
367 1788 0
-367 -1788 0
1788 1789 0
-1788 -1789 0
1742 1694 1790 0
1742 -1694 -1790 0
-1742 1694 -1790 0
-1742 -1694 -1790 0
1789 1790 1791 0
1789 -1790 -1791 0
-1789 1790 -1791 0
-1789 -1790 -1791 0
367 1792 0
-367 -1792 0
1792 1793 0
-1792 -1793 0
1793 1794 0
-1793 -1794 0
1790 1795 0
-1790 -1795 0
1794 1795 1796 0
1794 -1795 -1796 0
-1794 1795 -1796 0
-1794 -1795 -1796 0
1791 1796 -1797 0
1791 -1796 1797 0
-1791 1796 1797 0
-1791 -1796 1797 0
1797 1798 0
-1797 -1798 0
1798 1799 0
-1798 -1799 0
1787 1799 -1800 0
1787 -1799 1800 0
-1787 1799 1800 0
-1787 -1799 1800 0
1800 1801 0
-1800 -1801 0
1801 1802 0
-1801 -1802 0
1802 1803 0
-1802 -1803 0
1803 1804 0
-1803 -1804 0
330 1805 0
-330 -1805 0
1805 1806 0
-1805 -1806 0
1806 1589 1807 0
1806 -1589 -1807 0
-1806 1589 -1807 0
-1806 -1589 -1807 0
367 1808 0
-367 -1808 0
1808 1809 0
-1808 -1809 0
1767 1721 1810 0
1767 -1721 -1810 0
-1767 1721 -1810 0
-1767 -1721 -1810 0
1809 1810 1811 0
1809 -1810 -1811 0
-1809 1810 -1811 0
-1809 -1810 -1811 0
367 1812 0
-367 -1812 0
1812 1813 0
-1812 -1813 0
1813 1814 0
-1813 -1814 0
1810 1815 0
-1810 -1815 0
1814 1815 1816 0
1814 -1815 -1816 0
-1814 1815 -1816 0
-1814 -1815 -1816 0
1811 1816 -1817 0
1811 -1816 1817 0
-1811 1816 1817 0
-1811 -1816 1817 0
1817 1818 0
-1817 -1818 0
1818 1819 0
-1818 -1819 0
1807 1819 -1820 0
1807 -1819 1820 0
-1807 1819 1820 0
-1807 -1819 1820 0
1820 1821 0
-1820 -1821 0
1821 1822 0
-1821 -1822 0
1822 1823 0
-1822 -1823 0
1823 1824 0
-1823 -1824 0
1804 1824 -1825 0
1804 -1824 1825 0
-1804 1824 1825 0
-1804 -1824 -1825 0
380 1826 0
-380 -1826 0
387 1827 0
-387 -1827 0
377 1828 0
-377 -1828 0
1826 1827 1828 1829 0
1826 1827 -1828 -1829 0
1826 -1827 1828 -1829 0
1826 -1827 -1828 -1829 0
-1826 1827 1828 -1829 0
-1826 1827 -1828 -1829 0
-1826 -1827 1828 -1829 0
-1826 -1827 -1828 -1829 0
1829 1830 0
-1829 -1830 0
1830 1831 0
-1830 -1831 0
1831 1832 0
-1831 -1832 0
1832 1833 0
-1832 -1833 0
1833 1834 0
-1833 -1834 0
1834 1835 0
-1834 -1835 0
1835 1836 0
-1835 -1836 0
380 1837 0
-380 -1837 0
387 1838 0
-387 -1838 0
377 1839 0
-377 -1839 0
1837 1838 1839 1840 0
1837 1838 -1839 -1840 0
1837 -1838 1839 -1840 0
1837 -1838 -1839 -1840 0
-1837 1838 1839 -1840 0
-1837 1838 -1839 -1840 0
-1837 -1838 1839 -1840 0
-1837 -1838 -1839 -1840 0
1840 1841 0
-1840 -1841 0
1841 1842 0
-1841 -1842 0
1842 1843 0
-1842 -1843 0
1843 1844 0
-1843 -1844 0
1844 1845 0
-1844 -1845 0
1845 1846 0
-1845 -1846 0
1846 1847 0
-1846 -1847 0
1836 1847 -1848 0
1836 -1847 1848 0
-1836 1847 1848 0
-1836 -1847 -1848 0
331 1849 0
-331 -1849 0
1849 1850 0
-1849 -1850 0
1850 1851 0
-1850 -1851 0
1851 1852 0
-1851 -1852 0
1852 1853 0
-1852 -1853 0
1853 1854 0
-1853 -1854 0
1854 1855 0
-1854 -1855 0
331 1856 0
-331 -1856 0
1856 1857 0
-1856 -1857 0
1857 1858 0
-1857 -1858 0
1858 1859 0
-1858 -1859 0
1859 1860 0
-1859 -1860 0
1860 1861 0
-1860 -1861 0
1861 1862 0
-1861 -1862 0
1855 1862 -1863 0
1855 -1862 1863 0
-1855 1862 1863 0
-1855 -1862 -1863 0
332 1864 0
-332 -1864 0
331 1865 0
-331 -1865 0
1865 1866 0
-1865 -1866 0
1866 1867 0
-1866 -1867 0
1864 1867 -1868 0
1864 -1867 1868 0
-1864 1867 1868 0
-1864 -1867 1868 0
1868 1869 0
-1868 -1869 0
1869 1870 0
-1869 -1870 0
1870 1871 0
-1870 -1871 0
1871 1872 0
-1871 -1872 0
332 1873 0
-332 -1873 0
331 1874 0
-331 -1874 0
1874 1875 0
-1874 -1875 0
1875 1876 0
-1875 -1876 0
1873 1876 -1877 0
1873 -1876 1877 0
-1873 1876 1877 0
-1873 -1876 1877 0
1877 1878 0
-1877 -1878 0
1878 1879 0
-1878 -1879 0
1879 1880 0
-1879 -1880 0
1880 1881 0
-1880 -1881 0
1872 1881 -1882 0
1872 -1881 1882 0
-1872 1881 1882 0
-1872 -1881 -1882 0
319 1883 0
-319 -1883 0
386 1884 0
-386 -1884 0
385 1885 0
-385 -1885 0
1883 1884 1885 1886 0
1883 1884 -1885 -1886 0
1883 -1884 1885 -1886 0
1883 -1884 -1885 -1886 0
-1883 1884 1885 -1886 0
-1883 1884 -1885 -1886 0
-1883 -1884 1885 -1886 0
-1883 -1884 -1885 -1886 0
1886 1887 0
-1886 -1887 0
648 1887 1888 0
648 -1887 -1888 0
-648 1887 -1888 0
-648 -1887 -1888 0
361 1889 0
-361 -1889 0
364 1890 0
-364 -1890 0
370 1891 0
-370 -1891 0
353 1892 0
-353 -1892 0
371 1893 0
-371 -1893 0
352 1894 0
-352 -1894 0
1892 1893 1894 -1895 0
1892 1893 -1894 1895 0
1892 -1893 1894 1895 0
1892 -1893 -1894 1895 0
-1892 1893 1894 1895 0
-1892 1893 -1894 1895 0
-1892 -1893 1894 1895 0
-1892 -1893 -1894 1895 0
1889 1890 1891 1895 -1896 0
1889 1890 1891 -1895 1896 0
1889 1890 -1891 1895 1896 0
1889 1890 -1891 -1895 1896 0
1889 -1890 1891 1895 1896 0
1889 -1890 1891 -1895 1896 0
1889 -1890 -1891 1895 1896 0
1889 -1890 -1891 -1895 1896 0
-1889 1890 1891 1895 1896 0
-1889 1890 1891 -1895 1896 0
-1889 1890 -1891 1895 1896 0
-1889 1890 -1891 -1895 1896 0
-1889 -1890 1891 1895 1896 0
-1889 -1890 1891 -1895 1896 0
-1889 -1890 -1891 1895 1896 0
-1889 -1890 -1891 -1895 1896 0
1896 1897 0
-1896 -1897 0
1897 1898 0
-1897 -1898 0
1888 1898 -1899 0
1888 -1898 1899 0
-1888 1898 1899 0
-1888 -1898 1899 0
1899 1900 0
-1899 -1900 0
1900 1901 0
-1900 -1901 0
1901 1902 0
-1901 -1902 0
319 1903 0
-319 -1903 0
386 1904 0
-386 -1904 0
385 1905 0
-385 -1905 0
1903 1904 1905 1906 0
1903 1904 -1905 -1906 0
1903 -1904 1905 -1906 0
1903 -1904 -1905 -1906 0
-1903 1904 1905 -1906 0
-1903 1904 -1905 -1906 0
-1903 -1904 1905 -1906 0
-1903 -1904 -1905 -1906 0
1906 1907 0
-1906 -1907 0
720 1907 1908 0
720 -1907 -1908 0
-720 1907 -1908 0
-720 -1907 -1908 0
361 1909 0
-361 -1909 0
364 1910 0
-364 -1910 0
370 1911 0
-370 -1911 0
353 1912 0
-353 -1912 0
371 1913 0
-371 -1913 0
352 1914 0
-352 -1914 0
1912 1913 1914 -1915 0
1912 1913 -1914 1915 0
1912 -1913 1914 1915 0
1912 -1913 -1914 1915 0
-1912 1913 1914 1915 0
-1912 1913 -1914 1915 0
-1912 -1913 1914 1915 0
-1912 -1913 -1914 1915 0
1909 1910 1911 1915 -1916 0
1909 1910 1911 -1915 1916 0
1909 1910 -1911 1915 1916 0
1909 1910 -1911 -1915 1916 0
1909 -1910 1911 1915 1916 0
1909 -1910 1911 -1915 1916 0
1909 -1910 -1911 1915 1916 0
1909 -1910 -1911 -1915 1916 0
-1909 1910 1911 1915 1916 0
-1909 1910 1911 -1915 1916 0
-1909 1910 -1911 1915 1916 0
-1909 1910 -1911 -1915 1916 0
-1909 -1910 1911 1915 1916 0
-1909 -1910 1911 -1915 1916 0
-1909 -1910 -1911 1915 1916 0
-1909 -1910 -1911 -1915 1916 0
1916 1917 0
-1916 -1917 0
1917 1918 0
-1917 -1918 0
1908 1918 -1919 0
1908 -1918 1919 0
-1908 1918 1919 0
-1908 -1918 1919 0
1919 1920 0
-1919 -1920 0
1920 1921 0
-1920 -1921 0
1921 1922 0
-1921 -1922 0
1902 1922 -1923 0
1902 -1922 1923 0
-1902 1922 1923 0
-1902 -1922 -1923 0
1884 1885 1883 1924 0
1884 1885 -1883 -1924 0
1884 -1885 1883 -1924 0
1884 -1885 -1883 -1924 0
-1884 1885 1883 -1924 0
-1884 1885 -1883 -1924 0
-1884 -1885 1883 -1924 0
-1884 -1885 -1883 -1924 0
1531 1527 1925 0
1531 -1527 -1925 0
-1531 1527 -1925 0
-1531 -1527 -1925 0
1925 1926 0
-1925 -1926 0
1548 1552 1927 0
1548 -1552 -1927 0
-1548 1552 -1927 0
-1548 -1552 -1927 0
1927 1928 0
-1927 -1928 0
1926 1928 1929 0
1926 -1928 -1929 0
-1926 1928 -1929 0
-1926 -1928 -1929 0
1929 1930 0
-1929 -1930 0
1786 1931 0
-1786 -1931 0
1931 1932 0
-1931 -1932 0
1930 1932 1933 0
1930 -1932 -1933 0
-1930 1932 -1933 0
-1930 -1932 -1933 0
1785 1934 0
-1785 -1934 0
1934 1935 0
-1934 -1935 0
1935 1936 0
-1935 -1936 0
1555 1544 1937 0
1555 -1544 -1937 0
-1555 1544 -1937 0
-1555 -1544 -1937 0
1937 1938 0
-1937 -1938 0
1531 1520 1939 0
1531 -1520 -1939 0
-1531 1520 -1939 0
-1531 -1520 -1939 0
1939 1940 0
-1939 -1940 0
1938 1940 1941 0
1938 -1940 -1941 0
-1938 1940 -1941 0
-1938 -1940 -1941 0
1941 1942 0
-1941 -1942 0
1936 1942 1943 0
1936 -1942 -1943 0
-1936 1942 -1943 0
-1936 -1942 -1943 0
1938 1926 1944 0
1938 -1926 -1944 0
-1938 1926 -1944 0
-1938 -1926 -1944 0
1944 1945 0
-1944 -1945 0
1934 1946 0
-1934 -1946 0
1946 1947 0
-1946 -1947 0
1945 1947 1948 0
1945 -1947 -1948 0
-1945 1947 -1948 0
-1945 -1947 -1948 0
1527 1512 1949 0
1527 -1512 -1949 0
-1527 1512 -1949 0
-1527 -1512 -1949 0
1949 1950 0
-1949 -1950 0
1555 1552 1951 0
1555 -1552 -1951 0
-1555 1552 -1951 0
-1555 -1552 -1951 0
1951 1952 0
-1951 -1952 0
1950 1952 1953 0
1950 -1952 -1953 0
-1950 1952 -1953 0
-1950 -1952 -1953 0
1953 1954 0
-1953 -1954 0
1934 1955 0
-1934 -1955 0
1955 1956 0
-1955 -1956 0
1954 1956 1957 0
1954 -1956 -1957 0
-1954 1956 -1957 0
-1954 -1956 -1957 0
1934 1958 0
-1934 -1958 0
1958 1959 0
-1958 -1959 0
1512 1520 1960 0
1512 -1520 -1960 0
-1512 1520 -1960 0
-1512 -1520 -1960 0
1960 1961 0
-1960 -1961 0
1961 1952 1962 0
1961 -1952 -1962 0
-1961 1952 -1962 0
-1961 -1952 -1962 0
1962 1963 0
-1962 -1963 0
1959 1963 1964 0
1959 -1963 -1964 0
-1959 1963 -1964 0
-1959 -1963 -1964 0
1934 1965 0
-1934 -1965 0
1965 1966 0
-1965 -1966 0
1940 1952 1967 0
1940 -1952 -1967 0
-1940 1952 -1967 0
-1940 -1952 -1967 0
1967 1968 0
-1967 -1968 0
1966 1968 1969 0
1966 -1968 -1969 0
-1966 1968 -1969 0
-1966 -1968 -1969 0
1957 1964 1969 -1970 0
1957 1964 -1969 1970 0
1957 -1964 1969 1970 0
1957 -1964 -1969 1970 0
-1957 1964 1969 1970 0
-1957 1964 -1969 1970 0
-1957 -1964 1969 1970 0
-1957 -1964 -1969 1970 0
1933 1943 1948 1970 -1971 0
1933 1943 1948 -1970 1971 0
1933 1943 -1948 1970 1971 0
1933 1943 -1948 -1970 1971 0
1933 -1943 1948 1970 1971 0
1933 -1943 1948 -1970 1971 0
1933 -1943 -1948 1970 1971 0
1933 -1943 -1948 -1970 1971 0
-1933 1943 1948 1970 1971 0
-1933 1943 1948 -1970 1971 0
-1933 1943 -1948 1970 1971 0
-1933 1943 -1948 -1970 1971 0
-1933 -1943 1948 1970 1971 0
-1933 -1943 1948 -1970 1971 0
-1933 -1943 -1948 1970 1971 0
-1933 -1943 -1948 -1970 1971 0
1971 1972 0
-1971 -1972 0
1972 1973 0
-1972 -1973 0
1924 1973 -1974 0
1924 -1973 1974 0
-1924 1973 1974 0
-1924 -1973 1974 0
1974 1975 0
-1974 -1975 0
1975 1976 0
-1975 -1976 0
1976 1977 0
-1976 -1977 0
1904 1905 1903 1978 0
1904 1905 -1903 -1978 0
1904 -1905 1903 -1978 0
1904 -1905 -1903 -1978 0
-1904 1905 1903 -1978 0
-1904 1905 -1903 -1978 0
-1904 -1905 1903 -1978 0
-1904 -1905 -1903 -1978 0
1629 1625 1979 0
1629 -1625 -1979 0
-1629 1625 -1979 0
-1629 -1625 -1979 0
1979 1980 0
-1979 -1980 0
1646 1650 1981 0
1646 -1650 -1981 0
-1646 1650 -1981 0
-1646 -1650 -1981 0
1981 1982 0
-1981 -1982 0
1980 1982 1983 0
1980 -1982 -1983 0
-1980 1982 -1983 0
-1980 -1982 -1983 0
1983 1984 0
-1983 -1984 0
1806 1985 0
-1806 -1985 0
1985 1986 0
-1985 -1986 0
1984 1986 1987 0
1984 -1986 -1987 0
-1984 1986 -1987 0
-1984 -1986 -1987 0
1805 1988 0
-1805 -1988 0
1988 1989 0
-1988 -1989 0
1989 1990 0
-1989 -1990 0
1653 1642 1991 0
1653 -1642 -1991 0
-1653 1642 -1991 0
-1653 -1642 -1991 0
1991 1992 0
-1991 -1992 0
1629 1618 1993 0
1629 -1618 -1993 0
-1629 1618 -1993 0
-1629 -1618 -1993 0
1993 1994 0
-1993 -1994 0
1992 1994 1995 0
1992 -1994 -1995 0
-1992 1994 -1995 0
-1992 -1994 -1995 0
1995 1996 0
-1995 -1996 0
1990 1996 1997 0
1990 -1996 -1997 0
-1990 1996 -1997 0
-1990 -1996 -1997 0
1992 1980 1998 0
1992 -1980 -1998 0
-1992 1980 -1998 0
-1992 -1980 -1998 0
1998 1999 0
-1998 -1999 0
1988 2000 0
-1988 -2000 0
2000 2001 0
-2000 -2001 0
1999 2001 2002 0
1999 -2001 -2002 0
-1999 2001 -2002 0
-1999 -2001 -2002 0
1625 1610 2003 0
1625 -1610 -2003 0
-1625 1610 -2003 0
-1625 -1610 -2003 0
2003 2004 0
-2003 -2004 0
1653 1650 2005 0
1653 -1650 -2005 0
-1653 1650 -2005 0
-1653 -1650 -2005 0
2005 2006 0
-2005 -2006 0
2004 2006 2007 0
2004 -2006 -2007 0
-2004 2006 -2007 0
-2004 -2006 -2007 0
2007 2008 0
-2007 -2008 0
1988 2009 0
-1988 -2009 0
2009 2010 0
-2009 -2010 0
2008 2010 2011 0
2008 -2010 -2011 0
-2008 2010 -2011 0
-2008 -2010 -2011 0
1988 2012 0
-1988 -2012 0
2012 2013 0
-2012 -2013 0
1610 1618 2014 0
1610 -1618 -2014 0
-1610 1618 -2014 0
-1610 -1618 -2014 0
2014 2015 0
-2014 -2015 0
2015 2006 2016 0
2015 -2006 -2016 0
-2015 2006 -2016 0
-2015 -2006 -2016 0
2016 2017 0
-2016 -2017 0
2013 2017 2018 0
2013 -2017 -2018 0
-2013 2017 -2018 0
-2013 -2017 -2018 0
1988 2019 0
-1988 -2019 0
2019 2020 0
-2019 -2020 0
1994 2006 2021 0
1994 -2006 -2021 0
-1994 2006 -2021 0
-1994 -2006 -2021 0
2021 2022 0
-2021 -2022 0
2020 2022 2023 0
2020 -2022 -2023 0
-2020 2022 -2023 0
-2020 -2022 -2023 0
2011 2018 2023 -2024 0
2011 2018 -2023 2024 0
2011 -2018 2023 2024 0
2011 -2018 -2023 2024 0
-2011 2018 2023 2024 0
-2011 2018 -2023 2024 0
-2011 -2018 2023 2024 0
-2011 -2018 -2023 2024 0
1987 1997 2002 2024 -2025 0
1987 1997 2002 -2024 2025 0
1987 1997 -2002 2024 2025 0
1987 1997 -2002 -2024 2025 0
1987 -1997 2002 2024 2025 0
1987 -1997 2002 -2024 2025 0
1987 -1997 -2002 2024 2025 0
1987 -1997 -2002 -2024 2025 0
-1987 1997 2002 2024 2025 0
-1987 1997 2002 -2024 2025 0
-1987 1997 -2002 2024 2025 0
-1987 1997 -2002 -2024 2025 0
-1987 -1997 2002 2024 2025 0
-1987 -1997 2002 -2024 2025 0
-1987 -1997 -2002 2024 2025 0
-1987 -1997 -2002 -2024 2025 0
2025 2026 0
-2025 -2026 0
2026 2027 0
-2026 -2027 0
1978 2027 -2028 0
1978 -2027 2028 0
-1978 2027 2028 0
-1978 -2027 2028 0
2028 2029 0
-2028 -2029 0
2029 2030 0
-2029 -2030 0
2030 2031 0
-2030 -2031 0
1977 2031 -2032 0
1977 -2031 2032 0
-1977 2031 2032 0
-1977 -2031 -2032 0
336 2033 0
-336 -2033 0
2033 2034 0
-2033 -2034 0
2034 2035 0
-2034 -2035 0
340 2036 0
-340 -2036 0
2036 2037 0
-2036 -2037 0
2037 2038 0
-2037 -2038 0
314 2039 0
-314 -2039 0
2039 2040 0
-2039 -2040 0
2040 2041 0
-2040 -2041 0
2035 2038 2041 2042 0
2035 2038 -2041 -2042 0
2035 -2038 2041 -2042 0
2035 -2038 -2041 -2042 0
-2035 2038 2041 -2042 0
-2035 2038 -2041 -2042 0
-2035 -2038 2041 -2042 0
-2035 -2038 -2041 -2042 0
2042 2043 0
-2042 -2043 0
348 2044 0
-348 -2044 0
2044 2045 0
-2044 -2045 0
347 2046 0
-347 -2046 0
2046 2047 0
-2046 -2047 0
2045 2047 2048 0
2045 -2047 -2048 0
-2045 2047 -2048 0
-2045 -2047 -2048 0
2048 2049 0
-2048 -2049 0
2043 2049 2050 0
2043 -2049 -2050 0
-2043 2049 -2050 0
-2043 -2049 -2050 0
2050 2051 0
-2050 -2051 0
239 2052 0
-239 -2052 0
2052 2053 0
-2052 -2053 0
2053 2054 0
-2053 -2054 0
2054 2055 0
-2054 -2055 0
247 2056 0
-247 -2056 0
2056 2057 0
-2056 -2057 0
2057 2058 0
-2057 -2058 0
2058 2059 0
-2058 -2059 0
229 2060 0
-229 -2060 0
2060 2061 0
-2060 -2061 0
2061 2062 0
-2061 -2062 0
2062 2063 0
-2062 -2063 0
2055 2059 2063 2064 0
2055 2059 -2063 -2064 0
2055 -2059 2063 -2064 0
2055 -2059 -2063 -2064 0
-2055 2059 2063 -2064 0
-2055 2059 -2063 -2064 0
-2055 -2059 2063 -2064 0
-2055 -2059 -2063 -2064 0
247 2065 0
-247 -2065 0
2065 2066 0
-2065 -2066 0
2066 2067 0
-2066 -2067 0
229 2068 0
-229 -2068 0
2068 2069 0
-2068 -2069 0
2069 2070 0
-2069 -2070 0
2055 2067 2070 2071 0
2055 2067 -2070 -2071 0
2055 -2067 2070 -2071 0
2055 -2067 -2070 -2071 0
-2055 2067 2070 -2071 0
-2055 2067 -2070 -2071 0
-2055 -2067 2070 -2071 0
-2055 -2067 -2070 -2071 0
239 2072 0
-239 -2072 0
2072 2073 0
-2072 -2073 0
2073 2074 0
-2073 -2074 0
2074 2059 2070 2075 0
2074 2059 -2070 -2075 0
2074 -2059 2070 -2075 0
2074 -2059 -2070 -2075 0
-2074 2059 2070 -2075 0
-2074 2059 -2070 -2075 0
-2074 -2059 2070 -2075 0
-2074 -2059 -2070 -2075 0
2074 2067 2063 2076 0
2074 2067 -2063 -2076 0
2074 -2067 2063 -2076 0
2074 -2067 -2063 -2076 0
-2074 2067 2063 -2076 0
-2074 2067 -2063 -2076 0
-2074 -2067 2063 -2076 0
-2074 -2067 -2063 -2076 0
2064 2071 2075 2076 -2077 0
2064 2071 2075 -2076 2077 0
2064 2071 -2075 2076 2077 0
2064 2071 -2075 -2076 2077 0
2064 -2071 2075 2076 2077 0
2064 -2071 2075 -2076 2077 0
2064 -2071 -2075 2076 2077 0
2064 -2071 -2075 -2076 2077 0
-2064 2071 2075 2076 2077 0
-2064 2071 2075 -2076 2077 0
-2064 2071 -2075 2076 2077 0
-2064 2071 -2075 -2076 2077 0
-2064 -2071 2075 2076 2077 0
-2064 -2071 2075 -2076 2077 0
-2064 -2071 -2075 2076 2077 0
-2064 -2071 -2075 -2076 2077 0
2077 2078 0
-2077 -2078 0
2078 2079 0
-2078 -2079 0
2079 2080 0
-2079 -2080 0
246 2081 0
-246 -2081 0
256 2082 0
-256 -2082 0
2082 2083 0
-2082 -2083 0
2081 2083 2084 0
2081 -2083 -2084 0
-2081 2083 -2084 0
-2081 -2083 -2084 0
246 2085 0
-246 -2085 0
2085 2086 0
-2085 -2086 0
256 2087 0
-256 -2087 0
2086 2087 2088 0
2086 -2087 -2088 0
-2086 2087 -2088 0
-2086 -2087 -2088 0
2084 2088 -2089 0
2084 -2088 2089 0
-2084 2088 2089 0
-2084 -2088 2089 0
2089 2090 0
-2089 -2090 0
2090 2091 0
-2090 -2091 0
261 2092 0
-261 -2092 0
2092 2093 0
-2092 -2093 0
2093 2094 0
-2093 -2094 0
2094 2095 0
-2094 -2095 0
262 2096 0
-262 -2096 0
2096 2097 0
-2096 -2097 0
2097 2098 0
-2097 -2098 0
2098 2099 0
-2098 -2099 0
263 2100 0
-263 -2100 0
2100 2101 0
-2100 -2101 0
2101 2102 0
-2101 -2102 0
2102 2103 0
-2102 -2103 0
2095 2099 2103 2104 0
2095 2099 -2103 -2104 0
2095 -2099 2103 -2104 0
2095 -2099 -2103 -2104 0
-2095 2099 2103 -2104 0
-2095 2099 -2103 -2104 0
-2095 -2099 2103 -2104 0
-2095 -2099 -2103 -2104 0
262 2105 0
-262 -2105 0
2105 2106 0
-2105 -2106 0
2106 2107 0
-2106 -2107 0
263 2108 0
-263 -2108 0
2108 2109 0
-2108 -2109 0
2109 2110 0
-2109 -2110 0
2095 2107 2110 2111 0
2095 2107 -2110 -2111 0
2095 -2107 2110 -2111 0
2095 -2107 -2110 -2111 0
-2095 2107 2110 -2111 0
-2095 2107 -2110 -2111 0
-2095 -2107 2110 -2111 0
-2095 -2107 -2110 -2111 0
261 2112 0
-261 -2112 0
2112 2113 0
-2112 -2113 0
2113 2114 0
-2113 -2114 0
2114 2099 2110 2115 0
2114 2099 -2110 -2115 0
2114 -2099 2110 -2115 0
2114 -2099 -2110 -2115 0
-2114 2099 2110 -2115 0
-2114 2099 -2110 -2115 0
-2114 -2099 2110 -2115 0
-2114 -2099 -2110 -2115 0
2114 2107 2103 2116 0
2114 2107 -2103 -2116 0
2114 -2107 2103 -2116 0
2114 -2107 -2103 -2116 0
-2114 2107 2103 -2116 0
-2114 2107 -2103 -2116 0
-2114 -2107 2103 -2116 0
-2114 -2107 -2103 -2116 0
2104 2111 2115 2116 -2117 0
2104 2111 2115 -2116 2117 0
2104 2111 -2115 2116 2117 0
2104 2111 -2115 -2116 2117 0
2104 -2111 2115 2116 2117 0
2104 -2111 2115 -2116 2117 0
2104 -2111 -2115 2116 2117 0
2104 -2111 -2115 -2116 2117 0
-2104 2111 2115 2116 2117 0
-2104 2111 2115 -2116 2117 0
-2104 2111 -2115 2116 2117 0
-2104 2111 -2115 -2116 2117 0
-2104 -2111 2115 2116 2117 0
-2104 -2111 2115 -2116 2117 0
-2104 -2111 -2115 2116 2117 0
-2104 -2111 -2115 -2116 2117 0
2117 2118 0
-2117 -2118 0
2118 2119 0
-2118 -2119 0
2119 2120 0
-2119 -2120 0
2080 2091 2120 2121 0
2080 2091 -2120 -2121 0
2080 -2091 2120 -2121 0
2080 -2091 -2120 -2121 0
-2080 2091 2120 -2121 0
-2080 2091 -2120 -2121 0
-2080 -2091 2120 -2121 0
-2080 -2091 -2120 -2121 0
2089 2122 0
-2089 -2122 0
2122 2123 0
-2122 -2123 0
2123 2124 0
-2123 -2124 0
2117 2125 0
-2117 -2125 0
2125 2126 0
-2125 -2126 0
2080 2124 2126 2127 0
2080 2124 -2126 -2127 0
2080 -2124 2126 -2127 0
2080 -2124 -2126 -2127 0
-2080 2124 2126 -2127 0
-2080 2124 -2126 -2127 0
-2080 -2124 2126 -2127 0
-2080 -2124 -2126 -2127 0
2077 2128 0
-2077 -2128 0
2128 2129 0
-2128 -2129 0
2129 2091 2126 2130 0
2129 2091 -2126 -2130 0
2129 -2091 2126 -2130 0
2129 -2091 -2126 -2130 0
-2129 2091 2126 -2130 0
-2129 2091 -2126 -2130 0
-2129 -2091 2126 -2130 0
-2129 -2091 -2126 -2130 0
2129 2124 2120 2131 0
2129 2124 -2120 -2131 0
2129 -2124 2120 -2131 0
2129 -2124 -2120 -2131 0
-2129 2124 2120 -2131 0
-2129 2124 -2120 -2131 0
-2129 -2124 2120 -2131 0
-2129 -2124 -2120 -2131 0
2121 2127 2130 2131 -2132 0
2121 2127 2130 -2131 2132 0
2121 2127 -2130 2131 2132 0
2121 2127 -2130 -2131 2132 0
2121 -2127 2130 2131 2132 0
2121 -2127 2130 -2131 2132 0
2121 -2127 -2130 2131 2132 0
2121 -2127 -2130 -2131 2132 0
-2121 2127 2130 2131 2132 0
-2121 2127 2130 -2131 2132 0
-2121 2127 -2130 2131 2132 0
-2121 2127 -2130 -2131 2132 0
-2121 -2127 2130 2131 2132 0
-2121 -2127 2130 -2131 2132 0
-2121 -2127 -2130 2131 2132 0
-2121 -2127 -2130 -2131 2132 0
1964 2133 0
-1964 -2133 0
2132 2133 2134 0
2132 -2133 -2134 0
-2132 2133 -2134 0
-2132 -2133 -2134 0
2132 2135 0
-2132 -2135 0
2135 1964 2136 0
2135 -1964 -2136 0
-2135 1964 -2136 0
-2135 -1964 -2136 0
2134 2136 -2137 0
2134 -2136 2137 0
-2134 2136 2137 0
-2134 -2136 2137 0
2137 2138 0
-2137 -2138 0
2051 2138 2139 0
2051 -2138 -2139 0
-2051 2138 -2139 0
-2051 -2138 -2139 0
348 2140 0
-348 -2140 0
2140 2141 0
-2140 -2141 0
2141 2142 0
-2141 -2142 0
2047 2142 2143 0
2047 -2142 -2143 0
-2047 2142 -2143 0
-2047 -2142 -2143 0
2143 2144 0
-2143 -2144 0
336 2145 0
-336 -2145 0
2145 2146 0
-2145 -2146 0
314 2147 0
-314 -2147 0
2147 2148 0
-2147 -2148 0
340 2149 0
-340 -2149 0
2149 2150 0
-2149 -2150 0
2146 2148 2150 2151 0
2146 2148 -2150 -2151 0
2146 -2148 2150 -2151 0
2146 -2148 -2150 -2151 0
-2146 2148 2150 -2151 0
-2146 2148 -2150 -2151 0
-2146 -2148 2150 -2151 0
-2146 -2148 -2150 -2151 0
2151 2152 0
-2151 -2152 0
2144 2152 2153 0
2144 -2152 -2153 0
-2144 2152 -2153 0
-2144 -2152 -2153 0
2153 2154 0
-2153 -2154 0
2087 2155 0
-2087 -2155 0
2154 2155 2156 0
2154 -2155 -2156 0
-2154 2155 -2156 0
-2154 -2155 -2156 0
2041 2038 2146 2157 0
2041 2038 -2146 -2157 0
2041 -2038 2146 -2157 0
2041 -2038 -2146 -2157 0
-2041 2038 2146 -2157 0
-2041 2038 -2146 -2157 0
-2041 -2038 2146 -2157 0
-2041 -2038 -2146 -2157 0
2157 2158 0
-2157 -2158 0
2144 2158 2159 0
2144 -2158 -2159 0
-2144 2158 -2159 0
-2144 -2158 -2159 0
2159 2160 0
-2159 -2160 0
2108 2161 0
-2108 -2161 0
2160 2161 2162 0
2160 -2161 -2162 0
-2160 2161 -2162 0
-2160 -2161 -2162 0
2105 2163 0
-2105 -2163 0
2148 2038 2146 2164 0
2148 2038 -2146 -2164 0
2148 -2038 2146 -2164 0
2148 -2038 -2146 -2164 0
-2148 2038 2146 -2164 0
-2148 2038 -2146 -2164 0
-2148 -2038 2146 -2164 0
-2148 -2038 -2146 -2164 0
2164 2165 0
-2164 -2165 0
2144 2165 2166 0
2144 -2165 -2166 0
-2144 2165 -2166 0
-2144 -2165 -2166 0
2166 2167 0
-2166 -2167 0
2163 2167 2168 0
2163 -2167 -2168 0
-2163 2167 -2168 0
-2163 -2167 -2168 0
2081 2169 0
-2081 -2169 0
2146 2150 2041 2170 0
2146 2150 -2041 -2170 0
2146 -2150 2041 -2170 0
2146 -2150 -2041 -2170 0
-2146 2150 2041 -2170 0
-2146 2150 -2041 -2170 0
-2146 -2150 2041 -2170 0
-2146 -2150 -2041 -2170 0
2170 2171 0
-2170 -2171 0
2144 2171 2172 0
2144 -2171 -2172 0
-2144 2171 -2172 0
-2144 -2171 -2172 0
2172 2173 0
-2172 -2173 0
2169 2173 2174 0
2169 -2173 -2174 0
-2169 2173 -2174 0
-2169 -2173 -2174 0
2156 2162 2168 2174 -2175 0
2156 2162 2168 -2174 2175 0
2156 2162 -2168 2174 2175 0
2156 2162 -2168 -2174 2175 0
2156 -2162 2168 2174 2175 0
2156 -2162 2168 -2174 2175 0
2156 -2162 -2168 2174 2175 0
2156 -2162 -2168 -2174 2175 0
-2156 2162 2168 2174 2175 0
-2156 2162 2168 -2174 2175 0
-2156 2162 -2168 2174 2175 0
-2156 2162 -2168 -2174 2175 0
-2156 -2162 2168 2174 2175 0
-2156 -2162 2168 -2174 2175 0
-2156 -2162 -2168 2174 2175 0
-2156 -2162 -2168 -2174 2175 0
2144 2043 2176 0
2144 -2043 -2176 0
-2144 2043 -2176 0
-2144 -2043 -2176 0
2176 2177 0
-2176 -2177 0
2072 2178 0
-2072 -2178 0
2177 2178 2179 0
2177 -2178 -2179 0
-2177 2178 -2179 0
-2177 -2178 -2179 0
2112 2180 0
-2112 -2180 0
2035 2148 2150 2181 0
2035 2148 -2150 -2181 0
2035 -2148 2150 -2181 0
2035 -2148 -2150 -2181 0
-2035 2148 2150 -2181 0
-2035 2148 -2150 -2181 0
-2035 -2148 2150 -2181 0
-2035 -2148 -2150 -2181 0
2181 2182 0
-2181 -2182 0
2144 2182 2183 0
2144 -2182 -2183 0
-2144 2182 -2183 0
-2144 -2182 -2183 0
2183 2184 0
-2183 -2184 0
2180 2184 2185 0
2180 -2184 -2185 0
-2180 2184 -2185 0
-2180 -2184 -2185 0
2068 2186 0
-2068 -2186 0
2035 2038 2148 2187 0
2035 2038 -2148 -2187 0
2035 -2038 2148 -2187 0
2035 -2038 -2148 -2187 0
-2035 2038 2148 -2187 0
-2035 2038 -2148 -2187 0
-2035 -2038 2148 -2187 0
-2035 -2038 -2148 -2187 0
2187 2188 0
-2187 -2188 0
2144 2188 2189 0
2144 -2188 -2189 0
-2144 2188 -2189 0
-2144 -2188 -2189 0
2189 2190 0
-2189 -2190 0
2186 2190 2191 0
2186 -2190 -2191 0
-2186 2190 -2191 0
-2186 -2190 -2191 0
2065 2192 0
-2065 -2192 0
2035 2150 2041 2193 0
2035 2150 -2041 -2193 0
2035 -2150 2041 -2193 0
2035 -2150 -2041 -2193 0
-2035 2150 2041 -2193 0
-2035 2150 -2041 -2193 0
-2035 -2150 2041 -2193 0
-2035 -2150 -2041 -2193 0
2193 2194 0
-2193 -2194 0
2194 2144 2195 0
2194 -2144 -2195 0
-2194 2144 -2195 0
-2194 -2144 -2195 0
2195 2196 0
-2195 -2196 0
2192 2196 2197 0
2192 -2196 -2197 0
-2192 2196 -2197 0
-2192 -2196 -2197 0
2179 2185 2191 2197 -2198 0
2179 2185 2191 -2197 2198 0
2179 2185 -2191 2197 2198 0
2179 2185 -2191 -2197 2198 0
2179 -2185 2191 2197 2198 0
2179 -2185 2191 -2197 2198 0
2179 -2185 -2191 2197 2198 0
2179 -2185 -2191 -2197 2198 0
-2179 2185 2191 2197 2198 0
-2179 2185 2191 -2197 2198 0
-2179 2185 -2191 2197 2198 0
-2179 2185 -2191 -2197 2198 0
-2179 -2185 2191 2197 2198 0
-2179 -2185 2191 -2197 2198 0
-2179 -2185 -2191 2197 2198 0
-2179 -2185 -2191 -2197 2198 0
2139 2175 2198 2199 0
2139 2175 -2198 -2199 0
2139 -2175 2198 -2199 0
2139 -2175 -2198 -2199 0
-2139 2175 2198 -2199 0
-2139 2175 -2198 -2199 0
-2139 -2175 2198 -2199 0
-2139 -2175 -2198 -2199 0
1964 1957 2200 0
1964 -1957 -2200 0
-1964 1957 -2200 0
-1964 -1957 -2200 0
2199 2200 2201 0
2199 -2200 -2201 0
-2199 2200 -2201 0
-2199 -2200 -2201 0
347 2202 0
-347 -2202 0
2202 2203 0
-2202 -2203 0
2203 2204 0
-2203 -2204 0
2045 2204 2205 0
2045 -2204 -2205 0
-2045 2204 -2205 0
-2045 -2204 -2205 0
2205 2206 0
-2205 -2206 0
2206 2158 2207 0
2206 -2158 -2207 0
-2206 2158 -2207 0
-2206 -2158 -2207 0
2207 2208 0
-2207 -2208 0
1829 2209 0
-1829 -2209 0
2209 1300 2210 0
2209 -1300 -2210 0
-2209 1300 -2210 0
-2209 -1300 -2210 0
2209 2211 0
-2209 -2211 0
2211 1103 2212 0
2211 -1103 -2212 0
-2211 1103 -2212 0
-2211 -1103 -2212 0
2210 2212 -2213 0
2210 -2212 2213 0
-2210 2212 2213 0
-2210 -2212 2213 0
2213 2214 0
-2213 -2214 0
2208 2214 2215 0
2208 -2214 -2215 0
-2208 2214 -2215 0
-2208 -2214 -2215 0
2209 1304 2216 0
2209 -1304 -2216 0
-2209 1304 -2216 0
-2209 -1304 -2216 0
2211 1107 2217 0
2211 -1107 -2217 0
-2211 1107 -2217 0
-2211 -1107 -2217 0
2216 2217 -2218 0
2216 -2217 2218 0
-2216 2217 2218 0
-2216 -2217 2218 0
2218 2219 0
-2218 -2219 0
2182 2206 2220 0
2182 -2206 -2220 0
-2182 2206 -2220 0
-2182 -2206 -2220 0
2220 2221 0
-2220 -2221 0
2219 2221 2222 0
2219 -2221 -2222 0
-2219 2221 -2222 0
-2219 -2221 -2222 0
2165 2206 2223 0
2165 -2206 -2223 0
-2165 2206 -2223 0
-2165 -2206 -2223 0
2223 2224 0
-2223 -2224 0
2209 1349 2225 0
2209 -1349 -2225 0
-2209 1349 -2225 0
-2209 -1349 -2225 0
1156 2211 2226 0
1156 -2211 -2226 0
-1156 2211 -2226 0
-1156 -2211 -2226 0
2225 2226 -2227 0
2225 -2226 2227 0
-2225 2226 2227 0
-2225 -2226 2227 0
2227 2228 0
-2227 -2228 0
2224 2228 2229 0
2224 -2228 -2229 0
-2224 2228 -2229 0
-2224 -2228 -2229 0
2194 2206 2230 0
2194 -2206 -2230 0
-2194 2206 -2230 0
-2194 -2206 -2230 0
2230 2231 0
-2230 -2231 0
1296 2209 2232 0
1296 -2209 -2232 0
-1296 2209 -2232 0
-1296 -2209 -2232 0
1099 2211 2233 0
1099 -2211 -2233 0
-1099 2211 -2233 0
-1099 -2211 -2233 0
2232 2233 -2234 0
2232 -2233 2234 0
-2232 2233 2234 0
-2232 -2233 2234 0
2234 2235 0
-2234 -2235 0
2231 2235 2236 0
2231 -2235 -2236 0
-2231 2235 -2236 0
-2231 -2235 -2236 0
2215 2222 2229 2236 -2237 0
2215 2222 2229 -2236 2237 0
2215 2222 -2229 2236 2237 0
2215 2222 -2229 -2236 2237 0
2215 -2222 2229 2236 2237 0
2215 -2222 2229 -2236 2237 0
2215 -2222 -2229 2236 2237 0
2215 -2222 -2229 -2236 2237 0
-2215 2222 2229 2236 2237 0
-2215 2222 2229 -2236 2237 0
-2215 2222 -2229 2236 2237 0
-2215 2222 -2229 -2236 2237 0
-2215 -2222 2229 2236 2237 0
-2215 -2222 2229 -2236 2237 0
-2215 -2222 -2229 2236 2237 0
-2215 -2222 -2229 -2236 2237 0
2142 2204 2238 0
2142 -2204 -2238 0
-2142 2204 -2238 0
-2142 -2204 -2238 0
2238 2239 0
-2238 -2239 0
2239 2188 2240 0
2239 -2188 -2240 0
-2239 2188 -2240 0
-2239 -2188 -2240 0
2240 2241 0
-2240 -2241 0
2200 2242 0
-2200 -2242 0
1933 2242 2243 0
1933 -2242 -2243 0
-1933 2242 -2243 0
-1933 -2242 -2243 0
2241 2243 2244 0
2241 -2243 -2244 0
-2241 2243 -2244 0
-2241 -2243 -2244 0
366 2245 0
-366 -2245 0
2245 1933 2246 0
2245 -1933 -2246 0
-2245 1933 -2246 0
-2245 -1933 -2246 0
2043 2239 2247 0
2043 -2239 -2247 0
-2043 2239 -2247 0
-2043 -2239 -2247 0
2247 2248 0
-2247 -2248 0
2246 2248 2249 0
2246 -2248 -2249 0
-2246 2248 -2249 0
-2246 -2248 -2249 0
2244 2249 -2250 0
2244 -2249 2250 0
-2244 2249 2250 0
-2244 -2249 2250 0
1829 2251 0
-1829 -2251 0
2251 916 2252 0
2251 -916 -2252 0
-2251 916 -2252 0
-2251 -916 -2252 0
2251 2253 0
-2251 -2253 0
435 2253 2254 0
435 -2253 -2254 0
-435 2253 -2254 0
-435 -2253 -2254 0
2252 2254 -2255 0
2252 -2254 2255 0
-2252 2254 2255 0
-2252 -2254 2255 0
2255 2256 0
-2255 -2256 0
2239 2158 2257 0
2239 -2158 -2257 0
-2239 2158 -2257 0
-2239 -2158 -2257 0
2257 2258 0
-2257 -2258 0
2256 2258 2259 0
2256 -2258 -2259 0
-2256 2258 -2259 0
-2256 -2258 -2259 0
2253 431 2260 0
2253 -431 -2260 0
-2253 431 -2260 0
-2253 -431 -2260 0
912 2251 2261 0
912 -2251 -2261 0
-912 2251 -2261 0
-912 -2251 -2261 0
2260 2261 -2262 0
2260 -2261 2262 0
-2260 2261 2262 0
-2260 -2261 2262 0
2262 2263 0
-2262 -2263 0
2239 2194 2264 0
2239 -2194 -2264 0
-2239 2194 -2264 0
-2239 -2194 -2264 0
2264 2265 0
-2264 -2265 0
2263 2265 2266 0
2263 -2265 -2266 0
-2263 2265 -2266 0
-2263 -2265 -2266 0
488 2253 2267 0
488 -2253 -2267 0
-488 2253 -2267 0
-488 -2253 -2267 0
966 2251 2268 0
966 -2251 -2268 0
-966 2251 -2268 0
-966 -2251 -2268 0
2267 2268 -2269 0
2267 -2268 2269 0
-2267 2268 2269 0
-2267 -2268 2269 0
2269 2270 0
-2269 -2270 0
2165 2239 2271 0
2165 -2239 -2271 0
-2165 2239 -2271 0
-2165 -2239 -2271 0
2271 2272 0
-2271 -2272 0
2270 2272 2273 0
2270 -2272 -2273 0
-2270 2272 -2273 0
-2270 -2272 -2273 0
2251 920 2274 0
2251 -920 -2274 0
-2251 920 -2274 0
-2251 -920 -2274 0
2253 439 2275 0
2253 -439 -2275 0
-2253 439 -2275 0
-2253 -439 -2275 0
2274 2275 -2276 0
2274 -2275 2276 0
-2274 2275 2276 0
-2274 -2275 2276 0
2276 2277 0
-2276 -2277 0
2182 2239 2278 0
2182 -2239 -2278 0
-2182 2239 -2278 0
-2182 -2239 -2278 0
2278 2279 0
-2278 -2279 0
2277 2279 2280 0
2277 -2279 -2280 0
-2277 2279 -2280 0
-2277 -2279 -2280 0
2259 2266 2273 2280 -2281 0
2259 2266 2273 -2280 2281 0
2259 2266 -2273 2280 2281 0
2259 2266 -2273 -2280 2281 0
2259 -2266 2273 2280 2281 0
2259 -2266 2273 -2280 2281 0
2259 -2266 -2273 2280 2281 0
2259 -2266 -2273 -2280 2281 0
-2259 2266 2273 2280 2281 0
-2259 2266 2273 -2280 2281 0
-2259 2266 -2273 2280 2281 0
-2259 2266 -2273 -2280 2281 0
-2259 -2266 2273 2280 2281 0
-2259 -2266 2273 -2280 2281 0
-2259 -2266 -2273 2280 2281 0
-2259 -2266 -2273 -2280 2281 0
949 2251 2282 0
949 -2251 -2282 0
-949 2251 -2282 0
-949 -2251 -2282 0
468 2253 2283 0
468 -2253 -2283 0
-468 2253 -2283 0
-468 -2253 -2283 0
2282 2283 -2284 0
2282 -2283 2284 0
-2282 2283 2284 0
-2282 -2283 2284 0
2284 2285 0
-2284 -2285 0
2206 2188 2286 0
2206 -2188 -2286 0
-2206 2188 -2286 0
-2206 -2188 -2286 0
2286 2287 0
-2286 -2287 0
2285 2287 2288 0
2285 -2287 -2288 0
-2285 2287 -2288 0
-2285 -2287 -2288 0
2206 2043 2289 0
2206 -2043 -2289 0
-2206 2043 -2289 0
-2206 -2043 -2289 0
2289 2290 0
-2289 -2290 0
2253 460 2291 0
2253 -460 -2291 0
-2253 460 -2291 0
-2253 -460 -2291 0
2251 941 2292 0
2251 -941 -2292 0
-2251 941 -2292 0
-2251 -941 -2292 0
2291 2292 -2293 0
2291 -2292 2293 0
-2291 2292 2293 0
-2291 -2292 2293 0
2293 2294 0
-2293 -2294 0
2290 2294 2295 0
2290 -2294 -2295 0
-2290 2294 -2295 0
-2290 -2294 -2295 0
2239 2152 2296 0
2239 -2152 -2296 0
-2239 2152 -2296 0
-2239 -2152 -2296 0
2296 2297 0
-2296 -2297 0
492 2253 2298 0
492 -2253 -2298 0
-492 2253 -2298 0
-492 -2253 -2298 0
2251 970 2299 0
2251 -970 -2299 0
-2251 970 -2299 0
-2251 -970 -2299 0
2298 2299 -2300 0
2298 -2299 2300 0
-2298 2299 2300 0
-2298 -2299 2300 0
2300 2301 0
-2300 -2301 0
2297 2301 2302 0
2297 -2301 -2302 0
-2297 2301 -2302 0
-2297 -2301 -2302 0
2171 2239 2303 0
2171 -2239 -2303 0
-2171 2239 -2303 0
-2171 -2239 -2303 0
2303 2304 0
-2303 -2304 0
496 2253 2305 0
496 -2253 -2305 0
-496 2253 -2305 0
-496 -2253 -2305 0
974 2251 2306 0
974 -2251 -2306 0
-974 2251 -2306 0
-974 -2251 -2306 0
2305 2306 -2307 0
2305 -2306 2307 0
-2305 2306 2307 0
-2305 -2306 2307 0
2307 2308 0
-2307 -2308 0
2304 2308 2309 0
2304 -2308 -2309 0
-2304 2308 -2309 0
-2304 -2308 -2309 0
2288 2295 2302 2309 -2310 0
2288 2295 2302 -2309 2310 0
2288 2295 -2302 2309 2310 0
2288 2295 -2302 -2309 2310 0
2288 -2295 2302 2309 2310 0
2288 -2295 2302 -2309 2310 0
2288 -2295 -2302 2309 2310 0
2288 -2295 -2302 -2309 2310 0
-2288 2295 2302 2309 2310 0
-2288 2295 2302 -2309 2310 0
-2288 2295 -2302 2309 2310 0
-2288 2295 -2302 -2309 2310 0
-2288 -2295 2302 2309 2310 0
-2288 -2295 2302 -2309 2310 0
-2288 -2295 -2302 2309 2310 0
-2288 -2295 -2302 -2309 2310 0
2237 2250 2281 2310 2311 0
2237 2250 2281 -2310 -2311 0
2237 2250 -2281 2310 -2311 0
2237 2250 -2281 -2310 -2311 0
2237 -2250 2281 2310 -2311 0
2237 -2250 2281 -2310 -2311 0
2237 -2250 -2281 2310 -2311 0
2237 -2250 -2281 -2310 -2311 0
-2237 2250 2281 2310 -2311 0
-2237 2250 2281 -2310 -2311 0
-2237 2250 -2281 2310 -2311 0
-2237 2250 -2281 -2310 -2311 0
-2237 -2250 2281 2310 -2311 0
-2237 -2250 2281 -2310 -2311 0
-2237 -2250 -2281 2310 -2311 0
-2237 -2250 -2281 -2310 -2311 0
407 2312 0
-407 -2312 0
2311 2312 2313 0
2311 -2312 -2313 0
-2311 2312 -2313 0
-2311 -2312 -2313 0
237 2314 0
-237 -2314 0
2314 2315 0
-2314 -2315 0
311 2316 0
-311 -2316 0
2316 2317 0
-2316 -2317 0
648 2315 2317 2318 0
648 2315 -2317 -2318 0
648 -2315 2317 -2318 0
648 -2315 -2317 -2318 0
-648 2315 2317 -2318 0
-648 2315 -2317 -2318 0
-648 -2315 2317 -2318 0
-648 -2315 -2317 -2318 0
400 2319 0
-400 -2319 0
2319 2320 0
-2319 -2320 0
362 2321 0
-362 -2321 0
2321 2322 0
-2321 -2322 0
2322 2323 0
-2322 -2323 0
377 2324 0
-377 -2324 0
2324 2325 0
-2324 -2325 0
388 2326 0
-388 -2326 0
2326 2327 0
-2326 -2327 0
2325 2327 2328 0
2325 -2327 -2328 0
-2325 2327 -2328 0
-2325 -2327 -2328 0
2323 2328 -2329 0
2323 -2328 2329 0
-2323 2328 2329 0
-2323 -2328 2329 0
2329 2330 0
-2329 -2330 0
2330 2253 2331 0
2330 -2253 -2331 0
-2330 2253 -2331 0
-2330 -2253 -2331 0
2331 2332 0
-2331 -2332 0
406 2333 0
-406 -2333 0
2333 2334 0
-2333 -2334 0
2320 2332 2334 2335 0
2320 2332 -2334 -2335 0
2320 -2332 2334 -2335 0
2320 -2332 -2334 -2335 0
-2320 2332 2334 -2335 0
-2320 2332 -2334 -2335 0
-2320 -2332 2334 -2335 0
-2320 -2332 -2334 -2335 0
2329 2336 0
-2329 -2336 0
2336 2337 0
-2336 -2337 0
2337 2253 2338 0
2337 -2253 -2338 0
-2337 2253 -2338 0
-2337 -2253 -2338 0
2338 2339 0
-2338 -2339 0
391 2340 0
-391 -2340 0
2340 2341 0
-2340 -2341 0
2334 2339 2341 2342 0
2334 2339 -2341 -2342 0
2334 -2339 2341 -2342 0
2334 -2339 -2341 -2342 0
-2334 2339 2341 -2342 0
-2334 2339 -2341 -2342 0
-2334 -2339 2341 -2342 0
-2334 -2339 -2341 -2342 0
2318 2335 2342 -2343 0
2318 2335 -2342 2343 0
2318 -2335 2342 2343 0
2318 -2335 -2342 2343 0
-2318 2335 2342 2343 0
-2318 2335 -2342 2343 0
-2318 -2335 2342 2343 0
-2318 -2335 -2342 2343 0
2201 2313 2343 2344 0
2201 2313 -2343 -2344 0
2201 -2313 2343 -2344 0
2201 -2313 -2343 -2344 0
-2201 2313 2343 -2344 0
-2201 2313 -2343 -2344 0
-2201 -2313 2343 -2344 0
-2201 -2313 -2343 -2344 0
2344 2345 0
-2344 -2345 0
2037 2346 0
-2037 -2346 0
2346 2347 0
-2346 -2347 0
305 2348 0
-305 -2348 0
2348 2349 0
-2348 -2349 0
2349 2350 0
-2349 -2350 0
2040 2351 0
-2040 -2351 0
2351 2352 0
-2351 -2352 0
2347 2350 2352 2353 0
2347 2350 -2352 -2353 0
2347 -2350 2352 -2353 0
2347 -2350 -2352 -2353 0
-2347 2350 2352 -2353 0
-2347 2350 -2352 -2353 0
-2347 -2350 2352 -2353 0
-2347 -2350 -2352 -2353 0
305 2354 0
-305 -2354 0
2354 2355 0
-2354 -2355 0
2355 2356 0
-2355 -2356 0
2356 2357 0
-2356 -2357 0
2147 2358 0
-2147 -2358 0
2358 2359 0
-2358 -2359 0
2347 2357 2359 2360 0
2347 2357 -2359 -2360 0
2347 -2357 2359 -2360 0
2347 -2357 -2359 -2360 0
-2347 2357 2359 -2360 0
-2347 2357 -2359 -2360 0
-2347 -2357 2359 -2360 0
-2347 -2357 -2359 -2360 0
2149 2361 0
-2149 -2361 0
2361 2362 0
-2361 -2362 0
2362 2350 2359 2363 0
2362 2350 -2359 -2363 0
2362 -2350 2359 -2363 0
2362 -2350 -2359 -2363 0
-2362 2350 2359 -2363 0
-2362 2350 -2359 -2363 0
-2362 -2350 2359 -2363 0
-2362 -2350 -2359 -2363 0
2362 2357 2352 2364 0
2362 2357 -2352 -2364 0
2362 -2357 2352 -2364 0
2362 -2357 -2352 -2364 0
-2362 2357 2352 -2364 0
-2362 2357 -2352 -2364 0
-2362 -2357 2352 -2364 0
-2362 -2357 -2352 -2364 0
2353 2360 2363 2364 -2365 0
2353 2360 2363 -2364 2365 0
2353 2360 -2363 2364 2365 0
2353 2360 -2363 -2364 2365 0
2353 -2360 2363 2364 2365 0
2353 -2360 2363 -2364 2365 0
2353 -2360 -2363 2364 2365 0
2353 -2360 -2363 -2364 2365 0
-2353 2360 2363 2364 2365 0
-2353 2360 2363 -2364 2365 0
-2353 2360 -2363 2364 2365 0
-2353 2360 -2363 -2364 2365 0
-2353 -2360 2363 2364 2365 0
-2353 -2360 2363 -2364 2365 0
-2353 -2360 -2363 2364 2365 0
-2353 -2360 -2363 -2364 2365 0
2365 2366 0
-2365 -2366 0
2366 2367 0
-2366 -2367 0
2203 2368 0
-2203 -2368 0
2368 2369 0
-2368 -2369 0
2034 2370 0
-2034 -2370 0
2370 2371 0
-2370 -2371 0
2141 2372 0
-2141 -2372 0
2372 2373 0
-2372 -2373 0
2369 2371 2373 2374 0
2369 2371 -2373 -2374 0
2369 -2371 2373 -2374 0
2369 -2371 -2373 -2374 0
-2369 2371 2373 -2374 0
-2369 2371 -2373 -2374 0
-2369 -2371 2373 -2374 0
-2369 -2371 -2373 -2374 0
2145 2375 0
-2145 -2375 0
2375 2376 0
-2375 -2376 0
2044 2377 0
-2044 -2377 0
2377 2378 0
-2377 -2378 0
2369 2376 2378 2379 0
2369 2376 -2378 -2379 0
2369 -2376 2378 -2379 0
2369 -2376 -2378 -2379 0
-2369 2376 2378 -2379 0
-2369 2376 -2378 -2379 0
-2369 -2376 2378 -2379 0
-2369 -2376 -2378 -2379 0
2046 2380 0
-2046 -2380 0
2380 2381 0
-2380 -2381 0
2381 2371 2378 2382 0
2381 2371 -2378 -2382 0
2381 -2371 2378 -2382 0
2381 -2371 -2378 -2382 0
-2381 2371 2378 -2382 0
-2381 2371 -2378 -2382 0
-2381 -2371 2378 -2382 0
-2381 -2371 -2378 -2382 0
2381 2376 2373 2383 0
2381 2376 -2373 -2383 0
2381 -2376 2373 -2383 0
2381 -2376 -2373 -2383 0
-2381 2376 2373 -2383 0
-2381 2376 -2373 -2383 0
-2381 -2376 2373 -2383 0
-2381 -2376 -2373 -2383 0
2374 2379 2382 2383 -2384 0
2374 2379 2382 -2383 2384 0
2374 2379 -2382 2383 2384 0
2374 2379 -2382 -2383 2384 0
2374 -2379 2382 2383 2384 0
2374 -2379 2382 -2383 2384 0
2374 -2379 -2382 2383 2384 0
2374 -2379 -2382 -2383 2384 0
-2374 2379 2382 2383 2384 0
-2374 2379 2382 -2383 2384 0
-2374 2379 -2382 2383 2384 0
-2374 2379 -2382 -2383 2384 0
-2374 -2379 2382 2383 2384 0
-2374 -2379 2382 -2383 2384 0
-2374 -2379 -2382 2383 2384 0
-2374 -2379 -2382 -2383 2384 0
2384 2385 0
-2384 -2385 0
2385 2386 0
-2385 -2386 0
2367 2386 2387 0
2367 -2386 -2387 0
-2367 2386 -2387 0
-2367 -2386 -2387 0
2367 2387 2388 0
2367 -2387 -2388 0
-2367 2387 -2388 0
-2367 -2387 -2388 0
2387 2386 2389 0
2387 -2386 -2389 0
-2387 2386 -2389 0
-2387 -2386 -2389 0
2388 2389 -2390 0
2388 -2389 2390 0
-2388 2389 2390 0
-2388 -2389 2390 0
2390 2391 0
-2390 -2391 0
2345 2391 -2392 0
2345 -2391 2392 0
-2345 2391 2392 0
-2345 -2391 2392 0
2392 2393 0
-2392 -2393 0
2393 2394 0
-2393 -2394 0
2394 2395 0
-2394 -2395 0
2395 2396 0
-2395 -2396 0
336 2397 0
-336 -2397 0
2397 2398 0
-2397 -2398 0
2398 2399 0
-2398 -2399 0
340 2400 0
-340 -2400 0
2400 2401 0
-2400 -2401 0
2401 2402 0
-2401 -2402 0
314 2403 0
-314 -2403 0
2403 2404 0
-2403 -2404 0
2404 2405 0
-2404 -2405 0
2399 2402 2405 2406 0
2399 2402 -2405 -2406 0
2399 -2402 2405 -2406 0
2399 -2402 -2405 -2406 0
-2399 2402 2405 -2406 0
-2399 2402 -2405 -2406 0
-2399 -2402 2405 -2406 0
-2399 -2402 -2405 -2406 0
2406 2407 0
-2406 -2407 0
348 2408 0
-348 -2408 0
2408 2409 0
-2408 -2409 0
347 2410 0
-347 -2410 0
2410 2411 0
-2410 -2411 0
2409 2411 2412 0
2409 -2411 -2412 0
-2409 2411 -2412 0
-2409 -2411 -2412 0
2412 2413 0
-2412 -2413 0
2407 2413 2414 0
2407 -2413 -2414 0
-2407 2413 -2414 0
-2407 -2413 -2414 0
2414 2415 0
-2414 -2415 0
239 2416 0
-239 -2416 0
2416 2417 0
-2416 -2417 0
2417 2418 0
-2417 -2418 0
2418 2419 0
-2418 -2419 0
247 2420 0
-247 -2420 0
2420 2421 0
-2420 -2421 0
2421 2422 0
-2421 -2422 0
2422 2423 0
-2422 -2423 0
229 2424 0
-229 -2424 0
2424 2425 0
-2424 -2425 0
2425 2426 0
-2425 -2426 0
2426 2427 0
-2426 -2427 0
2419 2423 2427 2428 0
2419 2423 -2427 -2428 0
2419 -2423 2427 -2428 0
2419 -2423 -2427 -2428 0
-2419 2423 2427 -2428 0
-2419 2423 -2427 -2428 0
-2419 -2423 2427 -2428 0
-2419 -2423 -2427 -2428 0
247 2429 0
-247 -2429 0
2429 2430 0
-2429 -2430 0
2430 2431 0
-2430 -2431 0
229 2432 0
-229 -2432 0
2432 2433 0
-2432 -2433 0
2433 2434 0
-2433 -2434 0
2419 2431 2434 2435 0
2419 2431 -2434 -2435 0
2419 -2431 2434 -2435 0
2419 -2431 -2434 -2435 0
-2419 2431 2434 -2435 0
-2419 2431 -2434 -2435 0
-2419 -2431 2434 -2435 0
-2419 -2431 -2434 -2435 0
239 2436 0
-239 -2436 0
2436 2437 0
-2436 -2437 0
2437 2438 0
-2437 -2438 0
2438 2423 2434 2439 0
2438 2423 -2434 -2439 0
2438 -2423 2434 -2439 0
2438 -2423 -2434 -2439 0
-2438 2423 2434 -2439 0
-2438 2423 -2434 -2439 0
-2438 -2423 2434 -2439 0
-2438 -2423 -2434 -2439 0
2438 2431 2427 2440 0
2438 2431 -2427 -2440 0
2438 -2431 2427 -2440 0
2438 -2431 -2427 -2440 0
-2438 2431 2427 -2440 0
-2438 2431 -2427 -2440 0
-2438 -2431 2427 -2440 0
-2438 -2431 -2427 -2440 0
2428 2435 2439 2440 -2441 0
2428 2435 2439 -2440 2441 0
2428 2435 -2439 2440 2441 0
2428 2435 -2439 -2440 2441 0
2428 -2435 2439 2440 2441 0
2428 -2435 2439 -2440 2441 0
2428 -2435 -2439 2440 2441 0
2428 -2435 -2439 -2440 2441 0
-2428 2435 2439 2440 2441 0
-2428 2435 2439 -2440 2441 0
-2428 2435 -2439 2440 2441 0
-2428 2435 -2439 -2440 2441 0
-2428 -2435 2439 2440 2441 0
-2428 -2435 2439 -2440 2441 0
-2428 -2435 -2439 2440 2441 0
-2428 -2435 -2439 -2440 2441 0
2441 2442 0
-2441 -2442 0
2442 2443 0
-2442 -2443 0
2443 2444 0
-2443 -2444 0
246 2445 0
-246 -2445 0
256 2446 0
-256 -2446 0
2446 2447 0
-2446 -2447 0
2445 2447 2448 0
2445 -2447 -2448 0
-2445 2447 -2448 0
-2445 -2447 -2448 0
246 2449 0
-246 -2449 0
2449 2450 0
-2449 -2450 0
256 2451 0
-256 -2451 0
2450 2451 2452 0
2450 -2451 -2452 0
-2450 2451 -2452 0
-2450 -2451 -2452 0
2448 2452 -2453 0
2448 -2452 2453 0
-2448 2452 2453 0
-2448 -2452 2453 0
2453 2454 0
-2453 -2454 0
2454 2455 0
-2454 -2455 0
261 2456 0
-261 -2456 0
2456 2457 0
-2456 -2457 0
2457 2458 0
-2457 -2458 0
2458 2459 0
-2458 -2459 0
262 2460 0
-262 -2460 0
2460 2461 0
-2460 -2461 0
2461 2462 0
-2461 -2462 0
2462 2463 0
-2462 -2463 0
263 2464 0
-263 -2464 0
2464 2465 0
-2464 -2465 0
2465 2466 0
-2465 -2466 0
2466 2467 0
-2466 -2467 0
2459 2463 2467 2468 0
2459 2463 -2467 -2468 0
2459 -2463 2467 -2468 0
2459 -2463 -2467 -2468 0
-2459 2463 2467 -2468 0
-2459 2463 -2467 -2468 0
-2459 -2463 2467 -2468 0
-2459 -2463 -2467 -2468 0
262 2469 0
-262 -2469 0
2469 2470 0
-2469 -2470 0
2470 2471 0
-2470 -2471 0
263 2472 0
-263 -2472 0
2472 2473 0
-2472 -2473 0
2473 2474 0
-2473 -2474 0
2459 2471 2474 2475 0
2459 2471 -2474 -2475 0
2459 -2471 2474 -2475 0
2459 -2471 -2474 -2475 0
-2459 2471 2474 -2475 0
-2459 2471 -2474 -2475 0
-2459 -2471 2474 -2475 0
-2459 -2471 -2474 -2475 0
261 2476 0
-261 -2476 0
2476 2477 0
-2476 -2477 0
2477 2478 0
-2477 -2478 0
2478 2463 2474 2479 0
2478 2463 -2474 -2479 0
2478 -2463 2474 -2479 0
2478 -2463 -2474 -2479 0
-2478 2463 2474 -2479 0
-2478 2463 -2474 -2479 0
-2478 -2463 2474 -2479 0
-2478 -2463 -2474 -2479 0
2478 2471 2467 2480 0
2478 2471 -2467 -2480 0
2478 -2471 2467 -2480 0
2478 -2471 -2467 -2480 0
-2478 2471 2467 -2480 0
-2478 2471 -2467 -2480 0
-2478 -2471 2467 -2480 0
-2478 -2471 -2467 -2480 0
2468 2475 2479 2480 -2481 0
2468 2475 2479 -2480 2481 0
2468 2475 -2479 2480 2481 0
2468 2475 -2479 -2480 2481 0
2468 -2475 2479 2480 2481 0
2468 -2475 2479 -2480 2481 0
2468 -2475 -2479 2480 2481 0
2468 -2475 -2479 -2480 2481 0
-2468 2475 2479 2480 2481 0
-2468 2475 2479 -2480 2481 0
-2468 2475 -2479 2480 2481 0
-2468 2475 -2479 -2480 2481 0
-2468 -2475 2479 2480 2481 0
-2468 -2475 2479 -2480 2481 0
-2468 -2475 -2479 2480 2481 0
-2468 -2475 -2479 -2480 2481 0
2481 2482 0
-2481 -2482 0
2482 2483 0
-2482 -2483 0
2483 2484 0
-2483 -2484 0
2444 2455 2484 2485 0
2444 2455 -2484 -2485 0
2444 -2455 2484 -2485 0
2444 -2455 -2484 -2485 0
-2444 2455 2484 -2485 0
-2444 2455 -2484 -2485 0
-2444 -2455 2484 -2485 0
-2444 -2455 -2484 -2485 0
2453 2486 0
-2453 -2486 0
2486 2487 0
-2486 -2487 0
2487 2488 0
-2487 -2488 0
2481 2489 0
-2481 -2489 0
2489 2490 0
-2489 -2490 0
2444 2488 2490 2491 0
2444 2488 -2490 -2491 0
2444 -2488 2490 -2491 0
2444 -2488 -2490 -2491 0
-2444 2488 2490 -2491 0
-2444 2488 -2490 -2491 0
-2444 -2488 2490 -2491 0
-2444 -2488 -2490 -2491 0
2441 2492 0
-2441 -2492 0
2492 2493 0
-2492 -2493 0
2493 2455 2490 2494 0
2493 2455 -2490 -2494 0
2493 -2455 2490 -2494 0
2493 -2455 -2490 -2494 0
-2493 2455 2490 -2494 0
-2493 2455 -2490 -2494 0
-2493 -2455 2490 -2494 0
-2493 -2455 -2490 -2494 0
2493 2488 2484 2495 0
2493 2488 -2484 -2495 0
2493 -2488 2484 -2495 0
2493 -2488 -2484 -2495 0
-2493 2488 2484 -2495 0
-2493 2488 -2484 -2495 0
-2493 -2488 2484 -2495 0
-2493 -2488 -2484 -2495 0
2485 2491 2494 2495 -2496 0
2485 2491 2494 -2495 2496 0
2485 2491 -2494 2495 2496 0
2485 2491 -2494 -2495 2496 0
2485 -2491 2494 2495 2496 0
2485 -2491 2494 -2495 2496 0
2485 -2491 -2494 2495 2496 0
2485 -2491 -2494 -2495 2496 0
-2485 2491 2494 2495 2496 0
-2485 2491 2494 -2495 2496 0
-2485 2491 -2494 2495 2496 0
-2485 2491 -2494 -2495 2496 0
-2485 -2491 2494 2495 2496 0
-2485 -2491 2494 -2495 2496 0
-2485 -2491 -2494 2495 2496 0
-2485 -2491 -2494 -2495 2496 0
2018 2497 0
-2018 -2497 0
2496 2497 2498 0
2496 -2497 -2498 0
-2496 2497 -2498 0
-2496 -2497 -2498 0
2496 2499 0
-2496 -2499 0
2499 2018 2500 0
2499 -2018 -2500 0
-2499 2018 -2500 0
-2499 -2018 -2500 0
2498 2500 -2501 0
2498 -2500 2501 0
-2498 2500 2501 0
-2498 -2500 2501 0
2501 2502 0
-2501 -2502 0
2415 2502 2503 0
2415 -2502 -2503 0
-2415 2502 -2503 0
-2415 -2502 -2503 0
348 2504 0
-348 -2504 0
2504 2505 0
-2504 -2505 0
2505 2506 0
-2505 -2506 0
2411 2506 2507 0
2411 -2506 -2507 0
-2411 2506 -2507 0
-2411 -2506 -2507 0
2507 2508 0
-2507 -2508 0
336 2509 0
-336 -2509 0
2509 2510 0
-2509 -2510 0
314 2511 0
-314 -2511 0
2511 2512 0
-2511 -2512 0
340 2513 0
-340 -2513 0
2513 2514 0
-2513 -2514 0
2510 2512 2514 2515 0
2510 2512 -2514 -2515 0
2510 -2512 2514 -2515 0
2510 -2512 -2514 -2515 0
-2510 2512 2514 -2515 0
-2510 2512 -2514 -2515 0
-2510 -2512 2514 -2515 0
-2510 -2512 -2514 -2515 0
2515 2516 0
-2515 -2516 0
2508 2516 2517 0
2508 -2516 -2517 0
-2508 2516 -2517 0
-2508 -2516 -2517 0
2517 2518 0
-2517 -2518 0
2451 2519 0
-2451 -2519 0
2518 2519 2520 0
2518 -2519 -2520 0
-2518 2519 -2520 0
-2518 -2519 -2520 0
2405 2402 2510 2521 0
2405 2402 -2510 -2521 0
2405 -2402 2510 -2521 0
2405 -2402 -2510 -2521 0
-2405 2402 2510 -2521 0
-2405 2402 -2510 -2521 0
-2405 -2402 2510 -2521 0
-2405 -2402 -2510 -2521 0
2521 2522 0
-2521 -2522 0
2508 2522 2523 0
2508 -2522 -2523 0
-2508 2522 -2523 0
-2508 -2522 -2523 0
2523 2524 0
-2523 -2524 0
2472 2525 0
-2472 -2525 0
2524 2525 2526 0
2524 -2525 -2526 0
-2524 2525 -2526 0
-2524 -2525 -2526 0
2469 2527 0
-2469 -2527 0
2512 2402 2510 2528 0
2512 2402 -2510 -2528 0
2512 -2402 2510 -2528 0
2512 -2402 -2510 -2528 0
-2512 2402 2510 -2528 0
-2512 2402 -2510 -2528 0
-2512 -2402 2510 -2528 0
-2512 -2402 -2510 -2528 0
2528 2529 0
-2528 -2529 0
2508 2529 2530 0
2508 -2529 -2530 0
-2508 2529 -2530 0
-2508 -2529 -2530 0
2530 2531 0
-2530 -2531 0
2527 2531 2532 0
2527 -2531 -2532 0
-2527 2531 -2532 0
-2527 -2531 -2532 0
2445 2533 0
-2445 -2533 0
2510 2514 2405 2534 0
2510 2514 -2405 -2534 0
2510 -2514 2405 -2534 0
2510 -2514 -2405 -2534 0
-2510 2514 2405 -2534 0
-2510 2514 -2405 -2534 0
-2510 -2514 2405 -2534 0
-2510 -2514 -2405 -2534 0
2534 2535 0
-2534 -2535 0
2508 2535 2536 0
2508 -2535 -2536 0
-2508 2535 -2536 0
-2508 -2535 -2536 0
2536 2537 0
-2536 -2537 0
2533 2537 2538 0
2533 -2537 -2538 0
-2533 2537 -2538 0
-2533 -2537 -2538 0
2520 2526 2532 2538 -2539 0
2520 2526 2532 -2538 2539 0
2520 2526 -2532 2538 2539 0
2520 2526 -2532 -2538 2539 0
2520 -2526 2532 2538 2539 0
2520 -2526 2532 -2538 2539 0
2520 -2526 -2532 2538 2539 0
2520 -2526 -2532 -2538 2539 0
-2520 2526 2532 2538 2539 0
-2520 2526 2532 -2538 2539 0
-2520 2526 -2532 2538 2539 0
-2520 2526 -2532 -2538 2539 0
-2520 -2526 2532 2538 2539 0
-2520 -2526 2532 -2538 2539 0
-2520 -2526 -2532 2538 2539 0
-2520 -2526 -2532 -2538 2539 0
2508 2407 2540 0
2508 -2407 -2540 0
-2508 2407 -2540 0
-2508 -2407 -2540 0
2540 2541 0
-2540 -2541 0
2436 2542 0
-2436 -2542 0
2541 2542 2543 0
2541 -2542 -2543 0
-2541 2542 -2543 0
-2541 -2542 -2543 0
2476 2544 0
-2476 -2544 0
2399 2512 2514 2545 0
2399 2512 -2514 -2545 0
2399 -2512 2514 -2545 0
2399 -2512 -2514 -2545 0
-2399 2512 2514 -2545 0
-2399 2512 -2514 -2545 0
-2399 -2512 2514 -2545 0
-2399 -2512 -2514 -2545 0
2545 2546 0
-2545 -2546 0
2508 2546 2547 0
2508 -2546 -2547 0
-2508 2546 -2547 0
-2508 -2546 -2547 0
2547 2548 0
-2547 -2548 0
2544 2548 2549 0
2544 -2548 -2549 0
-2544 2548 -2549 0
-2544 -2548 -2549 0
2432 2550 0
-2432 -2550 0
2399 2402 2512 2551 0
2399 2402 -2512 -2551 0
2399 -2402 2512 -2551 0
2399 -2402 -2512 -2551 0
-2399 2402 2512 -2551 0
-2399 2402 -2512 -2551 0
-2399 -2402 2512 -2551 0
-2399 -2402 -2512 -2551 0
2551 2552 0
-2551 -2552 0
2508 2552 2553 0
2508 -2552 -2553 0
-2508 2552 -2553 0
-2508 -2552 -2553 0
2553 2554 0
-2553 -2554 0
2550 2554 2555 0
2550 -2554 -2555 0
-2550 2554 -2555 0
-2550 -2554 -2555 0
2429 2556 0
-2429 -2556 0
2399 2514 2405 2557 0
2399 2514 -2405 -2557 0
2399 -2514 2405 -2557 0
2399 -2514 -2405 -2557 0
-2399 2514 2405 -2557 0
-2399 2514 -2405 -2557 0
-2399 -2514 2405 -2557 0
-2399 -2514 -2405 -2557 0
2557 2558 0
-2557 -2558 0
2558 2508 2559 0
2558 -2508 -2559 0
-2558 2508 -2559 0
-2558 -2508 -2559 0
2559 2560 0
-2559 -2560 0
2556 2560 2561 0
2556 -2560 -2561 0
-2556 2560 -2561 0
-2556 -2560 -2561 0
2543 2549 2555 2561 -2562 0
2543 2549 2555 -2561 2562 0
2543 2549 -2555 2561 2562 0
2543 2549 -2555 -2561 2562 0
2543 -2549 2555 2561 2562 0
2543 -2549 2555 -2561 2562 0
2543 -2549 -2555 2561 2562 0
2543 -2549 -2555 -2561 2562 0
-2543 2549 2555 2561 2562 0
-2543 2549 2555 -2561 2562 0
-2543 2549 -2555 2561 2562 0
-2543 2549 -2555 -2561 2562 0
-2543 -2549 2555 2561 2562 0
-2543 -2549 2555 -2561 2562 0
-2543 -2549 -2555 2561 2562 0
-2543 -2549 -2555 -2561 2562 0
2503 2539 2562 2563 0
2503 2539 -2562 -2563 0
2503 -2539 2562 -2563 0
2503 -2539 -2562 -2563 0
-2503 2539 2562 -2563 0
-2503 2539 -2562 -2563 0
-2503 -2539 2562 -2563 0
-2503 -2539 -2562 -2563 0
2018 2011 2564 0
2018 -2011 -2564 0
-2018 2011 -2564 0
-2018 -2011 -2564 0
2563 2564 2565 0
2563 -2564 -2565 0
-2563 2564 -2565 0
-2563 -2564 -2565 0
347 2566 0
-347 -2566 0
2566 2567 0
-2566 -2567 0
2567 2568 0
-2567 -2568 0
2409 2568 2569 0
2409 -2568 -2569 0
-2409 2568 -2569 0
-2409 -2568 -2569 0
2569 2570 0
-2569 -2570 0
2570 2522 2571 0
2570 -2522 -2571 0
-2570 2522 -2571 0
-2570 -2522 -2571 0
2571 2572 0
-2571 -2572 0
1840 2573 0
-1840 -2573 0
2573 1393 2574 0
2573 -1393 -2574 0
-2573 1393 -2574 0
-2573 -1393 -2574 0
2573 2575 0
-2573 -2575 0
2575 1201 2576 0
2575 -1201 -2576 0
-2575 1201 -2576 0
-2575 -1201 -2576 0
2574 2576 -2577 0
2574 -2576 2577 0
-2574 2576 2577 0
-2574 -2576 2577 0
2577 2578 0
-2577 -2578 0
2572 2578 2579 0
2572 -2578 -2579 0
-2572 2578 -2579 0
-2572 -2578 -2579 0
2573 1397 2580 0
2573 -1397 -2580 0
-2573 1397 -2580 0
-2573 -1397 -2580 0
2575 1205 2581 0
2575 -1205 -2581 0
-2575 1205 -2581 0
-2575 -1205 -2581 0
2580 2581 -2582 0
2580 -2581 2582 0
-2580 2581 2582 0
-2580 -2581 2582 0
2582 2583 0
-2582 -2583 0
2546 2570 2584 0
2546 -2570 -2584 0
-2546 2570 -2584 0
-2546 -2570 -2584 0
2584 2585 0
-2584 -2585 0
2583 2585 2586 0
2583 -2585 -2586 0
-2583 2585 -2586 0
-2583 -2585 -2586 0
2529 2570 2587 0
2529 -2570 -2587 0
-2529 2570 -2587 0
-2529 -2570 -2587 0
2587 2588 0
-2587 -2588 0
2573 1442 2589 0
2573 -1442 -2589 0
-2573 1442 -2589 0
-2573 -1442 -2589 0
1254 2575 2590 0
1254 -2575 -2590 0
-1254 2575 -2590 0
-1254 -2575 -2590 0
2589 2590 -2591 0
2589 -2590 2591 0
-2589 2590 2591 0
-2589 -2590 2591 0
2591 2592 0
-2591 -2592 0
2588 2592 2593 0
2588 -2592 -2593 0
-2588 2592 -2593 0
-2588 -2592 -2593 0
2558 2570 2594 0
2558 -2570 -2594 0
-2558 2570 -2594 0
-2558 -2570 -2594 0
2594 2595 0
-2594 -2595 0
1389 2573 2596 0
1389 -2573 -2596 0
-1389 2573 -2596 0
-1389 -2573 -2596 0
1197 2575 2597 0
1197 -2575 -2597 0
-1197 2575 -2597 0
-1197 -2575 -2597 0
2596 2597 -2598 0
2596 -2597 2598 0
-2596 2597 2598 0
-2596 -2597 2598 0
2598 2599 0
-2598 -2599 0
2595 2599 2600 0
2595 -2599 -2600 0
-2595 2599 -2600 0
-2595 -2599 -2600 0
2579 2586 2593 2600 -2601 0
2579 2586 2593 -2600 2601 0
2579 2586 -2593 2600 2601 0
2579 2586 -2593 -2600 2601 0
2579 -2586 2593 2600 2601 0
2579 -2586 2593 -2600 2601 0
2579 -2586 -2593 2600 2601 0
2579 -2586 -2593 -2600 2601 0
-2579 2586 2593 2600 2601 0
-2579 2586 2593 -2600 2601 0
-2579 2586 -2593 2600 2601 0
-2579 2586 -2593 -2600 2601 0
-2579 -2586 2593 2600 2601 0
-2579 -2586 2593 -2600 2601 0
-2579 -2586 -2593 2600 2601 0
-2579 -2586 -2593 -2600 2601 0
2506 2568 2602 0
2506 -2568 -2602 0
-2506 2568 -2602 0
-2506 -2568 -2602 0
2602 2603 0
-2602 -2603 0
2603 2552 2604 0
2603 -2552 -2604 0
-2603 2552 -2604 0
-2603 -2552 -2604 0
2604 2605 0
-2604 -2605 0
2564 2606 0
-2564 -2606 0
1987 2606 2607 0
1987 -2606 -2607 0
-1987 2606 -2607 0
-1987 -2606 -2607 0
2605 2607 2608 0
2605 -2607 -2608 0
-2605 2607 -2608 0
-2605 -2607 -2608 0
366 2609 0
-366 -2609 0
2609 1987 2610 0
2609 -1987 -2610 0
-2609 1987 -2610 0
-2609 -1987 -2610 0
2407 2603 2611 0
2407 -2603 -2611 0
-2407 2603 -2611 0
-2407 -2603 -2611 0
2611 2612 0
-2611 -2612 0
2610 2612 2613 0
2610 -2612 -2613 0
-2610 2612 -2613 0
-2610 -2612 -2613 0
2608 2613 -2614 0
2608 -2613 2614 0
-2608 2613 2614 0
-2608 -2613 2614 0
1840 2615 0
-1840 -2615 0
2615 1009 2616 0
2615 -1009 -2616 0
-2615 1009 -2616 0
-2615 -1009 -2616 0
2615 2617 0
-2615 -2617 0
533 2617 2618 0
533 -2617 -2618 0
-533 2617 -2618 0
-533 -2617 -2618 0
2616 2618 -2619 0
2616 -2618 2619 0
-2616 2618 2619 0
-2616 -2618 2619 0
2619 2620 0
-2619 -2620 0
2603 2522 2621 0
2603 -2522 -2621 0
-2603 2522 -2621 0
-2603 -2522 -2621 0
2621 2622 0
-2621 -2622 0
2620 2622 2623 0
2620 -2622 -2623 0
-2620 2622 -2623 0
-2620 -2622 -2623 0
2617 529 2624 0
2617 -529 -2624 0
-2617 529 -2624 0
-2617 -529 -2624 0
1005 2615 2625 0
1005 -2615 -2625 0
-1005 2615 -2625 0
-1005 -2615 -2625 0
2624 2625 -2626 0
2624 -2625 2626 0
-2624 2625 2626 0
-2624 -2625 2626 0
2626 2627 0
-2626 -2627 0
2603 2558 2628 0
2603 -2558 -2628 0
-2603 2558 -2628 0
-2603 -2558 -2628 0
2628 2629 0
-2628 -2629 0
2627 2629 2630 0
2627 -2629 -2630 0
-2627 2629 -2630 0
-2627 -2629 -2630 0
586 2617 2631 0
586 -2617 -2631 0
-586 2617 -2631 0
-586 -2617 -2631 0
1059 2615 2632 0
1059 -2615 -2632 0
-1059 2615 -2632 0
-1059 -2615 -2632 0
2631 2632 -2633 0
2631 -2632 2633 0
-2631 2632 2633 0
-2631 -2632 2633 0
2633 2634 0
-2633 -2634 0
2529 2603 2635 0
2529 -2603 -2635 0
-2529 2603 -2635 0
-2529 -2603 -2635 0
2635 2636 0
-2635 -2636 0
2634 2636 2637 0
2634 -2636 -2637 0
-2634 2636 -2637 0
-2634 -2636 -2637 0
2615 1013 2638 0
2615 -1013 -2638 0
-2615 1013 -2638 0
-2615 -1013 -2638 0
2617 537 2639 0
2617 -537 -2639 0
-2617 537 -2639 0
-2617 -537 -2639 0
2638 2639 -2640 0
2638 -2639 2640 0
-2638 2639 2640 0
-2638 -2639 2640 0
2640 2641 0
-2640 -2641 0
2546 2603 2642 0
2546 -2603 -2642 0
-2546 2603 -2642 0
-2546 -2603 -2642 0
2642 2643 0
-2642 -2643 0
2641 2643 2644 0
2641 -2643 -2644 0
-2641 2643 -2644 0
-2641 -2643 -2644 0
2623 2630 2637 2644 -2645 0
2623 2630 2637 -2644 2645 0
2623 2630 -2637 2644 2645 0
2623 2630 -2637 -2644 2645 0
2623 -2630 2637 2644 2645 0
2623 -2630 2637 -2644 2645 0
2623 -2630 -2637 2644 2645 0
2623 -2630 -2637 -2644 2645 0
-2623 2630 2637 2644 2645 0
-2623 2630 2637 -2644 2645 0
-2623 2630 -2637 2644 2645 0
-2623 2630 -2637 -2644 2645 0
-2623 -2630 2637 2644 2645 0
-2623 -2630 2637 -2644 2645 0
-2623 -2630 -2637 2644 2645 0
-2623 -2630 -2637 -2644 2645 0
1042 2615 2646 0
1042 -2615 -2646 0
-1042 2615 -2646 0
-1042 -2615 -2646 0
566 2617 2647 0
566 -2617 -2647 0
-566 2617 -2647 0
-566 -2617 -2647 0
2646 2647 -2648 0
2646 -2647 2648 0
-2646 2647 2648 0
-2646 -2647 2648 0
2648 2649 0
-2648 -2649 0
2570 2552 2650 0
2570 -2552 -2650 0
-2570 2552 -2650 0
-2570 -2552 -2650 0
2650 2651 0
-2650 -2651 0
2649 2651 2652 0
2649 -2651 -2652 0
-2649 2651 -2652 0
-2649 -2651 -2652 0
2570 2407 2653 0
2570 -2407 -2653 0
-2570 2407 -2653 0
-2570 -2407 -2653 0
2653 2654 0
-2653 -2654 0
2617 558 2655 0
2617 -558 -2655 0
-2617 558 -2655 0
-2617 -558 -2655 0
2615 1034 2656 0
2615 -1034 -2656 0
-2615 1034 -2656 0
-2615 -1034 -2656 0
2655 2656 -2657 0
2655 -2656 2657 0
-2655 2656 2657 0
-2655 -2656 2657 0
2657 2658 0
-2657 -2658 0
2654 2658 2659 0
2654 -2658 -2659 0
-2654 2658 -2659 0
-2654 -2658 -2659 0
2603 2516 2660 0
2603 -2516 -2660 0
-2603 2516 -2660 0
-2603 -2516 -2660 0
2660 2661 0
-2660 -2661 0
590 2617 2662 0
590 -2617 -2662 0
-590 2617 -2662 0
-590 -2617 -2662 0
2615 1063 2663 0
2615 -1063 -2663 0
-2615 1063 -2663 0
-2615 -1063 -2663 0
2662 2663 -2664 0
2662 -2663 2664 0
-2662 2663 2664 0
-2662 -2663 2664 0
2664 2665 0
-2664 -2665 0
2661 2665 2666 0
2661 -2665 -2666 0
-2661 2665 -2666 0
-2661 -2665 -2666 0
2535 2603 2667 0
2535 -2603 -2667 0
-2535 2603 -2667 0
-2535 -2603 -2667 0
2667 2668 0
-2667 -2668 0
594 2617 2669 0
594 -2617 -2669 0
-594 2617 -2669 0
-594 -2617 -2669 0
1067 2615 2670 0
1067 -2615 -2670 0
-1067 2615 -2670 0
-1067 -2615 -2670 0
2669 2670 -2671 0
2669 -2670 2671 0
-2669 2670 2671 0
-2669 -2670 2671 0
2671 2672 0
-2671 -2672 0
2668 2672 2673 0
2668 -2672 -2673 0
-2668 2672 -2673 0
-2668 -2672 -2673 0
2652 2659 2666 2673 -2674 0
2652 2659 2666 -2673 2674 0
2652 2659 -2666 2673 2674 0
2652 2659 -2666 -2673 2674 0
2652 -2659 2666 2673 2674 0
2652 -2659 2666 -2673 2674 0
2652 -2659 -2666 2673 2674 0
2652 -2659 -2666 -2673 2674 0
-2652 2659 2666 2673 2674 0
-2652 2659 2666 -2673 2674 0
-2652 2659 -2666 2673 2674 0
-2652 2659 -2666 -2673 2674 0
-2652 -2659 2666 2673 2674 0
-2652 -2659 2666 -2673 2674 0
-2652 -2659 -2666 2673 2674 0
-2652 -2659 -2666 -2673 2674 0
2601 2614 2645 2674 2675 0
2601 2614 2645 -2674 -2675 0
2601 2614 -2645 2674 -2675 0
2601 2614 -2645 -2674 -2675 0
2601 -2614 2645 2674 -2675 0
2601 -2614 2645 -2674 -2675 0
2601 -2614 -2645 2674 -2675 0
2601 -2614 -2645 -2674 -2675 0
-2601 2614 2645 2674 -2675 0
-2601 2614 2645 -2674 -2675 0
-2601 2614 -2645 2674 -2675 0
-2601 2614 -2645 -2674 -2675 0
-2601 -2614 2645 2674 -2675 0
-2601 -2614 2645 -2674 -2675 0
-2601 -2614 -2645 2674 -2675 0
-2601 -2614 -2645 -2674 -2675 0
407 2676 0
-407 -2676 0
2675 2676 2677 0
2675 -2676 -2677 0
-2675 2676 -2677 0
-2675 -2676 -2677 0
237 2678 0
-237 -2678 0
2678 2679 0
-2678 -2679 0
311 2680 0
-311 -2680 0
2680 2681 0
-2680 -2681 0
720 2679 2681 2682 0
720 2679 -2681 -2682 0
720 -2679 2681 -2682 0
720 -2679 -2681 -2682 0
-720 2679 2681 -2682 0
-720 2679 -2681 -2682 0
-720 -2679 2681 -2682 0
-720 -2679 -2681 -2682 0
400 2683 0
-400 -2683 0
2683 2684 0
-2683 -2684 0
362 2685 0
-362 -2685 0
2685 2686 0
-2685 -2686 0
2686 2687 0
-2686 -2687 0
377 2688 0
-377 -2688 0
2688 2689 0
-2688 -2689 0
388 2690 0
-388 -2690 0
2690 2691 0
-2690 -2691 0
2689 2691 2692 0
2689 -2691 -2692 0
-2689 2691 -2692 0
-2689 -2691 -2692 0
2687 2692 -2693 0
2687 -2692 2693 0
-2687 2692 2693 0
-2687 -2692 2693 0
2693 2694 0
-2693 -2694 0
2694 2617 2695 0
2694 -2617 -2695 0
-2694 2617 -2695 0
-2694 -2617 -2695 0
2695 2696 0
-2695 -2696 0
406 2697 0
-406 -2697 0
2697 2698 0
-2697 -2698 0
2684 2696 2698 2699 0
2684 2696 -2698 -2699 0
2684 -2696 2698 -2699 0
2684 -2696 -2698 -2699 0
-2684 2696 2698 -2699 0
-2684 2696 -2698 -2699 0
-2684 -2696 2698 -2699 0
-2684 -2696 -2698 -2699 0
2693 2700 0
-2693 -2700 0
2700 2701 0
-2700 -2701 0
2701 2617 2702 0
2701 -2617 -2702 0
-2701 2617 -2702 0
-2701 -2617 -2702 0
2702 2703 0
-2702 -2703 0
391 2704 0
-391 -2704 0
2704 2705 0
-2704 -2705 0
2698 2703 2705 2706 0
2698 2703 -2705 -2706 0
2698 -2703 2705 -2706 0
2698 -2703 -2705 -2706 0
-2698 2703 2705 -2706 0
-2698 2703 -2705 -2706 0
-2698 -2703 2705 -2706 0
-2698 -2703 -2705 -2706 0
2682 2699 2706 -2707 0
2682 2699 -2706 2707 0
2682 -2699 2706 2707 0
2682 -2699 -2706 2707 0
-2682 2699 2706 2707 0
-2682 2699 -2706 2707 0
-2682 -2699 2706 2707 0
-2682 -2699 -2706 2707 0
2565 2677 2707 2708 0
2565 2677 -2707 -2708 0
2565 -2677 2707 -2708 0
2565 -2677 -2707 -2708 0
-2565 2677 2707 -2708 0
-2565 2677 -2707 -2708 0
-2565 -2677 2707 -2708 0
-2565 -2677 -2707 -2708 0
2708 2709 0
-2708 -2709 0
2401 2710 0
-2401 -2710 0
2710 2711 0
-2710 -2711 0
305 2712 0
-305 -2712 0
2712 2713 0
-2712 -2713 0
2713 2714 0
-2713 -2714 0
2404 2715 0
-2404 -2715 0
2715 2716 0
-2715 -2716 0
2711 2714 2716 2717 0
2711 2714 -2716 -2717 0
2711 -2714 2716 -2717 0
2711 -2714 -2716 -2717 0
-2711 2714 2716 -2717 0
-2711 2714 -2716 -2717 0
-2711 -2714 2716 -2717 0
-2711 -2714 -2716 -2717 0
305 2718 0
-305 -2718 0
2718 2719 0
-2718 -2719 0
2719 2720 0
-2719 -2720 0
2720 2721 0
-2720 -2721 0
2511 2722 0
-2511 -2722 0
2722 2723 0
-2722 -2723 0
2711 2721 2723 2724 0
2711 2721 -2723 -2724 0
2711 -2721 2723 -2724 0
2711 -2721 -2723 -2724 0
-2711 2721 2723 -2724 0
-2711 2721 -2723 -2724 0
-2711 -2721 2723 -2724 0
-2711 -2721 -2723 -2724 0
2513 2725 0
-2513 -2725 0
2725 2726 0
-2725 -2726 0
2726 2714 2723 2727 0
2726 2714 -2723 -2727 0
2726 -2714 2723 -2727 0
2726 -2714 -2723 -2727 0
-2726 2714 2723 -2727 0
-2726 2714 -2723 -2727 0
-2726 -2714 2723 -2727 0
-2726 -2714 -2723 -2727 0
2726 2721 2716 2728 0
2726 2721 -2716 -2728 0
2726 -2721 2716 -2728 0
2726 -2721 -2716 -2728 0
-2726 2721 2716 -2728 0
-2726 2721 -2716 -2728 0
-2726 -2721 2716 -2728 0
-2726 -2721 -2716 -2728 0
2717 2724 2727 2728 -2729 0
2717 2724 2727 -2728 2729 0
2717 2724 -2727 2728 2729 0
2717 2724 -2727 -2728 2729 0
2717 -2724 2727 2728 2729 0
2717 -2724 2727 -2728 2729 0
2717 -2724 -2727 2728 2729 0
2717 -2724 -2727 -2728 2729 0
-2717 2724 2727 2728 2729 0
-2717 2724 2727 -2728 2729 0
-2717 2724 -2727 2728 2729 0
-2717 2724 -2727 -2728 2729 0
-2717 -2724 2727 2728 2729 0
-2717 -2724 2727 -2728 2729 0
-2717 -2724 -2727 2728 2729 0
-2717 -2724 -2727 -2728 2729 0
2729 2730 0
-2729 -2730 0
2730 2731 0
-2730 -2731 0
2567 2732 0
-2567 -2732 0
2732 2733 0
-2732 -2733 0
2398 2734 0
-2398 -2734 0
2734 2735 0
-2734 -2735 0
2505 2736 0
-2505 -2736 0
2736 2737 0
-2736 -2737 0
2733 2735 2737 2738 0
2733 2735 -2737 -2738 0
2733 -2735 2737 -2738 0
2733 -2735 -2737 -2738 0
-2733 2735 2737 -2738 0
-2733 2735 -2737 -2738 0
-2733 -2735 2737 -2738 0
-2733 -2735 -2737 -2738 0
2509 2739 0
-2509 -2739 0
2739 2740 0
-2739 -2740 0
2408 2741 0
-2408 -2741 0
2741 2742 0
-2741 -2742 0
2733 2740 2742 2743 0
2733 2740 -2742 -2743 0
2733 -2740 2742 -2743 0
2733 -2740 -2742 -2743 0
-2733 2740 2742 -2743 0
-2733 2740 -2742 -2743 0
-2733 -2740 2742 -2743 0
-2733 -2740 -2742 -2743 0
2410 2744 0
-2410 -2744 0
2744 2745 0
-2744 -2745 0
2745 2735 2742 2746 0
2745 2735 -2742 -2746 0
2745 -2735 2742 -2746 0
2745 -2735 -2742 -2746 0
-2745 2735 2742 -2746 0
-2745 2735 -2742 -2746 0
-2745 -2735 2742 -2746 0
-2745 -2735 -2742 -2746 0
2745 2740 2737 2747 0
2745 2740 -2737 -2747 0
2745 -2740 2737 -2747 0
2745 -2740 -2737 -2747 0
-2745 2740 2737 -2747 0
-2745 2740 -2737 -2747 0
-2745 -2740 2737 -2747 0
-2745 -2740 -2737 -2747 0
2738 2743 2746 2747 -2748 0
2738 2743 2746 -2747 2748 0
2738 2743 -2746 2747 2748 0
2738 2743 -2746 -2747 2748 0
2738 -2743 2746 2747 2748 0
2738 -2743 2746 -2747 2748 0
2738 -2743 -2746 2747 2748 0
2738 -2743 -2746 -2747 2748 0
-2738 2743 2746 2747 2748 0
-2738 2743 2746 -2747 2748 0
-2738 2743 -2746 2747 2748 0
-2738 2743 -2746 -2747 2748 0
-2738 -2743 2746 2747 2748 0
-2738 -2743 2746 -2747 2748 0
-2738 -2743 -2746 2747 2748 0
-2738 -2743 -2746 -2747 2748 0
2748 2749 0
-2748 -2749 0
2749 2750 0
-2749 -2750 0
2731 2750 2751 0
2731 -2750 -2751 0
-2731 2750 -2751 0
-2731 -2750 -2751 0
2731 2751 2752 0
2731 -2751 -2752 0
-2731 2751 -2752 0
-2731 -2751 -2752 0
2751 2750 2753 0
2751 -2750 -2753 0
-2751 2750 -2753 0
-2751 -2750 -2753 0
2752 2753 -2754 0
2752 -2753 2754 0
-2752 2753 2754 0
-2752 -2753 2754 0
2754 2755 0
-2754 -2755 0
2709 2755 -2756 0
2709 -2755 2756 0
-2709 2755 2756 0
-2709 -2755 2756 0
2756 2757 0
-2756 -2757 0
2757 2758 0
-2757 -2758 0
2758 2759 0
-2758 -2759 0
2759 2760 0
-2759 -2760 0
2396 2760 -2761 0
2396 -2760 2761 0
-2396 2760 2761 0
-2396 -2760 -2761 0
2344 2762 0
-2344 -2762 0
309 2763 0
-309 -2763 0
2763 2764 0
-2763 -2764 0
2764 2765 0
-2764 -2765 0
2765 2766 0
-2765 -2766 0
308 2767 0
-308 -2767 0
2767 2768 0
-2767 -2768 0
2768 2769 0
-2768 -2769 0
2769 2770 0
-2769 -2770 0
2770 2771 0
-2770 -2771 0
324 2772 0
-324 -2772 0
2772 2773 0
-2772 -2773 0
2773 2774 0
-2773 -2774 0
2774 2775 0
-2774 -2775 0
2766 2771 2775 2776 0
2766 2771 -2775 -2776 0
2766 -2771 2775 -2776 0
2766 -2771 -2775 -2776 0
-2766 2771 2775 -2776 0
-2766 2771 -2775 -2776 0
-2766 -2771 2775 -2776 0
-2766 -2771 -2775 -2776 0
308 2777 0
-308 -2777 0
2777 2778 0
-2777 -2778 0
2778 2779 0
-2778 -2779 0
2779 2780 0
-2779 -2780 0
324 2781 0
-324 -2781 0
2781 2782 0
-2781 -2782 0
2782 2783 0
-2782 -2783 0
2783 2784 0
-2783 -2784 0
2784 2785 0
-2784 -2785 0
2766 2780 2785 2786 0
2766 2780 -2785 -2786 0
2766 -2780 2785 -2786 0
2766 -2780 -2785 -2786 0
-2766 2780 2785 -2786 0
-2766 2780 -2785 -2786 0
-2766 -2780 2785 -2786 0
-2766 -2780 -2785 -2786 0
309 2787 0
-309 -2787 0
2787 2788 0
-2787 -2788 0
2788 2789 0
-2788 -2789 0
2789 2790 0
-2789 -2790 0
2790 2791 0
-2790 -2791 0
2791 2771 2785 2792 0
2791 2771 -2785 -2792 0
2791 -2771 2785 -2792 0
2791 -2771 -2785 -2792 0
-2791 2771 2785 -2792 0
-2791 2771 -2785 -2792 0
-2791 -2771 2785 -2792 0
-2791 -2771 -2785 -2792 0
2791 2780 2775 2793 0
2791 2780 -2775 -2793 0
2791 -2780 2775 -2793 0
2791 -2780 -2775 -2793 0
-2791 2780 2775 -2793 0
-2791 2780 -2775 -2793 0
-2791 -2780 2775 -2793 0
-2791 -2780 -2775 -2793 0
2776 2786 2792 2793 -2794 0
2776 2786 2792 -2793 2794 0
2776 2786 -2792 2793 2794 0
2776 2786 -2792 -2793 2794 0
2776 -2786 2792 2793 2794 0
2776 -2786 2792 -2793 2794 0
2776 -2786 -2792 2793 2794 0
2776 -2786 -2792 -2793 2794 0
-2776 2786 2792 2793 2794 0
-2776 2786 2792 -2793 2794 0
-2776 2786 -2792 2793 2794 0
-2776 2786 -2792 -2793 2794 0
-2776 -2786 2792 2793 2794 0
-2776 -2786 2792 -2793 2794 0
-2776 -2786 -2792 2793 2794 0
-2776 -2786 -2792 -2793 2794 0
2794 2795 0
-2794 -2795 0
2795 2796 0
-2795 -2796 0
307 2797 0
-307 -2797 0
2797 2798 0
-2797 -2798 0
2798 2799 0
-2798 -2799 0
2799 2800 0
-2799 -2800 0
306 2801 0
-306 -2801 0
2801 2802 0
-2801 -2802 0
2802 2803 0
-2802 -2803 0
2803 2804 0
-2803 -2804 0
315 2805 0
-315 -2805 0
2805 2806 0
-2805 -2806 0
2806 2807 0
-2806 -2807 0
2807 2808 0
-2807 -2808 0
2800 2804 2808 2809 0
2800 2804 -2808 -2809 0
2800 -2804 2808 -2809 0
2800 -2804 -2808 -2809 0
-2800 2804 2808 -2809 0
-2800 2804 -2808 -2809 0
-2800 -2804 2808 -2809 0
-2800 -2804 -2808 -2809 0
306 2810 0
-306 -2810 0
2810 2811 0
-2810 -2811 0
2811 2812 0
-2811 -2812 0
315 2813 0
-315 -2813 0
2813 2814 0
-2813 -2814 0
2814 2815 0
-2814 -2815 0
2800 2812 2815 2816 0
2800 2812 -2815 -2816 0
2800 -2812 2815 -2816 0
2800 -2812 -2815 -2816 0
-2800 2812 2815 -2816 0
-2800 2812 -2815 -2816 0
-2800 -2812 2815 -2816 0
-2800 -2812 -2815 -2816 0
307 2817 0
-307 -2817 0
2817 2818 0
-2817 -2818 0
2818 2819 0
-2818 -2819 0
2819 2804 2815 2820 0
2819 2804 -2815 -2820 0
2819 -2804 2815 -2820 0
2819 -2804 -2815 -2820 0
-2819 2804 2815 -2820 0
-2819 2804 -2815 -2820 0
-2819 -2804 2815 -2820 0
-2819 -2804 -2815 -2820 0
2819 2812 2808 2821 0
2819 2812 -2808 -2821 0
2819 -2812 2808 -2821 0
2819 -2812 -2808 -2821 0
-2819 2812 2808 -2821 0
-2819 2812 -2808 -2821 0
-2819 -2812 2808 -2821 0
-2819 -2812 -2808 -2821 0
2809 2816 2820 2821 -2822 0
2809 2816 2820 -2821 2822 0
2809 2816 -2820 2821 2822 0
2809 2816 -2820 -2821 2822 0
2809 -2816 2820 2821 2822 0
2809 -2816 2820 -2821 2822 0
2809 -2816 -2820 2821 2822 0
2809 -2816 -2820 -2821 2822 0
-2809 2816 2820 2821 2822 0
-2809 2816 2820 -2821 2822 0
-2809 2816 -2820 2821 2822 0
-2809 2816 -2820 -2821 2822 0
-2809 -2816 2820 2821 2822 0
-2809 -2816 2820 -2821 2822 0
-2809 -2816 -2820 2821 2822 0
-2809 -2816 -2820 -2821 2822 0
2822 2823 0
-2822 -2823 0
2823 2824 0
-2823 -2824 0
2796 2824 2825 0
2796 -2824 -2825 0
-2796 2824 -2825 0
-2796 -2824 -2825 0
2796 2825 2826 0
2796 -2825 -2826 0
-2796 2825 -2826 0
-2796 -2825 -2826 0
2825 2824 2827 0
2825 -2824 -2827 0
-2825 2824 -2827 0
-2825 -2824 -2827 0
2826 2827 -2828 0
2826 -2827 2828 0
-2826 2827 2828 0
-2826 -2827 2828 0
2828 2829 0
-2828 -2829 0
2762 2829 -2830 0
2762 -2829 2830 0
-2762 2829 2830 0
-2762 -2829 2830 0
2830 2831 0
-2830 -2831 0
2831 2832 0
-2831 -2832 0
2832 2833 0
-2832 -2833 0
2833 2834 0
-2833 -2834 0
2708 2835 0
-2708 -2835 0
309 2836 0
-309 -2836 0
2836 2837 0
-2836 -2837 0
2837 2838 0
-2837 -2838 0
2838 2839 0
-2838 -2839 0
308 2840 0
-308 -2840 0
2840 2841 0
-2840 -2841 0
2841 2842 0
-2841 -2842 0
2842 2843 0
-2842 -2843 0
2843 2844 0
-2843 -2844 0
324 2845 0
-324 -2845 0
2845 2846 0
-2845 -2846 0
2846 2847 0
-2846 -2847 0
2847 2848 0
-2847 -2848 0
2839 2844 2848 2849 0
2839 2844 -2848 -2849 0
2839 -2844 2848 -2849 0
2839 -2844 -2848 -2849 0
-2839 2844 2848 -2849 0
-2839 2844 -2848 -2849 0
-2839 -2844 2848 -2849 0
-2839 -2844 -2848 -2849 0
308 2850 0
-308 -2850 0
2850 2851 0
-2850 -2851 0
2851 2852 0
-2851 -2852 0
2852 2853 0
-2852 -2853 0
324 2854 0
-324 -2854 0
2854 2855 0
-2854 -2855 0
2855 2856 0
-2855 -2856 0
2856 2857 0
-2856 -2857 0
2857 2858 0
-2857 -2858 0
2839 2853 2858 2859 0
2839 2853 -2858 -2859 0
2839 -2853 2858 -2859 0
2839 -2853 -2858 -2859 0
-2839 2853 2858 -2859 0
-2839 2853 -2858 -2859 0
-2839 -2853 2858 -2859 0
-2839 -2853 -2858 -2859 0
309 2860 0
-309 -2860 0
2860 2861 0
-2860 -2861 0
2861 2862 0
-2861 -2862 0
2862 2863 0
-2862 -2863 0
2863 2864 0
-2863 -2864 0
2864 2844 2858 2865 0
2864 2844 -2858 -2865 0
2864 -2844 2858 -2865 0
2864 -2844 -2858 -2865 0
-2864 2844 2858 -2865 0
-2864 2844 -2858 -2865 0
-2864 -2844 2858 -2865 0
-2864 -2844 -2858 -2865 0
2864 2853 2848 2866 0
2864 2853 -2848 -2866 0
2864 -2853 2848 -2866 0
2864 -2853 -2848 -2866 0
-2864 2853 2848 -2866 0
-2864 2853 -2848 -2866 0
-2864 -2853 2848 -2866 0
-2864 -2853 -2848 -2866 0
2849 2859 2865 2866 -2867 0
2849 2859 2865 -2866 2867 0
2849 2859 -2865 2866 2867 0
2849 2859 -2865 -2866 2867 0
2849 -2859 2865 2866 2867 0
2849 -2859 2865 -2866 2867 0
2849 -2859 -2865 2866 2867 0
2849 -2859 -2865 -2866 2867 0
-2849 2859 2865 2866 2867 0
-2849 2859 2865 -2866 2867 0
-2849 2859 -2865 2866 2867 0
-2849 2859 -2865 -2866 2867 0
-2849 -2859 2865 2866 2867 0
-2849 -2859 2865 -2866 2867 0
-2849 -2859 -2865 2866 2867 0
-2849 -2859 -2865 -2866 2867 0
2867 2868 0
-2867 -2868 0
2868 2869 0
-2868 -2869 0
307 2870 0
-307 -2870 0
2870 2871 0
-2870 -2871 0
2871 2872 0
-2871 -2872 0
2872 2873 0
-2872 -2873 0
306 2874 0
-306 -2874 0
2874 2875 0
-2874 -2875 0
2875 2876 0
-2875 -2876 0
2876 2877 0
-2876 -2877 0
315 2878 0
-315 -2878 0
2878 2879 0
-2878 -2879 0
2879 2880 0
-2879 -2880 0
2880 2881 0
-2880 -2881 0
2873 2877 2881 2882 0
2873 2877 -2881 -2882 0
2873 -2877 2881 -2882 0
2873 -2877 -2881 -2882 0
-2873 2877 2881 -2882 0
-2873 2877 -2881 -2882 0
-2873 -2877 2881 -2882 0
-2873 -2877 -2881 -2882 0
306 2883 0
-306 -2883 0
2883 2884 0
-2883 -2884 0
2884 2885 0
-2884 -2885 0
315 2886 0
-315 -2886 0
2886 2887 0
-2886 -2887 0
2887 2888 0
-2887 -2888 0
2873 2885 2888 2889 0
2873 2885 -2888 -2889 0
2873 -2885 2888 -2889 0
2873 -2885 -2888 -2889 0
-2873 2885 2888 -2889 0
-2873 2885 -2888 -2889 0
-2873 -2885 2888 -2889 0
-2873 -2885 -2888 -2889 0
307 2890 0
-307 -2890 0
2890 2891 0
-2890 -2891 0
2891 2892 0
-2891 -2892 0
2892 2877 2888 2893 0
2892 2877 -2888 -2893 0
2892 -2877 2888 -2893 0
2892 -2877 -2888 -2893 0
-2892 2877 2888 -2893 0
-2892 2877 -2888 -2893 0
-2892 -2877 2888 -2893 0
-2892 -2877 -2888 -2893 0
2892 2885 2881 2894 0
2892 2885 -2881 -2894 0
2892 -2885 2881 -2894 0
2892 -2885 -2881 -2894 0
-2892 2885 2881 -2894 0
-2892 2885 -2881 -2894 0
-2892 -2885 2881 -2894 0
-2892 -2885 -2881 -2894 0
2882 2889 2893 2894 -2895 0
2882 2889 2893 -2894 2895 0
2882 2889 -2893 2894 2895 0
2882 2889 -2893 -2894 2895 0
2882 -2889 2893 2894 2895 0
2882 -2889 2893 -2894 2895 0
2882 -2889 -2893 2894 2895 0
2882 -2889 -2893 -2894 2895 0
-2882 2889 2893 2894 2895 0
-2882 2889 2893 -2894 2895 0
-2882 2889 -2893 2894 2895 0
-2882 2889 -2893 -2894 2895 0
-2882 -2889 2893 2894 2895 0
-2882 -2889 2893 -2894 2895 0
-2882 -2889 -2893 2894 2895 0
-2882 -2889 -2893 -2894 2895 0
2895 2896 0
-2895 -2896 0
2896 2897 0
-2896 -2897 0
2869 2897 2898 0
2869 -2897 -2898 0
-2869 2897 -2898 0
-2869 -2897 -2898 0
2869 2898 2899 0
2869 -2898 -2899 0
-2869 2898 -2899 0
-2869 -2898 -2899 0
2898 2897 2900 0
2898 -2897 -2900 0
-2898 2897 -2900 0
-2898 -2897 -2900 0
2899 2900 -2901 0
2899 -2900 2901 0
-2899 2900 2901 0
-2899 -2900 2901 0
2901 2902 0
-2901 -2902 0
2835 2902 -2903 0
2835 -2902 2903 0
-2835 2902 2903 0
-2835 -2902 2903 0
2903 2904 0
-2903 -2904 0
2904 2905 0
-2904 -2905 0
2905 2906 0
-2905 -2906 0
2906 2907 0
-2906 -2907 0
2834 2907 -2908 0
2834 -2907 2908 0
-2834 2907 2908 0
-2834 -2907 -2908 0
410 2909 0
-410 -2909 0
1969 1933 1943 1948 2910 0
1969 1933 1943 -1948 -2910 0
1969 1933 -1943 1948 -2910 0
1969 1933 -1943 -1948 -2910 0
1969 -1933 1943 1948 -2910 0
1969 -1933 1943 -1948 -2910 0
1969 -1933 -1943 1948 -2910 0
1969 -1933 -1943 -1948 -2910 0
-1969 1933 1943 1948 -2910 0
-1969 1933 1943 -1948 -2910 0
-1969 1933 -1943 1948 -2910 0
-1969 1933 -1943 -1948 -2910 0
-1969 -1933 1943 1948 -2910 0
-1969 -1933 1943 -1948 -2910 0
-1969 -1933 -1943 1948 -2910 0
-1969 -1933 -1943 -1948 -2910 0
2909 2337 2910 2911 0
2909 2337 -2910 -2911 0
2909 -2337 2910 -2911 0
2909 -2337 -2910 -2911 0
-2909 2337 2910 -2911 0
-2909 2337 -2910 -2911 0
-2909 -2337 2910 -2911 0
-2909 -2337 -2910 -2911 0
2337 2200 2912 0
2337 -2200 -2912 0
-2337 2200 -2912 0
-2337 -2200 -2912 0
2338 2911 2912 2913 0
2338 2911 -2912 -2913 0
2338 -2911 2912 -2913 0
2338 -2911 -2912 -2913 0
-2338 2911 2912 -2913 0
-2338 2911 -2912 -2913 0
-2338 -2911 2912 -2913 0
-2338 -2911 -2912 -2913 0
389 2914 0
-389 -2914 0
2914 2915 0
-2914 -2915 0
2913 2915 2916 0
2913 -2915 -2916 0
-2913 2915 -2916 0
-2913 -2915 -2916 0
392 2917 0
-392 -2917 0
2917 2918 0
-2917 -2918 0
2337 2334 2910 2919 0
2337 2334 -2910 -2919 0
2337 -2334 2910 -2919 0
2337 -2334 -2910 -2919 0
-2337 2334 2910 -2919 0
-2337 2334 -2910 -2919 0
-2337 -2334 2910 -2919 0
-2337 -2334 -2910 -2919 0
2919 2920 0
-2919 -2920 0
2918 2920 2921 0
2918 -2920 -2921 0
-2918 2920 -2921 0
-2918 -2920 -2921 0
384 2922 0
-384 -2922 0
2922 2923 0
-2922 -2923 0
409 2924 0
-409 -2924 0
2923 2924 2330 2925 0
2923 2924 -2330 -2925 0
2923 -2924 2330 -2925 0
2923 -2924 -2330 -2925 0
-2923 2924 2330 -2925 0
-2923 2924 -2330 -2925 0
-2923 -2924 2330 -2925 0
-2923 -2924 -2330 -2925 0
404 2926 0
-404 -2926 0
2926 2927 0
-2926 -2927 0
409 2928 0
-409 -2928 0
2928 2929 0
-2928 -2929 0
2910 2930 0
-2910 -2930 0
2930 2242 2931 0
2930 -2242 -2931 0
-2930 2242 -2931 0
-2930 -2242 -2931 0
2330 2929 2931 2932 0
2330 2929 -2931 -2932 0
2330 -2929 2931 -2932 0
2330 -2929 -2931 -2932 0
-2330 2929 2931 -2932 0
-2330 2929 -2931 -2932 0
-2330 -2929 2931 -2932 0
-2330 -2929 -2931 -2932 0
2932 2331 2933 0
2932 -2331 -2933 0
-2932 2331 -2933 0
-2932 -2331 -2933 0
2927 2933 2934 0
2927 -2933 -2934 0
-2927 2933 -2934 0
-2927 -2933 -2934 0
2916 2921 2925 2934 -2935 0
2916 2921 2925 -2934 2935 0
2916 2921 -2925 2934 2935 0
2916 2921 -2925 -2934 2935 0
2916 -2921 2925 2934 2935 0
2916 -2921 2925 -2934 2935 0
2916 -2921 -2925 2934 2935 0
2916 -2921 -2925 -2934 2935 0
-2916 2921 2925 2934 2935 0
-2916 2921 2925 -2934 2935 0
-2916 2921 -2925 2934 2935 0
-2916 2921 -2925 -2934 2935 0
-2916 -2921 2925 2934 2935 0
-2916 -2921 2925 -2934 2935 0
-2916 -2921 -2925 2934 2935 0
-2916 -2921 -2925 -2934 2935 0
2935 2936 0
-2935 -2936 0
2936 2937 0
-2936 -2937 0
2937 2938 0
-2937 -2938 0
2938 2939 0
-2938 -2939 0
2939 2940 0
-2939 -2940 0
2940 2941 0
-2940 -2941 0
410 2942 0
-410 -2942 0
2023 1987 1997 2002 2943 0
2023 1987 1997 -2002 -2943 0
2023 1987 -1997 2002 -2943 0
2023 1987 -1997 -2002 -2943 0
2023 -1987 1997 2002 -2943 0
2023 -1987 1997 -2002 -2943 0
2023 -1987 -1997 2002 -2943 0
2023 -1987 -1997 -2002 -2943 0
-2023 1987 1997 2002 -2943 0
-2023 1987 1997 -2002 -2943 0
-2023 1987 -1997 2002 -2943 0
-2023 1987 -1997 -2002 -2943 0
-2023 -1987 1997 2002 -2943 0
-2023 -1987 1997 -2002 -2943 0
-2023 -1987 -1997 2002 -2943 0
-2023 -1987 -1997 -2002 -2943 0
2942 2701 2943 2944 0
2942 2701 -2943 -2944 0
2942 -2701 2943 -2944 0
2942 -2701 -2943 -2944 0
-2942 2701 2943 -2944 0
-2942 2701 -2943 -2944 0
-2942 -2701 2943 -2944 0
-2942 -2701 -2943 -2944 0
2701 2564 2945 0
2701 -2564 -2945 0
-2701 2564 -2945 0
-2701 -2564 -2945 0
2702 2944 2945 2946 0
2702 2944 -2945 -2946 0
2702 -2944 2945 -2946 0
2702 -2944 -2945 -2946 0
-2702 2944 2945 -2946 0
-2702 2944 -2945 -2946 0
-2702 -2944 2945 -2946 0
-2702 -2944 -2945 -2946 0
389 2947 0
-389 -2947 0
2947 2948 0
-2947 -2948 0
2946 2948 2949 0
2946 -2948 -2949 0
-2946 2948 -2949 0
-2946 -2948 -2949 0
392 2950 0
-392 -2950 0
2950 2951 0
-2950 -2951 0
2701 2698 2943 2952 0
2701 2698 -2943 -2952 0
2701 -2698 2943 -2952 0
2701 -2698 -2943 -2952 0
-2701 2698 2943 -2952 0
-2701 2698 -2943 -2952 0
-2701 -2698 2943 -2952 0
-2701 -2698 -2943 -2952 0
2952 2953 0
-2952 -2953 0
2951 2953 2954 0
2951 -2953 -2954 0
-2951 2953 -2954 0
-2951 -2953 -2954 0
384 2955 0
-384 -2955 0
2955 2956 0
-2955 -2956 0
409 2957 0
-409 -2957 0
2956 2957 2694 2958 0
2956 2957 -2694 -2958 0
2956 -2957 2694 -2958 0
2956 -2957 -2694 -2958 0
-2956 2957 2694 -2958 0
-2956 2957 -2694 -2958 0
-2956 -2957 2694 -2958 0
-2956 -2957 -2694 -2958 0
404 2959 0
-404 -2959 0
2959 2960 0
-2959 -2960 0
409 2961 0
-409 -2961 0
2961 2962 0
-2961 -2962 0
2943 2963 0
-2943 -2963 0
2963 2606 2964 0
2963 -2606 -2964 0
-2963 2606 -2964 0
-2963 -2606 -2964 0
2694 2962 2964 2965 0
2694 2962 -2964 -2965 0
2694 -2962 2964 -2965 0
2694 -2962 -2964 -2965 0
-2694 2962 2964 -2965 0
-2694 2962 -2964 -2965 0
-2694 -2962 2964 -2965 0
-2694 -2962 -2964 -2965 0
2965 2695 2966 0
2965 -2695 -2966 0
-2965 2695 -2966 0
-2965 -2695 -2966 0
2960 2966 2967 0
2960 -2966 -2967 0
-2960 2966 -2967 0
-2960 -2966 -2967 0
2949 2954 2958 2967 -2968 0
2949 2954 2958 -2967 2968 0
2949 2954 -2958 2967 2968 0
2949 2954 -2958 -2967 2968 0
2949 -2954 2958 2967 2968 0
2949 -2954 2958 -2967 2968 0
2949 -2954 -2958 2967 2968 0
2949 -2954 -2958 -2967 2968 0
-2949 2954 2958 2967 2968 0
-2949 2954 2958 -2967 2968 0
-2949 2954 -2958 2967 2968 0
-2949 2954 -2958 -2967 2968 0
-2949 -2954 2958 2967 2968 0
-2949 -2954 2958 -2967 2968 0
-2949 -2954 -2958 2967 2968 0
-2949 -2954 -2958 -2967 2968 0
2968 2969 0
-2968 -2969 0
2969 2970 0
-2969 -2970 0
2970 2971 0
-2970 -2971 0
2971 2972 0
-2971 -2972 0
2972 2973 0
-2972 -2973 0
2973 2974 0
-2973 -2974 0
2941 2974 -2975 0
2941 -2974 2975 0
-2941 2974 2975 0
-2941 -2974 -2975 0
2935 2976 0
-2935 -2976 0
2976 2977 0
-2976 -2977 0
2977 2978 0
-2977 -2978 0
2978 2979 0
-2978 -2979 0
2979 2980 0
-2979 -2980 0
2980 2981 0
-2980 -2981 0
2968 2982 0
-2968 -2982 0
2982 2983 0
-2982 -2983 0
2983 2984 0
-2983 -2984 0
2984 2985 0
-2984 -2985 0
2985 2986 0
-2985 -2986 0
2986 2987 0
-2986 -2987 0
2981 2987 -2988 0
2981 -2987 2988 0
-2981 2987 2988 0
-2981 -2987 -2988 0
385 2989 0
-385 -2989 0
2989 2990 0
-2989 -2990 0
382 2991 0
-382 -2991 0
374 2992 0
-374 -2992 0
2992 1828 2993 0
2992 -1828 -2993 0
-2992 1828 -2993 0
-2992 -1828 -2993 0
2993 2994 0
-2993 -2994 0
2994 2990 2995 0
2994 -2990 -2995 0
-2994 2990 -2995 0
-2994 -2990 -2995 0
2995 2996 0
-2995 -2996 0
267 2997 0
-267 -2997 0
2997 2998 0
-2997 -2998 0
2998 2999 0
-2998 -2999 0
2996 2999 3000 0
2996 -2999 -3000 0
-2996 2999 -3000 0
-2996 -2999 -3000 0
2991 3000 3001 0
2991 -3000 -3001 0
-2991 3000 -3001 0
-2991 -3000 -3001 0
383 3002 0
-383 -3002 0
3002 2991 3003 0
3002 -2991 -3003 0
-3002 2991 -3003 0
-3002 -2991 -3003 0
3003 3004 0
-3003 -3004 0
381 3005 0
-381 -3005 0
3005 3006 0
-3005 -3006 0
3004 3006 3007 0
3004 -3006 -3007 0
-3004 3006 -3007 0
-3004 -3006 -3007 0
266 3008 0
-266 -3008 0
3008 3009 0
-3008 -3009 0
3009 3010 0
-3009 -3010 0
3010 3011 0
-3010 -3011 0
3001 3007 3011 3012 0
3001 3007 -3011 -3012 0
3001 -3007 3011 -3012 0
3001 -3007 -3011 -3012 0
-3001 3007 3011 -3012 0
-3001 3007 -3011 -3012 0
-3001 -3007 3011 -3012 0
-3001 -3007 -3011 -3012 0
3012 3013 0
-3012 -3013 0
2990 648 3013 3014 0
2990 648 -3013 -3014 0
2990 -648 3013 -3014 0
2990 -648 -3013 -3014 0
-2990 648 3013 -3014 0
-2990 648 -3013 -3014 0
-2990 -648 3013 -3014 0
-2990 -648 -3013 -3014 0
399 3015 0
-399 -3015 0
3015 3016 0
-3015 -3016 0
3016 2920 3017 0
3016 -2920 -3017 0
-3016 2920 -3017 0
-3016 -2920 -3017 0
403 3018 0
-403 -3018 0
2330 3018 3019 0
2330 -3018 -3019 0
-2330 3018 -3019 0
-2330 -3018 -3019 0
395 3020 0
-395 -3020 0
3020 3021 0
-3020 -3021 0
2912 3022 0
-2912 -3022 0
3021 3022 3023 0
3021 -3022 -3023 0
-3021 3022 -3023 0
-3021 -3022 -3023 0
3019 3023 3024 0
3019 -3023 -3024 0
-3019 3023 -3024 0
-3019 -3023 -3024 0
2341 3024 3025 0
2341 -3024 -3025 0
-2341 3024 -3025 0
-2341 -3024 -3025 0
2045 2035 2047 -3026 0
2045 2035 -2047 3026 0
2045 -2035 2047 3026 0
2045 -2035 -2047 3026 0
-2045 2035 2047 3026 0
-2045 2035 -2047 3026 0
-2045 -2035 2047 3026 0
-2045 -2035 -2047 3026 0
2150 2041 3026 -3027 0
2150 2041 -3026 3027 0
2150 -2041 3026 3027 0
2150 -2041 -3026 3027 0
-2150 2041 3026 3027 0
-2150 2041 -3026 3027 0
-2150 -2041 3026 3027 0
-2150 -2041 -3026 3027 0
3027 3028 0
-3027 -3028 0
2932 3029 0
-2932 -3029 0
3028 3029 3030 0
3028 -3029 -3030 0
-3028 3029 -3030 0
-3028 -3029 -3030 0
406 3031 0
-406 -3031 0
403 3032 0
-403 -3032 0
3032 3033 0
-3032 -3033 0
3031 3033 2332 3034 0
3031 3033 -2332 -3034 0
3031 -3033 2332 -3034 0
3031 -3033 -2332 -3034 0
-3031 3033 2332 -3034 0
-3031 3033 -2332 -3034 0
-3031 -3033 2332 -3034 0
-3031 -3033 -2332 -3034 0
3030 3034 -3035 0
3030 -3034 3035 0
-3030 3034 3035 0
-3030 -3034 3035 0
3035 3036 0
-3035 -3036 0
2320 3036 3037 0
2320 -3036 -3037 0
-2320 3036 -3037 0
-2320 -3036 -3037 0
3014 3017 3025 3037 -3038 0
3014 3017 3025 -3037 3038 0
3014 3017 -3025 3037 3038 0
3014 3017 -3025 -3037 3038 0
3014 -3017 3025 3037 3038 0
3014 -3017 3025 -3037 3038 0
3014 -3017 -3025 3037 3038 0
3014 -3017 -3025 -3037 3038 0
-3014 3017 3025 3037 3038 0
-3014 3017 3025 -3037 3038 0
-3014 3017 -3025 3037 3038 0
-3014 3017 -3025 -3037 3038 0
-3014 -3017 3025 3037 3038 0
-3014 -3017 3025 -3037 3038 0
-3014 -3017 -3025 3037 3038 0
-3014 -3017 -3025 -3037 3038 0
395 3039 0
-395 -3039 0
396 3040 0
-396 -3040 0
3040 3041 0
-3040 -3041 0
3039 3041 2329 3042 0
3039 3041 -2329 -3042 0
3039 -3041 2329 -3042 0
3039 -3041 -2329 -3042 0
-3039 3041 2329 -3042 0
-3039 3041 -2329 -3042 0
-3039 -3041 2329 -3042 0
-3039 -3041 -2329 -3042 0
2242 3021 2341 -3043 0
2242 3021 -2341 3043 0
2242 -3021 2341 3043 0
2242 -3021 -2341 3043 0
-2242 3021 2341 3043 0
-2242 3021 -2341 3043 0
-2242 -3021 2341 3043 0
-2242 -3021 -2341 3043 0
3031 2329 3043 -3044 0
3031 2329 -3043 3044 0
3031 -2329 3043 3044 0
3031 -2329 -3043 3044 0
-3031 2329 3043 3044 0
-3031 2329 -3043 3044 0
-3031 -2329 3043 3044 0
-3031 -2329 -3043 3044 0
3044 3045 0
-3044 -3045 0
3038 3042 3045 3046 0
3038 3042 -3045 -3046 0
3038 -3042 3045 -3046 0
3038 -3042 -3045 -3046 0
-3038 3042 3045 -3046 0
-3038 3042 -3045 -3046 0
-3038 -3042 3045 -3046 0
-3038 -3042 -3045 -3046 0
3046 3047 0
-3046 -3047 0
3047 3048 0
-3047 -3048 0
3048 3049 0
-3048 -3049 0
3049 3050 0
-3049 -3050 0
3050 3051 0
-3050 -3051 0
385 3052 0
-385 -3052 0
3052 3053 0
-3052 -3053 0
382 3054 0
-382 -3054 0
374 3055 0
-374 -3055 0
3055 1839 3056 0
3055 -1839 -3056 0
-3055 1839 -3056 0
-3055 -1839 -3056 0
3056 3057 0
-3056 -3057 0
3057 3053 3058 0
3057 -3053 -3058 0
-3057 3053 -3058 0
-3057 -3053 -3058 0
3058 3059 0
-3058 -3059 0
267 3060 0
-267 -3060 0
3060 3061 0
-3060 -3061 0
3061 3062 0
-3061 -3062 0
3059 3062 3063 0
3059 -3062 -3063 0
-3059 3062 -3063 0
-3059 -3062 -3063 0
3054 3063 3064 0
3054 -3063 -3064 0
-3054 3063 -3064 0
-3054 -3063 -3064 0
383 3065 0
-383 -3065 0
3065 3054 3066 0
3065 -3054 -3066 0
-3065 3054 -3066 0
-3065 -3054 -3066 0
3066 3067 0
-3066 -3067 0
381 3068 0
-381 -3068 0
3068 3069 0
-3068 -3069 0
3067 3069 3070 0
3067 -3069 -3070 0
-3067 3069 -3070 0
-3067 -3069 -3070 0
266 3071 0
-266 -3071 0
3071 3072 0
-3071 -3072 0
3072 3073 0
-3072 -3073 0
3073 3074 0
-3073 -3074 0
3064 3070 3074 3075 0
3064 3070 -3074 -3075 0
3064 -3070 3074 -3075 0
3064 -3070 -3074 -3075 0
-3064 3070 3074 -3075 0
-3064 3070 -3074 -3075 0
-3064 -3070 3074 -3075 0
-3064 -3070 -3074 -3075 0
3075 3076 0
-3075 -3076 0
3053 720 3076 3077 0
3053 720 -3076 -3077 0
3053 -720 3076 -3077 0
3053 -720 -3076 -3077 0
-3053 720 3076 -3077 0
-3053 720 -3076 -3077 0
-3053 -720 3076 -3077 0
-3053 -720 -3076 -3077 0
399 3078 0
-399 -3078 0
3078 3079 0
-3078 -3079 0
3079 2953 3080 0
3079 -2953 -3080 0
-3079 2953 -3080 0
-3079 -2953 -3080 0
403 3081 0
-403 -3081 0
2694 3081 3082 0
2694 -3081 -3082 0
-2694 3081 -3082 0
-2694 -3081 -3082 0
395 3083 0
-395 -3083 0
3083 3084 0
-3083 -3084 0
2945 3085 0
-2945 -3085 0
3084 3085 3086 0
3084 -3085 -3086 0
-3084 3085 -3086 0
-3084 -3085 -3086 0
3082 3086 3087 0
3082 -3086 -3087 0
-3082 3086 -3087 0
-3082 -3086 -3087 0
2705 3087 3088 0
2705 -3087 -3088 0
-2705 3087 -3088 0
-2705 -3087 -3088 0
2409 2399 2411 -3089 0
2409 2399 -2411 3089 0
2409 -2399 2411 3089 0
2409 -2399 -2411 3089 0
-2409 2399 2411 3089 0
-2409 2399 -2411 3089 0
-2409 -2399 2411 3089 0
-2409 -2399 -2411 3089 0
2514 2405 3089 -3090 0
2514 2405 -3089 3090 0
2514 -2405 3089 3090 0
2514 -2405 -3089 3090 0
-2514 2405 3089 3090 0
-2514 2405 -3089 3090 0
-2514 -2405 3089 3090 0
-2514 -2405 -3089 3090 0
3090 3091 0
-3090 -3091 0
2965 3092 0
-2965 -3092 0
3091 3092 3093 0
3091 -3092 -3093 0
-3091 3092 -3093 0
-3091 -3092 -3093 0
406 3094 0
-406 -3094 0
403 3095 0
-403 -3095 0
3095 3096 0
-3095 -3096 0
3094 3096 2696 3097 0
3094 3096 -2696 -3097 0
3094 -3096 2696 -3097 0
3094 -3096 -2696 -3097 0
-3094 3096 2696 -3097 0
-3094 3096 -2696 -3097 0
-3094 -3096 2696 -3097 0
-3094 -3096 -2696 -3097 0
3093 3097 -3098 0
3093 -3097 3098 0
-3093 3097 3098 0
-3093 -3097 3098 0
3098 3099 0
-3098 -3099 0
2684 3099 3100 0
2684 -3099 -3100 0
-2684 3099 -3100 0
-2684 -3099 -3100 0
3077 3080 3088 3100 -3101 0
3077 3080 3088 -3100 3101 0
3077 3080 -3088 3100 3101 0
3077 3080 -3088 -3100 3101 0
3077 -3080 3088 3100 3101 0
3077 -3080 3088 -3100 3101 0
3077 -3080 -3088 3100 3101 0
3077 -3080 -3088 -3100 3101 0
-3077 3080 3088 3100 3101 0
-3077 3080 3088 -3100 3101 0
-3077 3080 -3088 3100 3101 0
-3077 3080 -3088 -3100 3101 0
-3077 -3080 3088 3100 3101 0
-3077 -3080 3088 -3100 3101 0
-3077 -3080 -3088 3100 3101 0
-3077 -3080 -3088 -3100 3101 0
395 3102 0
-395 -3102 0
396 3103 0
-396 -3103 0
3103 3104 0
-3103 -3104 0
3102 3104 2693 3105 0
3102 3104 -2693 -3105 0
3102 -3104 2693 -3105 0
3102 -3104 -2693 -3105 0
-3102 3104 2693 -3105 0
-3102 3104 -2693 -3105 0
-3102 -3104 2693 -3105 0
-3102 -3104 -2693 -3105 0
3094 2693 429 -3106 0
3094 2693 -429 3106 0
3094 -2693 429 3106 0
3094 -2693 -429 3106 0
-3094 2693 429 3106 0
-3094 2693 -429 3106 0
-3094 -2693 429 3106 0
-3094 -2693 -429 3106 0
3106 3107 0
-3106 -3107 0
3101 3105 3107 3108 0
3101 3105 -3107 -3108 0
3101 -3105 3107 -3108 0
3101 -3105 -3107 -3108 0
-3101 3105 3107 -3108 0
-3101 3105 -3107 -3108 0
-3101 -3105 3107 -3108 0
-3101 -3105 -3107 -3108 0
3108 3109 0
-3108 -3109 0
3109 3110 0
-3109 -3110 0
3110 3111 0
-3110 -3111 0
3111 3112 0
-3111 -3112 0
3112 3113 0
-3112 -3113 0
3051 3113 -3114 0
3051 -3113 3114 0
-3051 3113 3114 0
-3051 -3113 -3114 0
3045 3042 3038 3115 0
3045 3042 -3038 -3115 0
3045 -3042 3038 -3115 0
3045 -3042 -3038 -3115 0
-3045 3042 3038 -3115 0
-3045 3042 -3038 -3115 0
-3045 -3042 3038 -3115 0
-3045 -3042 -3038 -3115 0
3115 3116 0
-3115 -3116 0
3116 3117 0
-3116 -3117 0
3117 3118 0
-3117 -3118 0
3118 3119 0
-3118 -3119 0
3119 3120 0
-3119 -3120 0
3107 3105 3101 3121 0
3107 3105 -3101 -3121 0
3107 -3105 3101 -3121 0
3107 -3105 -3101 -3121 0
-3107 3105 3101 -3121 0
-3107 3105 -3101 -3121 0
-3107 -3105 3101 -3121 0
-3107 -3105 -3101 -3121 0
3121 3122 0
-3121 -3122 0
3122 3123 0
-3122 -3123 0
3123 3124 0
-3123 -3124 0
3124 3125 0
-3124 -3125 0
3125 3126 0
-3125 -3126 0
3120 3126 -3127 0
3120 -3126 3127 0
-3120 3126 3127 0
-3120 -3126 -3127 0
2763 2768 2772 3128 0
2763 2768 -2772 -3128 0
2763 -2768 2772 -3128 0
2763 -2768 -2772 -3128 0
-2763 2768 2772 -3128 0
-2763 2768 -2772 -3128 0
-2763 -2768 2772 -3128 0
-2763 -2768 -2772 -3128 0
3128 3129 0
-3128 -3129 0
2806 3130 0
-2806 -3130 0
2798 3131 0
-2798 -3131 0
3129 3130 3131 3132 0
3129 3130 -3131 -3132 0
3129 -3130 3131 -3132 0
3129 -3130 -3131 -3132 0
-3129 3130 3131 -3132 0
-3129 3130 -3131 -3132 0
-3129 -3130 3131 -3132 0
-3129 -3130 -3131 -3132 0
3132 3133 0
-3132 -3133 0
1948 1943 3134 0
1948 -1943 -3134 0
-1948 1943 -3134 0
-1948 -1943 -3134 0
2035 2038 2045 -3135 0
2035 2038 -2045 3135 0
2035 -2038 2045 3135 0
2035 -2038 -2045 3135 0
-2035 2038 2045 3135 0
-2035 2038 -2045 3135 0
-2035 -2038 2045 3135 0
-2035 -2038 -2045 3135 0
2148 2047 3135 -3136 0
2148 2047 -3135 3136 0
2148 -2047 3135 3136 0
2148 -2047 -3135 3136 0
-2148 2047 3135 3136 0
-2148 2047 -3135 3136 0
-2148 -2047 3135 3136 0
-2148 -2047 -3135 3136 0
3136 3137 0
-3136 -3137 0
3137 3138 0
-3137 -3138 0
3133 3134 3138 3139 0
3133 3134 -3138 -3139 0
3133 -3134 3138 -3139 0
3133 -3134 -3138 -3139 0
-3133 3134 3138 -3139 0
-3133 3134 -3138 -3139 0
-3133 -3134 3138 -3139 0
-3133 -3134 -3138 -3139 0
3139 3140 0
-3139 -3140 0
3140 3141 0
-3140 -3141 0
3141 3142 0
-3141 -3142 0
3142 3143 0
-3142 -3143 0
3143 3144 0
-3143 -3144 0
3144 3145 0
-3144 -3145 0
2836 2841 2845 3146 0
2836 2841 -2845 -3146 0
2836 -2841 2845 -3146 0
2836 -2841 -2845 -3146 0
-2836 2841 2845 -3146 0
-2836 2841 -2845 -3146 0
-2836 -2841 2845 -3146 0
-2836 -2841 -2845 -3146 0
3146 3147 0
-3146 -3147 0
2879 3148 0
-2879 -3148 0
2871 3149 0
-2871 -3149 0
3147 3148 3149 3150 0
3147 3148 -3149 -3150 0
3147 -3148 3149 -3150 0
3147 -3148 -3149 -3150 0
-3147 3148 3149 -3150 0
-3147 3148 -3149 -3150 0
-3147 -3148 3149 -3150 0
-3147 -3148 -3149 -3150 0
3150 3151 0
-3150 -3151 0
2002 1997 3152 0
2002 -1997 -3152 0
-2002 1997 -3152 0
-2002 -1997 -3152 0
2399 2402 2409 -3153 0
2399 2402 -2409 3153 0
2399 -2402 2409 3153 0
2399 -2402 -2409 3153 0
-2399 2402 2409 3153 0
-2399 2402 -2409 3153 0
-2399 -2402 2409 3153 0
-2399 -2402 -2409 3153 0
2512 2411 3153 -3154 0
2512 2411 -3153 3154 0
2512 -2411 3153 3154 0
2512 -2411 -3153 3154 0
-2512 2411 3153 3154 0
-2512 2411 -3153 3154 0
-2512 -2411 3153 3154 0
-2512 -2411 -3153 3154 0
3154 3155 0
-3154 -3155 0
3155 3156 0
-3155 -3156 0
3151 3152 3156 3157 0
3151 3152 -3156 -3157 0
3151 -3152 3156 -3157 0
3151 -3152 -3156 -3157 0
-3151 3152 3156 -3157 0
-3151 3152 -3156 -3157 0
-3151 -3152 3156 -3157 0
-3151 -3152 -3156 -3157 0
3157 3158 0
-3157 -3158 0
3158 3159 0
-3158 -3159 0
3159 3160 0
-3159 -3160 0
3160 3161 0
-3160 -3161 0
3161 3162 0
-3161 -3162 0
3162 3163 0
-3162 -3163 0
3145 3163 -3164 0
3145 -3163 3164 0
-3145 3163 3164 0
-3145 -3163 -3164 0
663 703 3165 0
663 -703 -3165 0
-663 703 -3165 0
-663 -703 -3165 0
663 795 3166 0
663 -795 -3166 0
-663 795 -3166 0
-663 -795 -3166 0
790 663 3167 0
790 -663 -3167 0
-790 663 -3167 0
-790 -663 -3167 0
3166 3167 3168 0
3166 -3167 -3168 0
-3166 3167 -3168 0
-3166 -3167 -3168 0
3168 3169 0
-3168 -3169 0
663 645 3170 0
663 -645 -3170 0
-663 645 -3170 0
-663 -645 -3170 0
3170 3171 0
-3170 -3171 0
663 671 3172 0
663 -671 -3172 0
-663 671 -3172 0
-663 -671 -3172 0
3172 3173 0
-3172 -3173 0
663 668 3174 0
663 -668 -3174 0
-663 668 -3174 0
-663 -668 -3174 0
3174 3175 0
-3174 -3175 0
3165 3176 0
-3165 -3176 0
3171 3173 3175 3176 3177 0
3171 3173 3175 -3176 -3177 0
3171 3173 -3175 3176 -3177 0
3171 3173 -3175 -3176 -3177 0
3171 -3173 3175 3176 -3177 0
3171 -3173 3175 -3176 -3177 0
3171 -3173 -3175 3176 -3177 0
3171 -3173 -3175 -3176 -3177 0
-3171 3173 3175 3176 -3177 0
-3171 3173 3175 -3176 -3177 0
-3171 3173 -3175 3176 -3177 0
-3171 3173 -3175 -3176 -3177 0
-3171 -3173 3175 3176 -3177 0
-3171 -3173 3175 -3176 -3177 0
-3171 -3173 -3175 3176 -3177 0
-3171 -3173 -3175 -3176 -3177 0
3172 3174 3178 0
3172 -3174 -3178 0
-3172 3174 -3178 0
-3172 -3174 -3178 0
3169 3177 3178 3179 0
3169 3177 -3178 -3179 0
3169 -3177 3178 -3179 0
3169 -3177 -3178 -3179 0
-3169 3177 3178 -3179 0
-3169 3177 -3178 -3179 0
-3169 -3177 3178 -3179 0
-3169 -3177 -3178 -3179 0
3179 3180 0
-3179 -3180 0
3165 3180 3181 0
3165 -3180 -3181 0
-3165 3180 -3181 0
-3165 -3180 -3181 0
668 690 3182 0
668 -690 -3182 0
-668 690 -3182 0
-668 -690 -3182 0
690 790 3183 0
690 -790 -3183 0
-690 790 -3183 0
-690 -790 -3183 0
795 690 3184 0
795 -690 -3184 0
-795 690 -3184 0
-795 -690 -3184 0
3182 3183 3184 3185 0
3182 3183 -3184 -3185 0
3182 -3183 3184 -3185 0
3182 -3183 -3184 -3185 0
-3182 3183 3184 -3185 0
-3182 3183 -3184 -3185 0
-3182 -3183 3184 -3185 0
-3182 -3183 -3184 -3185 0
3185 3186 0
-3185 -3186 0
671 690 3187 0
671 -690 -3187 0
-671 690 -3187 0
-671 -690 -3187 0
3187 3188 0
-3187 -3188 0
645 690 3189 0
645 -690 -3189 0
-645 690 -3189 0
-645 -690 -3189 0
3189 3190 0
-3189 -3190 0
690 703 3191 0
690 -703 -3191 0
-690 703 -3191 0
-690 -703 -3191 0
3191 3192 0
-3191 -3192 0
3188 3190 3192 3193 0
3188 3190 -3192 -3193 0
3188 -3190 3192 -3193 0
3188 -3190 -3192 -3193 0
-3188 3190 3192 -3193 0
-3188 3190 -3192 -3193 0
-3188 -3190 3192 -3193 0
-3188 -3190 -3192 -3193 0
3193 3194 0
-3193 -3194 0
3186 3194 3195 0
3186 -3194 -3195 0
-3186 3194 -3195 0
-3186 -3194 -3195 0
3181 3195 3196 0
3181 -3195 -3196 0
-3181 3195 -3196 0
-3181 -3195 -3196 0
3174 3187 3197 0
3174 -3187 -3197 0
-3174 3187 -3197 0
-3174 -3187 -3197 0
3197 3198 0
-3197 -3198 0
3170 3191 3199 0
3170 -3191 -3199 0
-3170 3191 -3199 0
-3170 -3191 -3199 0
3172 3189 3200 0
3172 -3189 -3200 0
-3172 3189 -3200 0
-3172 -3189 -3200 0
3198 3199 3200 3201 0
3198 3199 -3200 -3201 0
3198 -3199 3200 -3201 0
3198 -3199 -3200 -3201 0
-3198 3199 3200 -3201 0
-3198 3199 -3200 -3201 0
-3198 -3199 3200 -3201 0
-3198 -3199 -3200 -3201 0
3201 3202 0
-3201 -3202 0
468 3202 3203 0
468 -3202 -3203 0
-468 3202 -3203 0
-468 -3202 -3203 0
3200 3204 0
-3200 -3204 0
3199 3197 3204 3205 0
3199 3197 -3204 -3205 0
3199 -3197 3204 -3205 0
3199 -3197 -3204 -3205 0
-3199 3197 3204 -3205 0
-3199 3197 -3204 -3205 0
-3199 -3197 3204 -3205 0
-3199 -3197 -3204 -3205 0
3205 3206 0
-3205 -3206 0
3206 949 3207 0
3206 -949 -3207 0
-3206 949 -3207 0
-3206 -949 -3207 0
3200 3199 3197 3208 0
3200 3199 -3197 -3208 0
3200 -3199 3197 -3208 0
3200 -3199 -3197 -3208 0
-3200 3199 3197 -3208 0
-3200 3199 -3197 -3208 0
-3200 -3199 3197 -3208 0
-3200 -3199 -3197 -3208 0
3208 3209 0
-3208 -3209 0
1520 3209 3210 0
1520 -3209 -3210 0
-1520 3209 -3210 0
-1520 -3209 -3210 0
3199 3211 0
-3199 -3211 0
3200 3197 3211 3212 0
3200 3197 -3211 -3212 0
3200 -3197 3211 -3212 0
3200 -3197 -3211 -3212 0
-3200 3197 3211 -3212 0
-3200 3197 -3211 -3212 0
-3200 -3197 3211 -3212 0
-3200 -3197 -3211 -3212 0
3212 3213 0
-3212 -3213 0
3213 2155 3214 0
3213 -2155 -3214 0
-3213 2155 -3214 0
-3213 -2155 -3214 0
3203 3207 3210 3214 -3215 0
3203 3207 3210 -3214 3215 0
3203 3207 -3210 3214 3215 0
3203 3207 -3210 -3214 3215 0
3203 -3207 3210 3214 3215 0
3203 -3207 3210 -3214 3215 0
3203 -3207 -3210 3214 3215 0
3203 -3207 -3210 -3214 3215 0
-3203 3207 3210 3214 3215 0
-3203 3207 3210 -3214 3215 0
-3203 3207 -3210 3214 3215 0
-3203 3207 -3210 -3214 3215 0
-3203 -3207 3210 3214 3215 0
-3203 -3207 3210 -3214 3215 0
-3203 -3207 -3210 3214 3215 0
-3203 -3207 -3210 -3214 3215 0
3200 3211 3198 3216 0
3200 3211 -3198 -3216 0
3200 -3211 3198 -3216 0
3200 -3211 -3198 -3216 0
-3200 3211 3198 -3216 0
-3200 3211 -3198 -3216 0
-3200 -3211 3198 -3216 0
-3200 -3211 -3198 -3216 0
3216 3217 0
-3216 -3217 0
2315 3217 3218 0
2315 -3217 -3218 0
-2315 3217 -3218 0
-2315 -3217 -3218 0
3215 3218 3219 0
3215 -3218 -3219 0
-3215 3218 -3219 0
-3215 -3218 -3219 0
3196 3219 3220 0
3196 -3219 -3220 0
-3196 3219 -3220 0
-3196 -3219 -3220 0
3212 3221 0
-3212 -3221 0
418 3222 0
-418 -3222 0
3222 3223 0
-3222 -3223 0
3221 3223 3224 0
3221 -3223 -3224 0
-3221 3223 -3224 0
-3221 -3223 -3224 0
3201 3225 0
-3201 -3225 0
3225 1136 3226 0
3225 -1136 -3226 0
-3225 1136 -3226 0
-3225 -1136 -3226 0
3205 3227 0
-3205 -3227 0
1330 3227 3228 0
1330 -3227 -3228 0
-1330 3227 -3228 0
-1330 -3227 -3228 0
3226 3228 -3229 0
3226 -3228 3229 0
-3226 3228 3229 0
-3226 -3228 3229 0
3224 3229 3230 0
3224 -3229 -3230 0
-3224 3229 -3230 0
-3224 -3229 -3230 0
3176 3180 3231 0
3176 -3180 -3231 0
-3176 3180 -3231 0
-3176 -3180 -3231 0
3189 3187 3232 0
3189 -3187 -3232 0
-3189 3187 -3232 0
-3189 -3187 -3232 0
3186 3232 3233 0
3186 -3232 -3233 0
-3186 3232 -3233 0
-3186 -3232 -3233 0
3231 3233 3234 0
3231 -3233 -3234 0
-3231 3233 -3234 0
-3231 -3233 -3234 0
3230 3234 3235 0
3230 -3234 -3235 0
-3230 3234 -3235 0
-3230 -3234 -3235 0
3220 3235 -3236 0
3220 -3235 3236 0
-3220 3235 3236 0
-3220 -3235 3236 0
3236 3237 0
-3236 -3237 0
3237 3238 0
-3237 -3238 0
3238 3239 0
-3238 -3239 0
3239 3240 0
-3239 -3240 0
3240 3241 0
-3240 -3241 0
3241 3242 0
-3241 -3242 0
735 775 3243 0
735 -775 -3243 0
-735 775 -3243 0
-735 -775 -3243 0
735 849 3244 0
735 -849 -3244 0
-735 849 -3244 0
-735 -849 -3244 0
844 735 3245 0
844 -735 -3245 0
-844 735 -3245 0
-844 -735 -3245 0
3244 3245 3246 0
3244 -3245 -3246 0
-3244 3245 -3246 0
-3244 -3245 -3246 0
3246 3247 0
-3246 -3247 0
735 717 3248 0
735 -717 -3248 0
-735 717 -3248 0
-735 -717 -3248 0
3248 3249 0
-3248 -3249 0
735 743 3250 0
735 -743 -3250 0
-735 743 -3250 0
-735 -743 -3250 0
3250 3251 0
-3250 -3251 0
735 740 3252 0
735 -740 -3252 0
-735 740 -3252 0
-735 -740 -3252 0
3252 3253 0
-3252 -3253 0
3243 3254 0
-3243 -3254 0
3249 3251 3253 3254 3255 0
3249 3251 3253 -3254 -3255 0
3249 3251 -3253 3254 -3255 0
3249 3251 -3253 -3254 -3255 0
3249 -3251 3253 3254 -3255 0
3249 -3251 3253 -3254 -3255 0
3249 -3251 -3253 3254 -3255 0
3249 -3251 -3253 -3254 -3255 0
-3249 3251 3253 3254 -3255 0
-3249 3251 3253 -3254 -3255 0
-3249 3251 -3253 3254 -3255 0
-3249 3251 -3253 -3254 -3255 0
-3249 -3251 3253 3254 -3255 0
-3249 -3251 3253 -3254 -3255 0
-3249 -3251 -3253 3254 -3255 0
-3249 -3251 -3253 -3254 -3255 0
3250 3252 3256 0
3250 -3252 -3256 0
-3250 3252 -3256 0
-3250 -3252 -3256 0
3247 3255 3256 3257 0
3247 3255 -3256 -3257 0
3247 -3255 3256 -3257 0
3247 -3255 -3256 -3257 0
-3247 3255 3256 -3257 0
-3247 3255 -3256 -3257 0
-3247 -3255 3256 -3257 0
-3247 -3255 -3256 -3257 0
3257 3258 0
-3257 -3258 0
3243 3258 3259 0
3243 -3258 -3259 0
-3243 3258 -3259 0
-3243 -3258 -3259 0
740 762 3260 0
740 -762 -3260 0
-740 762 -3260 0
-740 -762 -3260 0
762 844 3261 0
762 -844 -3261 0
-762 844 -3261 0
-762 -844 -3261 0
849 762 3262 0
849 -762 -3262 0
-849 762 -3262 0
-849 -762 -3262 0
3260 3261 3262 3263 0
3260 3261 -3262 -3263 0
3260 -3261 3262 -3263 0
3260 -3261 -3262 -3263 0
-3260 3261 3262 -3263 0
-3260 3261 -3262 -3263 0
-3260 -3261 3262 -3263 0
-3260 -3261 -3262 -3263 0
3263 3264 0
-3263 -3264 0
743 762 3265 0
743 -762 -3265 0
-743 762 -3265 0
-743 -762 -3265 0
3265 3266 0
-3265 -3266 0
717 762 3267 0
717 -762 -3267 0
-717 762 -3267 0
-717 -762 -3267 0
3267 3268 0
-3267 -3268 0
762 775 3269 0
762 -775 -3269 0
-762 775 -3269 0
-762 -775 -3269 0
3269 3270 0
-3269 -3270 0
3266 3268 3270 3271 0
3266 3268 -3270 -3271 0
3266 -3268 3270 -3271 0
3266 -3268 -3270 -3271 0
-3266 3268 3270 -3271 0
-3266 3268 -3270 -3271 0
-3266 -3268 3270 -3271 0
-3266 -3268 -3270 -3271 0
3271 3272 0
-3271 -3272 0
3264 3272 3273 0
3264 -3272 -3273 0
-3264 3272 -3273 0
-3264 -3272 -3273 0
3259 3273 3274 0
3259 -3273 -3274 0
-3259 3273 -3274 0
-3259 -3273 -3274 0
3252 3265 3275 0
3252 -3265 -3275 0
-3252 3265 -3275 0
-3252 -3265 -3275 0
3275 3276 0
-3275 -3276 0
3248 3269 3277 0
3248 -3269 -3277 0
-3248 3269 -3277 0
-3248 -3269 -3277 0
3250 3267 3278 0
3250 -3267 -3278 0
-3250 3267 -3278 0
-3250 -3267 -3278 0
3276 3277 3278 3279 0
3276 3277 -3278 -3279 0
3276 -3277 3278 -3279 0
3276 -3277 -3278 -3279 0
-3276 3277 3278 -3279 0
-3276 3277 -3278 -3279 0
-3276 -3277 3278 -3279 0
-3276 -3277 -3278 -3279 0
3279 3280 0
-3279 -3280 0
566 3280 3281 0
566 -3280 -3281 0
-566 3280 -3281 0
-566 -3280 -3281 0
3278 3282 0
-3278 -3282 0
3277 3275 3282 3283 0
3277 3275 -3282 -3283 0
3277 -3275 3282 -3283 0
3277 -3275 -3282 -3283 0
-3277 3275 3282 -3283 0
-3277 3275 -3282 -3283 0
-3277 -3275 3282 -3283 0
-3277 -3275 -3282 -3283 0
3283 3284 0
-3283 -3284 0
3284 1042 3285 0
3284 -1042 -3285 0
-3284 1042 -3285 0
-3284 -1042 -3285 0
3278 3277 3275 3286 0
3278 3277 -3275 -3286 0
3278 -3277 3275 -3286 0
3278 -3277 -3275 -3286 0
-3278 3277 3275 -3286 0
-3278 3277 -3275 -3286 0
-3278 -3277 3275 -3286 0
-3278 -3277 -3275 -3286 0
3286 3287 0
-3286 -3287 0
1618 3287 3288 0
1618 -3287 -3288 0
-1618 3287 -3288 0
-1618 -3287 -3288 0
3277 3289 0
-3277 -3289 0
3278 3275 3289 3290 0
3278 3275 -3289 -3290 0
3278 -3275 3289 -3290 0
3278 -3275 -3289 -3290 0
-3278 3275 3289 -3290 0
-3278 3275 -3289 -3290 0
-3278 -3275 3289 -3290 0
-3278 -3275 -3289 -3290 0
3290 3291 0
-3290 -3291 0
3291 2519 3292 0
3291 -2519 -3292 0
-3291 2519 -3292 0
-3291 -2519 -3292 0
3281 3285 3288 3292 -3293 0
3281 3285 3288 -3292 3293 0
3281 3285 -3288 3292 3293 0
3281 3285 -3288 -3292 3293 0
3281 -3285 3288 3292 3293 0
3281 -3285 3288 -3292 3293 0
3281 -3285 -3288 3292 3293 0
3281 -3285 -3288 -3292 3293 0
-3281 3285 3288 3292 3293 0
-3281 3285 3288 -3292 3293 0
-3281 3285 -3288 3292 3293 0
-3281 3285 -3288 -3292 3293 0
-3281 -3285 3288 3292 3293 0
-3281 -3285 3288 -3292 3293 0
-3281 -3285 -3288 3292 3293 0
-3281 -3285 -3288 -3292 3293 0
3278 3289 3276 3294 0
3278 3289 -3276 -3294 0
3278 -3289 3276 -3294 0
3278 -3289 -3276 -3294 0
-3278 3289 3276 -3294 0
-3278 3289 -3276 -3294 0
-3278 -3289 3276 -3294 0
-3278 -3289 -3276 -3294 0
3294 3295 0
-3294 -3295 0
2679 3295 3296 0
2679 -3295 -3296 0
-2679 3295 -3296 0
-2679 -3295 -3296 0
3293 3296 3297 0
3293 -3296 -3297 0
-3293 3296 -3297 0
-3293 -3296 -3297 0
3274 3297 3298 0
3274 -3297 -3298 0
-3274 3297 -3298 0
-3274 -3297 -3298 0
3290 3299 0
-3290 -3299 0
418 3300 0
-418 -3300 0
3300 3301 0
-3300 -3301 0
3299 3301 3302 0
3299 -3301 -3302 0
-3299 3301 -3302 0
-3299 -3301 -3302 0
3279 3303 0
-3279 -3303 0
3303 1234 3304 0
3303 -1234 -3304 0
-3303 1234 -3304 0
-3303 -1234 -3304 0
3283 3305 0
-3283 -3305 0
1423 3305 3306 0
1423 -3305 -3306 0
-1423 3305 -3306 0
-1423 -3305 -3306 0
3304 3306 -3307 0
3304 -3306 3307 0
-3304 3306 3307 0
-3304 -3306 3307 0
3302 3307 3308 0
3302 -3307 -3308 0
-3302 3307 -3308 0
-3302 -3307 -3308 0
3254 3258 3309 0
3254 -3258 -3309 0
-3254 3258 -3309 0
-3254 -3258 -3309 0
3267 3265 3310 0
3267 -3265 -3310 0
-3267 3265 -3310 0
-3267 -3265 -3310 0
3264 3310 3311 0
3264 -3310 -3311 0
-3264 3310 -3311 0
-3264 -3310 -3311 0
3309 3311 3312 0
3309 -3311 -3312 0
-3309 3311 -3312 0
-3309 -3311 -3312 0
3308 3312 3313 0
3308 -3312 -3313 0
-3308 3312 -3313 0
-3308 -3312 -3313 0
3298 3313 -3314 0
3298 -3313 3314 0
-3298 3313 3314 0
-3298 -3313 3314 0
3314 3315 0
-3314 -3315 0
3315 3316 0
-3315 -3316 0
3316 3317 0
-3316 -3317 0
3317 3318 0
-3317 -3318 0
3318 3319 0
-3318 -3319 0
3319 3320 0
-3319 -3320 0
3242 3320 -3321 0
3242 -3320 3321 0
-3242 3320 3321 0
-3242 -3320 -3321 0
3202 460 3322 0
3202 -460 -3322 0
-3202 460 -3322 0
-3202 -460 -3322 0
1512 3209 3323 0
1512 -3209 -3323 0
-1512 3209 -3323 0
-1512 -3209 -3323 0
941 3206 3324 0
941 -3206 -3324 0
-941 3206 -3324 0
-941 -3206 -3324 0
2169 3213 3325 0
2169 -3213 -3325 0
-2169 3213 -3325 0
-2169 -3213 -3325 0
3322 3323 3324 3325 -3326 0
3322 3323 3324 -3325 3326 0
3322 3323 -3324 3325 3326 0
3322 3323 -3324 -3325 3326 0
3322 -3323 3324 3325 3326 0
3322 -3323 3324 -3325 3326 0
3322 -3323 -3324 3325 3326 0
3322 -3323 -3324 -3325 3326 0
-3322 3323 3324 3325 3326 0
-3322 3323 3324 -3325 3326 0
-3322 3323 -3324 3325 3326 0
-3322 3323 -3324 -3325 3326 0
-3322 -3323 3324 3325 3326 0
-3322 -3323 3324 -3325 3326 0
-3322 -3323 -3324 3325 3326 0
-3322 -3323 -3324 -3325 3326 0
3326 3327 0
-3326 -3327 0
3196 3327 3328 0
3196 -3327 -3328 0
-3196 3327 -3328 0
-3196 -3327 -3328 0
1322 3227 3329 0
1322 -3227 -3329 0
-1322 3227 -3329 0
-1322 -3227 -3329 0
1128 3225 3330 0
1128 -3225 -3330 0
-1128 3225 -3330 0
-1128 -3225 -3330 0
3329 3330 -3331 0
3329 -3330 3331 0
-3329 3330 3331 0
-3329 -3330 3331 0
416 3332 0
-416 -3332 0
3332 3333 0
-3332 -3333 0
3333 3221 3334 0
3333 -3221 -3334 0
-3333 3221 -3334 0
-3333 -3221 -3334 0
3331 3334 3335 0
3331 -3334 -3335 0
-3331 3334 -3335 0
-3331 -3334 -3335 0
3234 3335 3336 0
3234 -3335 -3336 0
-3234 3335 -3336 0
-3234 -3335 -3336 0
3328 3336 -3337 0
3328 -3336 3337 0
-3328 3336 3337 0
-3328 -3336 3337 0
3337 3338 0
-3337 -3338 0
3338 3339 0
-3338 -3339 0
3339 3340 0
-3339 -3340 0
3340 3341 0
-3340 -3341 0
3341 3342 0
-3341 -3342 0
3342 3343 0
-3342 -3343 0
3280 558 3344 0
3280 -558 -3344 0
-3280 558 -3344 0
-3280 -558 -3344 0
1610 3287 3345 0
1610 -3287 -3345 0
-1610 3287 -3345 0
-1610 -3287 -3345 0
1034 3284 3346 0
1034 -3284 -3346 0
-1034 3284 -3346 0
-1034 -3284 -3346 0
2533 3291 3347 0
2533 -3291 -3347 0
-2533 3291 -3347 0
-2533 -3291 -3347 0
3344 3345 3346 3347 -3348 0
3344 3345 3346 -3347 3348 0
3344 3345 -3346 3347 3348 0
3344 3345 -3346 -3347 3348 0
3344 -3345 3346 3347 3348 0
3344 -3345 3346 -3347 3348 0
3344 -3345 -3346 3347 3348 0
3344 -3345 -3346 -3347 3348 0
-3344 3345 3346 3347 3348 0
-3344 3345 3346 -3347 3348 0
-3344 3345 -3346 3347 3348 0
-3344 3345 -3346 -3347 3348 0
-3344 -3345 3346 3347 3348 0
-3344 -3345 3346 -3347 3348 0
-3344 -3345 -3346 3347 3348 0
-3344 -3345 -3346 -3347 3348 0
3348 3349 0
-3348 -3349 0
3274 3349 3350 0
3274 -3349 -3350 0
-3274 3349 -3350 0
-3274 -3349 -3350 0
1415 3305 3351 0
1415 -3305 -3351 0
-1415 3305 -3351 0
-1415 -3305 -3351 0
1226 3303 3352 0
1226 -3303 -3352 0
-1226 3303 -3352 0
-1226 -3303 -3352 0
3351 3352 -3353 0
3351 -3352 3353 0
-3351 3352 3353 0
-3351 -3352 3353 0
416 3354 0
-416 -3354 0
3354 3355 0
-3354 -3355 0
3355 3299 3356 0
3355 -3299 -3356 0
-3355 3299 -3356 0
-3355 -3299 -3356 0
3353 3356 3357 0
3353 -3356 -3357 0
-3353 3356 -3357 0
-3353 -3356 -3357 0
3312 3357 3358 0
3312 -3357 -3358 0
-3312 3357 -3358 0
-3312 -3357 -3358 0
3350 3358 -3359 0
3350 -3358 3359 0
-3350 3358 3359 0
-3350 -3358 3359 0
3359 3360 0
-3359 -3360 0
3360 3361 0
-3360 -3361 0
3361 3362 0
-3361 -3362 0
3362 3363 0
-3362 -3363 0
3363 3364 0
-3363 -3364 0
3364 3365 0
-3364 -3365 0
3343 3365 -3366 0
3343 -3365 3366 0
-3343 3365 3366 0
-3343 -3365 -3366 0
421 3367 0
-421 -3367 0
3367 3368 0
-3367 -3368 0
3221 3368 3369 0
3221 -3368 -3369 0
-3221 3368 -3369 0
-3221 -3368 -3369 0
3225 1160 3370 0
3225 -1160 -3370 0
-3225 1160 -3370 0
-3225 -1160 -3370 0
3227 1353 3371 0
3227 -1353 -3371 0
-3227 1353 -3371 0
-3227 -1353 -3371 0
3370 3371 -3372 0
3370 -3371 3372 0
-3370 3371 3372 0
-3370 -3371 3372 0
3369 3372 3373 0
3369 -3372 -3373 0
-3369 3372 -3373 0
-3369 -3372 -3373 0
3234 3373 3374 0
3234 -3373 -3374 0
-3234 3373 -3374 0
-3234 -3373 -3374 0
3213 2163 3375 0
3213 -2163 -3375 0
-3213 2163 -3375 0
-3213 -2163 -3375 0
3209 1544 3376 0
3209 -1544 -3376 0
-3209 1544 -3376 0
-3209 -1544 -3376 0
3202 492 3377 0
3202 -492 -3377 0
-3202 492 -3377 0
-3202 -492 -3377 0
970 3206 3378 0
970 -3206 -3378 0
-970 3206 -3378 0
-970 -3206 -3378 0
3375 3376 3377 3378 -3379 0
3375 3376 3377 -3378 3379 0
3375 3376 -3377 3378 3379 0
3375 3376 -3377 -3378 3379 0
3375 -3376 3377 3378 3379 0
3375 -3376 3377 -3378 3379 0
3375 -3376 -3377 3378 3379 0
3375 -3376 -3377 -3378 3379 0
-3375 3376 3377 3378 3379 0
-3375 3376 3377 -3378 3379 0
-3375 3376 -3377 3378 3379 0
-3375 3376 -3377 -3378 3379 0
-3375 -3376 3377 3378 3379 0
-3375 -3376 3377 -3378 3379 0
-3375 -3376 -3377 3378 3379 0
-3375 -3376 -3377 -3378 3379 0
3379 3380 0
-3379 -3380 0
3196 3380 3381 0
3196 -3380 -3381 0
-3196 3380 -3381 0
-3196 -3380 -3381 0
3374 3381 -3382 0
3374 -3381 3382 0
-3374 3381 3382 0
-3374 -3381 3382 0
3382 3383 0
-3382 -3383 0
3383 3384 0
-3383 -3384 0
3384 3385 0
-3384 -3385 0
3385 3386 0
-3385 -3386 0
3386 3387 0
-3386 -3387 0
3387 3388 0
-3387 -3388 0
421 3389 0
-421 -3389 0
3389 3390 0
-3389 -3390 0
3299 3390 3391 0
3299 -3390 -3391 0
-3299 3390 -3391 0
-3299 -3390 -3391 0
3303 1258 3392 0
3303 -1258 -3392 0
-3303 1258 -3392 0
-3303 -1258 -3392 0
3305 1446 3393 0
3305 -1446 -3393 0
-3305 1446 -3393 0
-3305 -1446 -3393 0
3392 3393 -3394 0
3392 -3393 3394 0
-3392 3393 3394 0
-3392 -3393 3394 0
3391 3394 3395 0
3391 -3394 -3395 0
-3391 3394 -3395 0
-3391 -3394 -3395 0
3312 3395 3396 0
3312 -3395 -3396 0
-3312 3395 -3396 0
-3312 -3395 -3396 0
3291 2527 3397 0
3291 -2527 -3397 0
-3291 2527 -3397 0
-3291 -2527 -3397 0
3287 1642 3398 0
3287 -1642 -3398 0
-3287 1642 -3398 0
-3287 -1642 -3398 0
3280 590 3399 0
3280 -590 -3399 0
-3280 590 -3399 0
-3280 -590 -3399 0
1063 3284 3400 0
1063 -3284 -3400 0
-1063 3284 -3400 0
-1063 -3284 -3400 0
3397 3398 3399 3400 -3401 0
3397 3398 3399 -3400 3401 0
3397 3398 -3399 3400 3401 0
3397 3398 -3399 -3400 3401 0
3397 -3398 3399 3400 3401 0
3397 -3398 3399 -3400 3401 0
3397 -3398 -3399 3400 3401 0
3397 -3398 -3399 -3400 3401 0
-3397 3398 3399 3400 3401 0
-3397 3398 3399 -3400 3401 0
-3397 3398 -3399 3400 3401 0
-3397 3398 -3399 -3400 3401 0
-3397 -3398 3399 3400 3401 0
-3397 -3398 3399 -3400 3401 0
-3397 -3398 -3399 3400 3401 0
-3397 -3398 -3399 -3400 3401 0
3401 3402 0
-3401 -3402 0
3274 3402 3403 0
3274 -3402 -3403 0
-3274 3402 -3403 0
-3274 -3402 -3403 0
3396 3403 -3404 0
3396 -3403 3404 0
-3396 3403 3404 0
-3396 -3403 3404 0
3404 3405 0
-3404 -3405 0
3405 3406 0
-3405 -3406 0
3406 3407 0
-3406 -3407 0
3407 3408 0
-3407 -3408 0
3408 3409 0
-3408 -3409 0
3409 3410 0
-3409 -3410 0
3388 3410 -3411 0
3388 -3410 3411 0
-3388 3410 3411 0
-3388 -3410 -3411 0
3227 1357 3412 0
3227 -1357 -3412 0
-3227 1357 -3412 0
-3227 -1357 -3412 0
3225 1164 3413 0
3225 -1164 -3413 0
-3225 1164 -3413 0
-3225 -1164 -3413 0
3412 3413 -3414 0
3412 -3413 3414 0
-3412 3413 3414 0
-3412 -3413 3414 0
426 3415 0
-426 -3415 0
3415 3416 0
-3415 -3416 0
3221 3416 3417 0
3221 -3416 -3417 0
-3221 3416 -3417 0
-3221 -3416 -3417 0
3414 3417 3418 0
3414 -3417 -3418 0
-3414 3417 -3418 0
-3414 -3417 -3418 0
3234 3418 3419 0
3234 -3418 -3419 0
-3234 3418 -3419 0
-3234 -3418 -3419 0
3213 2161 3420 0
3213 -2161 -3420 0
-3213 2161 -3420 0
-3213 -2161 -3420 0
496 3202 3421 0
496 -3202 -3421 0
-496 3202 -3421 0
-496 -3202 -3421 0
3209 1548 3422 0
3209 -1548 -3422 0
-3209 1548 -3422 0
-3209 -1548 -3422 0
3206 974 3423 0
3206 -974 -3423 0
-3206 974 -3423 0
-3206 -974 -3423 0
3420 3421 3422 3423 -3424 0
3420 3421 3422 -3423 3424 0
3420 3421 -3422 3423 3424 0
3420 3421 -3422 -3423 3424 0
3420 -3421 3422 3423 3424 0
3420 -3421 3422 -3423 3424 0
3420 -3421 -3422 3423 3424 0
3420 -3421 -3422 -3423 3424 0
-3420 3421 3422 3423 3424 0
-3420 3421 3422 -3423 3424 0
-3420 3421 -3422 3423 3424 0
-3420 3421 -3422 -3423 3424 0
-3420 -3421 3422 3423 3424 0
-3420 -3421 3422 -3423 3424 0
-3420 -3421 -3422 3423 3424 0
-3420 -3421 -3422 -3423 3424 0
3424 3425 0
-3424 -3425 0
3196 3425 3426 0
3196 -3425 -3426 0
-3196 3425 -3426 0
-3196 -3425 -3426 0
3419 3426 -3427 0
3419 -3426 3427 0
-3419 3426 3427 0
-3419 -3426 3427 0
3427 3428 0
-3427 -3428 0
3428 3429 0
-3428 -3429 0
3429 3430 0
-3429 -3430 0
3430 3431 0
-3430 -3431 0
3431 3432 0
-3431 -3432 0
3432 3433 0
-3432 -3433 0
3305 1450 3434 0
3305 -1450 -3434 0
-3305 1450 -3434 0
-3305 -1450 -3434 0
3303 1262 3435 0
3303 -1262 -3435 0
-3303 1262 -3435 0
-3303 -1262 -3435 0
3434 3435 -3436 0
3434 -3435 3436 0
-3434 3435 3436 0
-3434 -3435 3436 0
426 3437 0
-426 -3437 0
3437 3438 0
-3437 -3438 0
3299 3438 3439 0
3299 -3438 -3439 0
-3299 3438 -3439 0
-3299 -3438 -3439 0
3436 3439 3440 0
3436 -3439 -3440 0
-3436 3439 -3440 0
-3436 -3439 -3440 0
3312 3440 3441 0
3312 -3440 -3441 0
-3312 3440 -3441 0
-3312 -3440 -3441 0
3291 2525 3442 0
3291 -2525 -3442 0
-3291 2525 -3442 0
-3291 -2525 -3442 0
594 3280 3443 0
594 -3280 -3443 0
-594 3280 -3443 0
-594 -3280 -3443 0
3287 1646 3444 0
3287 -1646 -3444 0
-3287 1646 -3444 0
-3287 -1646 -3444 0
3284 1067 3445 0
3284 -1067 -3445 0
-3284 1067 -3445 0
-3284 -1067 -3445 0
3442 3443 3444 3445 -3446 0
3442 3443 3444 -3445 3446 0
3442 3443 -3444 3445 3446 0
3442 3443 -3444 -3445 3446 0
3442 -3443 3444 3445 3446 0
3442 -3443 3444 -3445 3446 0
3442 -3443 -3444 3445 3446 0
3442 -3443 -3444 -3445 3446 0
-3442 3443 3444 3445 3446 0
-3442 3443 3444 -3445 3446 0
-3442 3443 -3444 3445 3446 0
-3442 3443 -3444 -3445 3446 0
-3442 -3443 3444 3445 3446 0
-3442 -3443 3444 -3445 3446 0
-3442 -3443 -3444 3445 3446 0
-3442 -3443 -3444 -3445 3446 0
3446 3447 0
-3446 -3447 0
3274 3447 3448 0
3274 -3447 -3448 0
-3274 3447 -3448 0
-3274 -3447 -3448 0
3441 3448 -3449 0
3441 -3448 3449 0
-3441 3448 3449 0
-3441 -3448 3449 0
3449 3450 0
-3449 -3450 0
3450 3451 0
-3450 -3451 0
3451 3452 0
-3451 -3452 0
3452 3453 0
-3452 -3453 0
3453 3454 0
-3453 -3454 0
3454 3455 0
-3454 -3455 0
3433 3455 -3456 0
3433 -3455 3456 0
-3433 3455 3456 0
-3433 -3455 -3456 0
3206 966 3457 0
3206 -966 -3457 0
-3206 966 -3457 0
-3206 -966 -3457 0
3202 488 3458 0
3202 -488 -3458 0
-3202 488 -3458 0
-3202 -488 -3458 0
1540 3209 3459 0
1540 -3209 -3459 0
-1540 3209 -3459 0
-1540 -3209 -3459 0
3213 2180 3460 0
3213 -2180 -3460 0
-3213 2180 -3460 0
-3213 -2180 -3460 0
3457 3458 3459 3460 -3461 0
3457 3458 3459 -3460 3461 0
3457 3458 -3459 3460 3461 0
3457 3458 -3459 -3460 3461 0
3457 -3458 3459 3460 3461 0
3457 -3458 3459 -3460 3461 0
3457 -3458 -3459 3460 3461 0
3457 -3458 -3459 -3460 3461 0
-3457 3458 3459 3460 3461 0
-3457 3458 3459 -3460 3461 0
-3457 3458 -3459 3460 3461 0
-3457 3458 -3459 -3460 3461 0
-3457 -3458 3459 3460 3461 0
-3457 -3458 3459 -3460 3461 0
-3457 -3458 -3459 3460 3461 0
-3457 -3458 -3459 -3460 3461 0
3461 3462 0
-3461 -3462 0
3196 3462 3463 0
3196 -3462 -3463 0
-3196 3462 -3463 0
-3196 -3462 -3463 0
1349 3227 3464 0
1349 -3227 -3464 0
-1349 3227 -3464 0
-1349 -3227 -3464 0
3225 1156 3465 0
3225 -1156 -3465 0
-3225 1156 -3465 0
-3225 -1156 -3465 0
3464 3465 -3466 0
3464 -3465 3466 0
-3464 3465 3466 0
-3464 -3465 3466 0
216 3467 0
-216 -3467 0
3467 3468 0
-3467 -3468 0
3468 3221 3469 0
3468 -3221 -3469 0
-3468 3221 -3469 0
-3468 -3221 -3469 0
3466 3469 3470 0
3466 -3469 -3470 0
-3466 3469 -3470 0
-3466 -3469 -3470 0
3234 3470 3471 0
3234 -3470 -3471 0
-3234 3470 -3471 0
-3234 -3470 -3471 0
3463 3471 -3472 0
3463 -3471 3472 0
-3463 3471 3472 0
-3463 -3471 3472 0
3472 3473 0
-3472 -3473 0
3473 3474 0
-3473 -3474 0
3474 3475 0
-3474 -3475 0
3475 3476 0
-3475 -3476 0
3476 3477 0
-3476 -3477 0
3477 3478 0
-3477 -3478 0
3284 1059 3479 0
3284 -1059 -3479 0
-3284 1059 -3479 0
-3284 -1059 -3479 0
3280 586 3480 0
3280 -586 -3480 0
-3280 586 -3480 0
-3280 -586 -3480 0
1638 3287 3481 0
1638 -3287 -3481 0
-1638 3287 -3481 0
-1638 -3287 -3481 0
3291 2544 3482 0
3291 -2544 -3482 0
-3291 2544 -3482 0
-3291 -2544 -3482 0
3479 3480 3481 3482 -3483 0
3479 3480 3481 -3482 3483 0
3479 3480 -3481 3482 3483 0
3479 3480 -3481 -3482 3483 0
3479 -3480 3481 3482 3483 0
3479 -3480 3481 -3482 3483 0
3479 -3480 -3481 3482 3483 0
3479 -3480 -3481 -3482 3483 0
-3479 3480 3481 3482 3483 0
-3479 3480 3481 -3482 3483 0
-3479 3480 -3481 3482 3483 0
-3479 3480 -3481 -3482 3483 0
-3479 -3480 3481 3482 3483 0
-3479 -3480 3481 -3482 3483 0
-3479 -3480 -3481 3482 3483 0
-3479 -3480 -3481 -3482 3483 0
3483 3484 0
-3483 -3484 0
3274 3484 3485 0
3274 -3484 -3485 0
-3274 3484 -3485 0
-3274 -3484 -3485 0
1442 3305 3486 0
1442 -3305 -3486 0
-1442 3305 -3486 0
-1442 -3305 -3486 0
3303 1254 3487 0
3303 -1254 -3487 0
-3303 1254 -3487 0
-3303 -1254 -3487 0
3486 3487 -3488 0
3486 -3487 3488 0
-3486 3487 3488 0
-3486 -3487 3488 0
216 3489 0
-216 -3489 0
3489 3490 0
-3489 -3490 0
3490 3299 3491 0
3490 -3299 -3491 0
-3490 3299 -3491 0
-3490 -3299 -3491 0
3488 3491 3492 0
3488 -3491 -3492 0
-3488 3491 -3492 0
-3488 -3491 -3492 0
3312 3492 3493 0
3312 -3492 -3493 0
-3312 3492 -3493 0
-3312 -3492 -3493 0
3485 3493 -3494 0
3485 -3493 3494 0
-3485 3493 3494 0
-3485 -3493 3494 0
3494 3495 0
-3494 -3495 0
3495 3496 0
-3495 -3496 0
3496 3497 0
-3496 -3497 0
3497 3498 0
-3497 -3498 0
3498 3499 0
-3498 -3499 0
3499 3500 0
-3499 -3500 0
3478 3500 -3501 0
3478 -3500 3501 0
-3478 3500 3501 0
-3478 -3500 -3501 0
3227 1300 3502 0
3227 -1300 -3502 0
-3227 1300 -3502 0
-3227 -1300 -3502 0
1103 3225 3503 0
1103 -3225 -3503 0
-1103 3225 -3503 0
-1103 -3225 -3503 0
3502 3503 -3504 0
3502 -3503 3504 0
-3502 3503 3504 0
-3502 -3503 3504 0
422 3505 0
-422 -3505 0
3505 3506 0
-3505 -3506 0
3506 3221 3507 0
3506 -3221 -3507 0
-3506 3221 -3507 0
-3506 -3221 -3507 0
3504 3507 3508 0
3504 -3507 -3508 0
-3504 3507 -3508 0
-3504 -3507 -3508 0
3234 3508 3509 0
3234 -3508 -3509 0
-3234 3508 -3509 0
-3234 -3508 -3509 0
3202 435 3510 0
3202 -435 -3510 0
-3202 435 -3510 0
-3202 -435 -3510 0
2192 3213 3511 0
2192 -3213 -3511 0
-2192 3213 -3511 0
-2192 -3213 -3511 0
916 3206 3512 0
916 -3206 -3512 0
-916 3206 -3512 0
-916 -3206 -3512 0
3209 1487 3513 0
3209 -1487 -3513 0
-3209 1487 -3513 0
-3209 -1487 -3513 0
3510 3511 3512 3513 -3514 0
3510 3511 3512 -3513 3514 0
3510 3511 -3512 3513 3514 0
3510 3511 -3512 -3513 3514 0
3510 -3511 3512 3513 3514 0
3510 -3511 3512 -3513 3514 0
3510 -3511 -3512 3513 3514 0
3510 -3511 -3512 -3513 3514 0
-3510 3511 3512 3513 3514 0
-3510 3511 3512 -3513 3514 0
-3510 3511 -3512 3513 3514 0
-3510 3511 -3512 -3513 3514 0
-3510 -3511 3512 3513 3514 0
-3510 -3511 3512 -3513 3514 0
-3510 -3511 -3512 3513 3514 0
-3510 -3511 -3512 -3513 3514 0
3514 3515 0
-3514 -3515 0
3515 3196 3516 0
3515 -3196 -3516 0
-3515 3196 -3516 0
-3515 -3196 -3516 0
3509 3516 -3517 0
3509 -3516 3517 0
-3509 3516 3517 0
-3509 -3516 3517 0
3517 3518 0
-3517 -3518 0
3518 3519 0
-3518 -3519 0
3519 3520 0
-3519 -3520 0
3520 3521 0
-3520 -3521 0
3521 3522 0
-3521 -3522 0
3522 3523 0
-3522 -3523 0
3305 1393 3524 0
3305 -1393 -3524 0
-3305 1393 -3524 0
-3305 -1393 -3524 0
1201 3303 3525 0
1201 -3303 -3525 0
-1201 3303 -3525 0
-1201 -3303 -3525 0
3524 3525 -3526 0
3524 -3525 3526 0
-3524 3525 3526 0
-3524 -3525 3526 0
422 3527 0
-422 -3527 0
3527 3528 0
-3527 -3528 0
3528 3299 3529 0
3528 -3299 -3529 0
-3528 3299 -3529 0
-3528 -3299 -3529 0
3526 3529 3530 0
3526 -3529 -3530 0
-3526 3529 -3530 0
-3526 -3529 -3530 0
3312 3530 3531 0
3312 -3530 -3531 0
-3312 3530 -3531 0
-3312 -3530 -3531 0
3280 533 3532 0
3280 -533 -3532 0
-3280 533 -3532 0
-3280 -533 -3532 0
2556 3291 3533 0
2556 -3291 -3533 0
-2556 3291 -3533 0
-2556 -3291 -3533 0
1009 3284 3534 0
1009 -3284 -3534 0
-1009 3284 -3534 0
-1009 -3284 -3534 0
3287 1585 3535 0
3287 -1585 -3535 0
-3287 1585 -3535 0
-3287 -1585 -3535 0
3532 3533 3534 3535 -3536 0
3532 3533 3534 -3535 3536 0
3532 3533 -3534 3535 3536 0
3532 3533 -3534 -3535 3536 0
3532 -3533 3534 3535 3536 0
3532 -3533 3534 -3535 3536 0
3532 -3533 -3534 3535 3536 0
3532 -3533 -3534 -3535 3536 0
-3532 3533 3534 3535 3536 0
-3532 3533 3534 -3535 3536 0
-3532 3533 -3534 3535 3536 0
-3532 3533 -3534 -3535 3536 0
-3532 -3533 3534 3535 3536 0
-3532 -3533 3534 -3535 3536 0
-3532 -3533 -3534 3535 3536 0
-3532 -3533 -3534 -3535 3536 0
3536 3537 0
-3536 -3537 0
3537 3274 3538 0
3537 -3274 -3538 0
-3537 3274 -3538 0
-3537 -3274 -3538 0
3531 3538 -3539 0
3531 -3538 3539 0
-3531 3538 3539 0
-3531 -3538 3539 0
3539 3540 0
-3539 -3540 0
3540 3541 0
-3540 -3541 0
3541 3542 0
-3541 -3542 0
3542 3543 0
-3542 -3543 0
3543 3544 0
-3543 -3544 0
3544 3545 0
-3544 -3545 0
3523 3545 -3546 0
3523 -3545 3546 0
-3523 3545 3546 0
-3523 -3545 -3546 0
1304 3227 3547 0
1304 -3227 -3547 0
-1304 3227 -3547 0
-1304 -3227 -3547 0
3225 1107 3548 0
3225 -1107 -3548 0
-3225 1107 -3548 0
-3225 -1107 -3548 0
3547 3548 -3549 0
3547 -3548 3549 0
-3547 3548 3549 0
-3547 -3548 3549 0
424 3550 0
-424 -3550 0
3550 3551 0
-3550 -3551 0
3221 3551 3552 0
3221 -3551 -3552 0
-3221 3551 -3552 0
-3221 -3551 -3552 0
3549 3552 3553 0
3549 -3552 -3553 0
-3549 3552 -3553 0
-3549 -3552 -3553 0
3234 3553 3554 0
3234 -3553 -3554 0
-3234 3553 -3554 0
-3234 -3553 -3554 0
1491 3209 3555 0
1491 -3209 -3555 0
-1491 3209 -3555 0
-1491 -3209 -3555 0
3202 439 3556 0
3202 -439 -3556 0
-3202 439 -3556 0
-3202 -439 -3556 0
2186 3213 3557 0
2186 -3213 -3557 0
-2186 3213 -3557 0
-2186 -3213 -3557 0
920 3206 3558 0
920 -3206 -3558 0
-920 3206 -3558 0
-920 -3206 -3558 0
3555 3556 3557 3558 -3559 0
3555 3556 3557 -3558 3559 0
3555 3556 -3557 3558 3559 0
3555 3556 -3557 -3558 3559 0
3555 -3556 3557 3558 3559 0
3555 -3556 3557 -3558 3559 0
3555 -3556 -3557 3558 3559 0
3555 -3556 -3557 -3558 3559 0
-3555 3556 3557 3558 3559 0
-3555 3556 3557 -3558 3559 0
-3555 3556 -3557 3558 3559 0
-3555 3556 -3557 -3558 3559 0
-3555 -3556 3557 3558 3559 0
-3555 -3556 3557 -3558 3559 0
-3555 -3556 -3557 3558 3559 0
-3555 -3556 -3557 -3558 3559 0
3559 3560 0
-3559 -3560 0
3560 3196 3561 0
3560 -3196 -3561 0
-3560 3196 -3561 0
-3560 -3196 -3561 0
3554 3561 -3562 0
3554 -3561 3562 0
-3554 3561 3562 0
-3554 -3561 3562 0
3562 3563 0
-3562 -3563 0
3563 3564 0
-3563 -3564 0
3564 3565 0
-3564 -3565 0
3565 3566 0
-3565 -3566 0
3566 3567 0
-3566 -3567 0
3567 3568 0
-3567 -3568 0
1397 3305 3569 0
1397 -3305 -3569 0
-1397 3305 -3569 0
-1397 -3305 -3569 0
3303 1205 3570 0
3303 -1205 -3570 0
-3303 1205 -3570 0
-3303 -1205 -3570 0
3569 3570 -3571 0
3569 -3570 3571 0
-3569 3570 3571 0
-3569 -3570 3571 0
424 3572 0
-424 -3572 0
3572 3573 0
-3572 -3573 0
3299 3573 3574 0
3299 -3573 -3574 0
-3299 3573 -3574 0
-3299 -3573 -3574 0
3571 3574 3575 0
3571 -3574 -3575 0
-3571 3574 -3575 0
-3571 -3574 -3575 0
3312 3575 3576 0
3312 -3575 -3576 0
-3312 3575 -3576 0
-3312 -3575 -3576 0
1589 3287 3577 0
1589 -3287 -3577 0
-1589 3287 -3577 0
-1589 -3287 -3577 0
3280 537 3578 0
3280 -537 -3578 0
-3280 537 -3578 0
-3280 -537 -3578 0
2550 3291 3579 0
2550 -3291 -3579 0
-2550 3291 -3579 0
-2550 -3291 -3579 0
1013 3284 3580 0
1013 -3284 -3580 0
-1013 3284 -3580 0
-1013 -3284 -3580 0
3577 3578 3579 3580 -3581 0
3577 3578 3579 -3580 3581 0
3577 3578 -3579 3580 3581 0
3577 3578 -3579 -3580 3581 0
3577 -3578 3579 3580 3581 0
3577 -3578 3579 -3580 3581 0
3577 -3578 -3579 3580 3581 0
3577 -3578 -3579 -3580 3581 0
-3577 3578 3579 3580 3581 0
-3577 3578 3579 -3580 3581 0
-3577 3578 -3579 3580 3581 0
-3577 3578 -3579 -3580 3581 0
-3577 -3578 3579 3580 3581 0
-3577 -3578 3579 -3580 3581 0
-3577 -3578 -3579 3580 3581 0
-3577 -3578 -3579 -3580 3581 0
3581 3582 0
-3581 -3582 0
3582 3274 3583 0
3582 -3274 -3583 0
-3582 3274 -3583 0
-3582 -3274 -3583 0
3576 3583 -3584 0
3576 -3583 3584 0
-3576 3583 3584 0
-3576 -3583 3584 0
3584 3585 0
-3584 -3585 0
3585 3586 0
-3585 -3586 0
3586 3587 0
-3586 -3587 0
3587 3588 0
-3587 -3588 0
3588 3589 0
-3588 -3589 0
3589 3590 0
-3589 -3590 0
3568 3590 -3591 0
3568 -3590 3591 0
-3568 3590 3591 0
-3568 -3590 -3591 0
1483 3209 3592 0
1483 -3209 -3592 0
-1483 3209 -3592 0
-1483 -3209 -3592 0
431 3202 3593 0
431 -3202 -3593 0
-431 3202 -3593 0
-431 -3202 -3593 0
3213 2178 3594 0
3213 -2178 -3594 0
-3213 2178 -3594 0
-3213 -2178 -3594 0
3206 912 3595 0
3206 -912 -3595 0
-3206 912 -3595 0
-3206 -912 -3595 0
3592 3593 3594 3595 -3596 0
3592 3593 3594 -3595 3596 0
3592 3593 -3594 3595 3596 0
3592 3593 -3594 -3595 3596 0
3592 -3593 3594 3595 3596 0
3592 -3593 3594 -3595 3596 0
3592 -3593 -3594 3595 3596 0
3592 -3593 -3594 -3595 3596 0
-3592 3593 3594 3595 3596 0
-3592 3593 3594 -3595 3596 0
-3592 3593 -3594 3595 3596 0
-3592 3593 -3594 -3595 3596 0
-3592 -3593 3594 3595 3596 0
-3592 -3593 3594 -3595 3596 0
-3592 -3593 -3594 3595 3596 0
-3592 -3593 -3594 -3595 3596 0
3596 3597 0
-3596 -3597 0
3597 3196 3598 0
3597 -3196 -3598 0
-3597 3196 -3598 0
-3597 -3196 -3598 0
427 3599 0
-427 -3599 0
3599 3600 0
-3599 -3600 0
3221 3600 3601 0
3221 -3600 -3601 0
-3221 3600 -3601 0
-3221 -3600 -3601 0
3225 1099 3602 0
3225 -1099 -3602 0
-3225 1099 -3602 0
-3225 -1099 -3602 0
1296 3227 3603 0
1296 -3227 -3603 0
-1296 3227 -3603 0
-1296 -3227 -3603 0
3602 3603 -3604 0
3602 -3603 3604 0
-3602 3603 3604 0
-3602 -3603 3604 0
3601 3604 3605 0
3601 -3604 -3605 0
-3601 3604 -3605 0
-3601 -3604 -3605 0
3605 3234 3606 0
3605 -3234 -3606 0
-3605 3234 -3606 0
-3605 -3234 -3606 0
3598 3606 -3607 0
3598 -3606 3607 0
-3598 3606 3607 0
-3598 -3606 3607 0
3607 3608 0
-3607 -3608 0
3608 3609 0
-3608 -3609 0
3609 3610 0
-3609 -3610 0
3610 3611 0
-3610 -3611 0
3611 3612 0
-3611 -3612 0
3612 3613 0
-3612 -3613 0
1581 3287 3614 0
1581 -3287 -3614 0
-1581 3287 -3614 0
-1581 -3287 -3614 0
529 3280 3615 0
529 -3280 -3615 0
-529 3280 -3615 0
-529 -3280 -3615 0
3291 2542 3616 0
3291 -2542 -3616 0
-3291 2542 -3616 0
-3291 -2542 -3616 0
3284 1005 3617 0
3284 -1005 -3617 0
-3284 1005 -3617 0
-3284 -1005 -3617 0
3614 3615 3616 3617 -3618 0
3614 3615 3616 -3617 3618 0
3614 3615 -3616 3617 3618 0
3614 3615 -3616 -3617 3618 0
3614 -3615 3616 3617 3618 0
3614 -3615 3616 -3617 3618 0
3614 -3615 -3616 3617 3618 0
3614 -3615 -3616 -3617 3618 0
-3614 3615 3616 3617 3618 0
-3614 3615 3616 -3617 3618 0
-3614 3615 -3616 3617 3618 0
-3614 3615 -3616 -3617 3618 0
-3614 -3615 3616 3617 3618 0
-3614 -3615 3616 -3617 3618 0
-3614 -3615 -3616 3617 3618 0
-3614 -3615 -3616 -3617 3618 0
3618 3619 0
-3618 -3619 0
3619 3274 3620 0
3619 -3274 -3620 0
-3619 3274 -3620 0
-3619 -3274 -3620 0
427 3621 0
-427 -3621 0
3621 3622 0
-3621 -3622 0
3299 3622 3623 0
3299 -3622 -3623 0
-3299 3622 -3623 0
-3299 -3622 -3623 0
3303 1197 3624 0
3303 -1197 -3624 0
-3303 1197 -3624 0
-3303 -1197 -3624 0
1389 3305 3625 0
1389 -3305 -3625 0
-1389 3305 -3625 0
-1389 -3305 -3625 0
3624 3625 -3626 0
3624 -3625 3626 0
-3624 3625 3626 0
-3624 -3625 3626 0
3623 3626 3627 0
3623 -3626 -3627 0
-3623 3626 -3627 0
-3623 -3626 -3627 0
3627 3312 3628 0
3627 -3312 -3628 0
-3627 3312 -3628 0
-3627 -3312 -3628 0
3620 3628 -3629 0
3620 -3628 3629 0
-3620 3628 3629 0
-3620 -3628 3629 0
3629 3630 0
-3629 -3630 0
3630 3631 0
-3630 -3631 0
3631 3632 0
-3631 -3632 0
3632 3633 0
-3632 -3633 0
3633 3634 0
-3633 -3634 0
3634 3635 0
-3634 -3635 0
3613 3635 -3636 0
3613 -3635 3636 0
-3613 3635 3636 0
-3613 -3635 -3636 0
237 3637 0
-237 -3637 0
3217 3637 3638 0
3217 -3637 -3638 0
-3217 3637 -3638 0
-3217 -3637 -3638 0
3197 3211 3204 3639 0
3197 3211 -3204 -3639 0
3197 -3211 3204 -3639 0
3197 -3211 -3204 -3639 0
-3197 3211 3204 -3639 0
-3197 3211 -3204 -3639 0
-3197 -3211 3204 -3639 0
-3197 -3211 -3204 -3639 0
3639 3640 0
-3639 -3640 0
3640 3641 0
-3640 -3641 0
3638 3641 -3642 0
3638 -3641 3642 0
-3638 3641 3642 0
-3638 -3641 3642 0
945 3206 3643 0
945 -3206 -3643 0
-945 3206 -3643 0
-945 -3206 -3643 0
464 3202 3644 0
464 -3202 -3644 0
-464 3202 -3644 0
-464 -3202 -3644 0
1516 3209 3645 0
1516 -3209 -3645 0
-1516 3209 -3645 0
-1516 -3209 -3645 0
2135 3213 3646 0
2135 -3213 -3646 0
-2135 3213 -3646 0
-2135 -3213 -3646 0
3643 3644 3645 3646 -3647 0
3643 3644 3645 -3646 3647 0
3643 3644 -3645 3646 3647 0
3643 3644 -3645 -3646 3647 0
3643 -3644 3645 3646 3647 0
3643 -3644 3645 -3646 3647 0
3643 -3644 -3645 3646 3647 0
3643 -3644 -3645 -3646 3647 0
-3643 3644 3645 3646 3647 0
-3643 3644 3645 -3646 3647 0
-3643 3644 -3645 3646 3647 0
-3643 3644 -3645 -3646 3647 0
-3643 -3644 3645 3646 3647 0
-3643 -3644 3645 -3646 3647 0
-3643 -3644 -3645 3646 3647 0
-3643 -3644 -3645 -3646 3647 0
3642 3647 3648 0
3642 -3647 -3648 0
-3642 3647 -3648 0
-3642 -3647 -3648 0
3648 3196 3649 0
3648 -3196 -3649 0
-3648 3196 -3649 0
-3648 -3196 -3649 0
3600 3650 0
-3600 -3650 0
3650 3651 0
-3650 -3651 0
3506 3652 0
-3506 -3652 0
3652 3653 0
-3652 -3653 0
3551 3654 0
-3551 -3654 0
3654 3655 0
-3654 -3655 0
3651 3653 3655 3656 0
3651 3653 -3655 -3656 0
3651 -3653 3655 -3656 0
3651 -3653 -3655 -3656 0
-3651 3653 3655 -3656 0
-3651 3653 -3655 -3656 0
-3651 -3653 3655 -3656 0
-3651 -3653 -3655 -3656 0
422 3657 0
-422 -3657 0
3657 3658 0
-3657 -3658 0
3658 3659 0
-3658 -3659 0
424 3660 0
-424 -3660 0
3660 3661 0
-3660 -3661 0
3661 3662 0
-3661 -3662 0
3651 3659 3662 3663 0
3651 3659 -3662 -3663 0
3651 -3659 3662 -3663 0
3651 -3659 -3662 -3663 0
-3651 3659 3662 -3663 0
-3651 3659 -3662 -3663 0
-3651 -3659 3662 -3663 0
-3651 -3659 -3662 -3663 0
427 3664 0
-427 -3664 0
3664 3665 0
-3664 -3665 0
3665 3666 0
-3665 -3666 0
3666 3653 3662 3667 0
3666 3653 -3662 -3667 0
3666 -3653 3662 -3667 0
3666 -3653 -3662 -3667 0
-3666 3653 3662 -3667 0
-3666 3653 -3662 -3667 0
-3666 -3653 3662 -3667 0
-3666 -3653 -3662 -3667 0
3666 3659 3655 3668 0
3666 3659 -3655 -3668 0
3666 -3659 3655 -3668 0
3666 -3659 -3655 -3668 0
-3666 3659 3655 -3668 0
-3666 3659 -3655 -3668 0
-3666 -3659 3655 -3668 0
-3666 -3659 -3655 -3668 0
3656 3663 3667 3668 -3669 0
3656 3663 3667 -3668 3669 0
3656 3663 -3667 3668 3669 0
3656 3663 -3667 -3668 3669 0
3656 -3663 3667 3668 3669 0
3656 -3663 3667 -3668 3669 0
3656 -3663 -3667 3668 3669 0
3656 -3663 -3667 -3668 3669 0
-3656 3663 3667 3668 3669 0
-3656 3663 3667 -3668 3669 0
-3656 3663 -3667 3668 3669 0
-3656 3663 -3667 -3668 3669 0
-3656 -3663 3667 3668 3669 0
-3656 -3663 3667 -3668 3669 0
-3656 -3663 -3667 3668 3669 0
-3656 -3663 -3667 -3668 3669 0
3669 3670 0
-3669 -3670 0
3670 3671 0
-3670 -3671 0
3671 3672 0
-3671 -3672 0
416 3673 0
-416 -3673 0
3673 3223 3674 0
3673 -3223 -3674 0
-3673 3223 -3674 0
-3673 -3223 -3674 0
418 3675 0
-418 -3675 0
3333 3675 3676 0
3333 -3675 -3676 0
-3333 3675 -3676 0
-3333 -3675 -3676 0
3674 3676 -3677 0
3674 -3676 3677 0
-3674 3676 3677 0
-3674 -3676 3677 0
3677 3678 0
-3677 -3678 0
3678 3679 0
-3678 -3679 0
3468 3680 0
-3468 -3680 0
3680 3681 0
-3680 -3681 0
3368 3682 0
-3368 -3682 0
3682 3683 0
-3682 -3683 0
3416 3684 0
-3416 -3684 0
3684 3685 0
-3684 -3685 0
3681 3683 3685 3686 0
3681 3683 -3685 -3686 0
3681 -3683 3685 -3686 0
3681 -3683 -3685 -3686 0
-3681 3683 3685 -3686 0
-3681 3683 -3685 -3686 0
-3681 -3683 3685 -3686 0
-3681 -3683 -3685 -3686 0
421 3687 0
-421 -3687 0
3687 3688 0
-3687 -3688 0
3688 3689 0
-3688 -3689 0
426 3690 0
-426 -3690 0
3690 3691 0
-3690 -3691 0
3691 3692 0
-3691 -3692 0
3681 3689 3692 3693 0
3681 3689 -3692 -3693 0
3681 -3689 3692 -3693 0
3681 -3689 -3692 -3693 0
-3681 3689 3692 -3693 0
-3681 3689 -3692 -3693 0
-3681 -3689 3692 -3693 0
-3681 -3689 -3692 -3693 0
216 3694 0
-216 -3694 0
3694 3695 0
-3694 -3695 0
3695 3696 0
-3695 -3696 0
3696 3683 3692 3697 0
3696 3683 -3692 -3697 0
3696 -3683 3692 -3697 0
3696 -3683 -3692 -3697 0
-3696 3683 3692 -3697 0
-3696 3683 -3692 -3697 0
-3696 -3683 3692 -3697 0
-3696 -3683 -3692 -3697 0
3696 3689 3685 3698 0
3696 3689 -3685 -3698 0
3696 -3689 3685 -3698 0
3696 -3689 -3685 -3698 0
-3696 3689 3685 -3698 0
-3696 3689 -3685 -3698 0
-3696 -3689 3685 -3698 0
-3696 -3689 -3685 -3698 0
3686 3693 3697 3698 -3699 0
3686 3693 3697 -3698 3699 0
3686 3693 -3697 3698 3699 0
3686 3693 -3697 -3698 3699 0
3686 -3693 3697 3698 3699 0
3686 -3693 3697 -3698 3699 0
3686 -3693 -3697 3698 3699 0
3686 -3693 -3697 -3698 3699 0
-3686 3693 3697 3698 3699 0
-3686 3693 3697 -3698 3699 0
-3686 3693 -3697 3698 3699 0
-3686 3693 -3697 -3698 3699 0
-3686 -3693 3697 3698 3699 0
-3686 -3693 3697 -3698 3699 0
-3686 -3693 -3697 3698 3699 0
-3686 -3693 -3697 -3698 3699 0
3699 3700 0
-3699 -3700 0
3700 3701 0
-3700 -3701 0
3701 3702 0
-3701 -3702 0
3672 3679 3702 3703 0
3672 3679 -3702 -3703 0
3672 -3679 3702 -3703 0
3672 -3679 -3702 -3703 0
-3672 3679 3702 -3703 0
-3672 3679 -3702 -3703 0
-3672 -3679 3702 -3703 0
-3672 -3679 -3702 -3703 0
3677 3704 0
-3677 -3704 0
3704 3705 0
-3704 -3705 0
3705 3706 0
-3705 -3706 0
3699 3707 0
-3699 -3707 0
3707 3708 0
-3707 -3708 0
3672 3706 3708 3709 0
3672 3706 -3708 -3709 0
3672 -3706 3708 -3709 0
3672 -3706 -3708 -3709 0
-3672 3706 3708 -3709 0
-3672 3706 -3708 -3709 0
-3672 -3706 3708 -3709 0
-3672 -3706 -3708 -3709 0
3669 3710 0
-3669 -3710 0
3710 3711 0
-3710 -3711 0
3711 3679 3708 3712 0
3711 3679 -3708 -3712 0
3711 -3679 3708 -3712 0
3711 -3679 -3708 -3712 0
-3711 3679 3708 -3712 0
-3711 3679 -3708 -3712 0
-3711 -3679 3708 -3712 0
-3711 -3679 -3708 -3712 0
3711 3706 3702 3713 0
3711 3706 -3702 -3713 0
3711 -3706 3702 -3713 0
3711 -3706 -3702 -3713 0
-3711 3706 3702 -3713 0
-3711 3706 -3702 -3713 0
-3711 -3706 3702 -3713 0
-3711 -3706 -3702 -3713 0
3703 3709 3712 3713 -3714 0
3703 3709 3712 -3713 3714 0
3703 3709 -3712 3713 3714 0
3703 3709 -3712 -3713 3714 0
3703 -3709 3712 3713 3714 0
3703 -3709 3712 -3713 3714 0
3703 -3709 -3712 3713 3714 0
3703 -3709 -3712 -3713 3714 0
-3703 3709 3712 3713 3714 0
-3703 3709 3712 -3713 3714 0
-3703 3709 -3712 3713 3714 0
-3703 3709 -3712 -3713 3714 0
-3703 -3709 3712 3713 3714 0
-3703 -3709 3712 -3713 3714 0
-3703 -3709 -3712 3713 3714 0
-3703 -3709 -3712 -3713 3714 0
3714 3715 0
-3714 -3715 0
3221 3715 3716 0
3221 -3715 -3716 0
-3221 3715 -3716 0
-3221 -3715 -3716 0
1326 3227 3717 0
1326 -3227 -3717 0
-1326 3227 -3717 0
-1326 -3227 -3717 0
3225 1132 3718 0
3225 -1132 -3718 0
-3225 1132 -3718 0
-3225 -1132 -3718 0
3717 3718 -3719 0
3717 -3718 3719 0
-3717 3718 3719 0
-3717 -3718 3719 0
3716 3719 3720 0
3716 -3719 -3720 0
-3716 3719 -3720 0
-3716 -3719 -3720 0
3234 3720 3721 0
3234 -3720 -3721 0
-3234 3720 -3721 0
-3234 -3720 -3721 0
3649 3721 -3722 0
3649 -3721 3722 0
-3649 3721 3722 0
-3649 -3721 3722 0
3722 3723 0
-3722 -3723 0
3723 3724 0
-3723 -3724 0
3724 3725 0
-3724 -3725 0
3725 3726 0
-3725 -3726 0
3726 3727 0
-3726 -3727 0
3727 3728 0
-3727 -3728 0
237 3729 0
-237 -3729 0
3295 3729 3730 0
3295 -3729 -3730 0
-3295 3729 -3730 0
-3295 -3729 -3730 0
3275 3289 3282 3731 0
3275 3289 -3282 -3731 0
3275 -3289 3282 -3731 0
3275 -3289 -3282 -3731 0
-3275 3289 3282 -3731 0
-3275 3289 -3282 -3731 0
-3275 -3289 3282 -3731 0
-3275 -3289 -3282 -3731 0
3731 3732 0
-3731 -3732 0
3732 3733 0
-3732 -3733 0
3730 3733 -3734 0
3730 -3733 3734 0
-3730 3733 3734 0
-3730 -3733 3734 0
1038 3284 3735 0
1038 -3284 -3735 0
-1038 3284 -3735 0
-1038 -3284 -3735 0
562 3280 3736 0
562 -3280 -3736 0
-562 3280 -3736 0
-562 -3280 -3736 0
1614 3287 3737 0
1614 -3287 -3737 0
-1614 3287 -3737 0
-1614 -3287 -3737 0
2499 3291 3738 0
2499 -3291 -3738 0
-2499 3291 -3738 0
-2499 -3291 -3738 0
3735 3736 3737 3738 -3739 0
3735 3736 3737 -3738 3739 0
3735 3736 -3737 3738 3739 0
3735 3736 -3737 -3738 3739 0
3735 -3736 3737 3738 3739 0
3735 -3736 3737 -3738 3739 0
3735 -3736 -3737 3738 3739 0
3735 -3736 -3737 -3738 3739 0
-3735 3736 3737 3738 3739 0
-3735 3736 3737 -3738 3739 0
-3735 3736 -3737 3738 3739 0
-3735 3736 -3737 -3738 3739 0
-3735 -3736 3737 3738 3739 0
-3735 -3736 3737 -3738 3739 0
-3735 -3736 -3737 3738 3739 0
-3735 -3736 -3737 -3738 3739 0
3734 3739 3740 0
3734 -3739 -3740 0
-3734 3739 -3740 0
-3734 -3739 -3740 0
3740 3274 3741 0
3740 -3274 -3741 0
-3740 3274 -3741 0
-3740 -3274 -3741 0
3622 3742 0
-3622 -3742 0
3742 3743 0
-3742 -3743 0
3528 3744 0
-3528 -3744 0
3744 3745 0
-3744 -3745 0
3573 3746 0
-3573 -3746 0
3746 3747 0
-3746 -3747 0
3743 3745 3747 3748 0
3743 3745 -3747 -3748 0
3743 -3745 3747 -3748 0
3743 -3745 -3747 -3748 0
-3743 3745 3747 -3748 0
-3743 3745 -3747 -3748 0
-3743 -3745 3747 -3748 0
-3743 -3745 -3747 -3748 0
422 3749 0
-422 -3749 0
3749 3750 0
-3749 -3750 0
3750 3751 0
-3750 -3751 0
424 3752 0
-424 -3752 0
3752 3753 0
-3752 -3753 0
3753 3754 0
-3753 -3754 0
3743 3751 3754 3755 0
3743 3751 -3754 -3755 0
3743 -3751 3754 -3755 0
3743 -3751 -3754 -3755 0
-3743 3751 3754 -3755 0
-3743 3751 -3754 -3755 0
-3743 -3751 3754 -3755 0
-3743 -3751 -3754 -3755 0
427 3756 0
-427 -3756 0
3756 3757 0
-3756 -3757 0
3757 3758 0
-3757 -3758 0
3758 3745 3754 3759 0
3758 3745 -3754 -3759 0
3758 -3745 3754 -3759 0
3758 -3745 -3754 -3759 0
-3758 3745 3754 -3759 0
-3758 3745 -3754 -3759 0
-3758 -3745 3754 -3759 0
-3758 -3745 -3754 -3759 0
3758 3751 3747 3760 0
3758 3751 -3747 -3760 0
3758 -3751 3747 -3760 0
3758 -3751 -3747 -3760 0
-3758 3751 3747 -3760 0
-3758 3751 -3747 -3760 0
-3758 -3751 3747 -3760 0
-3758 -3751 -3747 -3760 0
3748 3755 3759 3760 -3761 0
3748 3755 3759 -3760 3761 0
3748 3755 -3759 3760 3761 0
3748 3755 -3759 -3760 3761 0
3748 -3755 3759 3760 3761 0
3748 -3755 3759 -3760 3761 0
3748 -3755 -3759 3760 3761 0
3748 -3755 -3759 -3760 3761 0
-3748 3755 3759 3760 3761 0
-3748 3755 3759 -3760 3761 0
-3748 3755 -3759 3760 3761 0
-3748 3755 -3759 -3760 3761 0
-3748 -3755 3759 3760 3761 0
-3748 -3755 3759 -3760 3761 0
-3748 -3755 -3759 3760 3761 0
-3748 -3755 -3759 -3760 3761 0
3761 3762 0
-3761 -3762 0
3762 3763 0
-3762 -3763 0
3763 3764 0
-3763 -3764 0
416 3765 0
-416 -3765 0
3765 3301 3766 0
3765 -3301 -3766 0
-3765 3301 -3766 0
-3765 -3301 -3766 0
418 3767 0
-418 -3767 0
3355 3767 3768 0
3355 -3767 -3768 0
-3355 3767 -3768 0
-3355 -3767 -3768 0
3766 3768 -3769 0
3766 -3768 3769 0
-3766 3768 3769 0
-3766 -3768 3769 0
3769 3770 0
-3769 -3770 0
3770 3771 0
-3770 -3771 0
3490 3772 0
-3490 -3772 0
3772 3773 0
-3772 -3773 0
3390 3774 0
-3390 -3774 0
3774 3775 0
-3774 -3775 0
3438 3776 0
-3438 -3776 0
3776 3777 0
-3776 -3777 0
3773 3775 3777 3778 0
3773 3775 -3777 -3778 0
3773 -3775 3777 -3778 0
3773 -3775 -3777 -3778 0
-3773 3775 3777 -3778 0
-3773 3775 -3777 -3778 0
-3773 -3775 3777 -3778 0
-3773 -3775 -3777 -3778 0
421 3779 0
-421 -3779 0
3779 3780 0
-3779 -3780 0
3780 3781 0
-3780 -3781 0
426 3782 0
-426 -3782 0
3782 3783 0
-3782 -3783 0
3783 3784 0
-3783 -3784 0
3773 3781 3784 3785 0
3773 3781 -3784 -3785 0
3773 -3781 3784 -3785 0
3773 -3781 -3784 -3785 0
-3773 3781 3784 -3785 0
-3773 3781 -3784 -3785 0
-3773 -3781 3784 -3785 0
-3773 -3781 -3784 -3785 0
216 3786 0
-216 -3786 0
3786 3787 0
-3786 -3787 0
3787 3788 0
-3787 -3788 0
3788 3775 3784 3789 0
3788 3775 -3784 -3789 0
3788 -3775 3784 -3789 0
3788 -3775 -3784 -3789 0
-3788 3775 3784 -3789 0
-3788 3775 -3784 -3789 0
-3788 -3775 3784 -3789 0
-3788 -3775 -3784 -3789 0
3788 3781 3777 3790 0
3788 3781 -3777 -3790 0
3788 -3781 3777 -3790 0
3788 -3781 -3777 -3790 0
-3788 3781 3777 -3790 0
-3788 3781 -3777 -3790 0
-3788 -3781 3777 -3790 0
-3788 -3781 -3777 -3790 0
3778 3785 3789 3790 -3791 0
3778 3785 3789 -3790 3791 0
3778 3785 -3789 3790 3791 0
3778 3785 -3789 -3790 3791 0
3778 -3785 3789 3790 3791 0
3778 -3785 3789 -3790 3791 0
3778 -3785 -3789 3790 3791 0
3778 -3785 -3789 -3790 3791 0
-3778 3785 3789 3790 3791 0
-3778 3785 3789 -3790 3791 0
-3778 3785 -3789 3790 3791 0
-3778 3785 -3789 -3790 3791 0
-3778 -3785 3789 3790 3791 0
-3778 -3785 3789 -3790 3791 0
-3778 -3785 -3789 3790 3791 0
-3778 -3785 -3789 -3790 3791 0
3791 3792 0
-3791 -3792 0
3792 3793 0
-3792 -3793 0
3793 3794 0
-3793 -3794 0
3764 3771 3794 3795 0
3764 3771 -3794 -3795 0
3764 -3771 3794 -3795 0
3764 -3771 -3794 -3795 0
-3764 3771 3794 -3795 0
-3764 3771 -3794 -3795 0
-3764 -3771 3794 -3795 0
-3764 -3771 -3794 -3795 0
3769 3796 0
-3769 -3796 0
3796 3797 0
-3796 -3797 0
3797 3798 0
-3797 -3798 0
3791 3799 0
-3791 -3799 0
3799 3800 0
-3799 -3800 0
3764 3798 3800 3801 0
3764 3798 -3800 -3801 0
3764 -3798 3800 -3801 0
3764 -3798 -3800 -3801 0
-3764 3798 3800 -3801 0
-3764 3798 -3800 -3801 0
-3764 -3798 3800 -3801 0
-3764 -3798 -3800 -3801 0
3761 3802 0
-3761 -3802 0
3802 3803 0
-3802 -3803 0
3803 3771 3800 3804 0
3803 3771 -3800 -3804 0
3803 -3771 3800 -3804 0
3803 -3771 -3800 -3804 0
-3803 3771 3800 -3804 0
-3803 3771 -3800 -3804 0
-3803 -3771 3800 -3804 0
-3803 -3771 -3800 -3804 0
3803 3798 3794 3805 0
3803 3798 -3794 -3805 0
3803 -3798 3794 -3805 0
3803 -3798 -3794 -3805 0
-3803 3798 3794 -3805 0
-3803 3798 -3794 -3805 0
-3803 -3798 3794 -3805 0
-3803 -3798 -3794 -3805 0
3795 3801 3804 3805 -3806 0
3795 3801 3804 -3805 3806 0
3795 3801 -3804 3805 3806 0
3795 3801 -3804 -3805 3806 0
3795 -3801 3804 3805 3806 0
3795 -3801 3804 -3805 3806 0
3795 -3801 -3804 3805 3806 0
3795 -3801 -3804 -3805 3806 0
-3795 3801 3804 3805 3806 0
-3795 3801 3804 -3805 3806 0
-3795 3801 -3804 3805 3806 0
-3795 3801 -3804 -3805 3806 0
-3795 -3801 3804 3805 3806 0
-3795 -3801 3804 -3805 3806 0
-3795 -3801 -3804 3805 3806 0
-3795 -3801 -3804 -3805 3806 0
3806 3807 0
-3806 -3807 0
3299 3807 3808 0
3299 -3807 -3808 0
-3299 3807 -3808 0
-3299 -3807 -3808 0
1419 3305 3809 0
1419 -3305 -3809 0
-1419 3305 -3809 0
-1419 -3305 -3809 0
3303 1230 3810 0
3303 -1230 -3810 0
-3303 1230 -3810 0
-3303 -1230 -3810 0
3809 3810 -3811 0
3809 -3810 3811 0
-3809 3810 3811 0
-3809 -3810 3811 0
3808 3811 3812 0
3808 -3811 -3812 0
-3808 3811 -3812 0
-3808 -3811 -3812 0
3312 3812 3813 0
3312 -3812 -3813 0
-3312 3812 -3813 0
-3312 -3812 -3813 0
3741 3813 -3814 0
3741 -3813 3814 0
-3741 3813 3814 0
-3741 -3813 3814 0
3814 3815 0
-3814 -3815 0
3815 3816 0
-3815 -3816 0
3816 3817 0
-3816 -3817 0
3817 3818 0
-3817 -3818 0
3818 3819 0
-3818 -3819 0
3819 3820 0
-3819 -3820 0
3728 3820 -3821 0
3728 -3820 3821 0
-3728 3820 3821 0
-3728 -3820 -3821 0
338 3822 0
-338 -3822 0
3822 3823 0
-3822 -3823 0
3823 3824 0
-3823 -3824 0
3824 3825 0
-3824 -3825 0
3825 3826 0
-3825 -3826 0
3826 3827 0
-3826 -3827 0
3827 3828 0
-3827 -3828 0
3828 3829 0
-3828 -3829 0
3829 3830 0
-3829 -3830 0
338 3831 0
-338 -3831 0
3831 3832 0
-3831 -3832 0
3832 3833 0
-3832 -3833 0
3833 3834 0
-3833 -3834 0
3834 3835 0
-3834 -3835 0
3835 3836 0
-3835 -3836 0
3836 3837 0
-3836 -3837 0
3837 3838 0
-3837 -3838 0
3838 3839 0
-3838 -3839 0
3830 3839 -3840 0
3830 -3839 3840 0
-3830 3839 3840 0
-3830 -3839 -3840 0
344 3841 0
-344 -3841 0
3841 3842 0
-3841 -3842 0
3842 3843 0
-3842 -3843 0
3843 3844 0
-3843 -3844 0
3844 3845 0
-3844 -3845 0
3845 3846 0
-3845 -3846 0
3846 3847 0
-3846 -3847 0
3847 3848 0
-3847 -3848 0
3848 3849 0
-3848 -3849 0
344 3850 0
-344 -3850 0
3850 3851 0
-3850 -3851 0
3851 3852 0
-3851 -3852 0
3852 3853 0
-3852 -3853 0
3853 3854 0
-3853 -3854 0
3854 3855 0
-3854 -3855 0
3855 3856 0
-3855 -3856 0
3856 3857 0
-3856 -3857 0
3857 3858 0
-3857 -3858 0
3849 3858 -3859 0
3849 -3858 3859 0
-3849 3858 3859 0
-3849 -3858 -3859 0
341 3860 0
-341 -3860 0
3860 3861 0
-3860 -3861 0
3861 3862 0
-3861 -3862 0
3862 3863 0
-3862 -3863 0
3863 3864 0
-3863 -3864 0
3864 3865 0
-3864 -3865 0
3865 3866 0
-3865 -3866 0
3866 3867 0
-3866 -3867 0
3867 3868 0
-3867 -3868 0
341 3869 0
-341 -3869 0
3869 3870 0
-3869 -3870 0
3870 3871 0
-3870 -3871 0
3871 3872 0
-3871 -3872 0
3872 3873 0
-3872 -3873 0
3873 3874 0
-3873 -3874 0
3874 3875 0
-3874 -3875 0
3875 3876 0
-3875 -3876 0
3876 3877 0
-3876 -3877 0
3868 3877 -3878 0
3868 -3877 3878 0
-3868 3877 3878 0
-3868 -3877 -3878 0
3233 3879 0
-3233 -3879 0
3648 3879 3880 0
3648 -3879 -3880 0
-3648 3879 -3880 0
-3648 -3879 -3880 0
323 3881 0
-323 -3881 0
338 3882 0
-338 -3882 0
3881 3882 3883 0
3881 -3882 -3883 0
-3881 3882 -3883 0
-3881 -3882 -3883 0
323 3884 0
-323 -3884 0
3884 3885 0
-3884 -3885 0
3823 3885 3886 0
3823 -3885 -3886 0
-3823 3885 -3886 0
-3823 -3885 -3886 0
3883 3886 -3887 0
3883 -3886 3887 0
-3883 3886 3887 0
-3883 -3886 3887 0
3887 3888 0
-3887 -3888 0
3888 3889 0
-3888 -3889 0
344 3890 0
-344 -3890 0
3890 3861 3891 0
3890 -3861 -3891 0
-3890 3861 -3891 0
-3890 -3861 -3891 0
341 3892 0
-341 -3892 0
3892 3842 3893 0
3892 -3842 -3893 0
-3892 3842 -3893 0
-3892 -3842 -3893 0
3891 3893 -3894 0
3891 -3893 3894 0
-3891 3893 3894 0
-3891 -3893 3894 0
3894 3895 0
-3894 -3895 0
3895 3896 0
-3895 -3896 0
3889 3896 3897 0
3889 -3896 -3897 0
-3889 3896 -3897 0
-3889 -3896 -3897 0
3889 3897 3898 0
3889 -3897 -3898 0
-3889 3897 -3898 0
-3889 -3897 -3898 0
3897 3896 3899 0
3897 -3896 -3899 0
-3897 3896 -3899 0
-3897 -3896 -3899 0
3898 3899 -3900 0
3898 -3899 3900 0
-3898 3899 3900 0
-3898 -3899 3900 0
3900 3901 0
-3900 -3901 0
3880 3901 -3902 0
3880 -3901 3902 0
-3880 3901 3902 0
-3880 -3901 3902 0
3902 3903 0
-3902 -3903 0
3903 3904 0
-3903 -3904 0
3904 3905 0
-3904 -3905 0
3905 3906 0
-3905 -3906 0
3311 3907 0
-3311 -3907 0
3740 3907 3908 0
3740 -3907 -3908 0
-3740 3907 -3908 0
-3740 -3907 -3908 0
323 3909 0
-323 -3909 0
338 3910 0
-338 -3910 0
3909 3910 3911 0
3909 -3910 -3911 0
-3909 3910 -3911 0
-3909 -3910 -3911 0
323 3912 0
-323 -3912 0
3912 3913 0
-3912 -3913 0
3832 3913 3914 0
3832 -3913 -3914 0
-3832 3913 -3914 0
-3832 -3913 -3914 0
3911 3914 -3915 0
3911 -3914 3915 0
-3911 3914 3915 0
-3911 -3914 3915 0
3915 3916 0
-3915 -3916 0
3916 3917 0
-3916 -3917 0
344 3918 0
-344 -3918 0
3918 3870 3919 0
3918 -3870 -3919 0
-3918 3870 -3919 0
-3918 -3870 -3919 0
341 3920 0
-341 -3920 0
3920 3851 3921 0
3920 -3851 -3921 0
-3920 3851 -3921 0
-3920 -3851 -3921 0
3919 3921 -3922 0
3919 -3921 3922 0
-3919 3921 3922 0
-3919 -3921 3922 0
3922 3923 0
-3922 -3923 0
3923 3924 0
-3923 -3924 0
3917 3924 3925 0
3917 -3924 -3925 0
-3917 3924 -3925 0
-3917 -3924 -3925 0
3917 3925 3926 0
3917 -3925 -3926 0
-3917 3925 -3926 0
-3917 -3925 -3926 0
3925 3924 3927 0
3925 -3924 -3927 0
-3925 3924 -3927 0
-3925 -3924 -3927 0
3926 3927 -3928 0
3926 -3927 3928 0
-3926 3927 3928 0
-3926 -3927 3928 0
3928 3929 0
-3928 -3929 0
3908 3929 -3930 0
3908 -3929 3930 0
-3908 3929 3930 0
-3908 -3929 3930 0
3930 3931 0
-3930 -3931 0
3931 3932 0
-3931 -3932 0
3932 3933 0
-3932 -3933 0
3933 3934 0
-3933 -3934 0
3906 3934 -3935 0
3906 -3934 3935 0
-3906 3934 3935 0
-3906 -3934 -3935 0
3879 3219 3936 0
3879 -3219 -3936 0
-3879 3219 -3936 0
-3879 -3219 -3936 0
419 3937 0
-419 -3937 0
3715 3937 3938 0
3715 -3937 -3938 0
-3715 3937 -3938 0
-3715 -3937 -3938 0
419 3939 0
-419 -3939 0
3939 3940 0
-3939 -3940 0
3940 3714 3941 0
3940 -3714 -3941 0
-3940 3714 -3941 0
-3940 -3714 -3941 0
3938 3941 -3942 0
3938 -3941 3942 0
-3938 3941 3942 0
-3938 -3941 3942 0
3942 3943 0
-3942 -3943 0
3936 3943 -3944 0
3936 -3943 3944 0
-3936 3943 3944 0
-3936 -3943 3944 0
3944 3945 0
-3944 -3945 0
3945 3946 0
-3945 -3946 0
3946 3947 0
-3946 -3947 0
3947 3948 0
-3947 -3948 0
3907 3297 3949 0
3907 -3297 -3949 0
-3907 3297 -3949 0
-3907 -3297 -3949 0
419 3950 0
-419 -3950 0
3807 3950 3951 0
3807 -3950 -3951 0
-3807 3950 -3951 0
-3807 -3950 -3951 0
419 3952 0
-419 -3952 0
3952 3953 0
-3952 -3953 0
3953 3806 3954 0
3953 -3806 -3954 0
-3953 3806 -3954 0
-3953 -3806 -3954 0
3951 3954 -3955 0
3951 -3954 3955 0
-3951 3954 3955 0
-3951 -3954 3955 0
3955 3956 0
-3955 -3956 0
3949 3956 -3957 0
3949 -3956 3957 0
-3949 3956 3957 0
-3949 -3956 3957 0
3957 3958 0
-3957 -3958 0
3958 3959 0
-3958 -3959 0
3959 3960 0
-3959 -3960 0
3960 3961 0
-3960 -3961 0
3948 3961 -3962 0
3948 -3961 3962 0
-3948 3961 3962 0
-3948 -3961 -3962 0
3327 3879 3963 0
3327 -3879 -3963 0
-3327 3879 -3963 0
-3327 -3879 -3963 0
238 3964 0
-238 -3964 0
3964 3965 0
-3964 -3965 0
3965 2132 3966 0
3965 -2132 -3966 0
-3965 2132 -3966 0
-3965 -2132 -3966 0
238 3967 0
-238 -3967 0
3967 2135 3968 0
3967 -2135 -3968 0
-3967 2135 -3968 0
-3967 -2135 -3968 0
3966 3968 -3969 0
3966 -3968 3969 0
-3966 3968 3969 0
-3966 -3968 3969 0
3969 3970 0
-3969 -3970 0
3963 3970 -3971 0
3963 -3970 3971 0
-3963 3970 3971 0
-3963 -3970 3971 0
3971 3972 0
-3971 -3972 0
3972 3973 0
-3972 -3973 0
3973 3974 0
-3973 -3974 0
3974 3975 0
-3974 -3975 0
3349 3907 3976 0
3349 -3907 -3976 0
-3349 3907 -3976 0
-3349 -3907 -3976 0
238 3977 0
-238 -3977 0
3977 3978 0
-3977 -3978 0
3978 2496 3979 0
3978 -2496 -3979 0
-3978 2496 -3979 0
-3978 -2496 -3979 0
238 3980 0
-238 -3980 0
3980 2499 3981 0
3980 -2499 -3981 0
-3980 2499 -3981 0
-3980 -2499 -3981 0
3979 3981 -3982 0
3979 -3981 3982 0
-3979 3981 3982 0
-3979 -3981 3982 0
3982 3983 0
-3982 -3983 0
3976 3983 -3984 0
3976 -3983 3984 0
-3976 3983 3984 0
-3976 -3983 3984 0
3984 3985 0
-3984 -3985 0
3985 3986 0
-3985 -3986 0
3986 3987 0
-3986 -3987 0
3987 3988 0
-3987 -3988 0
3975 3988 -3989 0
3975 -3988 3989 0
-3975 3988 3989 0
-3975 -3988 -3989 0
3879 3380 3990 0
3879 -3380 -3990 0
-3879 3380 -3990 0
-3879 -3380 -3990 0
1387 3991 0
-1387 -3991 0
3990 3991 -3992 0
3990 -3991 3992 0
-3990 3991 3992 0
-3990 -3991 3992 0
3992 3993 0
-3992 -3993 0
3993 3994 0
-3993 -3994 0
3994 3995 0
-3994 -3995 0
3995 3996 0
-3995 -3996 0
3907 3402 3997 0
3907 -3402 -3997 0
-3907 3402 -3997 0
-3907 -3402 -3997 0
1480 3998 0
-1480 -3998 0
3997 3998 -3999 0
3997 -3998 3999 0
-3997 3998 3999 0
-3997 -3998 3999 0
3999 4000 0
-3999 -4000 0
4000 4001 0
-4000 -4001 0
4001 4002 0
-4001 -4002 0
4002 4003 0
-4002 -4003 0
3996 4003 -4004 0
3996 -4003 4004 0
-3996 4003 4004 0
-3996 -4003 -4004 0
3879 3425 4005 0
3879 -3425 -4005 0
-3879 3425 -4005 0
-3879 -3425 -4005 0
1003 4006 0
-1003 -4006 0
4005 4006 -4007 0
4005 -4006 4007 0
-4005 4006 4007 0
-4005 -4006 4007 0
4007 4008 0
-4007 -4008 0
4008 4009 0
-4008 -4009 0
4009 4010 0
-4009 -4010 0
4010 4011 0
-4010 -4011 0
3907 3447 4012 0
3907 -3447 -4012 0
-3907 3447 -4012 0
-3907 -3447 -4012 0
1096 4013 0
-1096 -4013 0
4012 4013 -4014 0
4012 -4013 4014 0
-4012 4013 4014 0
-4012 -4013 4014 0
4014 4015 0
-4014 -4015 0
4015 4016 0
-4015 -4016 0
4016 4017 0
-4016 -4017 0
4017 4018 0
-4017 -4018 0
4011 4018 -4019 0
4011 -4018 4019 0
-4011 4018 4019 0
-4011 -4018 -4019 0
3879 3462 4020 0
3879 -3462 -4020 0
-3879 3462 -4020 0
-3879 -3462 -4020 0
1195 4021 0
-1195 -4021 0
4020 4021 -4022 0
4020 -4021 4022 0
-4020 4021 4022 0
-4020 -4021 4022 0
4022 4023 0
-4022 -4023 0
4023 4024 0
-4023 -4024 0
4024 4025 0
-4024 -4025 0
4025 4026 0
-4025 -4026 0
3907 3484 4027 0
3907 -3484 -4027 0
-3907 3484 -4027 0
-3907 -3484 -4027 0
1293 4028 0
-1293 -4028 0
4027 4028 -4029 0
4027 -4028 4029 0
-4027 4028 4029 0
-4027 -4028 4029 0
4029 4030 0
-4029 -4030 0
4030 4031 0
-4030 -4031 0
4031 4032 0
-4031 -4032 0
4032 4033 0
-4032 -4033 0
4026 4033 -4034 0
4026 -4033 4034 0
-4026 4033 4034 0
-4026 -4033 -4034 0
3515 3879 4035 0
3515 -3879 -4035 0
-3515 3879 -4035 0
-3515 -3879 -4035 0
527 4036 0
-527 -4036 0
4035 4036 -4037 0
4035 -4036 4037 0
-4035 4036 4037 0
-4035 -4036 4037 0
4037 4038 0
-4037 -4038 0
4038 4039 0
-4038 -4039 0
4039 4040 0
-4039 -4040 0
4040 4041 0
-4040 -4041 0
3537 3907 4042 0
3537 -3907 -4042 0
-3537 3907 -4042 0
-3537 -3907 -4042 0
625 4043 0
-625 -4043 0
4042 4043 -4044 0
4042 -4043 4044 0
-4042 4043 4044 0
-4042 -4043 4044 0
4044 4045 0
-4044 -4045 0
4045 4046 0
-4045 -4046 0
4046 4047 0
-4046 -4047 0
4047 4048 0
-4047 -4048 0
4041 4048 -4049 0
4041 -4048 4049 0
-4041 4048 4049 0
-4041 -4048 -4049 0
3560 3879 4050 0
3560 -3879 -4050 0
-3560 3879 -4050 0
-3560 -3879 -4050 0
1579 4051 0
-1579 -4051 0
4050 4051 -4052 0
4050 -4051 4052 0
-4050 4051 4052 0
-4050 -4051 4052 0
4052 4053 0
-4052 -4053 0
4053 4054 0
-4053 -4054 0
4054 4055 0
-4054 -4055 0
4055 4056 0
-4055 -4056 0
3582 3907 4057 0
3582 -3907 -4057 0
-3582 3907 -4057 0
-3582 -3907 -4057 0
1677 4058 0
-1677 -4058 0
4057 4058 -4059 0
4057 -4058 4059 0
-4057 4058 4059 0
-4057 -4058 4059 0
4059 4060 0
-4059 -4060 0
4060 4061 0
-4060 -4061 0
4061 4062 0
-4061 -4062 0
4062 4063 0
-4062 -4063 0
4056 4063 -4064 0
4056 -4063 4064 0
-4056 4063 4064 0
-4056 -4063 -4064 0
3597 3879 4065 0
3597 -3879 -4065 0
-3597 3879 -4065 0
-3597 -3879 -4065 0
843 4066 0
-843 -4066 0
4065 4066 -4067 0
4065 -4066 4067 0
-4065 4066 4067 0
-4065 -4066 4067 0
4067 4068 0
-4067 -4068 0
4068 4069 0
-4068 -4069 0
4069 4070 0
-4069 -4070 0
4070 4071 0
-4070 -4071 0
3619 3907 4072 0
3619 -3907 -4072 0
-3619 3907 -4072 0
-3619 -3907 -4072 0
897 4073 0
-897 -4073 0
4072 4073 -4074 0
4072 -4073 4074 0
-4072 4073 4074 0
-4072 -4073 4074 0
4074 4075 0
-4074 -4075 0
4075 4076 0
-4075 -4076 0
4076 4077 0
-4076 -4077 0
4077 4078 0
-4077 -4078 0
4071 4078 -4079 0
4071 -4078 4079 0
-4071 4078 4079 0
-4071 -4078 -4079 0
3714 4080 0
-3714 -4080 0
4080 4081 0
-4080 -4081 0
4081 4082 0
-4081 -4082 0
4082 4083 0
-4082 -4083 0
4083 4084 0
-4083 -4084 0
4084 4085 0
-4084 -4085 0
3806 4086 0
-3806 -4086 0
4086 4087 0
-4086 -4087 0
4087 4088 0
-4087 -4088 0
4088 4089 0
-4088 -4089 0
4089 4090 0
-4089 -4090 0
4090 4091 0
-4090 -4091 0
4085 4091 -4092 0
4085 -4091 4092 0
-4085 4091 4092 0
-4085 -4091 -4092 0
3675 4093 0
-3675 -4093 0
4093 4094 0
-4093 -4094 0
346 4095 0
-346 -4095 0
4095 4096 0
-4095 -4096 0
4096 4097 0
-4096 -4097 0
4097 4098 0
-4097 -4098 0
4098 4099 0
-4098 -4099 0
346 4100 0
-346 -4100 0
4100 4101 0
-4100 -4101 0
4101 4102 0
-4101 -4102 0
4102 4103 0
-4102 -4103 0
4099 4103 -4104 0
4099 -4103 4104 0
-4099 4103 4104 0
-4099 -4103 4104 0
4104 4105 0
-4104 -4105 0
4105 4106 0
-4105 -4106 0
4094 4106 -4107 0
4094 -4106 4107 0
-4094 4106 4107 0
-4094 -4106 4107 0
4107 4108 0
-4107 -4108 0
4108 4109 0
-4108 -4109 0
4109 4110 0
-4109 -4110 0
4110 4111 0
-4110 -4111 0
3767 4112 0
-3767 -4112 0
4112 4113 0
-4112 -4113 0
346 4114 0
-346 -4114 0
4114 4115 0
-4114 -4115 0
4115 4116 0
-4115 -4116 0
4116 4117 0
-4116 -4117 0
4117 4118 0
-4117 -4118 0
346 4119 0
-346 -4119 0
4119 4120 0
-4119 -4120 0
4120 4121 0
-4120 -4121 0
4121 4122 0
-4121 -4122 0
4118 4122 -4123 0
4118 -4122 4123 0
-4118 4122 4123 0
-4118 -4122 4123 0
4123 4124 0
-4123 -4124 0
4124 4125 0
-4124 -4125 0
4113 4125 -4126 0
4113 -4125 4126 0
-4113 4125 4126 0
-4113 -4125 4126 0
4126 4127 0
-4126 -4127 0
4127 4128 0
-4127 -4128 0
4128 4129 0
-4128 -4129 0
4129 4130 0
-4129 -4130 0
4111 4130 -4131 0
4111 -4130 4131 0
-4111 4130 4131 0
-4111 -4130 -4131 0
3673 4132 0
-3673 -4132 0
4132 4133 0
-4132 -4133 0
349 4134 0
-349 -4134 0
4134 4135 0
-4134 -4135 0
4100 4135 4136 0
4100 -4135 -4136 0
-4100 4135 -4136 0
-4100 -4135 -4136 0
4135 4137 0
-4135 -4137 0
349 4138 0
-349 -4138 0
4096 4138 4139 0
4096 -4138 -4139 0
-4096 4138 -4139 0
-4096 -4138 -4139 0
4136 4137 4139 -4140 0
4136 4137 -4139 4140 0
4136 -4137 4139 4140 0
4136 -4137 -4139 4140 0
-4136 4137 4139 4140 0
-4136 4137 -4139 4140 0
-4136 -4137 4139 4140 0
-4136 -4137 -4139 4140 0
4140 4141 0
-4140 -4141 0
4141 4142 0
-4141 -4142 0
4133 4142 -4143 0
4133 -4142 4143 0
-4133 4142 4143 0
-4133 -4142 4143 0
4143 4144 0
-4143 -4144 0
4144 4145 0
-4144 -4145 0
4145 4146 0
-4145 -4146 0
4146 4147 0
-4146 -4147 0
3765 4148 0
-3765 -4148 0
4148 4149 0
-4148 -4149 0
349 4150 0
-349 -4150 0
4150 4151 0
-4150 -4151 0
4119 4151 4152 0
4119 -4151 -4152 0
-4119 4151 -4152 0
-4119 -4151 -4152 0
4151 4153 0
-4151 -4153 0
349 4154 0
-349 -4154 0
4115 4154 4155 0
4115 -4154 -4155 0
-4115 4154 -4155 0
-4115 -4154 -4155 0
4152 4153 4155 -4156 0
4152 4153 -4155 4156 0
4152 -4153 4155 4156 0
4152 -4153 -4155 4156 0
-4152 4153 4155 4156 0
-4152 4153 -4155 4156 0
-4152 -4153 4155 4156 0
-4152 -4153 -4155 4156 0
4156 4157 0
-4156 -4157 0
4157 4158 0
-4157 -4158 0
4149 4158 -4159 0
4149 -4158 4159 0
-4149 4158 4159 0
-4149 -4158 4159 0
4159 4160 0
-4159 -4160 0
4160 4161 0
-4160 -4161 0
4161 4162 0
-4161 -4162 0
4162 4163 0
-4162 -4163 0
4147 4163 -4164 0
4147 -4163 4164 0
-4147 4163 4164 0
-4147 -4163 -4164 0
3687 4165 0
-3687 -4165 0
4165 4166 0
-4165 -4166 0
357 4167 0
-357 -4167 0
4096 4135 4168 0
4096 -4135 -4168 0
-4096 4135 -4168 0
-4096 -4135 -4168 0
4168 4169 0
-4168 -4169 0
4167 4169 4170 0
4167 -4169 -4170 0
-4167 4169 -4170 0
-4167 -4169 -4170 0
357 4171 0
-357 -4171 0
4171 4172 0
-4171 -4172 0
4172 4168 4173 0
4172 -4168 -4173 0
-4172 4168 -4173 0
-4172 -4168 -4173 0
4170 4173 -4174 0
4170 -4173 4174 0
-4170 4173 4174 0
-4170 -4173 4174 0
4174 4175 0
-4174 -4175 0
4175 4176 0
-4175 -4176 0
4166 4176 -4177 0
4166 -4176 4177 0
-4166 4176 4177 0
-4166 -4176 4177 0
4177 4178 0
-4177 -4178 0
4178 4179 0
-4178 -4179 0
4179 4180 0
-4179 -4180 0
4180 4181 0
-4180 -4181 0
3779 4182 0
-3779 -4182 0
4182 4183 0
-4182 -4183 0
357 4184 0
-357 -4184 0
4115 4151 4185 0
4115 -4151 -4185 0
-4115 4151 -4185 0
-4115 -4151 -4185 0
4185 4186 0
-4185 -4186 0
4184 4186 4187 0
4184 -4186 -4187 0
-4184 4186 -4187 0
-4184 -4186 -4187 0
357 4188 0
-357 -4188 0
4188 4189 0
-4188 -4189 0
4189 4185 4190 0
4189 -4185 -4190 0
-4189 4185 -4190 0
-4189 -4185 -4190 0
4187 4190 -4191 0
4187 -4190 4191 0
-4187 4190 4191 0
-4187 -4190 4191 0
4191 4192 0
-4191 -4192 0
4192 4193 0
-4192 -4193 0
4183 4193 -4194 0
4183 -4193 4194 0
-4183 4193 4194 0
-4183 -4193 4194 0
4194 4195 0
-4194 -4195 0
4195 4196 0
-4195 -4196 0
4196 4197 0
-4196 -4197 0
4197 4198 0
-4197 -4198 0
4181 4198 -4199 0
4181 -4198 4199 0
-4181 4198 4199 0
-4181 -4198 -4199 0
3690 4200 0
-3690 -4200 0
4200 4201 0
-4200 -4201 0
333 4202 0
-333 -4202 0
4202 4203 0
-4202 -4203 0
4203 4204 0
-4203 -4204 0
4204 4205 0
-4204 -4205 0
333 4206 0
-333 -4206 0
4206 4207 0
-4206 -4207 0
4207 4208 0
-4207 -4208 0
4208 4209 0
-4208 -4209 0
4209 4210 0
-4209 -4210 0
4205 4210 -4211 0
4205 -4210 4211 0
-4205 4210 4211 0
-4205 -4210 4211 0
4211 4212 0
-4211 -4212 0
4212 4213 0
-4212 -4213 0
4201 4213 -4214 0
4201 -4213 4214 0
-4201 4213 4214 0
-4201 -4213 4214 0
4214 4215 0
-4214 -4215 0
4215 4216 0
-4215 -4216 0
4216 4217 0
-4216 -4217 0
4217 4218 0
-4217 -4218 0
3782 4219 0
-3782 -4219 0
4219 4220 0
-4219 -4220 0
333 4221 0
-333 -4221 0
4221 4222 0
-4221 -4222 0
4222 4223 0
-4222 -4223 0
4223 4224 0
-4223 -4224 0
333 4225 0
-333 -4225 0
4225 4226 0
-4225 -4226 0
4226 4227 0
-4226 -4227 0
4227 4228 0
-4227 -4228 0
4228 4229 0
-4228 -4229 0
4224 4229 -4230 0
4224 -4229 4230 0
-4224 4229 4230 0
-4224 -4229 4230 0
4230 4231 0
-4230 -4231 0
4231 4232 0
-4231 -4232 0
4220 4232 -4233 0
4220 -4232 4233 0
-4220 4232 4233 0
-4220 -4232 4233 0
4233 4234 0
-4233 -4234 0
4234 4235 0
-4234 -4235 0
4235 4236 0
-4235 -4236 0
4236 4237 0
-4236 -4237 0
4218 4237 -4238 0
4218 -4237 4238 0
-4218 4237 4238 0
-4218 -4237 -4238 0
3694 4239 0
-3694 -4239 0
4239 4240 0
-4239 -4240 0
337 4241 0
-337 -4241 0
4241 4242 0
-4241 -4242 0
4242 4202 4243 0
4242 -4202 -4243 0
-4242 4202 -4243 0
-4242 -4202 -4243 0
4242 4244 0
-4242 -4244 0
337 4245 0
-337 -4245 0
4245 4207 4246 0
4245 -4207 -4246 0
-4245 4207 -4246 0
-4245 -4207 -4246 0
4243 4244 4246 -4247 0
4243 4244 -4246 4247 0
4243 -4244 4246 4247 0
4243 -4244 -4246 4247 0
-4243 4244 4246 4247 0
-4243 4244 -4246 4247 0
-4243 -4244 4246 4247 0
-4243 -4244 -4246 4247 0
4247 4248 0
-4247 -4248 0
4248 4249 0
-4248 -4249 0
4240 4249 -4250 0
4240 -4249 4250 0
-4240 4249 4250 0
-4240 -4249 4250 0
4250 4251 0
-4250 -4251 0
4251 4252 0
-4251 -4252 0
4252 4253 0
-4252 -4253 0
4253 4254 0
-4253 -4254 0
3786 4255 0
-3786 -4255 0
4255 4256 0
-4255 -4256 0
337 4257 0
-337 -4257 0
4257 4258 0
-4257 -4258 0
4258 4221 4259 0
4258 -4221 -4259 0
-4258 4221 -4259 0
-4258 -4221 -4259 0
4258 4260 0
-4258 -4260 0
337 4261 0
-337 -4261 0
4261 4226 4262 0
4261 -4226 -4262 0
-4261 4226 -4262 0
-4261 -4226 -4262 0
4259 4260 4262 -4263 0
4259 4260 -4262 4263 0
4259 -4260 4262 4263 0
4259 -4260 -4262 4263 0
-4259 4260 4262 4263 0
-4259 4260 -4262 4263 0
-4259 -4260 4262 4263 0
-4259 -4260 -4262 4263 0
4263 4264 0
-4263 -4264 0
4264 4265 0
-4264 -4265 0
4256 4265 -4266 0
4256 -4265 4266 0
-4256 4265 4266 0
-4256 -4265 4266 0
4266 4267 0
-4266 -4267 0
4267 4268 0
-4267 -4268 0
4268 4269 0
-4268 -4269 0
4269 4270 0
-4269 -4270 0
4254 4270 -4271 0
4254 -4270 4271 0
-4254 4270 4271 0
-4254 -4270 -4271 0
3657 4272 0
-3657 -4272 0
4272 4273 0
-4272 -4273 0
4242 4207 4274 0
4242 -4207 -4274 0
-4242 4207 -4274 0
-4242 -4207 -4274 0
335 4275 0
-335 -4275 0
4275 4276 0
-4275 -4276 0
4274 4276 4277 0
4274 -4276 -4277 0
-4274 4276 -4277 0
-4274 -4276 -4277 0
335 4278 0
-335 -4278 0
4274 4279 0
-4274 -4279 0
4278 4279 4280 0
4278 -4279 -4280 0
-4278 4279 -4280 0
-4278 -4279 -4280 0
4277 4280 -4281 0
4277 -4280 4281 0
-4277 4280 4281 0
-4277 -4280 4281 0
4281 4282 0
-4281 -4282 0
4282 4283 0
-4282 -4283 0
4273 4283 -4284 0
4273 -4283 4284 0
-4273 4283 4284 0
-4273 -4283 4284 0
4284 4285 0
-4284 -4285 0
4285 4286 0
-4285 -4286 0
4286 4287 0
-4286 -4287 0
4287 4288 0
-4287 -4288 0
3749 4289 0
-3749 -4289 0
4289 4290 0
-4289 -4290 0
4258 4226 4291 0
4258 -4226 -4291 0
-4258 4226 -4291 0
-4258 -4226 -4291 0
335 4292 0
-335 -4292 0
4292 4293 0
-4292 -4293 0
4291 4293 4294 0
4291 -4293 -4294 0
-4291 4293 -4294 0
-4291 -4293 -4294 0
335 4295 0
-335 -4295 0
4291 4296 0
-4291 -4296 0
4295 4296 4297 0
4295 -4296 -4297 0
-4295 4296 -4297 0
-4295 -4296 -4297 0
4294 4297 -4298 0
4294 -4297 4298 0
-4294 4297 4298 0
-4294 -4297 4298 0
4298 4299 0
-4298 -4299 0
4299 4300 0
-4299 -4300 0
4290 4300 -4301 0
4290 -4300 4301 0
-4290 4300 4301 0
-4290 -4300 4301 0
4301 4302 0
-4301 -4302 0
4302 4303 0
-4302 -4303 0
4303 4304 0
-4303 -4304 0
4304 4305 0
-4304 -4305 0
4288 4305 -4306 0
4288 -4305 4306 0
-4288 4305 4306 0
-4288 -4305 -4306 0
3660 4307 0
-3660 -4307 0
4307 4308 0
-4307 -4308 0
339 4309 0
-339 -4309 0
4276 4279 4309 4310 0
4276 4279 -4309 -4310 0
4276 -4279 4309 -4310 0
4276 -4279 -4309 -4310 0
-4276 4279 4309 -4310 0
-4276 4279 -4309 -4310 0
-4276 -4279 4309 -4310 0
-4276 -4279 -4309 -4310 0
339 4311 0
-339 -4311 0
4311 4312 0
-4311 -4312 0
4278 4312 4313 0
4278 -4312 -4313 0
-4278 4312 -4313 0
-4278 -4312 -4313 0
4274 4312 4314 0
4274 -4312 -4314 0
-4274 4312 -4314 0
-4274 -4312 -4314 0
4310 4313 4314 -4315 0
4310 4313 -4314 4315 0
4310 -4313 4314 4315 0
4310 -4313 -4314 4315 0
-4310 4313 4314 4315 0
-4310 4313 -4314 4315 0
-4310 -4313 4314 4315 0
-4310 -4313 -4314 4315 0
4315 4316 0
-4315 -4316 0
4316 4317 0
-4316 -4317 0
4308 4317 -4318 0
4308 -4317 4318 0
-4308 4317 4318 0
-4308 -4317 4318 0
4318 4319 0
-4318 -4319 0
4319 4320 0
-4319 -4320 0
4320 4321 0
-4320 -4321 0
4321 4322 0
-4321 -4322 0
3752 4323 0
-3752 -4323 0
4323 4324 0
-4323 -4324 0
339 4325 0
-339 -4325 0
4293 4296 4325 4326 0
4293 4296 -4325 -4326 0
4293 -4296 4325 -4326 0
4293 -4296 -4325 -4326 0
-4293 4296 4325 -4326 0
-4293 4296 -4325 -4326 0
-4293 -4296 4325 -4326 0
-4293 -4296 -4325 -4326 0
339 4327 0
-339 -4327 0
4327 4328 0
-4327 -4328 0
4295 4328 4329 0
4295 -4328 -4329 0
-4295 4328 -4329 0
-4295 -4328 -4329 0
4291 4328 4330 0
4291 -4328 -4330 0
-4291 4328 -4330 0
-4291 -4328 -4330 0
4326 4329 4330 -4331 0
4326 4329 -4330 4331 0
4326 -4329 4330 4331 0
4326 -4329 -4330 4331 0
-4326 4329 4330 4331 0
-4326 4329 -4330 4331 0
-4326 -4329 4330 4331 0
-4326 -4329 -4330 4331 0
4331 4332 0
-4331 -4332 0
4332 4333 0
-4332 -4333 0
4324 4333 -4334 0
4324 -4333 4334 0
-4324 4333 4334 0
-4324 -4333 4334 0
4334 4335 0
-4334 -4335 0
4335 4336 0
-4335 -4336 0
4336 4337 0
-4336 -4337 0
4337 4338 0
-4337 -4338 0
4322 4338 -4339 0
4322 -4338 4339 0
-4322 4338 4339 0
-4322 -4338 -4339 0
3664 4340 0
-3664 -4340 0
4340 4341 0
-4340 -4341 0
334 4342 0
-334 -4342 0
4312 4279 4276 4343 0
4312 4279 -4276 -4343 0
4312 -4279 4276 -4343 0
4312 -4279 -4276 -4343 0
-4312 4279 4276 -4343 0
-4312 4279 -4276 -4343 0
-4312 -4279 4276 -4343 0
-4312 -4279 -4276 -4343 0
4343 4344 0
-4343 -4344 0
4342 4344 4345 0
4342 -4344 -4345 0
-4342 4344 -4345 0
-4342 -4344 -4345 0
334 4346 0
-334 -4346 0
4346 4347 0
-4346 -4347 0
4347 4343 4348 0
4347 -4343 -4348 0
-4347 4343 -4348 0
-4347 -4343 -4348 0
4345 4348 -4349 0
4345 -4348 4349 0
-4345 4348 4349 0
-4345 -4348 4349 0
4349 4350 0
-4349 -4350 0
4350 4351 0
-4350 -4351 0
4341 4351 -4352 0
4341 -4351 4352 0
-4341 4351 4352 0
-4341 -4351 4352 0
4352 4353 0
-4352 -4353 0
4353 4354 0
-4353 -4354 0
4354 4355 0
-4354 -4355 0
4355 4356 0
-4355 -4356 0
3756 4357 0
-3756 -4357 0
4357 4358 0
-4357 -4358 0
334 4359 0
-334 -4359 0
4328 4296 4293 4360 0
4328 4296 -4293 -4360 0
4328 -4296 4293 -4360 0
4328 -4296 -4293 -4360 0
-4328 4296 4293 -4360 0
-4328 4296 -4293 -4360 0
-4328 -4296 4293 -4360 0
-4328 -4296 -4293 -4360 0
4360 4361 0
-4360 -4361 0
4359 4361 4362 0
4359 -4361 -4362 0
-4359 4361 -4362 0
-4359 -4361 -4362 0
334 4363 0
-334 -4363 0
4363 4364 0
-4363 -4364 0
4364 4360 4365 0
4364 -4360 -4365 0
-4364 4360 -4365 0
-4364 -4360 -4365 0
4362 4365 -4366 0
4362 -4365 4366 0
-4362 4365 4366 0
-4362 -4365 4366 0
4366 4367 0
-4366 -4367 0
4367 4368 0
-4367 -4368 0
4358 4368 -4369 0
4358 -4368 4369 0
-4358 4368 4369 0
-4358 -4368 4369 0
4369 4370 0
-4369 -4370 0
4370 4371 0
-4370 -4371 0
4371 4372 0
-4371 -4372 0
4372 4373 0
-4372 -4373 0
4356 4373 -4374 0
4356 -4373 4374 0
-4356 4373 4374 0
-4356 -4373 -4374 0
1885 1884 4375 0
1885 -1884 -4375 0
-1885 1884 -4375 0
-1885 -1884 -4375 0
648 4375 4376 0
648 -4375 -4376 0
-648 4375 -4376 0
-648 -4375 -4376 0
4376 4377 0
-4376 -4377 0
4377 4378 0
-4377 -4378 0
4378 4379 0
-4378 -4379 0
4379 4380 0
-4379 -4380 0
4380 4381 0
-4380 -4381 0
4381 4382 0
-4381 -4382 0
1905 1904 4383 0
1905 -1904 -4383 0
-1905 1904 -4383 0
-1905 -1904 -4383 0
720 4383 4384 0
720 -4383 -4384 0
-720 4383 -4384 0
-720 -4383 -4384 0
4384 4385 0
-4384 -4385 0
4385 4386 0
-4385 -4386 0
4386 4387 0
-4386 -4387 0
4387 4388 0
-4387 -4388 0
4388 4389 0
-4388 -4389 0
4389 4390 0
-4389 -4390 0
4382 4390 -4391 0
4382 -4390 4391 0
-4382 4390 4391 0
-4382 -4390 -4391 0
378 4392 0
-378 -4392 0
4392 4393 0
-4392 -4393 0
4393 4394 0
-4393 -4394 0
4394 4395 0
-4394 -4395 0
4395 4396 0
-4395 -4396 0
4396 4397 0
-4396 -4397 0
4397 4398 0
-4397 -4398 0
4398 4399 0
-4398 -4399 0
4399 4400 0
-4399 -4400 0
378 4401 0
-378 -4401 0
4401 4402 0
-4401 -4402 0
4402 4403 0
-4402 -4403 0
4403 4404 0
-4403 -4404 0
4404 4405 0
-4404 -4405 0
4405 4406 0
-4405 -4406 0
4406 4407 0
-4406 -4407 0
4407 4408 0
-4407 -4408 0
4408 4409 0
-4408 -4409 0
4400 4409 -4410 0
4400 -4409 4410 0
-4400 4409 4410 0
-4400 -4409 -4410 0
1683 4411 0
-1683 -4411 0
676 4412 0
-676 -4412 0
4411 4412 4413 0
4411 -4412 -4413 0
-4411 4412 -4413 0
-4411 -4412 -4413 0
1684 4414 0
-1684 -4414 0
682 4415 0
-682 -4415 0
4414 4415 4416 0
4414 -4415 -4416 0
-4414 4415 -4416 0
-4414 -4415 -4416 0
355 4417 0
-355 -4417 0
4417 4418 0
-4417 -4418 0
4418 4419 0
-4418 -4419 0
1795 1789 4419 4420 0
1795 1789 -4419 -4420 0
1795 -1789 4419 -4420 0
1795 -1789 -4419 -4420 0
-1795 1789 4419 -4420 0
-1795 1789 -4419 -4420 0
-1795 -1789 4419 -4420 0
-1795 -1789 -4419 -4420 0
355 4421 0
-355 -4421 0
4421 4422 0
-4421 -4422 0
1790 4422 4423 0
1790 -4422 -4423 0
-1790 4422 -4423 0
-1790 -4422 -4423 0
4422 1794 4424 0
4422 -1794 -4424 0
-4422 1794 -4424 0
-4422 -1794 -4424 0
4420 4423 4424 -4425 0
4420 4423 -4424 4425 0
4420 -4423 4424 4425 0
4420 -4423 -4424 4425 0
-4420 4423 4424 4425 0
-4420 4423 -4424 4425 0
-4420 -4423 4424 4425 0
-4420 -4423 -4424 4425 0
4425 4426 0
-4425 -4426 0
4426 4427 0
-4426 -4427 0
4413 4416 4427 -4428 0
4413 4416 -4427 4428 0
4413 -4416 4427 4428 0
4413 -4416 -4427 4428 0
-4413 4416 4427 4428 0
-4413 4416 -4427 4428 0
-4413 -4416 4427 4428 0
-4413 -4416 -4427 4428 0
4428 4429 0
-4428 -4429 0
4429 4430 0
-4429 -4430 0
4430 4431 0
-4430 -4431 0
4431 4432 0
-4431 -4432 0
1710 4433 0
-1710 -4433 0
748 4434 0
-748 -4434 0
4433 4434 4435 0
4433 -4434 -4435 0
-4433 4434 -4435 0
-4433 -4434 -4435 0
1711 4436 0
-1711 -4436 0
754 4437 0
-754 -4437 0
4436 4437 4438 0
4436 -4437 -4438 0
-4436 4437 -4438 0
-4436 -4437 -4438 0
355 4439 0
-355 -4439 0
4439 4440 0
-4439 -4440 0
4440 4441 0
-4440 -4441 0
1815 1809 4441 4442 0
1815 1809 -4441 -4442 0
1815 -1809 4441 -4442 0
1815 -1809 -4441 -4442 0
-1815 1809 4441 -4442 0
-1815 1809 -4441 -4442 0
-1815 -1809 4441 -4442 0
-1815 -1809 -4441 -4442 0
355 4443 0
-355 -4443 0
4443 4444 0
-4443 -4444 0
1810 4444 4445 0
1810 -4444 -4445 0
-1810 4444 -4445 0
-1810 -4444 -4445 0
4444 1814 4446 0
4444 -1814 -4446 0
-4444 1814 -4446 0
-4444 -1814 -4446 0
4442 4445 4446 -4447 0
4442 4445 -4446 4447 0
4442 -4445 4446 4447 0
4442 -4445 -4446 4447 0
-4442 4445 4446 4447 0
-4442 4445 -4446 4447 0
-4442 -4445 4446 4447 0
-4442 -4445 -4446 4447 0
4447 4448 0
-4447 -4448 0
4448 4449 0
-4448 -4449 0
4435 4438 4449 -4450 0
4435 4438 -4449 4450 0
4435 -4438 4449 4450 0
4435 -4438 -4449 4450 0
-4435 4438 4449 4450 0
-4435 4438 -4449 4450 0
-4435 -4438 4449 4450 0
-4435 -4438 -4449 4450 0
4450 4451 0
-4450 -4451 0
4451 4452 0
-4451 -4452 0
4452 4453 0
-4452 -4453 0
4453 4454 0
-4453 -4454 0
4432 4454 -4455 0
4432 -4454 4455 0
-4432 4454 4455 0
-4432 -4454 -4455 0
1738 4456 0
-1738 -4456 0
4456 4412 4457 0
4456 -4412 -4457 0
-4456 4412 -4457 0
-4456 -4412 -4457 0
1734 4458 0
-1734 -4458 0
4415 4458 4459 0
4415 -4458 -4459 0
-4415 4458 -4459 0
-4415 -4458 -4459 0
379 4460 0
-379 -4460 0
4460 4461 0
-4460 -4461 0
4461 4462 0
-4461 -4462 0
4422 1789 1795 4463 0
4422 1789 -1795 -4463 0
4422 -1789 1795 -4463 0
4422 -1789 -1795 -4463 0
-4422 1789 1795 -4463 0
-4422 1789 -1795 -4463 0
-4422 -1789 1795 -4463 0
-4422 -1789 -1795 -4463 0
4463 4464 0
-4463 -4464 0
4462 4464 4465 0
4462 -4464 -4465 0
-4462 4464 -4465 0
-4462 -4464 -4465 0
379 4466 0
-379 -4466 0
4466 4467 0
-4466 -4467 0
4463 4467 4468 0
4463 -4467 -4468 0
-4463 4467 -4468 0
-4463 -4467 -4468 0
4465 4468 -4469 0
4465 -4468 4469 0
-4465 4468 4469 0
-4465 -4468 4469 0
4469 4470 0
-4469 -4470 0
4470 4471 0
-4470 -4471 0
4457 4459 4471 -4472 0
4457 4459 -4471 4472 0
4457 -4459 4471 4472 0
4457 -4459 -4471 4472 0
-4457 4459 4471 4472 0
-4457 4459 -4471 4472 0
-4457 -4459 4471 4472 0
-4457 -4459 -4471 4472 0
4472 4473 0
-4472 -4473 0
4473 4474 0
-4473 -4474 0
4474 4475 0
-4474 -4475 0
4475 4476 0
-4475 -4476 0
1763 4477 0
-1763 -4477 0
4477 4434 4478 0
4477 -4434 -4478 0
-4477 4434 -4478 0
-4477 -4434 -4478 0
1759 4479 0
-1759 -4479 0
4437 4479 4480 0
4437 -4479 -4480 0
-4437 4479 -4480 0
-4437 -4479 -4480 0
379 4481 0
-379 -4481 0
4481 4482 0
-4481 -4482 0
4482 4483 0
-4482 -4483 0
4444 1809 1815 4484 0
4444 1809 -1815 -4484 0
4444 -1809 1815 -4484 0
4444 -1809 -1815 -4484 0
-4444 1809 1815 -4484 0
-4444 1809 -1815 -4484 0
-4444 -1809 1815 -4484 0
-4444 -1809 -1815 -4484 0
4484 4485 0
-4484 -4485 0
4483 4485 4486 0
4483 -4485 -4486 0
-4483 4485 -4486 0
-4483 -4485 -4486 0
379 4487 0
-379 -4487 0
4487 4488 0
-4487 -4488 0
4484 4488 4489 0
4484 -4488 -4489 0
-4484 4488 -4489 0
-4484 -4488 -4489 0
4486 4489 -4490 0
4486 -4489 4490 0
-4486 4489 4490 0
-4486 -4489 4490 0
4490 4491 0
-4490 -4491 0
4491 4492 0
-4491 -4492 0
4478 4480 4492 -4493 0
4478 4480 -4492 4493 0
4478 -4480 4492 4493 0
4478 -4480 -4492 4493 0
-4478 4480 4492 4493 0
-4478 4480 -4492 4493 0
-4478 -4480 4492 4493 0
-4478 -4480 -4492 4493 0
4493 4494 0
-4493 -4494 0
4494 4495 0
-4494 -4495 0
4495 4496 0
-4495 -4496 0
4496 4497 0
-4496 -4497 0
4476 4497 -4498 0
4476 -4497 4498 0
-4476 4497 4498 0
-4476 -4497 -4498 0
699 705 702 4499 0
699 705 -702 -4499 0
699 -705 702 -4499 0
699 -705 -702 -4499 0
-699 705 702 -4499 0
-699 705 -702 -4499 0
-699 -705 702 -4499 0
-699 -705 -702 -4499 0
4499 4500 0
-4499 -4500 0
4500 4415 4501 0
4500 -4415 -4501 0
-4500 4415 -4501 0
-4500 -4415 -4501 0
703 645 4502 0
703 -645 -4502 0
-703 645 -4502 0
-703 -645 -4502 0
4502 4503 0
-4502 -4503 0
4503 665 1680 4504 0
4503 665 -1680 -4504 0
4503 -665 1680 -4504 0
4503 -665 -1680 -4504 0
-4503 665 1680 -4504 0
-4503 665 -1680 -4504 0
-4503 -665 1680 -4504 0
-4503 -665 -1680 -4504 0
4504 4505 0
-4504 -4505 0
4505 4412 4506 0
4505 -4412 -4506 0
-4505 4412 -4506 0
-4505 -4412 -4506 0
4501 4506 4507 0
4501 -4506 -4507 0
-4501 4506 -4507 0
-4501 -4506 -4507 0
4507 4508 0
-4507 -4508 0
313 4509 0
-313 -4509 0
4509 4510 0
-4509 -4510 0
402 4511 0
-402 -4511 0
398 4512 0
-398 -4512 0
4512 4513 0
-4512 -4513 0
1943 4514 0
-1943 -4514 0
397 4515 0
-397 -4515 0
4515 4516 0
-4515 -4516 0
4513 4514 4516 4517 0
4513 4514 -4516 -4517 0
4513 -4514 4516 -4517 0
4513 -4514 -4516 -4517 0
-4513 4514 4516 -4517 0
-4513 4514 -4516 -4517 0
-4513 -4514 4516 -4517 0
-4513 -4514 -4516 -4517 0
4517 4518 0
-4517 -4518 0
4510 4511 4518 4519 0
4510 4511 -4518 -4519 0
4510 -4511 4518 -4519 0
4510 -4511 -4518 -4519 0
-4510 4511 4518 -4519 0
-4510 4511 -4518 -4519 0
-4510 -4511 4518 -4519 0
-4510 -4511 -4518 -4519 0
402 4520 0
-402 -4520 0
4520 4521 0
-4520 -4521 0
313 4522 0
-313 -4522 0
4521 4522 4523 0
4521 -4522 -4523 0
-4521 4522 -4523 0
-4521 -4522 -4523 0
4517 4521 4524 0
4517 -4521 -4524 0
-4517 4521 -4524 0
-4517 -4521 -4524 0
4519 4523 4524 -4525 0
4519 4523 -4524 4525 0
4519 -4523 4524 4525 0
4519 -4523 -4524 4525 0
-4519 4523 4524 4525 0
-4519 4523 -4524 4525 0
-4519 -4523 4524 4525 0
-4519 -4523 -4524 4525 0
4525 4526 0
-4525 -4526 0
4508 4526 4527 0
4508 -4526 -4527 0
-4508 4526 -4527 0
-4508 -4526 -4527 0
298 4528 0
-298 -4528 0
4528 4529 0
-4528 -4529 0
4529 4530 0
-4529 -4530 0
4530 4507 4531 0
4530 -4507 -4531 0
-4530 4507 -4531 0
-4530 -4507 -4531 0
4527 4531 -4532 0
4527 -4531 4532 0
-4527 4531 4532 0
-4527 -4531 4532 0
4532 4533 0
-4532 -4533 0
4533 4534 0
-4533 -4534 0
771 777 774 4535 0
771 777 -774 -4535 0
771 -777 774 -4535 0
771 -777 -774 -4535 0
-771 777 774 -4535 0
-771 777 -774 -4535 0
-771 -777 774 -4535 0
-771 -777 -774 -4535 0
4535 4536 0
-4535 -4536 0
4536 4437 4537 0
4536 -4437 -4537 0
-4536 4437 -4537 0
-4536 -4437 -4537 0
775 717 4538 0
775 -717 -4538 0
-775 717 -4538 0
-775 -717 -4538 0
4538 4539 0
-4538 -4539 0
4539 737 1707 4540 0
4539 737 -1707 -4540 0
4539 -737 1707 -4540 0
4539 -737 -1707 -4540 0
-4539 737 1707 -4540 0
-4539 737 -1707 -4540 0
-4539 -737 1707 -4540 0
-4539 -737 -1707 -4540 0
4540 4541 0
-4540 -4541 0
4541 4434 4542 0
4541 -4434 -4542 0
-4541 4434 -4542 0
-4541 -4434 -4542 0
4537 4542 4543 0
4537 -4542 -4543 0
-4537 4542 -4543 0
-4537 -4542 -4543 0
4543 4544 0
-4543 -4544 0
313 4545 0
-313 -4545 0
4545 4546 0
-4545 -4546 0
402 4547 0
-402 -4547 0
398 4548 0
-398 -4548 0
4548 4549 0
-4548 -4549 0
1997 4550 0
-1997 -4550 0
397 4551 0
-397 -4551 0
4551 4552 0
-4551 -4552 0
4549 4550 4552 4553 0
4549 4550 -4552 -4553 0
4549 -4550 4552 -4553 0
4549 -4550 -4552 -4553 0
-4549 4550 4552 -4553 0
-4549 4550 -4552 -4553 0
-4549 -4550 4552 -4553 0
-4549 -4550 -4552 -4553 0
4553 4554 0
-4553 -4554 0
4546 4547 4554 4555 0
4546 4547 -4554 -4555 0
4546 -4547 4554 -4555 0
4546 -4547 -4554 -4555 0
-4546 4547 4554 -4555 0
-4546 4547 -4554 -4555 0
-4546 -4547 4554 -4555 0
-4546 -4547 -4554 -4555 0
402 4556 0
-402 -4556 0
4556 4557 0
-4556 -4557 0
313 4558 0
-313 -4558 0
4557 4558 4559 0
4557 -4558 -4559 0
-4557 4558 -4559 0
-4557 -4558 -4559 0
4553 4557 4560 0
4553 -4557 -4560 0
-4553 4557 -4560 0
-4553 -4557 -4560 0
4555 4559 4560 -4561 0
4555 4559 -4560 4561 0
4555 -4559 4560 4561 0
4555 -4559 -4560 4561 0
-4555 4559 4560 4561 0
-4555 4559 -4560 4561 0
-4555 -4559 4560 4561 0
-4555 -4559 -4560 4561 0
4561 4562 0
-4561 -4562 0
4544 4562 4563 0
4544 -4562 -4563 0
-4544 4562 -4563 0
-4544 -4562 -4563 0
298 4564 0
-298 -4564 0
4564 4565 0
-4564 -4565 0
4565 4566 0
-4565 -4566 0
4566 4543 4567 0
4566 -4543 -4567 0
-4566 4543 -4567 0
-4566 -4543 -4567 0
4563 4567 -4568 0
4563 -4567 4568 0
-4563 4567 4568 0
-4563 -4567 4568 0
4568 4569 0
-4568 -4569 0
4569 4570 0
-4569 -4570 0
4534 4570 -4571 0
4534 -4570 4571 0
-4534 4570 4571 0
-4534 -4570 -4571 0
4522 4518 4572 0
4522 -4518 -4572 0
-4522 4518 -4572 0
-4522 -4518 -4572 0
4510 4517 4573 0
4510 -4517 -4573 0
-4510 4517 -4573 0
-4510 -4517 -4573 0
4572 4573 -4574 0
4572 -4573 4574 0
-4572 4573 4574 0
-4572 -4573 4574 0
4574 4575 0
-4574 -4575 0
4575 4508 4576 0
4575 -4508 -4576 0
-4575 4508 -4576 0
-4575 -4508 -4576 0
297 4577 0
-297 -4577 0
4577 4578 0
-4577 -4578 0
4578 4579 0
-4578 -4579 0
4507 4579 4580 0
4507 -4579 -4580 0
-4507 4579 -4580 0
-4507 -4579 -4580 0
4576 4580 -4581 0
4576 -4580 4581 0
-4576 4580 4581 0
-4576 -4580 4581 0
4581 4582 0
-4581 -4582 0
4582 4583 0
-4582 -4583 0
4558 4554 4584 0
4558 -4554 -4584 0
-4558 4554 -4584 0
-4558 -4554 -4584 0
4546 4553 4585 0
4546 -4553 -4585 0
-4546 4553 -4585 0
-4546 -4553 -4585 0
4584 4585 -4586 0
4584 -4585 4586 0
-4584 4585 4586 0
-4584 -4585 4586 0
4586 4587 0
-4586 -4587 0
4587 4544 4588 0
4587 -4544 -4588 0
-4587 4544 -4588 0
-4587 -4544 -4588 0
297 4589 0
-297 -4589 0
4589 4590 0
-4589 -4590 0
4590 4591 0
-4590 -4591 0
4543 4591 4592 0
4543 -4591 -4592 0
-4543 4591 -4592 0
-4543 -4591 -4592 0
4588 4592 -4593 0
4588 -4592 4593 0
-4588 4592 4593 0
-4588 -4592 4593 0
4593 4594 0
-4593 -4594 0
4594 4595 0
-4594 -4595 0
4583 4595 -4596 0
4583 -4595 4596 0
-4583 4595 4596 0
-4583 -4595 -4596 0
4514 4513 4522 4597 0
4514 4513 -4522 -4597 0
4514 -4513 4522 -4597 0
4514 -4513 -4522 -4597 0
-4514 4513 4522 -4597 0
-4514 4513 -4522 -4597 0
-4514 -4513 4522 -4597 0
-4514 -4513 -4522 -4597 0
397 4598 0
-397 -4598 0
4514 4598 4599 0
4514 -4598 -4599 0
-4514 4598 -4599 0
-4514 -4598 -4599 0
4597 4599 -4600 0
4597 -4599 4600 0
-4597 4599 4600 0
-4597 -4599 4600 0
4600 4601 0
-4600 -4601 0
249 4602 0
-249 -4602 0
4601 4602 4603 0
4601 -4602 -4603 0
-4601 4602 -4603 0
-4601 -4602 -4603 0
249 4604 0
-249 -4604 0
4604 4605 0
-4604 -4605 0
4605 4600 4606 0
4605 -4600 -4606 0
-4605 4600 -4606 0
-4605 -4600 -4606 0
4603 4606 -4607 0
4603 -4606 4607 0
-4603 4606 4607 0
-4603 -4606 4607 0
4607 4608 0
-4607 -4608 0
4608 4508 4609 0
4608 -4508 -4609 0
-4608 4508 -4609 0
-4608 -4508 -4609 0
290 4610 0
-290 -4610 0
4610 4611 0
-4610 -4611 0
4611 4612 0
-4611 -4612 0
4507 4612 4613 0
4507 -4612 -4613 0
-4507 4612 -4613 0
-4507 -4612 -4613 0
4609 4613 -4614 0
4609 -4613 4614 0
-4609 4613 4614 0
-4609 -4613 4614 0
4614 4615 0
-4614 -4615 0
4615 4616 0
-4615 -4616 0
4550 4549 4558 4617 0
4550 4549 -4558 -4617 0
4550 -4549 4558 -4617 0
4550 -4549 -4558 -4617 0
-4550 4549 4558 -4617 0
-4550 4549 -4558 -4617 0
-4550 -4549 4558 -4617 0
-4550 -4549 -4558 -4617 0
397 4618 0
-397 -4618 0
4550 4618 4619 0
4550 -4618 -4619 0
-4550 4618 -4619 0
-4550 -4618 -4619 0
4617 4619 -4620 0
4617 -4619 4620 0
-4617 4619 4620 0
-4617 -4619 4620 0
4620 4621 0
-4620 -4621 0
249 4622 0
-249 -4622 0
4621 4622 4623 0
4621 -4622 -4623 0
-4621 4622 -4623 0
-4621 -4622 -4623 0
249 4624 0
-249 -4624 0
4624 4625 0
-4624 -4625 0
4625 4620 4626 0
4625 -4620 -4626 0
-4625 4620 -4626 0
-4625 -4620 -4626 0
4623 4626 -4627 0
4623 -4626 4627 0
-4623 4626 4627 0
-4623 -4626 4627 0
4627 4628 0
-4627 -4628 0
4628 4544 4629 0
4628 -4544 -4629 0
-4628 4544 -4629 0
-4628 -4544 -4629 0
290 4630 0
-290 -4630 0
4630 4631 0
-4630 -4631 0
4631 4632 0
-4631 -4632 0
4543 4632 4633 0
4543 -4632 -4633 0
-4543 4632 -4633 0
-4543 -4632 -4633 0
4629 4633 -4634 0
4629 -4633 4634 0
-4629 4633 4634 0
-4629 -4633 4634 0
4634 4635 0
-4634 -4635 0
4635 4636 0
-4635 -4636 0
4616 4636 -4637 0
4616 -4636 4637 0
-4616 4636 4637 0
-4616 -4636 -4637 0
4501 4638 0
-4501 -4638 0
285 4639 0
-285 -4639 0
4639 4640 0
-4639 -4640 0
4640 4641 0
-4640 -4641 0
4638 4641 4642 0
4638 -4641 -4642 0
-4638 4641 -4642 0
-4638 -4641 -4642 0
255 4643 0
-255 -4643 0
260 4644 0
-260 -4644 0
4644 4645 0
-4644 -4645 0
1948 4646 0
-1948 -4646 0
254 4647 0
-254 -4647 0
4647 4648 0
-4647 -4648 0
259 4649 0
-259 -4649 0
4649 4650 0
-4649 -4650 0
4646 4648 4650 4651 0
4646 4648 -4650 -4651 0
4646 -4648 4650 -4651 0
4646 -4648 -4650 -4651 0
-4646 4648 4650 -4651 0
-4646 4648 -4650 -4651 0
-4646 -4648 4650 -4651 0
-4646 -4648 -4650 -4651 0
4651 4652 0
-4651 -4652 0
4643 4645 4652 4653 0
4643 4645 -4652 -4653 0
4643 -4645 4652 -4653 0
4643 -4645 -4652 -4653 0
-4643 4645 4652 -4653 0
-4643 4645 -4652 -4653 0
-4643 -4645 4652 -4653 0
-4643 -4645 -4652 -4653 0
260 4654 0
-260 -4654 0
255 4655 0
-255 -4655 0
4655 4656 0
-4655 -4656 0
4654 4656 4657 0
4654 -4656 -4657 0
-4654 4656 -4657 0
-4654 -4656 -4657 0
4656 4651 4658 0
4656 -4651 -4658 0
-4656 4651 -4658 0
-4656 -4651 -4658 0
4653 4657 4658 -4659 0
4653 4657 -4658 4659 0
4653 -4657 4658 4659 0
4653 -4657 -4658 4659 0
-4653 4657 4658 4659 0
-4653 4657 -4658 4659 0
-4653 -4657 4658 4659 0
-4653 -4657 -4658 4659 0
4659 4660 0
-4659 -4660 0
647 1680 665 4661 0
647 1680 -665 -4661 0
647 -1680 665 -4661 0
647 -1680 -665 -4661 0
-647 1680 665 -4661 0
-647 1680 -665 -4661 0
-647 -1680 665 -4661 0
-647 -1680 -665 -4661 0
4661 4662 0
-4661 -4662 0
4412 4662 4663 0
4412 -4662 -4663 0
-4412 4662 -4663 0
-4412 -4662 -4663 0
4501 4663 4664 0
4501 -4663 -4664 0
-4501 4663 -4664 0
-4501 -4663 -4664 0
4664 4665 0
-4664 -4665 0
4660 4665 4666 0
4660 -4665 -4666 0
-4660 4665 -4666 0
-4660 -4665 -4666 0
4663 4667 0
-4663 -4667 0
294 4668 0
-294 -4668 0
4668 4669 0
-4668 -4669 0
4669 4670 0
-4669 -4670 0
4667 4670 4671 0
4667 -4670 -4671 0
-4667 4670 -4671 0
-4667 -4670 -4671 0
4642 4666 4671 -4672 0
4642 4666 -4671 4672 0
4642 -4666 4671 4672 0
4642 -4666 -4671 4672 0
-4642 4666 4671 4672 0
-4642 4666 -4671 4672 0
-4642 -4666 4671 4672 0
-4642 -4666 -4671 4672 0
4672 4673 0
-4672 -4673 0
4673 4674 0
-4673 -4674 0
4537 4675 0
-4537 -4675 0
285 4676 0
-285 -4676 0
4676 4677 0
-4676 -4677 0
4677 4678 0
-4677 -4678 0
4675 4678 4679 0
4675 -4678 -4679 0
-4675 4678 -4679 0
-4675 -4678 -4679 0
255 4680 0
-255 -4680 0
260 4681 0
-260 -4681 0
4681 4682 0
-4681 -4682 0
2002 4683 0
-2002 -4683 0
254 4684 0
-254 -4684 0
4684 4685 0
-4684 -4685 0
259 4686 0
-259 -4686 0
4686 4687 0
-4686 -4687 0
4683 4685 4687 4688 0
4683 4685 -4687 -4688 0
4683 -4685 4687 -4688 0
4683 -4685 -4687 -4688 0
-4683 4685 4687 -4688 0
-4683 4685 -4687 -4688 0
-4683 -4685 4687 -4688 0
-4683 -4685 -4687 -4688 0
4688 4689 0
-4688 -4689 0
4680 4682 4689 4690 0
4680 4682 -4689 -4690 0
4680 -4682 4689 -4690 0
4680 -4682 -4689 -4690 0
-4680 4682 4689 -4690 0
-4680 4682 -4689 -4690 0
-4680 -4682 4689 -4690 0
-4680 -4682 -4689 -4690 0
260 4691 0
-260 -4691 0
255 4692 0
-255 -4692 0
4692 4693 0
-4692 -4693 0
4691 4693 4694 0
4691 -4693 -4694 0
-4691 4693 -4694 0
-4691 -4693 -4694 0
4693 4688 4695 0
4693 -4688 -4695 0
-4693 4688 -4695 0
-4693 -4688 -4695 0
4690 4694 4695 -4696 0
4690 4694 -4695 4696 0
4690 -4694 4695 4696 0
4690 -4694 -4695 4696 0
-4690 4694 4695 4696 0
-4690 4694 -4695 4696 0
-4690 -4694 4695 4696 0
-4690 -4694 -4695 4696 0
4696 4697 0
-4696 -4697 0
719 1707 737 4698 0
719 1707 -737 -4698 0
719 -1707 737 -4698 0
719 -1707 -737 -4698 0
-719 1707 737 -4698 0
-719 1707 -737 -4698 0
-719 -1707 737 -4698 0
-719 -1707 -737 -4698 0
4698 4699 0
-4698 -4699 0
4434 4699 4700 0
4434 -4699 -4700 0
-4434 4699 -4700 0
-4434 -4699 -4700 0
4537 4700 4701 0
4537 -4700 -4701 0
-4537 4700 -4701 0
-4537 -4700 -4701 0
4701 4702 0
-4701 -4702 0
4697 4702 4703 0
4697 -4702 -4703 0
-4697 4702 -4703 0
-4697 -4702 -4703 0
4700 4704 0
-4700 -4704 0
294 4705 0
-294 -4705 0
4705 4706 0
-4705 -4706 0
4706 4707 0
-4706 -4707 0
4704 4707 4708 0
4704 -4707 -4708 0
-4704 4707 -4708 0
-4704 -4707 -4708 0
4679 4703 4708 -4709 0
4679 4703 -4708 4709 0
4679 -4703 4708 4709 0
4679 -4703 -4708 4709 0
-4679 4703 4708 4709 0
-4679 4703 -4708 4709 0
-4679 -4703 4708 4709 0
-4679 -4703 -4708 4709 0
4709 4710 0
-4709 -4710 0
4710 4711 0
-4710 -4711 0
4674 4711 -4712 0
4674 -4711 4712 0
-4674 4711 4712 0
-4674 -4711 -4712 0
284 4713 0
-284 -4713 0
4713 4714 0
-4713 -4714 0
4714 4715 0
-4714 -4715 0
4638 4715 4716 0
4638 -4715 -4716 0
-4638 4715 -4716 0
-4638 -4715 -4716 0
4652 4654 4717 0
4652 -4654 -4717 0
-4652 4654 -4717 0
-4652 -4654 -4717 0
4645 4651 4718 0
4645 -4651 -4718 0
-4645 4651 -4718 0
-4645 -4651 -4718 0
4717 4718 -4719 0
4717 -4718 4719 0
-4717 4718 4719 0
-4717 -4718 4719 0
4719 4720 0
-4719 -4720 0
4665 4720 4721 0
4665 -4720 -4721 0
-4665 4720 -4721 0
-4665 -4720 -4721 0
293 4722 0
-293 -4722 0
4722 4723 0
-4722 -4723 0
4723 4724 0
-4723 -4724 0
4724 4667 4725 0
4724 -4667 -4725 0
-4724 4667 -4725 0
-4724 -4667 -4725 0
4716 4721 4725 -4726 0
4716 4721 -4725 4726 0
4716 -4721 4725 4726 0
4716 -4721 -4725 4726 0
-4716 4721 4725 4726 0
-4716 4721 -4725 4726 0
-4716 -4721 4725 4726 0
-4716 -4721 -4725 4726 0
4726 4727 0
-4726 -4727 0
4727 4728 0
-4727 -4728 0
284 4729 0
-284 -4729 0
4729 4730 0
-4729 -4730 0
4730 4731 0
-4730 -4731 0
4675 4731 4732 0
4675 -4731 -4732 0
-4675 4731 -4732 0
-4675 -4731 -4732 0
4689 4691 4733 0
4689 -4691 -4733 0
-4689 4691 -4733 0
-4689 -4691 -4733 0
4682 4688 4734 0
4682 -4688 -4734 0
-4682 4688 -4734 0
-4682 -4688 -4734 0
4733 4734 -4735 0
4733 -4734 4735 0
-4733 4734 4735 0
-4733 -4734 4735 0
4735 4736 0
-4735 -4736 0
4702 4736 4737 0
4702 -4736 -4737 0
-4702 4736 -4737 0
-4702 -4736 -4737 0
293 4738 0
-293 -4738 0
4738 4739 0
-4738 -4739 0
4739 4740 0
-4739 -4740 0
4740 4704 4741 0
4740 -4704 -4741 0
-4740 4704 -4741 0
-4740 -4704 -4741 0
4732 4737 4741 -4742 0
4732 4737 -4741 4742 0
4732 -4737 4741 4742 0
4732 -4737 -4741 4742 0
-4732 4737 4741 4742 0
-4732 4737 -4741 4742 0
-4732 -4737 4741 4742 0
-4732 -4737 -4741 4742 0
4742 4743 0
-4742 -4743 0
4743 4744 0
-4743 -4744 0
4728 4744 -4745 0
4728 -4744 4745 0
-4728 4744 4745 0
-4728 -4744 -4745 0
281 4746 0
-281 -4746 0
4746 4747 0
-4746 -4747 0
4747 4748 0
-4747 -4748 0
4638 4748 4749 0
4638 -4748 -4749 0
-4638 4748 -4749 0
-4638 -4748 -4749 0
250 4750 0
-250 -4750 0
4750 4751 0
-4750 -4751 0
4650 4654 4646 4752 0
4650 4654 -4646 -4752 0
4650 -4654 4646 -4752 0
4650 -4654 -4646 -4752 0
-4650 4654 4646 -4752 0
-4650 4654 -4646 -4752 0
-4650 -4654 4646 -4752 0
-4650 -4654 -4646 -4752 0
254 4753 0
-254 -4753 0
4753 4646 4754 0
4753 -4646 -4754 0
-4753 4646 -4754 0
-4753 -4646 -4754 0
4752 4754 -4755 0
4752 -4754 4755 0
-4752 4754 4755 0
-4752 -4754 4755 0
4751 4755 4756 0
4751 -4755 -4756 0
-4751 4755 -4756 0
-4751 -4755 -4756 0
4755 4757 0
-4755 -4757 0
250 4758 0
-250 -4758 0
4757 4758 4759 0
4757 -4758 -4759 0
-4757 4758 -4759 0
-4757 -4758 -4759 0
4756 4759 -4760 0
4756 -4759 4760 0
-4756 4759 4760 0
-4756 -4759 4760 0
4760 4761 0
-4760 -4761 0
4665 4761 4762 0
4665 -4761 -4762 0
-4665 4761 -4762 0
-4665 -4761 -4762 0
4667 4612 4763 0
4667 -4612 -4763 0
-4667 4612 -4763 0
-4667 -4612 -4763 0
4749 4762 4763 -4764 0
4749 4762 -4763 4764 0
4749 -4762 4763 4764 0
4749 -4762 -4763 4764 0
-4749 4762 4763 4764 0
-4749 4762 -4763 4764 0
-4749 -4762 4763 4764 0
-4749 -4762 -4763 4764 0
4764 4765 0
-4764 -4765 0
4765 4766 0
-4765 -4766 0
281 4767 0
-281 -4767 0
4767 4768 0
-4767 -4768 0
4768 4769 0
-4768 -4769 0
4675 4769 4770 0
4675 -4769 -4770 0
-4675 4769 -4770 0
-4675 -4769 -4770 0
250 4771 0
-250 -4771 0
4771 4772 0
-4771 -4772 0
4687 4691 4683 4773 0
4687 4691 -4683 -4773 0
4687 -4691 4683 -4773 0
4687 -4691 -4683 -4773 0
-4687 4691 4683 -4773 0
-4687 4691 -4683 -4773 0
-4687 -4691 4683 -4773 0
-4687 -4691 -4683 -4773 0
254 4774 0
-254 -4774 0
4774 4683 4775 0
4774 -4683 -4775 0
-4774 4683 -4775 0
-4774 -4683 -4775 0
4773 4775 -4776 0
4773 -4775 4776 0
-4773 4775 4776 0
-4773 -4775 4776 0
4772 4776 4777 0
4772 -4776 -4777 0
-4772 4776 -4777 0
-4772 -4776 -4777 0
4776 4778 0
-4776 -4778 0
250 4779 0
-250 -4779 0
4778 4779 4780 0
4778 -4779 -4780 0
-4778 4779 -4780 0
-4778 -4779 -4780 0
4777 4780 -4781 0
4777 -4780 4781 0
-4777 4780 4781 0
-4777 -4780 4781 0
4781 4782 0
-4781 -4782 0
4702 4782 4783 0
4702 -4782 -4783 0
-4702 4782 -4783 0
-4702 -4782 -4783 0
4704 4632 4784 0
4704 -4632 -4784 0
-4704 4632 -4784 0
-4704 -4632 -4784 0
4770 4783 4784 -4785 0
4770 4783 -4784 4785 0
4770 -4783 4784 4785 0
4770 -4783 -4784 4785 0
-4770 4783 4784 4785 0
-4770 4783 -4784 4785 0
-4770 -4783 4784 4785 0
-4770 -4783 -4784 4785 0
4785 4786 0
-4785 -4786 0
4786 4787 0
-4786 -4787 0
4766 4787 -4788 0
4766 -4787 4788 0
-4766 4787 4788 0
-4766 -4787 -4788 0
282 4789 0
-282 -4789 0
4789 4790 0
-4789 -4790 0
4790 4791 0
-4790 -4791 0
4791 4638 4792 0
4791 -4638 -4792 0
-4791 4638 -4792 0
-4791 -4638 -4792 0
1948 4793 0
-1948 -4793 0
4793 4794 0
-4793 -4794 0
4794 4648 4795 0
4794 -4648 -4795 0
-4794 4648 -4795 0
-4794 -4648 -4795 0
4646 4753 4796 0
4646 -4753 -4796 0
-4646 4753 -4796 0
-4646 -4753 -4796 0
4795 4796 -4797 0
4795 -4796 4797 0
-4795 4796 4797 0
-4795 -4796 4797 0
4797 4798 0
-4797 -4798 0
4665 4798 4799 0
4665 -4798 -4799 0
-4665 4798 -4799 0
-4665 -4798 -4799 0
291 4800 0
-291 -4800 0
4800 4801 0
-4800 -4801 0
4801 4802 0
-4801 -4802 0
4802 4667 4803 0
4802 -4667 -4803 0
-4802 4667 -4803 0
-4802 -4667 -4803 0
4792 4799 4803 -4804 0
4792 4799 -4803 4804 0
4792 -4799 4803 4804 0
4792 -4799 -4803 4804 0
-4792 4799 4803 4804 0
-4792 4799 -4803 4804 0
-4792 -4799 4803 4804 0
-4792 -4799 -4803 4804 0
4804 4805 0
-4804 -4805 0
4805 4806 0
-4805 -4806 0
282 4807 0
-282 -4807 0
4807 4808 0
-4807 -4808 0
4808 4809 0
-4808 -4809 0
4809 4675 4810 0
4809 -4675 -4810 0
-4809 4675 -4810 0
-4809 -4675 -4810 0
2002 4811 0
-2002 -4811 0
4811 4812 0
-4811 -4812 0
4812 4685 4813 0
4812 -4685 -4813 0
-4812 4685 -4813 0
-4812 -4685 -4813 0
4683 4774 4814 0
4683 -4774 -4814 0
-4683 4774 -4814 0
-4683 -4774 -4814 0
4813 4814 -4815 0
4813 -4814 4815 0
-4813 4814 4815 0
-4813 -4814 4815 0
4815 4816 0
-4815 -4816 0
4702 4816 4817 0
4702 -4816 -4817 0
-4702 4816 -4817 0
-4702 -4816 -4817 0
291 4818 0
-291 -4818 0
4818 4819 0
-4818 -4819 0
4819 4820 0
-4819 -4820 0
4820 4704 4821 0
4820 -4704 -4821 0
-4820 4704 -4821 0
-4820 -4704 -4821 0
4810 4817 4821 -4822 0
4810 4817 -4821 4822 0
4810 -4817 4821 4822 0
4810 -4817 -4821 4822 0
-4810 4817 4821 4822 0
-4810 4817 -4821 4822 0
-4810 -4817 4821 4822 0
-4810 -4817 -4821 4822 0
4822 4823 0
-4822 -4823 0
4823 4824 0
-4823 -4824 0
4806 4824 -4825 0
4806 -4824 4825 0
-4806 4824 4825 0
-4806 -4824 -4825 0
292 4826 0
-292 -4826 0
4826 4827 0
-4826 -4827 0
4827 4828 0
-4827 -4828 0
4667 4828 4829 0
4667 -4828 -4829 0
-4667 4828 -4829 0
-4667 -4828 -4829 0
259 4830 0
-259 -4830 0
4830 4648 4646 4831 0
4830 4648 -4646 -4831 0
4830 -4648 4646 -4831 0
4830 -4648 -4646 -4831 0
-4830 4648 4646 -4831 0
-4830 4648 -4646 -4831 0
-4830 -4648 4646 -4831 0
-4830 -4648 -4646 -4831 0
4753 4650 4832 0
4753 -4650 -4832 0
-4753 4650 -4832 0
-4753 -4650 -4832 0
4650 4794 4833 0
4650 -4794 -4833 0
-4650 4794 -4833 0
-4650 -4794 -4833 0
4831 4832 4833 -4834 0
4831 4832 -4833 4834 0
4831 -4832 4833 4834 0
4831 -4832 -4833 4834 0
-4831 4832 4833 4834 0
-4831 4832 -4833 4834 0
-4831 -4832 4833 4834 0
-4831 -4832 -4833 4834 0
4834 4835 0
-4834 -4835 0
4665 4835 4836 0
4665 -4835 -4836 0
-4665 4835 -4836 0
-4665 -4835 -4836 0
283 4837 0
-283 -4837 0
4837 4838 0
-4837 -4838 0
4838 4839 0
-4838 -4839 0
4638 4839 4840 0
4638 -4839 -4840 0
-4638 4839 -4840 0
-4638 -4839 -4840 0
4829 4836 4840 -4841 0
4829 4836 -4840 4841 0
4829 -4836 4840 4841 0
4829 -4836 -4840 4841 0
-4829 4836 4840 4841 0
-4829 4836 -4840 4841 0
-4829 -4836 4840 4841 0
-4829 -4836 -4840 4841 0
4841 4842 0
-4841 -4842 0
4842 4843 0
-4842 -4843 0
292 4844 0
-292 -4844 0
4844 4845 0
-4844 -4845 0
4845 4846 0
-4845 -4846 0
4704 4846 4847 0
4704 -4846 -4847 0
-4704 4846 -4847 0
-4704 -4846 -4847 0
259 4848 0
-259 -4848 0
4848 4685 4683 4849 0
4848 4685 -4683 -4849 0
4848 -4685 4683 -4849 0
4848 -4685 -4683 -4849 0
-4848 4685 4683 -4849 0
-4848 4685 -4683 -4849 0
-4848 -4685 4683 -4849 0
-4848 -4685 -4683 -4849 0
4774 4687 4850 0
4774 -4687 -4850 0
-4774 4687 -4850 0
-4774 -4687 -4850 0
4687 4812 4851 0
4687 -4812 -4851 0
-4687 4812 -4851 0
-4687 -4812 -4851 0
4849 4850 4851 -4852 0
4849 4850 -4851 4852 0
4849 -4850 4851 4852 0
4849 -4850 -4851 4852 0
-4849 4850 4851 4852 0
-4849 4850 -4851 4852 0
-4849 -4850 4851 4852 0
-4849 -4850 -4851 4852 0
4852 4853 0
-4852 -4853 0
4702 4853 4854 0
4702 -4853 -4854 0
-4702 4853 -4854 0
-4702 -4853 -4854 0
283 4855 0
-283 -4855 0
4855 4856 0
-4855 -4856 0
4856 4857 0
-4856 -4857 0
4675 4857 4858 0
4675 -4857 -4858 0
-4675 4857 -4858 0
-4675 -4857 -4858 0
4847 4854 4858 -4859 0
4847 4854 -4858 4859 0
4847 -4854 4858 4859 0
4847 -4854 -4858 4859 0
-4847 4854 4858 4859 0
-4847 4854 -4858 4859 0
-4847 -4854 4858 4859 0
-4847 -4854 -4858 4859 0
4859 4860 0
-4859 -4860 0
4860 4861 0
-4860 -4861 0
4843 4861 -4862 0
4843 -4861 4862 0
-4843 4861 4862 0
-4843 -4861 -4862 0
1943 4863 0
-1943 -4863 0
4863 4864 0
-4863 -4864 0
4516 4864 4865 0
4516 -4864 -4865 0
-4516 4864 -4865 0
-4516 -4864 -4865 0
4598 4514 4866 0
4598 -4514 -4866 0
-4598 4514 -4866 0
-4598 -4514 -4866 0
4865 4866 -4867 0
4865 -4866 4867 0
-4865 4866 4867 0
-4865 -4866 4867 0
4867 4868 0
-4867 -4868 0
4508 4868 4869 0
4508 -4868 -4869 0
-4508 4868 -4869 0
-4508 -4868 -4869 0
295 4870 0
-295 -4870 0
4870 4871 0
-4870 -4871 0
4871 4872 0
-4871 -4872 0
4507 4872 4873 0
4507 -4872 -4873 0
-4507 4872 -4873 0
-4507 -4872 -4873 0
4869 4873 -4874 0
4869 -4873 4874 0
-4869 4873 4874 0
-4869 -4873 4874 0
4874 4875 0
-4874 -4875 0
4875 4876 0
-4875 -4876 0
1997 4877 0
-1997 -4877 0
4877 4878 0
-4877 -4878 0
4552 4878 4879 0
4552 -4878 -4879 0
-4552 4878 -4879 0
-4552 -4878 -4879 0
4618 4550 4880 0
4618 -4550 -4880 0
-4618 4550 -4880 0
-4618 -4550 -4880 0
4879 4880 -4881 0
4879 -4880 4881 0
-4879 4880 4881 0
-4879 -4880 4881 0
4881 4882 0
-4881 -4882 0
4544 4882 4883 0
4544 -4882 -4883 0
-4544 4882 -4883 0
-4544 -4882 -4883 0
295 4884 0
-295 -4884 0
4884 4885 0
-4884 -4885 0
4885 4886 0
-4885 -4886 0
4543 4886 4887 0
4543 -4886 -4887 0
-4543 4886 -4887 0
-4543 -4886 -4887 0
4883 4887 -4888 0
4883 -4887 4888 0
-4883 4887 4888 0
-4883 -4887 4888 0
4888 4889 0
-4888 -4889 0
4889 4890 0
-4889 -4890 0
4876 4890 -4891 0
4876 -4890 4891 0
-4876 4890 4891 0
-4876 -4890 -4891 0
296 4892 0
-296 -4892 0
4892 4893 0
-4892 -4893 0
4893 4894 0
-4893 -4894 0
4894 4507 4895 0
4894 -4507 -4895 0
-4894 4507 -4895 0
-4894 -4507 -4895 0
398 4896 0
-398 -4896 0
4516 4514 4896 4897 0
4516 4514 -4896 -4897 0
4516 -4514 4896 -4897 0
4516 -4514 -4896 -4897 0
-4516 4514 4896 -4897 0
-4516 4514 -4896 -4897 0
-4516 -4514 4896 -4897 0
-4516 -4514 -4896 -4897 0
4513 4864 4898 0
4513 -4864 -4898 0
-4513 4864 -4898 0
-4513 -4864 -4898 0
4513 4598 4899 0
4513 -4598 -4899 0
-4513 4598 -4899 0
-4513 -4598 -4899 0
4897 4898 4899 -4900 0
4897 4898 -4899 4900 0
4897 -4898 4899 4900 0
4897 -4898 -4899 4900 0
-4897 4898 4899 4900 0
-4897 4898 -4899 4900 0
-4897 -4898 4899 4900 0
-4897 -4898 -4899 4900 0
4900 4901 0
-4900 -4901 0
4508 4901 4902 0
4508 -4901 -4902 0
-4508 4901 -4902 0
-4508 -4901 -4902 0
4895 4902 -4903 0
4895 -4902 4903 0
-4895 4902 4903 0
-4895 -4902 4903 0
4903 4904 0
-4903 -4904 0
4904 4905 0
-4904 -4905 0
296 4906 0
-296 -4906 0
4906 4907 0
-4906 -4907 0
4907 4908 0
-4907 -4908 0
4908 4543 4909 0
4908 -4543 -4909 0
-4908 4543 -4909 0
-4908 -4543 -4909 0
398 4910 0
-398 -4910 0
4552 4550 4910 4911 0
4552 4550 -4910 -4911 0
4552 -4550 4910 -4911 0
4552 -4550 -4910 -4911 0
-4552 4550 4910 -4911 0
-4552 4550 -4910 -4911 0
-4552 -4550 4910 -4911 0
-4552 -4550 -4910 -4911 0
4549 4878 4912 0
4549 -4878 -4912 0
-4549 4878 -4912 0
-4549 -4878 -4912 0
4549 4618 4913 0
4549 -4618 -4913 0
-4549 4618 -4913 0
-4549 -4618 -4913 0
4911 4912 4913 -4914 0
4911 4912 -4913 4914 0
4911 -4912 4913 4914 0
4911 -4912 -4913 4914 0
-4911 4912 4913 4914 0
-4911 4912 -4913 4914 0
-4911 -4912 4913 4914 0
-4911 -4912 -4913 4914 0
4914 4915 0
-4914 -4915 0
4544 4915 4916 0
4544 -4915 -4916 0
-4544 4915 -4916 0
-4544 -4915 -4916 0
4909 4916 -4917 0
4909 -4916 4917 0
-4909 4916 4917 0
-4909 -4916 4917 0
4917 4918 0
-4917 -4918 0
4918 4919 0
-4918 -4919 0
4905 4919 -4920 0
4905 -4919 4920 0
-4905 4919 4920 0
-4905 -4919 -4920 0
304 4921 0
-304 -4921 0
4921 4922 0
-4921 -4922 0
4202 4923 0
-4202 -4923 0
4242 4278 4924 0
4242 -4278 -4924 0
-4242 4278 -4924 0
-4242 -4278 -4924 0
4923 4924 -4925 0
4923 -4924 4925 0
-4923 4924 4925 0
-4923 -4924 4925 0
4925 4343 4926 0
4925 -4343 -4926 0
-4925 4343 -4926 0
-4925 -4343 -4926 0
4926 4927 0
-4926 -4927 0
4922 4927 4928 0
4922 -4927 -4928 0
-4922 4927 -4928 0
-4922 -4927 -4928 0
304 4929 0
-304 -4929 0
4926 4929 4930 0
4926 -4929 -4930 0
-4926 4929 -4930 0
-4926 -4929 -4930 0
4928 4930 -4931 0
4928 -4930 4931 0
-4928 4930 4931 0
-4928 -4930 4931 0
4342 4932 0
-4342 -4932 0
4309 4933 0
-4309 -4933 0
4245 4934 0
-4245 -4934 0
4207 4935 0
-4207 -4935 0
4276 4936 0
-4276 -4936 0
4934 4935 4936 4937 0
4934 4935 -4936 -4937 0
4934 -4935 4936 -4937 0
4934 -4935 -4936 -4937 0
-4934 4935 4936 -4937 0
-4934 4935 -4936 -4937 0
-4934 -4935 4936 -4937 0
-4934 -4935 -4936 -4937 0
4937 4938 0
-4937 -4938 0
4932 4933 4938 4939 0
4932 4933 -4938 -4939 0
4932 -4933 4938 -4939 0
4932 -4933 -4938 -4939 0
-4932 4933 4938 -4939 0
-4932 4933 -4938 -4939 0
-4932 -4933 4938 -4939 0
-4932 -4933 -4938 -4939 0
4939 4940 0
-4939 -4940 0
2336 4940 4941 0
2336 -4940 -4941 0
-2336 4940 -4941 0
-2336 -4940 -4941 0
4202 4942 0
-4202 -4942 0
4242 4943 0
-4242 -4943 0
4942 4943 4936 4944 0
4942 4943 -4936 -4944 0
4942 -4943 4936 -4944 0
4942 -4943 -4936 -4944 0
-4942 4943 4936 -4944 0
-4942 4943 -4936 -4944 0
-4942 -4943 4936 -4944 0
-4942 -4943 -4936 -4944 0
4944 4945 0
-4944 -4945 0
4945 4932 4933 4946 0
4945 4932 -4933 -4946 0
4945 -4932 4933 -4946 0
4945 -4932 -4933 -4946 0
-4945 4932 4933 -4946 0
-4945 4932 -4933 -4946 0
-4945 -4932 4933 -4946 0
-4945 -4932 -4933 -4946 0
4946 4947 0
-4946 -4947 0
2337 4947 4948 0
2337 -4947 -4948 0
-2337 4947 -4948 0
-2337 -4947 -4948 0
4941 4948 -4949 0
4941 -4948 4949 0
-4941 4948 4949 0
-4941 -4948 4949 0
363 4950 0
-363 -4950 0
2993 4950 4951 0
2993 -4950 -4951 0
-2993 4950 -4951 0
-2993 -4950 -4951 0
264 4952 0
-264 -4952 0
4952 4953 0
-4952 -4953 0
4953 4954 0
-4953 -4954 0
4954 4955 0
-4954 -4955 0
312 4956 0
-312 -4956 0
320 4957 0
-320 -4957 0
303 4958 0
-303 -4958 0
322 4959 0
-322 -4959 0
321 4960 0
-321 -4960 0
4957 4958 4959 4960 4961 0
4957 4958 4959 -4960 -4961 0
4957 4958 -4959 4960 -4961 0
4957 4958 -4959 -4960 -4961 0
4957 -4958 4959 4960 -4961 0
4957 -4958 4959 -4960 -4961 0
4957 -4958 -4959 4960 -4961 0
4957 -4958 -4959 -4960 -4961 0
-4957 4958 4959 4960 -4961 0
-4957 4958 4959 -4960 -4961 0
-4957 4958 -4959 4960 -4961 0
-4957 4958 -4959 -4960 -4961 0
-4957 -4958 4959 4960 -4961 0
-4957 -4958 4959 -4960 -4961 0
-4957 -4958 -4959 4960 -4961 0
-4957 -4958 -4959 -4960 -4961 0
4961 4962 0
-4961 -4962 0
343 4963 0
-343 -4963 0
4956 4962 4963 4964 0
4956 4962 -4963 -4964 0
4956 -4962 4963 -4964 0
4956 -4962 -4963 -4964 0
-4956 4962 4963 -4964 0
-4956 4962 -4963 -4964 0
-4956 -4962 4963 -4964 0
-4956 -4962 -4963 -4964 0
4964 4965 0
-4964 -4965 0
4965 4966 0
-4965 -4966 0
4955 4966 4967 0
4955 -4966 -4967 0
-4955 4966 -4967 0
-4955 -4966 -4967 0
1891 1890 4951 4967 4968 0
1891 1890 4951 -4967 -4968 0
1891 1890 -4951 4967 -4968 0
1891 1890 -4951 -4967 -4968 0
1891 -1890 4951 4967 -4968 0
1891 -1890 4951 -4967 -4968 0
1891 -1890 -4951 4967 -4968 0
1891 -1890 -4951 -4967 -4968 0
-1891 1890 4951 4967 -4968 0
-1891 1890 4951 -4967 -4968 0
-1891 1890 -4951 4967 -4968 0
-1891 1890 -4951 -4967 -4968 0
-1891 -1890 4951 4967 -4968 0
-1891 -1890 4951 -4967 -4968 0
-1891 -1890 -4951 4967 -4968 0
-1891 -1890 -4951 -4967 -4968 0
4968 4969 0
-4968 -4969 0
4949 4969 4970 0
4949 -4969 -4970 0
-4949 4969 -4970 0
-4949 -4969 -4970 0
4970 4971 0
-4970 -4971 0
4931 4971 4972 0
4931 -4971 -4972 0
-4931 4971 -4972 0
-4931 -4971 -4972 0
4972 4973 0
-4972 -4973 0
4973 4974 0
-4973 -4974 0
4974 4975 0
-4974 -4975 0
304 4976 0
-304 -4976 0
4976 4977 0
-4976 -4977 0
4221 4978 0
-4221 -4978 0
4258 4295 4979 0
4258 -4295 -4979 0
-4258 4295 -4979 0
-4258 -4295 -4979 0
4978 4979 -4980 0
4978 -4979 4980 0
-4978 4979 4980 0
-4978 -4979 4980 0
4980 4360 4981 0
4980 -4360 -4981 0
-4980 4360 -4981 0
-4980 -4360 -4981 0
4981 4982 0
-4981 -4982 0
4977 4982 4983 0
4977 -4982 -4983 0
-4977 4982 -4983 0
-4977 -4982 -4983 0
304 4984 0
-304 -4984 0
4981 4984 4985 0
4981 -4984 -4985 0
-4981 4984 -4985 0
-4981 -4984 -4985 0
4983 4985 -4986 0
4983 -4985 4986 0
-4983 4985 4986 0
-4983 -4985 4986 0
4359 4987 0
-4359 -4987 0
4325 4988 0
-4325 -4988 0
4261 4989 0
-4261 -4989 0
4226 4990 0
-4226 -4990 0
4293 4991 0
-4293 -4991 0
4989 4990 4991 4992 0
4989 4990 -4991 -4992 0
4989 -4990 4991 -4992 0
4989 -4990 -4991 -4992 0
-4989 4990 4991 -4992 0
-4989 4990 -4991 -4992 0
-4989 -4990 4991 -4992 0
-4989 -4990 -4991 -4992 0
4992 4993 0
-4992 -4993 0
4987 4988 4993 4994 0
4987 4988 -4993 -4994 0
4987 -4988 4993 -4994 0
4987 -4988 -4993 -4994 0
-4987 4988 4993 -4994 0
-4987 4988 -4993 -4994 0
-4987 -4988 4993 -4994 0
-4987 -4988 -4993 -4994 0
4994 4995 0
-4994 -4995 0
2700 4995 4996 0
2700 -4995 -4996 0
-2700 4995 -4996 0
-2700 -4995 -4996 0
4221 4997 0
-4221 -4997 0
4258 4998 0
-4258 -4998 0
4997 4998 4991 4999 0
4997 4998 -4991 -4999 0
4997 -4998 4991 -4999 0
4997 -4998 -4991 -4999 0
-4997 4998 4991 -4999 0
-4997 4998 -4991 -4999 0
-4997 -4998 4991 -4999 0
-4997 -4998 -4991 -4999 0
4999 5000 0
-4999 -5000 0
5000 4987 4988 5001 0
5000 4987 -4988 -5001 0
5000 -4987 4988 -5001 0
5000 -4987 -4988 -5001 0
-5000 4987 4988 -5001 0
-5000 4987 -4988 -5001 0
-5000 -4987 4988 -5001 0
-5000 -4987 -4988 -5001 0
5001 5002 0
-5001 -5002 0
2701 5002 5003 0
2701 -5002 -5003 0
-2701 5002 -5003 0
-2701 -5002 -5003 0
4996 5003 -5004 0
4996 -5003 5004 0
-4996 5003 5004 0
-4996 -5003 5004 0
363 5005 0
-363 -5005 0
3056 5005 5006 0
3056 -5005 -5006 0
-3056 5005 -5006 0
-3056 -5005 -5006 0
264 5007 0
-264 -5007 0
5007 5008 0
-5007 -5008 0
5008 5009 0
-5008 -5009 0
5009 5010 0
-5009 -5010 0
312 5011 0
-312 -5011 0
320 5012 0
-320 -5012 0
303 5013 0
-303 -5013 0
322 5014 0
-322 -5014 0
321 5015 0
-321 -5015 0
5012 5013 5014 5015 5016 0
5012 5013 5014 -5015 -5016 0
5012 5013 -5014 5015 -5016 0
5012 5013 -5014 -5015 -5016 0
5012 -5013 5014 5015 -5016 0
5012 -5013 5014 -5015 -5016 0
5012 -5013 -5014 5015 -5016 0
5012 -5013 -5014 -5015 -5016 0
-5012 5013 5014 5015 -5016 0
-5012 5013 5014 -5015 -5016 0
-5012 5013 -5014 5015 -5016 0
-5012 5013 -5014 -5015 -5016 0
-5012 -5013 5014 5015 -5016 0
-5012 -5013 5014 -5015 -5016 0
-5012 -5013 -5014 5015 -5016 0
-5012 -5013 -5014 -5015 -5016 0
5016 5017 0
-5016 -5017 0
343 5018 0
-343 -5018 0
5011 5017 5018 5019 0
5011 5017 -5018 -5019 0
5011 -5017 5018 -5019 0
5011 -5017 -5018 -5019 0
-5011 5017 5018 -5019 0
-5011 5017 -5018 -5019 0
-5011 -5017 5018 -5019 0
-5011 -5017 -5018 -5019 0
5019 5020 0
-5019 -5020 0
5020 5021 0
-5020 -5021 0
5010 5021 5022 0
5010 -5021 -5022 0
-5010 5021 -5022 0
-5010 -5021 -5022 0
1911 1910 5006 5022 5023 0
1911 1910 5006 -5022 -5023 0
1911 1910 -5006 5022 -5023 0
1911 1910 -5006 -5022 -5023 0
1911 -1910 5006 5022 -5023 0
1911 -1910 5006 -5022 -5023 0
1911 -1910 -5006 5022 -5023 0
1911 -1910 -5006 -5022 -5023 0
-1911 1910 5006 5022 -5023 0
-1911 1910 5006 -5022 -5023 0
-1911 1910 -5006 5022 -5023 0
-1911 1910 -5006 -5022 -5023 0
-1911 -1910 5006 5022 -5023 0
-1911 -1910 5006 -5022 -5023 0
-1911 -1910 -5006 5022 -5023 0
-1911 -1910 -5006 -5022 -5023 0
5023 5024 0
-5023 -5024 0
5004 5024 5025 0
5004 -5024 -5025 0
-5004 5024 -5025 0
-5004 -5024 -5025 0
5025 5026 0
-5025 -5026 0
4986 5026 5027 0
4986 -5026 -5027 0
-4986 5026 -5027 0
-4986 -5026 -5027 0
5027 5028 0
-5027 -5028 0
5028 5029 0
-5028 -5029 0
5029 5030 0
-5029 -5030 0
4975 5030 -5031 0
4975 -5030 5031 0
-4975 5030 5031 0
-4975 -5030 -5031 0
375 5032 0
-375 -5032 0
5032 5033 0
-5032 -5033 0
1742 1794 5034 0
1742 -1794 -5034 0
-1742 1794 -5034 0
-1742 -1794 -5034 0
1689 5035 0
-1689 -5035 0
5034 5035 -5036 0
5034 -5035 5036 0
-5034 5035 5036 0
-5034 -5035 5036 0
5036 4463 5037 0
5036 -4463 -5037 0
-5036 4463 -5037 0
-5036 -4463 -5037 0
5037 5038 0
-5037 -5038 0
5033 5038 5039 0
5033 -5038 -5039 0
-5033 5038 -5039 0
-5033 -5038 -5039 0
375 5040 0
-375 -5040 0
5037 5040 5041 0
5037 -5040 -5041 0
-5037 5040 -5041 0
-5037 -5040 -5041 0
5039 5041 -5042 0
5039 -5041 5042 0
-5039 5041 5042 0
-5039 -5041 5042 0
401 5043 0
-401 -5043 0
5043 5044 0
-5043 -5044 0
365 5045 0
-365 -5045 0
5045 5046 0
-5045 -5046 0
2337 5044 5046 5047 0
2337 5044 -5046 -5047 0
2337 -5044 5046 -5047 0
2337 -5044 -5046 -5047 0
-2337 5044 5046 -5047 0
-2337 5044 -5046 -5047 0
-2337 -5044 5046 -5047 0
-2337 -5044 -5046 -5047 0
390 5048 0
-390 -5048 0
5048 2336 5049 0
5048 -2336 -5049 0
-5048 2336 -5049 0
-5048 -2336 -5049 0
390 5050 0
-390 -5050 0
5050 5051 0
-5050 -5051 0
5051 2336 5052 0
5051 -2336 -5052 0
-5051 2336 -5052 0
-5051 -2336 -5052 0
5047 5049 5052 5053 0
5047 5049 -5052 -5053 0
5047 -5049 5052 -5053 0
5047 -5049 -5052 -5053 0
-5047 5049 5052 -5053 0
-5047 5049 -5052 -5053 0
-5047 -5049 5052 -5053 0
-5047 -5049 -5052 -5053 0
5053 5054 0
-5053 -5054 0
1788 5055 0
-1788 -5055 0
4461 5056 0
-4461 -5056 0
4418 5057 0
-4418 -5057 0
1693 5058 0
-1693 -5058 0
1741 5059 0
-1741 -5059 0
5057 5058 5059 -5060 0
5057 5058 -5059 5060 0
5057 -5058 5059 5060 0
5057 -5058 -5059 5060 0
-5057 5058 5059 5060 0
-5057 5058 -5059 5060 0
-5057 -5058 5059 5060 0
-5057 -5058 -5059 5060 0
5055 5056 5060 -5061 0
5055 5056 -5060 5061 0
5055 -5056 5060 5061 0
5055 -5056 -5060 5061 0
-5055 5056 5060 5061 0
-5055 5056 -5060 5061 0
-5055 -5056 5060 5061 0
-5055 -5056 -5060 5061 0
5061 5062 0
-5061 -5062 0
5062 5063 0
-5062 -5063 0
5054 5063 5064 0
5054 -5063 -5064 0
-5054 5063 -5064 0
-5054 -5063 -5064 0
5049 5065 0
-5049 -5065 0
4421 5066 0
-4421 -5066 0
5056 5055 5059 -5067 0
5056 5055 -5059 5067 0
5056 -5055 5059 5067 0
5056 -5055 -5059 5067 0
-5056 5055 5059 5067 0
-5056 5055 -5059 5067 0
-5056 -5055 5059 5067 0
-5056 -5055 -5059 5067 0
5058 5066 5067 -5068 0
5058 5066 -5067 5068 0
5058 -5066 5067 5068 0
5058 -5066 -5067 5068 0
-5058 5066 5067 5068 0
-5058 5066 -5067 5068 0
-5058 -5066 5067 5068 0
-5058 -5066 -5067 5068 0
5068 5069 0
-5068 -5069 0
5069 5070 0
-5069 -5070 0
5065 5070 5071 0
5065 -5070 -5071 0
-5065 5070 -5071 0
-5065 -5070 -5071 0
4466 5072 0
-4466 -5072 0
1793 5073 0
-1793 -5073 0
1748 5074 0
-1748 -5074 0
5057 5073 5074 -5075 0
5057 5073 -5074 5075 0
5057 -5073 5074 5075 0
5057 -5073 -5074 5075 0
-5057 5073 5074 5075 0
-5057 5073 -5074 5075 0
-5057 -5073 5074 5075 0
-5057 -5073 -5074 5075 0
5058 5072 5075 -5076 0
5058 5072 -5075 5076 0
5058 -5072 5075 5076 0
5058 -5072 -5075 5076 0
-5058 5072 5075 5076 0
-5058 5072 -5075 5076 0
-5058 -5072 5075 5076 0
-5058 -5072 -5075 5076 0
5076 5077 0
-5076 -5077 0
5077 5078 0
-5077 -5078 0
5052 5079 0
-5052 -5079 0
5078 5079 5080 0
5078 -5079 -5080 0
-5078 5079 -5080 0
-5078 -5079 -5080 0
5056 5074 5057 -5081 0
5056 5074 -5057 5081 0
5056 -5074 5057 5081 0
5056 -5074 -5057 5081 0
-5056 5074 5057 5081 0
-5056 5074 -5057 5081 0
-5056 -5074 5057 5081 0
-5056 -5074 -5057 5081 0
5055 5058 5081 -5082 0
5055 5058 -5081 5082 0
5055 -5058 5081 5082 0
5055 -5058 -5081 5082 0
-5055 5058 5081 5082 0
-5055 5058 -5081 5082 0
-5055 -5058 5081 5082 0
-5055 -5058 -5081 5082 0
5082 5083 0
-5082 -5083 0
5083 5084 0
-5083 -5084 0
5047 5085 0
-5047 -5085 0
5084 5085 5086 0
5084 -5085 -5086 0
-5084 5085 -5086 0
-5084 -5085 -5086 0
5064 5071 5080 5086 5087 0
5064 5071 5080 -5086 -5087 0
5064 5071 -5080 5086 -5087 0
5064 5071 -5080 -5086 -5087 0
5064 -5071 5080 5086 -5087 0
5064 -5071 5080 -5086 -5087 0
5064 -5071 -5080 5086 -5087 0
5064 -5071 -5080 -5086 -5087 0
-5064 5071 5080 5086 -5087 0
-5064 5071 5080 -5086 -5087 0
-5064 5071 -5080 5086 -5087 0
-5064 5071 -5080 -5086 -5087 0
-5064 -5071 5080 5086 -5087 0
-5064 -5071 5080 -5086 -5087 0
-5064 -5071 -5080 5086 -5087 0
-5064 -5071 -5080 -5086 -5087 0
5087 5088 0
-5087 -5088 0
5088 4969 5089 0
5088 -4969 -5089 0
-5088 4969 -5089 0
-5088 -4969 -5089 0
5089 5090 0
-5089 -5090 0
5042 5090 5091 0
5042 -5090 -5091 0
-5042 5090 -5091 0
-5042 -5090 -5091 0
5091 5092 0
-5091 -5092 0
5092 5093 0
-5092 -5093 0
5093 5094 0
-5093 -5094 0
375 5095 0
-375 -5095 0
5095 5096 0
-5095 -5096 0
1767 1814 5097 0
1767 -1814 -5097 0
-1767 1814 -5097 0
-1767 -1814 -5097 0
1716 5098 0
-1716 -5098 0
5097 5098 -5099 0
5097 -5098 5099 0
-5097 5098 5099 0
-5097 -5098 5099 0
5099 4484 5100 0
5099 -4484 -5100 0
-5099 4484 -5100 0
-5099 -4484 -5100 0
5100 5101 0
-5100 -5101 0
5096 5101 5102 0
5096 -5101 -5102 0
-5096 5101 -5102 0
-5096 -5101 -5102 0
375 5103 0
-375 -5103 0
5100 5103 5104 0
5100 -5103 -5104 0
-5100 5103 -5104 0
-5100 -5103 -5104 0
5102 5104 -5105 0
5102 -5104 5105 0
-5102 5104 5105 0
-5102 -5104 5105 0
401 5106 0
-401 -5106 0
5106 5107 0
-5106 -5107 0
365 5108 0
-365 -5108 0
5108 5109 0
-5108 -5109 0
2701 5107 5109 5110 0
2701 5107 -5109 -5110 0
2701 -5107 5109 -5110 0
2701 -5107 -5109 -5110 0
-2701 5107 5109 -5110 0
-2701 5107 -5109 -5110 0
-2701 -5107 5109 -5110 0
-2701 -5107 -5109 -5110 0
390 5111 0
-390 -5111 0
5111 2700 5112 0
5111 -2700 -5112 0
-5111 2700 -5112 0
-5111 -2700 -5112 0
390 5113 0
-390 -5113 0
5113 5114 0
-5113 -5114 0
5114 2700 5115 0
5114 -2700 -5115 0
-5114 2700 -5115 0
-5114 -2700 -5115 0
5110 5112 5115 5116 0
5110 5112 -5115 -5116 0
5110 -5112 5115 -5116 0
5110 -5112 -5115 -5116 0
-5110 5112 5115 -5116 0
-5110 5112 -5115 -5116 0
-5110 -5112 5115 -5116 0
-5110 -5112 -5115 -5116 0
5116 5117 0
-5116 -5117 0
1808 5118 0
-1808 -5118 0
4482 5119 0
-4482 -5119 0
4440 5120 0
-4440 -5120 0
1720 5121 0
-1720 -5121 0
1766 5122 0
-1766 -5122 0
5120 5121 5122 -5123 0
5120 5121 -5122 5123 0
5120 -5121 5122 5123 0
5120 -5121 -5122 5123 0
-5120 5121 5122 5123 0
-5120 5121 -5122 5123 0
-5120 -5121 5122 5123 0
-5120 -5121 -5122 5123 0
5118 5119 5123 -5124 0
5118 5119 -5123 5124 0
5118 -5119 5123 5124 0
5118 -5119 -5123 5124 0
-5118 5119 5123 5124 0
-5118 5119 -5123 5124 0
-5118 -5119 5123 5124 0
-5118 -5119 -5123 5124 0
5124 5125 0
-5124 -5125 0
5125 5126 0
-5125 -5126 0
5117 5126 5127 0
5117 -5126 -5127 0
-5117 5126 -5127 0
-5117 -5126 -5127 0
5112 5128 0
-5112 -5128 0
4443 5129 0
-4443 -5129 0
5119 5118 5122 -5130 0
5119 5118 -5122 5130 0
5119 -5118 5122 5130 0
5119 -5118 -5122 5130 0
-5119 5118 5122 5130 0
-5119 5118 -5122 5130 0
-5119 -5118 5122 5130 0
-5119 -5118 -5122 5130 0
5121 5129 5130 -5131 0
5121 5129 -5130 5131 0
5121 -5129 5130 5131 0
5121 -5129 -5130 5131 0
-5121 5129 5130 5131 0
-5121 5129 -5130 5131 0
-5121 -5129 5130 5131 0
-5121 -5129 -5130 5131 0
5131 5132 0
-5131 -5132 0
5132 5133 0
-5132 -5133 0
5128 5133 5134 0
5128 -5133 -5134 0
-5128 5133 -5134 0
-5128 -5133 -5134 0
4487 5135 0
-4487 -5135 0
1813 5136 0
-1813 -5136 0
1773 5137 0
-1773 -5137 0
5120 5136 5137 -5138 0
5120 5136 -5137 5138 0
5120 -5136 5137 5138 0
5120 -5136 -5137 5138 0
-5120 5136 5137 5138 0
-5120 5136 -5137 5138 0
-5120 -5136 5137 5138 0
-5120 -5136 -5137 5138 0
5121 5135 5138 -5139 0
5121 5135 -5138 5139 0
5121 -5135 5138 5139 0
5121 -5135 -5138 5139 0
-5121 5135 5138 5139 0
-5121 5135 -5138 5139 0
-5121 -5135 5138 5139 0
-5121 -5135 -5138 5139 0
5139 5140 0
-5139 -5140 0
5140 5141 0
-5140 -5141 0
5115 5142 0
-5115 -5142 0
5141 5142 5143 0
5141 -5142 -5143 0
-5141 5142 -5143 0
-5141 -5142 -5143 0
5119 5137 5120 -5144 0
5119 5137 -5120 5144 0
5119 -5137 5120 5144 0
5119 -5137 -5120 5144 0
-5119 5137 5120 5144 0
-5119 5137 -5120 5144 0
-5119 -5137 5120 5144 0
-5119 -5137 -5120 5144 0
5118 5121 5144 -5145 0
5118 5121 -5144 5145 0
5118 -5121 5144 5145 0
5118 -5121 -5144 5145 0
-5118 5121 5144 5145 0
-5118 5121 -5144 5145 0
-5118 -5121 5144 5145 0
-5118 -5121 -5144 5145 0
5145 5146 0
-5145 -5146 0
5146 5147 0
-5146 -5147 0
5110 5148 0
-5110 -5148 0
5147 5148 5149 0
5147 -5148 -5149 0
-5147 5148 -5149 0
-5147 -5148 -5149 0
5127 5134 5143 5149 5150 0
5127 5134 5143 -5149 -5150 0
5127 5134 -5143 5149 -5150 0
5127 5134 -5143 -5149 -5150 0
5127 -5134 5143 5149 -5150 0
5127 -5134 5143 -5149 -5150 0
5127 -5134 -5143 5149 -5150 0
5127 -5134 -5143 -5149 -5150 0
-5127 5134 5143 5149 -5150 0
-5127 5134 5143 -5149 -5150 0
-5127 5134 -5143 5149 -5150 0
-5127 5134 -5143 -5149 -5150 0
-5127 -5134 5143 5149 -5150 0
-5127 -5134 5143 -5149 -5150 0
-5127 -5134 -5143 5149 -5150 0
-5127 -5134 -5143 -5149 -5150 0
5150 5151 0
-5150 -5151 0
5151 5024 5152 0
5151 -5024 -5152 0
-5151 5024 -5152 0
-5151 -5024 -5152 0
5152 5153 0
-5152 -5153 0
5105 5153 5154 0
5105 -5153 -5154 0
-5105 5153 -5154 0
-5105 -5153 -5154 0
5154 5155 0
-5154 -5155 0
5155 5156 0
-5155 -5156 0
5156 5157 0
-5156 -5157 0
5094 5157 -5158 0
5094 -5157 5158 0
-5094 5157 5158 0
-5094 -5157 -5158 0
358 5159 0
-358 -5159 0
5159 5160 0
-5159 -5160 0
360 5161 0
-360 -5161 0
1849 1864 5162 0
1849 -1864 -5162 0
-1849 1864 -5162 0
-1849 -1864 -5162 0
5162 5163 0
-5162 -5163 0
5163 5164 0
-5163 -5164 0
4955 5164 5165 0
4955 -5164 -5165 0
-4955 5164 -5165 0
-4955 -5164 -5165 0
5160 5161 5165 5166 0
5160 5161 -5165 -5166 0
5160 -5161 5165 -5166 0
5160 -5161 -5165 -5166 0
-5160 5161 5165 -5166 0
-5160 5161 -5165 -5166 0
-5160 -5161 5165 -5166 0
-5160 -5161 -5165 -5166 0
5166 5167 0
-5166 -5167 0
5167 5168 0
-5167 -5168 0
358 5169 0
-358 -5169 0
5169 5170 0
-5169 -5170 0
360 5171 0
-360 -5171 0
1856 1873 5172 0
1856 -1873 -5172 0
-1856 1873 -5172 0
-1856 -1873 -5172 0
5172 5173 0
-5172 -5173 0
5173 5174 0
-5173 -5174 0
5010 5174 5175 0
5010 -5174 -5175 0
-5010 5174 -5175 0
-5010 -5174 -5175 0
5170 5171 5175 5176 0
5170 5171 -5175 -5176 0
5170 -5171 5175 -5176 0
5170 -5171 -5175 -5176 0
-5170 5171 5175 -5176 0
-5170 5171 -5175 -5176 0
-5170 -5171 5175 -5176 0
-5170 -5171 -5175 -5176 0
5176 5177 0
-5176 -5177 0
5177 5178 0
-5177 -5178 0
5168 5178 -5179 0
5168 -5178 5179 0
-5168 5178 5179 0
-5168 -5178 -5179 0
4971 4316 5180 0
4971 -4316 -5180 0
-4971 4316 -5180 0
-4971 -4316 -5180 0
5180 5181 0
-5180 -5181 0
5181 5182 0
-5181 -5182 0
5026 4332 5183 0
5026 -4332 -5183 0
-5026 4332 -5183 0
-5026 -4332 -5183 0
5183 5184 0
-5183 -5184 0
5184 5185 0
-5184 -5185 0
5182 5185 -5186 0
5182 -5185 5186 0
-5182 5185 5186 0
-5182 -5185 -5186 0
4971 4350 5187 0
4971 -4350 -5187 0
-4971 4350 -5187 0
-4971 -4350 -5187 0
5187 5188 0
-5187 -5188 0
5188 5189 0
-5188 -5189 0
5026 4367 5190 0
5026 -4367 -5190 0
-5026 4367 -5190 0
-5026 -4367 -5190 0
5190 5191 0
-5190 -5191 0
5191 5192 0
-5191 -5192 0
5189 5192 -5193 0
5189 -5192 5193 0
-5189 5192 5193 0
-5189 -5192 -5193 0
4971 4248 5194 0
4971 -4248 -5194 0
-4971 4248 -5194 0
-4971 -4248 -5194 0
5194 5195 0
-5194 -5195 0
5195 5196 0
-5195 -5196 0
5026 4264 5197 0
5026 -4264 -5197 0
-5026 4264 -5197 0
-5026 -4264 -5197 0
5197 5198 0
-5197 -5198 0
5198 5199 0
-5198 -5199 0
5196 5199 -5200 0
5196 -5199 5200 0
-5196 5199 5200 0
-5196 -5199 -5200 0
4971 4282 5201 0
4971 -4282 -5201 0
-4971 4282 -5201 0
-4971 -4282 -5201 0
5201 5202 0
-5201 -5202 0
5202 5203 0
-5202 -5203 0
5026 4299 5204 0
5026 -4299 -5204 0
-5026 4299 -5204 0
-5026 -4299 -5204 0
5204 5205 0
-5204 -5205 0
5205 5206 0
-5205 -5206 0
5203 5206 -5207 0
5203 -5206 5207 0
-5203 5206 5207 0
-5203 -5206 -5207 0
4971 4212 5208 0
4971 -4212 -5208 0
-4971 4212 -5208 0
-4971 -4212 -5208 0
5208 5209 0
-5208 -5209 0
5209 5210 0
-5209 -5210 0
5026 4231 5211 0
5026 -4231 -5211 0
-5026 4231 -5211 0
-5026 -4231 -5211 0
5211 5212 0
-5211 -5212 0
5212 5213 0
-5212 -5213 0
5210 5213 -5214 0
5210 -5213 5214 0
-5210 5213 5214 0
-5210 -5213 -5214 0
5090 1752 5215 0
5090 -1752 -5215 0
-5090 1752 -5215 0
-5090 -1752 -5215 0
5215 5216 0
-5215 -5216 0
5216 5217 0
-5216 -5217 0
5153 1777 5218 0
5153 -1777 -5218 0
-5153 1777 -5218 0
-5153 -1777 -5218 0
5218 5219 0
-5218 -5219 0
5219 5220 0
-5219 -5220 0
5217 5220 -5221 0
5217 -5220 5221 0
-5217 5220 5221 0
-5217 -5220 -5221 0
1798 5090 5222 0
1798 -5090 -5222 0
-1798 5090 -5222 0
-1798 -5090 -5222 0
5222 5223 0
-5222 -5223 0
5223 5224 0
-5223 -5224 0
1818 5153 5225 0
1818 -5153 -5225 0
-1818 5153 -5225 0
-1818 -5153 -5225 0
5225 5226 0
-5225 -5226 0
5226 5227 0
-5226 -5227 0
5224 5227 -5228 0
5224 -5227 5228 0
-5224 5227 5228 0
-5224 -5227 -5228 0
5090 4426 5229 0
5090 -4426 -5229 0
-5090 4426 -5229 0
-5090 -4426 -5229 0
5229 5230 0
-5229 -5230 0
5230 5231 0
-5230 -5231 0
5153 4448 5232 0
5153 -4448 -5232 0
-5153 4448 -5232 0
-5153 -4448 -5232 0
5232 5233 0
-5232 -5233 0
5233 5234 0
-5233 -5234 0
5231 5234 -5235 0
5231 -5234 5235 0
-5231 5234 5235 0
-5231 -5234 -5235 0
1699 5090 5236 0
1699 -5090 -5236 0
-1699 5090 -5236 0
-1699 -5090 -5236 0
5236 5237 0
-5236 -5237 0
5237 5238 0
-5237 -5238 0
1726 5153 5239 0
1726 -5153 -5239 0
-1726 5153 -5239 0
-1726 -5153 -5239 0
5239 5240 0
-5239 -5240 0
5240 5241 0
-5240 -5241 0
5238 5241 -5242 0
5238 -5241 5242 0
-5238 5241 5242 0
-5238 -5241 -5242 0
4470 5090 5243 0
4470 -5090 -5243 0
-4470 5090 -5243 0
-4470 -5090 -5243 0
5243 5244 0
-5243 -5244 0
5244 5245 0
-5244 -5245 0
4491 5153 5246 0
4491 -5153 -5246 0
-4491 5153 -5246 0
-4491 -5153 -5246 0
5246 5247 0
-5246 -5247 0
5247 5248 0
-5247 -5248 0
5245 5248 -5249 0
5245 -5248 5249 0
-5245 5248 5249 0
-5245 -5248 -5249 0
4135 5250 0
-4135 -5250 0
4100 5251 0
-4100 -5251 0
5250 5251 -5252 0
5250 -5251 5252 0
-5250 5251 5252 0
-5250 -5251 5252 0
5252 5253 0
-5252 -5253 0
345 5254 0
-345 -5254 0
5253 5254 5255 0
5253 -5254 -5255 0
-5253 5254 -5255 0
-5253 -5254 -5255 0
345 5256 0
-345 -5256 0
5256 5257 0
-5256 -5257 0
5257 5252 5258 0
5257 -5252 -5258 0
-5257 5252 -5258 0
-5257 -5252 -5258 0
5255 5258 -5259 0
5255 -5258 5259 0
-5255 5258 5259 0
-5255 -5258 5259 0
4969 5259 5260 0
4969 -5259 -5260 0
-4969 5259 -5260 0
-4969 -5259 -5260 0
5260 5261 0
-5260 -5261 0
5261 5262 0
-5261 -5262 0
5262 5263 0
-5262 -5263 0
4151 5264 0
-4151 -5264 0
4119 5265 0
-4119 -5265 0
5264 5265 -5266 0
5264 -5265 5266 0
-5264 5265 5266 0
-5264 -5265 5266 0
5266 5267 0
-5266 -5267 0
345 5268 0
-345 -5268 0
5267 5268 5269 0
5267 -5268 -5269 0
-5267 5268 -5269 0
-5267 -5268 -5269 0
345 5270 0
-345 -5270 0
5270 5271 0
-5270 -5271 0
5271 5266 5272 0
5271 -5266 -5272 0
-5271 5266 -5272 0
-5271 -5266 -5272 0
5269 5272 -5273 0
5269 -5272 5273 0
-5269 5272 5273 0
-5269 -5272 5273 0
5024 5273 5274 0
5024 -5273 -5274 0
-5024 5273 -5274 0
-5024 -5273 -5274 0
5274 5275 0
-5274 -5275 0
5275 5276 0
-5275 -5276 0
5276 5277 0
-5276 -5277 0
5263 5277 -5278 0
5263 -5277 5278 0
-5263 5277 5278 0
-5263 -5277 -5278 0
4175 4969 5279 0
4175 -4969 -5279 0
-4175 4969 -5279 0
-4175 -4969 -5279 0
5279 5280 0
-5279 -5280 0
5280 5281 0
-5280 -5281 0
4192 5024 5282 0
4192 -5024 -5282 0
-4192 5024 -5282 0
-4192 -5024 -5282 0
5282 5283 0
-5282 -5283 0
5283 5284 0
-5283 -5284 0
5281 5284 -5285 0
5281 -5284 5285 0
-5281 5284 5285 0
-5281 -5284 -5285 0
4105 4969 5286 0
4105 -4969 -5286 0
-4105 4969 -5286 0
-4105 -4969 -5286 0
5286 5287 0
-5286 -5287 0
5287 5288 0
-5287 -5288 0
4124 5024 5289 0
4124 -5024 -5289 0
-4124 5024 -5289 0
-4124 -5024 -5289 0
5289 5290 0
-5289 -5290 0
5290 5291 0
-5290 -5291 0
5288 5291 -5292 0
5288 -5291 5292 0
-5288 5291 5292 0
-5288 -5291 -5292 0
4141 4969 5293 0
4141 -4969 -5293 0
-4141 4969 -5293 0
-4141 -4969 -5293 0
5293 5294 0
-5293 -5294 0
5294 5295 0
-5294 -5295 0
4157 5024 5296 0
4157 -5024 -5296 0
-4157 5024 -5296 0
-4157 -5024 -5296 0
5296 5297 0
-5296 -5297 0
5297 5298 0
-5297 -5298 0
5295 5298 -5299 0
5295 -5298 5299 0
-5295 5298 5299 0
-5295 -5298 -5299 0
327 5300 0
-327 -5300 0
328 5301 0
-328 -5301 0
325 5302 0
-325 -5302 0
316 5303 0
-316 -5303 0
273 5304 0
-273 -5304 0
5304 5305 0
-5304 -5305 0
5305 5306 0
-5305 -5306 0
5306 5307 0
-5306 -5307 0
5302 5303 5307 -5308 0
5302 5303 -5307 5308 0
5302 -5303 5307 5308 0
5302 -5303 -5307 5308 0
-5302 5303 5307 5308 0
-5302 5303 -5307 5308 0
-5302 -5303 5307 5308 0
-5302 -5303 -5307 5308 0
5300 5301 5308 -5309 0
5300 5301 -5308 5309 0
5300 -5301 5308 5309 0
5300 -5301 -5308 5309 0
-5300 5301 5308 5309 0
-5300 5301 -5308 5309 0
-5300 -5301 5308 5309 0
-5300 -5301 -5308 5309 0
5309 5310 0
-5309 -5310 0
5310 5311 0
-5310 -5311 0
318 5312 0
-318 -5312 0
5312 5313 0
-5312 -5313 0
5313 5314 0
-5313 -5314 0
317 5315 0
-317 -5315 0
310 5316 0
-310 -5316 0
5314 5315 5316 5317 0
5314 5315 -5316 -5317 0
5314 -5315 5316 -5317 0
5314 -5315 -5316 -5317 0
-5314 5315 5316 -5317 0
-5314 5315 -5316 -5317 0
-5314 -5315 5316 -5317 0
-5314 -5315 -5316 -5317 0
5317 5318 0
-5317 -5318 0
5311 5318 -5319 0
5311 -5318 5319 0
-5311 5318 5319 0
-5311 -5318 5319 0
327 5320 0
-327 -5320 0
328 5321 0
-328 -5321 0
325 5322 0
-325 -5322 0
316 5323 0
-316 -5323 0
273 5324 0
-273 -5324 0
5324 5325 0
-5324 -5325 0
5325 5326 0
-5325 -5326 0
5326 5327 0
-5326 -5327 0
5322 5323 5327 -5328 0
5322 5323 -5327 5328 0
5322 -5323 5327 5328 0
5322 -5323 -5327 5328 0
-5322 5323 5327 5328 0
-5322 5323 -5327 5328 0
-5322 -5323 5327 5328 0
-5322 -5323 -5327 5328 0
5320 5321 5328 -5329 0
5320 5321 -5328 5329 0
5320 -5321 5328 5329 0
5320 -5321 -5328 5329 0
-5320 5321 5328 5329 0
-5320 5321 -5328 5329 0
-5320 -5321 5328 5329 0
-5320 -5321 -5328 5329 0
5329 5330 0
-5329 -5330 0
5330 5331 0
-5330 -5331 0
318 5332 0
-318 -5332 0
5332 5333 0
-5332 -5333 0
5333 5334 0
-5333 -5334 0
317 5335 0
-317 -5335 0
310 5336 0
-310 -5336 0
5334 5335 5336 5337 0
5334 5335 -5336 -5337 0
5334 -5335 5336 -5337 0
5334 -5335 -5336 -5337 0
-5334 5335 5336 -5337 0
-5334 5335 -5336 -5337 0
-5334 -5335 5336 -5337 0
-5334 -5335 -5336 -5337 0
5337 5338 0
-5337 -5338 0
5331 5338 -5339 0
5331 -5338 5339 0
-5331 5338 5339 0
-5331 -5338 5339 0
5319 5339 -5340 0
5319 -5339 5340 0
-5319 5339 5340 0
-5319 -5339 -5340 0
3969 3982 -5341 0
3969 -3982 5341 0
-3969 3982 5341 0
-3969 -3982 -5341 0
2344 5342 0
-2344 -5342 0
2344 5343 0
-2344 -5343 0
5343 5344 0
-5343 -5344 0
5342 5344 -5345 0
5342 -5344 5345 0
-5342 5344 5345 0
-5342 -5344 5345 0
2708 5346 0
-2708 -5346 0
2708 5347 0
-2708 -5347 0
5347 5348 0
-5347 -5348 0
5346 5348 -5349 0
5346 -5348 5349 0
-5346 5348 5349 0
-5346 -5348 5349 0
5345 5349 -5350 0
5345 -5349 5350 0
-5345 5349 5350 0
-5345 -5349 -5350 0
351 5351 0
-351 -5351 0
5351 5352 0
-5351 -5352 0
4949 5353 0
-4949 -5353 0
4135 4172 4096 5354 0
4135 4172 -4096 -5354 0
4135 -4172 4096 -5354 0
4135 -4172 -4096 -5354 0
-4135 4172 4096 -5354 0
-4135 4172 -4096 -5354 0
-4135 -4172 4096 -5354 0
-4135 -4172 -4096 -5354 0
5354 5355 0
-5354 -5355 0
5087 5352 5353 5355 5356 0
5087 5352 5353 -5355 -5356 0
5087 5352 -5353 5355 -5356 0
5087 5352 -5353 -5355 -5356 0
5087 -5352 5353 5355 -5356 0
5087 -5352 5353 -5355 -5356 0
5087 -5352 -5353 5355 -5356 0
5087 -5352 -5353 -5355 -5356 0
-5087 5352 5353 5355 -5356 0
-5087 5352 5353 -5355 -5356 0
-5087 5352 -5353 5355 -5356 0
-5087 5352 -5353 -5355 -5356 0
-5087 -5352 5353 5355 -5356 0
-5087 -5352 5353 -5355 -5356 0
-5087 -5352 -5353 5355 -5356 0
-5087 -5352 -5353 -5355 -5356 0
350 5357 0
-350 -5357 0
5357 5358 0
-5357 -5358 0
5087 5353 5358 5359 0
5087 5353 -5358 -5359 0
5087 -5353 5358 -5359 0
5087 -5353 -5358 -5359 0
-5087 5353 5358 -5359 0
-5087 5353 -5358 -5359 0
-5087 -5353 5358 -5359 0
-5087 -5353 -5358 -5359 0
5356 5359 -5360 0
5356 -5359 5360 0
-5356 5359 5360 0
-5356 -5359 5360 0
351 5361 0
-351 -5361 0
5361 5362 0
-5361 -5362 0
5004 5363 0
-5004 -5363 0
4151 4189 4115 5364 0
4151 4189 -4115 -5364 0
4151 -4189 4115 -5364 0
4151 -4189 -4115 -5364 0
-4151 4189 4115 -5364 0
-4151 4189 -4115 -5364 0
-4151 -4189 4115 -5364 0
-4151 -4189 -4115 -5364 0
5364 5365 0
-5364 -5365 0
5150 5362 5363 5365 5366 0
5150 5362 5363 -5365 -5366 0
5150 5362 -5363 5365 -5366 0
5150 5362 -5363 -5365 -5366 0
5150 -5362 5363 5365 -5366 0
5150 -5362 5363 -5365 -5366 0
5150 -5362 -5363 5365 -5366 0
5150 -5362 -5363 -5365 -5366 0
-5150 5362 5363 5365 -5366 0
-5150 5362 5363 -5365 -5366 0
-5150 5362 -5363 5365 -5366 0
-5150 5362 -5363 -5365 -5366 0
-5150 -5362 5363 5365 -5366 0
-5150 -5362 5363 -5365 -5366 0
-5150 -5362 -5363 5365 -5366 0
-5150 -5362 -5363 -5365 -5366 0
350 5367 0
-350 -5367 0
5367 5368 0
-5367 -5368 0
5150 5363 5368 5369 0
5150 5363 -5368 -5369 0
5150 -5363 5368 -5369 0
5150 -5363 -5368 -5369 0
-5150 5363 5368 -5369 0
-5150 5363 -5368 -5369 0
-5150 -5363 5368 -5369 0
-5150 -5363 -5368 -5369 0
5366 5369 -5370 0
5366 -5369 5370 0
-5366 5369 5370 0
-5366 -5369 5370 0
5360 5370 -5371 0
5360 -5370 5371 0
-5360 5370 5371 0
-5360 -5370 -5371 0
3942 3955 -5372 0
3942 -3955 5372 0
-3942 3955 5372 0
-3942 -3955 -5372 0
700 704 702 5373 0
700 704 -702 -5373 0
700 -704 702 -5373 0
700 -704 -702 -5373 0
-700 704 702 -5373 0
-700 704 -702 -5373 0
-700 -704 702 -5373 0
-700 -704 -702 -5373 0
5373 5374 0
-5373 -5374 0
5374 685 5375 0
5374 -685 -5375 0
-5374 685 -5375 0
-5374 -685 -5375 0
1682 665 673 5376 0
1682 665 -673 -5376 0
1682 -665 673 -5376 0
1682 -665 -673 -5376 0
-1682 665 673 -5376 0
-1682 665 -673 -5376 0
-1682 -665 673 -5376 0
-1682 -665 -673 -5376 0
5376 5377 0
-5376 -5377 0
679 5377 5378 0
679 -5377 -5378 0
-679 5377 -5378 0
-679 -5377 -5378 0
5375 5378 5379 0
5375 -5378 -5379 0
-5375 5378 -5379 0
-5375 -5378 -5379 0
5379 4894 5380 0
5379 -4894 -5380 0
-5379 4894 -5380 0
-5379 -4894 -5380 0
2777 2782 2788 5381 0
2777 2782 -2788 -5381 0
2777 -2782 2788 -5381 0
2777 -2782 -2788 -5381 0
-2777 2782 2788 -5381 0
-2777 2782 -2788 -5381 0
-2777 -2782 2788 -5381 0
-2777 -2782 -2788 -5381 0
5381 5382 0
-5381 -5382 0
2813 5383 0
-2813 -5383 0
5382 3131 5383 5384 0
5382 3131 -5383 -5384 0
5382 -3131 5383 -5384 0
5382 -3131 -5383 -5384 0
-5382 3131 5383 -5384 0
-5382 3131 -5383 -5384 0
-5382 -3131 5383 -5384 0
-5382 -3131 -5383 -5384 0
5384 5385 0
-5384 -5385 0
354 5386 0
-354 -5386 0
5386 5387 0
-5386 -5387 0
5385 5387 5388 0
5385 -5387 -5388 0
-5385 5387 -5388 0
-5385 -5387 -5388 0
2772 2768 2788 5389 0
2772 2768 -2788 -5389 0
2772 -2768 2788 -5389 0
2772 -2768 -2788 -5389 0
-2772 2768 2788 -5389 0
-2772 2768 -2788 -5389 0
-2772 -2768 2788 -5389 0
-2772 -2768 -2788 -5389 0
5389 5390 0
-5389 -5390 0
5390 3130 3131 5391 0
5390 3130 -3131 -5391 0
5390 -3130 3131 -5391 0
5390 -3130 -3131 -5391 0
-5390 3130 3131 -5391 0
-5390 3130 -3131 -5391 0
-5390 -3130 3131 -5391 0
-5390 -3130 -3131 -5391 0
5391 5392 0
-5391 -5392 0
354 5393 0
-354 -5393 0
5392 5393 5394 0
5392 -5393 -5394 0
-5392 5393 -5394 0
-5392 -5393 -5394 0
5388 5394 5395 0
5388 -5394 -5395 0
-5388 5394 -5395 0
-5388 -5394 -5395 0
3137 5395 3028 -5396 0
3137 5395 -3028 5396 0
3137 -5395 3028 5396 0
3137 -5395 -3028 5396 0
-3137 5395 3028 5396 0
-3137 5395 -3028 5396 0
-3137 -5395 3028 5396 0
-3137 -5395 -3028 5396 0
2910 2047 5396 -5397 0
2910 2047 -5396 5397 0
2910 -2047 5396 5397 0
2910 -2047 -5396 5397 0
-2910 2047 5396 5397 0
-2910 2047 -5396 5397 0
-2910 -2047 5396 5397 0
-2910 -2047 -5396 5397 0
5397 5398 0
-5397 -5398 0
5398 5399 0
-5398 -5399 0
5399 5400 0
-5399 -5400 0
5380 5400 -5401 0
5380 -5400 5401 0
-5380 5400 5401 0
-5380 -5400 5401 0
772 776 774 5402 0
772 776 -774 -5402 0
772 -776 774 -5402 0
772 -776 -774 -5402 0
-772 776 774 -5402 0
-772 776 -774 -5402 0
-772 -776 774 -5402 0
-772 -776 -774 -5402 0
5402 5403 0
-5402 -5403 0
5403 757 5404 0
5403 -757 -5404 0
-5403 757 -5404 0
-5403 -757 -5404 0
1709 737 745 5405 0
1709 737 -745 -5405 0
1709 -737 745 -5405 0
1709 -737 -745 -5405 0
-1709 737 745 -5405 0
-1709 737 -745 -5405 0
-1709 -737 745 -5405 0
-1709 -737 -745 -5405 0
5405 5406 0
-5405 -5406 0
751 5406 5407 0
751 -5406 -5407 0
-751 5406 -5407 0
-751 -5406 -5407 0
5404 5407 5408 0
5404 -5407 -5408 0
-5404 5407 -5408 0
-5404 -5407 -5408 0
5408 4908 5409 0
5408 -4908 -5409 0
-5408 4908 -5409 0
-5408 -4908 -5409 0
2850 2855 2861 5410 0
2850 2855 -2861 -5410 0
2850 -2855 2861 -5410 0
2850 -2855 -2861 -5410 0
-2850 2855 2861 -5410 0
-2850 2855 -2861 -5410 0
-2850 -2855 2861 -5410 0
-2850 -2855 -2861 -5410 0
5410 5411 0
-5410 -5411 0
2886 5412 0
-2886 -5412 0
5411 3149 5412 5413 0
5411 3149 -5412 -5413 0
5411 -3149 5412 -5413 0
5411 -3149 -5412 -5413 0
-5411 3149 5412 -5413 0
-5411 3149 -5412 -5413 0
-5411 -3149 5412 -5413 0
-5411 -3149 -5412 -5413 0
5413 5414 0
-5413 -5414 0
354 5415 0
-354 -5415 0
5415 5416 0
-5415 -5416 0
5414 5416 5417 0
5414 -5416 -5417 0
-5414 5416 -5417 0
-5414 -5416 -5417 0
2845 2841 2861 5418 0
2845 2841 -2861 -5418 0
2845 -2841 2861 -5418 0
2845 -2841 -2861 -5418 0
-2845 2841 2861 -5418 0
-2845 2841 -2861 -5418 0
-2845 -2841 2861 -5418 0
-2845 -2841 -2861 -5418 0
5418 5419 0
-5418 -5419 0
5419 3148 3149 5420 0
5419 3148 -3149 -5420 0
5419 -3148 3149 -5420 0
5419 -3148 -3149 -5420 0
-5419 3148 3149 -5420 0
-5419 3148 -3149 -5420 0
-5419 -3148 3149 -5420 0
-5419 -3148 -3149 -5420 0
5420 5421 0
-5420 -5421 0
354 5422 0
-354 -5422 0
5421 5422 5423 0
5421 -5422 -5423 0
-5421 5422 -5423 0
-5421 -5422 -5423 0
5417 5423 5424 0
5417 -5423 -5424 0
-5417 5423 -5424 0
-5417 -5423 -5424 0
3155 5424 3091 -5425 0
3155 5424 -3091 5425 0
3155 -5424 3091 5425 0
3155 -5424 -3091 5425 0
-3155 5424 3091 5425 0
-3155 5424 -3091 5425 0
-3155 -5424 3091 5425 0
-3155 -5424 -3091 5425 0
2943 2411 5425 -5426 0
2943 2411 -5425 5426 0
2943 -2411 5425 5426 0
2943 -2411 -5425 5426 0
-2943 2411 5425 5426 0
-2943 2411 -5425 5426 0
-2943 -2411 5425 5426 0
-2943 -2411 -5425 5426 0
5426 5427 0
-5426 -5427 0
5427 5428 0
-5427 -5428 0
5428 5429 0
-5428 -5429 0
5409 5429 -5430 0
5409 -5429 5430 0
-5409 5429 5430 0
-5409 -5429 5430 0
5401 5430 -5431 0
5401 -5430 5431 0
-5401 5430 5431 0
-5401 -5430 -5431 0
689 5432 0
-689 -5432 0
287 5433 0
-287 -5433 0
5433 5434 0
-5433 -5434 0
5434 5435 0
-5434 -5435 0
5432 5435 5436 0
5432 -5435 -5436 0
-5432 5435 -5436 0
-5432 -5435 -5436 0
662 5437 0
-662 -5437 0
4894 5437 5438 0
4894 -5437 -5438 0
-4894 5437 -5438 0
-4894 -5437 -5438 0
5436 5438 -5439 0
5436 -5438 5439 0
-5436 5438 5439 0
-5436 -5438 5439 0
761 5440 0
-761 -5440 0
287 5441 0
-287 -5441 0
5441 5442 0
-5441 -5442 0
5442 5443 0
-5442 -5443 0
5440 5443 5444 0
5440 -5443 -5444 0
-5440 5443 -5444 0
-5440 -5443 -5444 0
734 5445 0
-734 -5445 0
4908 5445 5446 0
4908 -5445 -5446 0
-4908 5445 -5446 0
-4908 -5445 -5446 0
5444 5446 -5447 0
5444 -5446 5447 0
-5444 5446 5447 0
-5444 -5446 5447 0
5439 5447 -5448 0
5439 -5447 5448 0
-5439 5447 5448 0
-5439 -5447 -5448 0
288 5449 0
-288 -5449 0
5449 5450 0
-5449 -5450 0
5450 5451 0
-5450 -5451 0
5432 5451 5452 0
5432 -5451 -5452 0
-5432 5451 -5452 0
-5432 -5451 -5452 0
5437 4579 5453 0
5437 -4579 -5453 0
-5437 4579 -5453 0
-5437 -4579 -5453 0
5452 5453 -5454 0
5452 -5453 5454 0
-5452 5453 5454 0
-5452 -5453 5454 0
288 5455 0
-288 -5455 0
5455 5456 0
-5455 -5456 0
5456 5457 0
-5456 -5457 0
5440 5457 5458 0
5440 -5457 -5458 0
-5440 5457 -5458 0
-5440 -5457 -5458 0
5445 4591 5459 0
5445 -4591 -5459 0
-5445 4591 -5459 0
-5445 -4591 -5459 0
5458 5459 -5460 0
5458 -5459 5460 0
-5458 5459 5460 0
-5458 -5459 5460 0
5454 5460 -5461 0
5454 -5460 5461 0
-5454 5460 5461 0
-5454 -5460 -5461 0
5437 4612 5462 0
5437 -4612 -5462 0
-5437 4612 -5462 0
-5437 -4612 -5462 0
4748 5432 5463 0
4748 -5432 -5463 0
-4748 5432 -5463 0
-4748 -5432 -5463 0
5462 5463 -5464 0
5462 -5463 5464 0
-5462 5463 5464 0
-5462 -5463 5464 0
5445 4632 5465 0
5445 -4632 -5465 0
-5445 4632 -5465 0
-5445 -4632 -5465 0
4769 5440 5466 0
4769 -5440 -5466 0
-4769 5440 -5466 0
-4769 -5440 -5466 0
5465 5466 -5467 0
5465 -5466 5467 0
-5465 5466 5467 0
-5465 -5466 5467 0
5464 5467 -5468 0
5464 -5467 5468 0
-5464 5467 5468 0
-5464 -5467 -5468 0
4724 5437 5469 0
4724 -5437 -5469 0
-4724 5437 -5469 0
-4724 -5437 -5469 0
5432 4715 5470 0
5432 -4715 -5470 0
-5432 4715 -5470 0
-5432 -4715 -5470 0
5469 5470 -5471 0
5469 -5470 5471 0
-5469 5470 5471 0
-5469 -5470 5471 0
4740 5445 5472 0
4740 -5445 -5472 0
-4740 5445 -5472 0
-4740 -5445 -5472 0
5440 4731 5473 0
5440 -4731 -5473 0
-5440 4731 -5473 0
-5440 -4731 -5473 0
5472 5473 -5474 0
5472 -5473 5474 0
-5472 5473 5474 0
-5472 -5473 5474 0
5471 5474 -5475 0
5471 -5474 5475 0
-5471 5474 5475 0
-5471 -5474 -5475 0
4667 4894 5476 0
4667 -4894 -5476 0
-4667 4894 -5476 0
-4667 -4894 -5476 0
5435 4638 5477 0
5435 -4638 -5477 0
-5435 4638 -5477 0
-5435 -4638 -5477 0
5476 5477 -5478 0
5476 -5477 5478 0
-5476 5477 5478 0
-5476 -5477 5478 0
4704 4908 5479 0
4704 -4908 -5479 0
-4704 4908 -5479 0
-4704 -4908 -5479 0
5443 4675 5480 0
5443 -4675 -5480 0
-5443 4675 -5480 0
-5443 -4675 -5480 0
5479 5480 -5481 0
5479 -5480 5481 0
-5479 5480 5481 0
-5479 -5480 5481 0
5478 5481 -5482 0
5478 -5481 5482 0
-5478 5481 5482 0
-5478 -5481 -5482 0
5379 4579 5483 0
5379 -4579 -5483 0
-5379 4579 -5483 0
-5379 -4579 -5483 0
5399 5484 0
-5399 -5484 0
5483 5484 -5485 0
5483 -5484 5485 0
-5483 5484 5485 0
-5483 -5484 5485 0
5408 4591 5486 0
5408 -4591 -5486 0
-5408 4591 -5486 0
-5408 -4591 -5486 0
5428 5487 0
-5428 -5487 0
5486 5487 -5488 0
5486 -5487 5488 0
-5486 5487 5488 0
-5486 -5487 5488 0
5485 5488 -5489 0
5485 -5488 5489 0
-5485 5488 5489 0
-5485 -5488 -5489 0
5379 4530 5490 0
5379 -4530 -5490 0
-5379 4530 -5490 0
-5379 -4530 -5490 0
5399 5491 0
-5399 -5491 0
5490 5491 -5492 0
5490 -5491 5492 0
-5490 5491 5492 0
-5490 -5491 5492 0
5408 4566 5493 0
5408 -4566 -5493 0
-5408 4566 -5493 0
-5408 -4566 -5493 0
5428 5494 0
-5428 -5494 0
5493 5494 -5495 0
5493 -5494 5495 0
-5493 5494 5495 0
-5493 -5494 5495 0
5492 5495 -5496 0
5492 -5495 5496 0
-5492 5495 5496 0
-5492 -5495 -5496 0
690 5398 5497 0
690 -5398 -5497 0
-690 5398 -5497 0
-690 -5398 -5497 0
5497 5498 0
-5497 -5498 0
5451 5498 5499 0
5451 -5498 -5499 0
-5451 5498 -5499 0
-5451 -5498 -5499 0
5398 663 5500 0
5398 -663 -5500 0
-5398 663 -5500 0
-5398 -663 -5500 0
5500 5501 0
-5500 -5501 0
4579 5501 5502 0
4579 -5501 -5502 0
-4579 5501 -5502 0
-4579 -5501 -5502 0
5398 5503 0
-5398 -5503 0
5503 5504 0
-5503 -5504 0
5499 5502 5504 -5505 0
5499 5502 -5504 5505 0
5499 -5502 5504 5505 0
5499 -5502 -5504 5505 0
-5499 5502 5504 5505 0
-5499 5502 -5504 5505 0
-5499 -5502 5504 5505 0
-5499 -5502 -5504 5505 0
762 5427 5506 0
762 -5427 -5506 0
-762 5427 -5506 0
-762 -5427 -5506 0
5506 5507 0
-5506 -5507 0
5457 5507 5508 0
5457 -5507 -5508 0
-5457 5507 -5508 0
-5457 -5507 -5508 0
5427 735 5509 0
5427 -735 -5509 0
-5427 735 -5509 0
-5427 -735 -5509 0
5509 5510 0
-5509 -5510 0
4591 5510 5511 0
4591 -5510 -5511 0
-4591 5510 -5511 0
-4591 -5510 -5511 0
5427 5512 0
-5427 -5512 0
5512 5513 0
-5512 -5513 0
5508 5511 5513 -5514 0
5508 5511 -5513 5514 0
5508 -5511 5513 5514 0
5508 -5511 -5513 5514 0
-5508 5511 5513 5514 0
-5508 5511 -5513 5514 0
-5508 -5511 5513 5514 0
-5508 -5511 -5513 5514 0
5505 5514 -5515 0
5505 -5514 5515 0
-5505 5514 5515 0
-5505 -5514 -5515 0
5437 4530 5516 0
5437 -4530 -5516 0
-5437 4530 -5516 0
-5437 -4530 -5516 0
289 5517 0
-289 -5517 0
5517 5518 0
-5517 -5518 0
5518 5519 0
-5518 -5519 0
5432 5519 5520 0
5432 -5519 -5520 0
-5432 5519 -5520 0
-5432 -5519 -5520 0
5516 5520 -5521 0
5516 -5520 5521 0
-5516 5520 5521 0
-5516 -5520 5521 0
5445 4566 5522 0
5445 -4566 -5522 0
-5445 4566 -5522 0
-5445 -4566 -5522 0
289 5523 0
-289 -5523 0
5523 5524 0
-5523 -5524 0
5524 5525 0
-5524 -5525 0
5440 5525 5526 0
5440 -5525 -5526 0
-5440 5525 -5526 0
-5440 -5525 -5526 0
5522 5526 -5527 0
5522 -5526 5527 0
-5522 5526 5527 0
-5522 -5526 5527 0
5521 5527 -5528 0
5521 -5527 5528 0
-5521 5527 5528 0
-5521 -5527 -5528 0
4667 4530 5529 0
4667 -4530 -5529 0
-4667 4530 -5529 0
-4667 -4530 -5529 0
5519 4638 5530 0
5519 -4638 -5530 0
-5519 4638 -5530 0
-5519 -4638 -5530 0
5529 5530 -5531 0
5529 -5530 5531 0
-5529 5530 5531 0
-5529 -5530 5531 0
4704 4566 5532 0
4704 -4566 -5532 0
-4704 4566 -5532 0
-4704 -4566 -5532 0
5525 4675 5533 0
5525 -4675 -5533 0
-5525 4675 -5533 0
-5525 -4675 -5533 0
5532 5533 -5534 0
5532 -5533 5534 0
-5532 5533 5534 0
-5532 -5533 5534 0
5531 5534 -5535 0
5531 -5534 5535 0
-5531 5534 5535 0
-5531 -5534 -5535 0
5399 5536 0
-5399 -5536 0
4724 5379 5537 0
4724 -5379 -5537 0
-4724 5379 -5537 0
-4724 -5379 -5537 0
5536 5537 -5538 0
5536 -5537 5538 0
-5536 5537 5538 0
-5536 -5537 5538 0
5428 5539 0
-5428 -5539 0
4740 5408 5540 0
4740 -5408 -5540 0
-4740 5408 -5540 0
-4740 -5408 -5540 0
5539 5540 -5541 0
5539 -5540 5541 0
-5539 5540 5541 0
-5539 -5540 5541 0
5538 5541 -5542 0
5538 -5541 5542 0
-5538 5541 5542 0
-5538 -5541 -5542 0
5399 5543 0
-5399 -5543 0
5379 4872 5544 0
5379 -4872 -5544 0
-5379 4872 -5544 0
-5379 -4872 -5544 0
5543 5544 -5545 0
5543 -5544 5545 0
-5543 5544 5545 0
-5543 -5544 5545 0
5428 5546 0
-5428 -5546 0
5408 4886 5547 0
5408 -4886 -5547 0
-5408 4886 -5547 0
-5408 -4886 -5547 0
5546 5547 -5548 0
5546 -5547 5548 0
-5546 5547 5548 0
-5546 -5547 5548 0
5545 5548 -5549 0
5545 -5548 5549 0
-5545 5548 5549 0
-5545 -5548 -5549 0
4828 5379 5550 0
4828 -5379 -5550 0
-4828 5379 -5550 0
-4828 -5379 -5550 0
5399 5551 0
-5399 -5551 0
5550 5551 -5552 0
5550 -5551 5552 0
-5550 5551 5552 0
-5550 -5551 5552 0
4846 5408 5553 0
4846 -5408 -5553 0
-4846 5408 -5553 0
-4846 -5408 -5553 0
5428 5554 0
-5428 -5554 0
5553 5554 -5555 0
5553 -5554 5555 0
-5553 5554 5555 0
-5553 -5554 5555 0
5552 5555 -5556 0
5552 -5555 5556 0
-5552 5555 5556 0
-5552 -5555 -5556 0
4670 5379 5557 0
4670 -5379 -5557 0
-4670 5379 -5557 0
-4670 -5379 -5557 0
5399 5558 0
-5399 -5558 0
5557 5558 -5559 0
5557 -5558 5559 0
-5557 5558 5559 0
-5557 -5558 5559 0
4707 5408 5560 0
4707 -5408 -5560 0
-4707 5408 -5560 0
-4707 -5408 -5560 0
5428 5561 0
-5428 -5561 0
5560 5561 -5562 0
5560 -5561 5562 0
-5560 5561 5562 0
-5560 -5561 5562 0
5559 5562 -5563 0
5559 -5562 5563 0
-5559 5562 5563 0
-5559 -5562 -5563 0
4612 5379 5564 0
4612 -5379 -5564 0
-4612 5379 -5564 0
-4612 -5379 -5564 0
5399 5565 0
-5399 -5565 0
5564 5565 -5566 0
5564 -5565 5566 0
-5564 5565 5566 0
-5564 -5565 5566 0
4632 5408 5567 0
4632 -5408 -5567 0
-4632 5408 -5567 0
-4632 -5408 -5567 0
5428 5568 0
-5428 -5568 0
5567 5568 -5569 0
5567 -5568 5569 0
-5567 5568 5569 0
-5567 -5568 5569 0
5566 5569 -5570 0
5566 -5569 5570 0
-5566 5569 5570 0
-5566 -5569 -5570 0
5379 4802 5571 0
5379 -4802 -5571 0
-5379 4802 -5571 0
-5379 -4802 -5571 0
5399 5572 0
-5399 -5572 0
5571 5572 -5573 0
5571 -5572 5573 0
-5571 5572 5573 0
-5571 -5572 5573 0
5408 4820 5574 0
5408 -4820 -5574 0
-5408 4820 -5574 0
-5408 -4820 -5574 0
5428 5575 0
-5428 -5575 0
5574 5575 -5576 0
5574 -5575 5576 0
-5574 5575 5576 0
-5574 -5575 5576 0
5573 5576 -5577 0
5573 -5576 5577 0
-5573 5576 5577 0
-5573 -5576 -5577 0
4638 5451 5578 0
4638 -5451 -5578 0
-4638 5451 -5578 0
-4638 -5451 -5578 0
4667 4579 5579 0
4667 -4579 -5579 0
-4667 4579 -5579 0
-4667 -4579 -5579 0
5578 5579 -5580 0
5578 -5579 5580 0
-5578 5579 5580 0
-5578 -5579 5580 0
4675 5457 5581 0
4675 -5457 -5581 0
-4675 5457 -5581 0
-4675 -5457 -5581 0
4704 4591 5582 0
4704 -4591 -5582 0
-4704 4591 -5582 0
-4704 -4591 -5582 0
5581 5582 -5583 0
5581 -5582 5583 0
-5581 5582 5583 0
-5581 -5582 5583 0
5580 5583 -5584 0
5580 -5583 5584 0
-5580 5583 5584 0
-5580 -5583 -5584 0
4748 5498 5585 0
4748 -5498 -5585 0
-4748 5498 -5585 0
-4748 -5498 -5585 0
5503 5586 0
-5503 -5586 0
4612 5501 5587 0
4612 -5501 -5587 0
-4612 5501 -5587 0
-4612 -5501 -5587 0
5585 5586 5587 -5588 0
5585 5586 -5587 5588 0
5585 -5586 5587 5588 0
5585 -5586 -5587 5588 0
-5585 5586 5587 5588 0
-5585 5586 -5587 5588 0
-5585 -5586 5587 5588 0
-5585 -5586 -5587 5588 0
4769 5507 5589 0
4769 -5507 -5589 0
-4769 5507 -5589 0
-4769 -5507 -5589 0
5512 5590 0
-5512 -5590 0
4632 5510 5591 0
4632 -5510 -5591 0
-4632 5510 -5591 0
-4632 -5510 -5591 0
5589 5590 5591 -5592 0
5589 5590 -5591 5592 0
5589 -5590 5591 5592 0
5589 -5590 -5591 5592 0
-5589 5590 5591 5592 0
-5589 5590 -5591 5592 0
-5589 -5590 5591 5592 0
-5589 -5590 -5591 5592 0
5588 5592 -5593 0
5588 -5592 5593 0
-5588 5592 5593 0
-5588 -5592 -5593 0
5501 4894 5594 0
5501 -4894 -5594 0
-5501 4894 -5594 0
-5501 -4894 -5594 0
5498 5435 5595 0
5498 -5435 -5595 0
-5498 5435 -5595 0
-5498 -5435 -5595 0
5503 5596 0
-5503 -5596 0
5594 5595 5596 -5597 0
5594 5595 -5596 5597 0
5594 -5595 5596 5597 0
5594 -5595 -5596 5597 0
-5594 5595 5596 5597 0
-5594 5595 -5596 5597 0
-5594 -5595 5596 5597 0
-5594 -5595 -5596 5597 0
5510 4908 5598 0
5510 -4908 -5598 0
-5510 4908 -5598 0
-5510 -4908 -5598 0
5507 5443 5599 0
5507 -5443 -5599 0
-5507 5443 -5599 0
-5507 -5443 -5599 0
5512 5600 0
-5512 -5600 0
5598 5599 5600 -5601 0
5598 5599 -5600 5601 0
5598 -5599 5600 5601 0
5598 -5599 -5600 5601 0
-5598 5599 5600 5601 0
-5598 5599 -5600 5601 0
-5598 -5599 5600 5601 0
-5598 -5599 -5600 5601 0
5597 5601 -5602 0
5597 -5601 5602 0
-5597 5601 5602 0
-5597 -5601 -5602 0
5503 5603 0
-5503 -5603 0
5501 4828 5604 0
5501 -4828 -5604 0
-5501 4828 -5604 0
-5501 -4828 -5604 0
5498 4839 5605 0
5498 -4839 -5605 0
-5498 4839 -5605 0
-5498 -4839 -5605 0
5603 5604 5605 -5606 0
5603 5604 -5605 5606 0
5603 -5604 5605 5606 0
5603 -5604 -5605 5606 0
-5603 5604 5605 5606 0
-5603 5604 -5605 5606 0
-5603 -5604 5605 5606 0
-5603 -5604 -5605 5606 0
5512 5607 0
-5512 -5607 0
5510 4846 5608 0
5510 -4846 -5608 0
-5510 4846 -5608 0
-5510 -4846 -5608 0
5507 4857 5609 0
5507 -4857 -5609 0
-5507 4857 -5609 0
-5507 -4857 -5609 0
5607 5608 5609 -5610 0
5607 5608 -5609 5610 0
5607 -5608 5609 5610 0
5607 -5608 -5609 5610 0
-5607 5608 5609 5610 0
-5607 5608 -5609 5610 0
-5607 -5608 5609 5610 0
-5607 -5608 -5609 5610 0
5606 5610 -5611 0
5606 -5610 5611 0
-5606 5610 5611 0
-5606 -5610 -5611 0
286 5612 0
-286 -5612 0
5612 5613 0
-5612 -5613 0
5613 5614 0
-5613 -5614 0
5614 4638 5615 0
5614 -4638 -5615 0
-5614 4638 -5615 0
-5614 -4638 -5615 0
4872 4667 5616 0
4872 -4667 -5616 0
-4872 4667 -5616 0
-4872 -4667 -5616 0
5615 5616 -5617 0
5615 -5616 5617 0
-5615 5616 5617 0
-5615 -5616 5617 0
286 5618 0
-286 -5618 0
5618 5619 0
-5618 -5619 0
5619 5620 0
-5619 -5620 0
5620 4675 5621 0
5620 -4675 -5621 0
-5620 4675 -5621 0
-5620 -4675 -5621 0
4886 4704 5622 0
4886 -4704 -5622 0
-4886 4704 -5622 0
-4886 -4704 -5622 0
5621 5622 -5623 0
5621 -5622 5623 0
-5621 5622 5623 0
-5621 -5622 5623 0
5617 5623 -5624 0
5617 -5623 5624 0
-5617 5623 5624 0
-5617 -5623 -5624 0
5437 4802 5625 0
5437 -4802 -5625 0
-5437 4802 -5625 0
-5437 -4802 -5625 0
4791 5432 5626 0
4791 -5432 -5626 0
-4791 5432 -5626 0
-4791 -5432 -5626 0
5625 5626 -5627 0
5625 -5626 5627 0
-5625 5626 5627 0
-5625 -5626 5627 0
5445 4820 5628 0
5445 -4820 -5628 0
-5445 4820 -5628 0
-5445 -4820 -5628 0
4809 5440 5629 0
4809 -5440 -5629 0
-4809 5440 -5629 0
-4809 -5440 -5629 0
5628 5629 -5630 0
5628 -5629 5630 0
-5628 5629 5630 0
-5628 -5629 5630 0
5627 5630 -5631 0
5627 -5630 5631 0
-5627 5630 5631 0
-5627 -5630 -5631 0
4828 5437 5632 0
4828 -5437 -5632 0
-4828 5437 -5632 0
-4828 -5437 -5632 0
5432 4839 5633 0
5432 -4839 -5633 0
-5432 4839 -5633 0
-5432 -4839 -5633 0
5632 5633 -5634 0
5632 -5633 5634 0
-5632 5633 5634 0
-5632 -5633 5634 0
4846 5445 5635 0
4846 -5445 -5635 0
-4846 5445 -5635 0
-4846 -5445 -5635 0
5440 4857 5636 0
5440 -4857 -5636 0
-5440 4857 -5636 0
-5440 -4857 -5636 0
5635 5636 -5637 0
5635 -5636 5637 0
-5635 5636 5637 0
-5635 -5636 5637 0
5634 5637 -5638 0
5634 -5637 5638 0
-5634 5637 5638 0
-5634 -5637 -5638 0
5437 4670 5639 0
5437 -4670 -5639 0
-5437 4670 -5639 0
-5437 -4670 -5639 0
5432 4641 5640 0
5432 -4641 -5640 0
-5432 4641 -5640 0
-5432 -4641 -5640 0
5639 5640 -5641 0
5639 -5640 5641 0
-5639 5640 5641 0
-5639 -5640 5641 0
5445 4707 5642 0
5445 -4707 -5642 0
-5445 4707 -5642 0
-5445 -4707 -5642 0
5440 4678 5643 0
5440 -4678 -5643 0
-5440 4678 -5643 0
-5440 -4678 -5643 0
5642 5643 -5644 0
5642 -5643 5644 0
-5642 5643 5644 0
-5642 -5643 5644 0
5641 5644 -5645 0
5641 -5644 5645 0
-5641 5644 5645 0
-5641 -5644 -5645 0
4872 5437 5646 0
4872 -5437 -5646 0
-4872 5437 -5646 0
-4872 -5437 -5646 0
5432 5614 5647 0
5432 -5614 -5647 0
-5432 5614 -5647 0
-5432 -5614 -5647 0
5646 5647 -5648 0
5646 -5647 5648 0
-5646 5647 5648 0
-5646 -5647 5648 0
4886 5445 5649 0
4886 -5445 -5649 0
-4886 5445 -5649 0
-4886 -5445 -5649 0
5440 5620 5650 0
5440 -5620 -5650 0
-5440 5620 -5650 0
-5440 -5620 -5650 0
5649 5650 -5651 0
5649 -5650 5651 0
-5649 5650 5651 0
-5649 -5650 5651 0
5648 5651 -5652 0
5648 -5651 5652 0
-5648 5651 5652 0
-5648 -5651 -5652 0
4530 5501 5653 0
4530 -5501 -5653 0
-4530 5501 -5653 0
-4530 -5501 -5653 0
5498 5519 5654 0
5498 -5519 -5654 0
-5498 5519 -5654 0
-5498 -5519 -5654 0
5503 5655 0
-5503 -5655 0
5653 5654 5655 -5656 0
5653 5654 -5655 5656 0
5653 -5654 5655 5656 0
5653 -5654 -5655 5656 0
-5653 5654 5655 5656 0
-5653 5654 -5655 5656 0
-5653 -5654 5655 5656 0
-5653 -5654 -5655 5656 0
4566 5510 5657 0
4566 -5510 -5657 0
-4566 5510 -5657 0
-4566 -5510 -5657 0
5507 5525 5658 0
5507 -5525 -5658 0
-5507 5525 -5658 0
-5507 -5525 -5658 0
5512 5659 0
-5512 -5659 0
5657 5658 5659 -5660 0
5657 5658 -5659 5660 0
5657 -5658 5659 5660 0
5657 -5658 -5659 5660 0
-5657 5658 5659 5660 0
-5657 5658 -5659 5660 0
-5657 -5658 5659 5660 0
-5657 -5658 -5659 5660 0
5656 5660 -5661 0
5656 -5660 5661 0
-5656 5660 5661 0
-5656 -5660 -5661 0
5498 4791 5662 0
5498 -4791 -5662 0
-5498 4791 -5662 0
-5498 -4791 -5662 0
4802 5501 5663 0
4802 -5501 -5663 0
-4802 5501 -5663 0
-4802 -5501 -5663 0
5503 5664 0
-5503 -5664 0
5662 5663 5664 -5665 0
5662 5663 -5664 5665 0
5662 -5663 5664 5665 0
5662 -5663 -5664 5665 0
-5662 5663 5664 5665 0
-5662 5663 -5664 5665 0
-5662 -5663 5664 5665 0
-5662 -5663 -5664 5665 0
5507 4809 5666 0
5507 -4809 -5666 0
-5507 4809 -5666 0
-5507 -4809 -5666 0
4820 5510 5667 0
4820 -5510 -5667 0
-4820 5510 -5667 0
-4820 -5510 -5667 0
5512 5668 0
-5512 -5668 0
5666 5667 5668 -5669 0
5666 5667 -5668 5669 0
5666 -5667 5668 5669 0
5666 -5667 -5668 5669 0
-5666 5667 5668 5669 0
-5666 5667 -5668 5669 0
-5666 -5667 5668 5669 0
-5666 -5667 -5668 5669 0
5665 5669 -5670 0
5665 -5669 5670 0
-5665 5669 5670 0
-5665 -5669 -5670 0
5503 5671 0
-5503 -5671 0
4872 5501 5672 0
4872 -5501 -5672 0
-4872 5501 -5672 0
-4872 -5501 -5672 0
5614 5498 5673 0
5614 -5498 -5673 0
-5614 5498 -5673 0
-5614 -5498 -5673 0
5671 5672 5673 -5674 0
5671 5672 -5673 5674 0
5671 -5672 5673 5674 0
5671 -5672 -5673 5674 0
-5671 5672 5673 5674 0
-5671 5672 -5673 5674 0
-5671 -5672 5673 5674 0
-5671 -5672 -5673 5674 0
5512 5675 0
-5512 -5675 0
4886 5510 5676 0
4886 -5510 -5676 0
-4886 5510 -5676 0
-4886 -5510 -5676 0
5620 5507 5677 0
5620 -5507 -5677 0
-5620 5507 -5677 0
-5620 -5507 -5677 0
5675 5676 5677 -5678 0
5675 5676 -5677 5678 0
5675 -5676 5677 5678 0
5675 -5676 -5677 5678 0
-5675 5676 5677 5678 0
-5675 5676 -5677 5678 0
-5675 -5676 5677 5678 0
-5675 -5676 -5677 5678 0
5674 5678 -5679 0
5674 -5678 5679 0
-5674 5678 5679 0
-5674 -5678 -5679 0
5498 4715 5680 0
5498 -4715 -5680 0
-5498 4715 -5680 0
-5498 -4715 -5680 0
5501 4724 5681 0
5501 -4724 -5681 0
-5501 4724 -5681 0
-5501 -4724 -5681 0
5503 5682 0
-5503 -5682 0
5680 5681 5682 -5683 0
5680 5681 -5682 5683 0
5680 -5681 5682 5683 0
5680 -5681 -5682 5683 0
-5680 5681 5682 5683 0
-5680 5681 -5682 5683 0
-5680 -5681 5682 5683 0
-5680 -5681 -5682 5683 0
5507 4731 5684 0
5507 -4731 -5684 0
-5507 4731 -5684 0
-5507 -4731 -5684 0
5510 4740 5685 0
5510 -4740 -5685 0
-5510 4740 -5685 0
-5510 -4740 -5685 0
5512 5686 0
-5512 -5686 0
5684 5685 5686 -5687 0
5684 5685 -5686 5687 0
5684 -5685 5686 5687 0
5684 -5685 -5686 5687 0
-5684 5685 5686 5687 0
-5684 5685 -5686 5687 0
-5684 -5685 5686 5687 0
-5684 -5685 -5686 5687 0
5683 5687 -5688 0
5683 -5687 5688 0
-5683 5687 5688 0
-5683 -5687 -5688 0
4641 5498 5689 0
4641 -5498 -5689 0
-4641 5498 -5689 0
-4641 -5498 -5689 0
5501 4670 5690 0
5501 -4670 -5690 0
-5501 4670 -5690 0
-5501 -4670 -5690 0
5503 5691 0
-5503 -5691 0
5689 5690 5691 -5692 0
5689 5690 -5691 5692 0
5689 -5690 5691 5692 0
5689 -5690 -5691 5692 0
-5689 5690 5691 5692 0
-5689 5690 -5691 5692 0
-5689 -5690 5691 5692 0
-5689 -5690 -5691 5692 0
4678 5507 5693 0
4678 -5507 -5693 0
-4678 5507 -5693 0
-4678 -5507 -5693 0
5510 4707 5694 0
5510 -4707 -5694 0
-5510 4707 -5694 0
-5510 -4707 -5694 0
5512 5695 0
-5512 -5695 0
5693 5694 5695 -5696 0
5693 5694 -5695 5696 0
5693 -5694 5695 5696 0
5693 -5694 -5695 5696 0
-5693 5694 5695 5696 0
-5693 5694 -5695 5696 0
-5693 -5694 5695 5696 0
-5693 -5694 -5695 5696 0
5692 5696 -5697 0
5692 -5696 5697 0
-5692 5696 5697 0
-5692 -5696 -5697 0
4827 5698 0
-4827 -5698 0
5698 5699 0
-5698 -5699 0
4845 5700 0
-4845 -5700 0
5700 5701 0
-5700 -5701 0
5699 5701 -5702 0
5699 -5701 5702 0
-5699 5701 5702 0
-5699 -5701 -5702 0
4723 5703 0
-4723 -5703 0
5703 5704 0
-5703 -5704 0
4739 5705 0
-4739 -5705 0
5705 5706 0
-5705 -5706 0
5704 5706 -5707 0
5704 -5706 5707 0
-5704 5706 5707 0
-5704 -5706 -5707 0
4669 5708 0
-4669 -5708 0
5708 5709 0
-5708 -5709 0
4706 5710 0
-4706 -5710 0
5710 5711 0
-5710 -5711 0
5709 5711 -5712 0
5709 -5711 5712 0
-5709 5711 5712 0
-5709 -5711 -5712 0
4871 5713 0
-4871 -5713 0
5713 5714 0
-5713 -5714 0
4885 5715 0
-4885 -5715 0
5715 5716 0
-5715 -5716 0
5714 5716 -5717 0
5714 -5716 5717 0
-5714 5716 5717 0
-5714 -5716 -5717 0
4893 5718 0
-4893 -5718 0
5718 5719 0
-5718 -5719 0
4907 5720 0
-4907 -5720 0
5720 5721 0
-5720 -5721 0
5719 5721 -5722 0
5719 -5721 5722 0
-5719 5721 5722 0
-5719 -5721 -5722 0
4578 5723 0
-4578 -5723 0
5723 5724 0
-5723 -5724 0
4590 5725 0
-4590 -5725 0
5725 5726 0
-5725 -5726 0
5724 5726 -5727 0
5724 -5726 5727 0
-5724 5726 5727 0
-5724 -5726 -5727 0
4529 5728 0
-4529 -5728 0
5728 5729 0
-5728 -5729 0
4565 5730 0
-4565 -5730 0
5730 5731 0
-5730 -5731 0
5729 5731 -5732 0
5729 -5731 5732 0
-5729 5731 5732 0
-5729 -5731 -5732 0
4611 5733 0
-4611 -5733 0
5733 5734 0
-5733 -5734 0
4631 5735 0
-4631 -5735 0
5735 5736 0
-5735 -5736 0
5734 5736 -5737 0
5734 -5736 5737 0
-5734 5736 5737 0
-5734 -5736 -5737 0
4801 5738 0
-4801 -5738 0
5738 5739 0
-5738 -5739 0
4819 5740 0
-4819 -5740 0
5740 5741 0
-5740 -5741 0
5739 5741 -5742 0
5739 -5741 5742 0
-5739 5741 5742 0
-5739 -5741 -5742 0
4962 4956 5743 0
4962 -4956 -5743 0
-4962 4956 -5743 0
-4962 -4956 -5743 0
5743 5744 0
-5743 -5744 0
5017 5011 5745 0
5017 -5011 -5745 0
-5017 5011 -5745 0
-5017 -5011 -5745 0
5745 5746 0
-5745 -5746 0
5744 5746 -5747 0
5744 -5746 5747 0
-5744 5746 5747 0
-5744 -5746 -5747 0
3900 3928 -5748 0
3900 -3928 5748 0
-3900 3928 5748 0
-3900 -3928 -5748 0
2348 2712 -5749 0
2348 -2712 5749 0
-2348 2712 5749 0
-2348 -2712 -5749 0
2810 2883 -5750 0
2810 -2883 5750 0
-2810 2883 5750 0
-2810 -2883 -5750 0
2817 2890 -5751 0
2817 -2890 5751 0
-2817 2890 5751 0
-2817 -2890 -5751 0
2828 2901 -5752 0
2828 -2901 5752 0
-2828 2901 5752 0
-2828 -2901 -5752 0
311 5753 0
-311 -5753 0
311 5754 0
-311 -5754 0
5753 5754 -5755 0
5753 -5754 5755 0
-5753 5754 5755 0
-5753 -5754 -5755 0
2390 2754 -5756 0
2390 -2754 5756 0
-2390 2754 5756 0
-2390 -2754 -5756 0
2147 2511 -5757 0
2147 -2511 5757 0
-2147 2511 5757 0
-2147 -2511 -5757 0
2789 2862 -5758 0
2789 -2862 5758 0
-2789 2862 5758 0
-2789 -2862 -5758 0
2813 2886 -5759 0
2813 -2886 5759 0
-2813 2886 5759 0
-2813 -2886 -5759 0
2769 2842 -5760 0
2769 -2842 5760 0
-2769 2842 5760 0
-2769 -2842 -5760 0
3881 3909 -5761 0
3881 -3909 5761 0
-3881 3909 5761 0
-3881 -3909 -5761 0
2783 2856 -5762 0
2783 -2856 5762 0
-2783 2856 5762 0
-2783 -2856 -5762 0
326 5763 0
-326 -5763 0
326 5764 0
-326 -5764 0
5763 5764 -5765 0
5763 -5764 5765 0
-5763 5764 5765 0
-5763 -5764 -5765 0
329 5766 0
-329 -5766 0
329 5767 0
-329 -5767 0
5766 5767 -5768 0
5766 -5767 5768 0
-5766 5767 5768 0
-5766 -5767 -5768 0
2145 2509 -5769 0
2145 -2509 5769 0
-2145 2509 5769 0
-2145 -2509 -5769 0
3882 3910 -5770 0
3882 -3910 5770 0
-3882 3910 5770 0
-3882 -3910 -5770 0
2149 2513 -5771 0
2149 -2513 5771 0
-2149 2513 5771 0
-2149 -2513 -5771 0
3892 3920 -5772 0
3892 -3920 5772 0
-3892 3920 5772 0
-3892 -3920 -5772 0
4963 5018 -5773 0
4963 -5018 5773 0
-4963 5018 5773 0
-4963 -5018 -5773 0
3890 3918 -5774 0
3890 -3918 5774 0
-3890 3918 5774 0
-3890 -3918 -5774 0
2046 2410 -5775 0
2046 -2410 5775 0
-2046 2410 5775 0
-2046 -2410 -5775 0
2044 2408 -5776 0
2044 -2408 5776 0
-2044 2408 5776 0
-2044 -2408 -5776 0
1894 1914 -5777 0
1894 -1914 5777 0
-1894 1914 5777 0
-1894 -1914 -5777 0
5078 2336 2211 5778 0
5078 2336 -2211 -5778 0
5078 -2336 2211 -5778 0
5078 -2336 -2211 -5778 0
-5078 2336 2211 -5778 0
-5078 2336 -2211 -5778 0
-5078 -2336 2211 -5778 0
-5078 -2336 -2211 -5778 0
2211 2337 5063 5779 0
2211 2337 -5063 -5779 0
2211 -2337 5063 -5779 0
2211 -2337 -5063 -5779 0
-2211 2337 5063 -5779 0
-2211 2337 -5063 -5779 0
-2211 -2337 5063 -5779 0
-2211 -2337 -5063 -5779 0
5778 5779 -5780 0
5778 -5779 5780 0
-5778 5779 5780 0
-5778 -5779 5780 0
5780 5781 0
-5780 -5781 0
1171 1128 5782 0
1171 -1128 -5782 0
-1171 1128 -5782 0
-1171 -1128 -5782 0
1136 1171 5783 0
1136 -1171 -5783 0
-1136 1171 -5783 0
-1136 -1171 -5783 0
5783 5784 0
-5783 -5784 0
1171 1160 5785 0
1171 -1160 -5785 0
-1171 1160 -5785 0
-1171 -1160 -5785 0
5782 5784 5785 5786 0
5782 5784 -5785 -5786 0
5782 -5784 5785 -5786 0
5782 -5784 -5785 -5786 0
-5782 5784 5785 -5786 0
-5782 5784 -5785 -5786 0
-5782 -5784 5785 -5786 0
-5782 -5784 -5785 -5786 0
5786 5787 0
-5786 -5787 0
4942 4943 5788 0
4942 -4943 -5788 0
-4942 4943 -5788 0
-4942 -4943 -5788 0
5788 5789 0
-5788 -5789 0
4312 5790 0
-4312 -5790 0
4936 5790 5791 0
4936 -5790 -5791 0
-4936 5790 -5791 0
-4936 -5790 -5791 0
5791 5792 0
-5791 -5792 0
4347 5793 0
-4347 -5793 0
5793 5794 0
-5793 -5794 0
5789 5792 5794 5795 0
5789 5792 -5794 -5795 0
5789 -5792 5794 -5795 0
5789 -5792 -5794 -5795 0
-5789 5792 5794 -5795 0
-5789 5792 -5794 -5795 0
-5789 -5792 5794 -5795 0
-5789 -5792 -5794 -5795 0
5795 5796 0
-5795 -5796 0
5781 5787 5796 5797 0
5781 5787 -5796 -5797 0
5781 -5787 5796 -5797 0
5781 -5787 -5796 -5797 0
-5781 5787 5796 -5797 0
-5781 5787 -5796 -5797 0
-5781 -5787 5796 -5797 0
-5781 -5787 -5796 -5797 0
4935 4934 5798 0
4935 -4934 -5798 0
-4935 4934 -5798 0
-4935 -4934 -5798 0
5798 5799 0
-5798 -5799 0
5792 5799 5794 5800 0
5792 5799 -5794 -5800 0
5792 -5799 5794 -5800 0
5792 -5799 -5794 -5800 0
-5792 5799 5794 -5800 0
-5792 5799 -5794 -5800 0
-5792 -5799 5794 -5800 0
-5792 -5799 -5794 -5800 0
5800 5801 0
-5800 -5801 0
5782 5802 0
-5782 -5802 0
5783 5802 5785 5803 0
5783 5802 -5785 -5803 0
5783 -5802 5785 -5803 0
5783 -5802 -5785 -5803 0
-5783 5802 5785 -5803 0
-5783 5802 -5785 -5803 0
-5783 -5802 5785 -5803 0
-5783 -5802 -5785 -5803 0
5803 5804 0
-5803 -5804 0
5801 5781 5804 5805 0
5801 5781 -5804 -5805 0
5801 -5781 5804 -5805 0
5801 -5781 -5804 -5805 0
-5801 5781 5804 -5805 0
-5801 5781 -5804 -5805 0
-5801 -5781 5804 -5805 0
-5801 -5781 -5804 -5805 0
4943 4935 5806 0
4943 -4935 -5806 0
-4943 4935 -5806 0
-4943 -4935 -5806 0
5806 5807 0
-5806 -5807 0
5792 5794 5807 5808 0
5792 5794 -5807 -5808 0
5792 -5794 5807 -5808 0
5792 -5794 -5807 -5808 0
-5792 5794 5807 -5808 0
-5792 5794 -5807 -5808 0
-5792 -5794 5807 -5808 0
-5792 -5794 -5807 -5808 0
5808 5809 0
-5808 -5809 0
5782 5783 5785 1171 5810 0
5782 5783 5785 -1171 -5810 0
5782 5783 -5785 1171 -5810 0
5782 5783 -5785 -1171 -5810 0
5782 -5783 5785 1171 -5810 0
5782 -5783 5785 -1171 -5810 0
5782 -5783 -5785 1171 -5810 0
5782 -5783 -5785 -1171 -5810 0
-5782 5783 5785 1171 -5810 0
-5782 5783 5785 -1171 -5810 0
-5782 5783 -5785 1171 -5810 0
-5782 5783 -5785 -1171 -5810 0
-5782 -5783 5785 1171 -5810 0
-5782 -5783 5785 -1171 -5810 0
-5782 -5783 -5785 1171 -5810 0
-5782 -5783 -5785 -1171 -5810 0
5810 5811 0
-5810 -5811 0
5809 5781 5811 5812 0
5809 5781 -5811 -5812 0
5809 -5781 5811 -5812 0
5809 -5781 -5811 -5812 0
-5809 5781 5811 -5812 0
-5809 5781 -5811 -5812 0
-5809 -5781 5811 -5812 0
-5809 -5781 -5811 -5812 0
5797 5805 5812 -5813 0
5797 5805 -5812 5813 0
5797 -5805 5812 5813 0
5797 -5805 -5812 5813 0
-5797 5805 5812 5813 0
-5797 5805 -5812 5813 0
-5797 -5805 5812 5813 0
-5797 -5805 -5812 5813 0
4934 4942 5814 0
4934 -4942 -5814 0
-4934 4942 -5814 0
-4934 -4942 -5814 0
5814 5815 0
-5814 -5815 0
5815 5792 5794 5816 0
5815 5792 -5794 -5816 0
5815 -5792 5794 -5816 0
5815 -5792 -5794 -5816 0
-5815 5792 5794 -5816 0
-5815 5792 -5794 -5816 0
-5815 -5792 5794 -5816 0
-5815 -5792 -5794 -5816 0
5816 5817 0
-5816 -5817 0
5785 5802 5784 5818 0
5785 5802 -5784 -5818 0
5785 -5802 5784 -5818 0
5785 -5802 -5784 -5818 0
-5785 5802 5784 -5818 0
-5785 5802 -5784 -5818 0
-5785 -5802 5784 -5818 0
-5785 -5802 -5784 -5818 0
5818 5819 0
-5818 -5819 0
5817 5781 5819 5820 0
5817 5781 -5819 -5820 0
5817 -5781 5819 -5820 0
5817 -5781 -5819 -5820 0
-5817 5781 5819 -5820 0
-5817 5781 -5819 -5820 0
-5817 -5781 5819 -5820 0
-5817 -5781 -5819 -5820 0
5785 5821 0
-5785 -5821 0
5784 5821 5782 5822 0
5784 5821 -5782 -5822 0
5784 -5821 5782 -5822 0
5784 -5821 -5782 -5822 0
-5784 5821 5782 -5822 0
-5784 5821 -5782 -5822 0
-5784 -5821 5782 -5822 0
-5784 -5821 -5782 -5822 0
5822 5823 0
-5822 -5823 0
4278 5824 0
-4278 -5824 0
5790 5824 5825 0
5790 -5824 -5825 0
-5790 5824 -5825 0
-5790 -5824 -5825 0
5825 5826 0
-5825 -5826 0
5794 5789 5826 5827 0
5794 5789 -5826 -5827 0
5794 -5789 5826 -5827 0
5794 -5789 -5826 -5827 0
-5794 5789 5826 -5827 0
-5794 5789 -5826 -5827 0
-5794 -5789 5826 -5827 0
-5794 -5789 -5826 -5827 0
5827 5828 0
-5827 -5828 0
5823 5781 5828 5829 0
5823 5781 -5828 -5829 0
5823 -5781 5828 -5829 0
5823 -5781 -5828 -5829 0
-5823 5781 5828 -5829 0
-5823 5781 -5828 -5829 0
-5823 -5781 5828 -5829 0
-5823 -5781 -5828 -5829 0
5807 5794 5826 5830 0
5807 5794 -5826 -5830 0
5807 -5794 5826 -5830 0
5807 -5794 -5826 -5830 0
-5807 5794 5826 -5830 0
-5807 5794 -5826 -5830 0
-5807 -5794 5826 -5830 0
-5807 -5794 -5826 -5830 0
5830 5831 0
-5830 -5831 0
5782 5821 5783 5832 0
5782 5821 -5783 -5832 0
5782 -5821 5783 -5832 0
5782 -5821 -5783 -5832 0
-5782 5821 5783 -5832 0
-5782 5821 -5783 -5832 0
-5782 -5821 5783 -5832 0
-5782 -5821 -5783 -5832 0
5832 5833 0
-5832 -5833 0
5831 5833 5781 5834 0
5831 5833 -5781 -5834 0
5831 -5833 5781 -5834 0
5831 -5833 -5781 -5834 0
-5831 5833 5781 -5834 0
-5831 5833 -5781 -5834 0
-5831 -5833 5781 -5834 0
-5831 -5833 -5781 -5834 0
5820 5829 5834 -5835 0
5820 5829 -5834 5835 0
5820 -5829 5834 5835 0
5820 -5829 -5834 5835 0
-5820 5829 5834 5835 0
-5820 5829 -5834 5835 0
-5820 -5829 5834 5835 0
-5820 -5829 -5834 5835 0
4933 4936 5836 0
4933 -4936 -5836 0
-4933 4936 -5836 0
-4933 -4936 -5836 0
5836 5837 0
-5836 -5837 0
5793 5838 0
-5793 -5838 0
5837 5838 5807 5839 0
5837 5838 -5807 -5839 0
5837 -5838 5807 -5839 0
5837 -5838 -5807 -5839 0
-5837 5838 5807 -5839 0
-5837 5838 -5807 -5839 0
-5837 -5838 5807 -5839 0
-5837 -5838 -5807 -5839 0
5839 5840 0
-5839 -5840 0
5840 5781 5841 0
5840 -5781 -5841 0
-5840 5781 -5841 0
-5840 -5781 -5841 0
5802 5783 5821 5842 0
5802 5783 -5821 -5842 0
5802 -5783 5821 -5842 0
5802 -5783 -5821 -5842 0
-5802 5783 5821 -5842 0
-5802 5783 -5821 -5842 0
-5802 -5783 5821 -5842 0
-5802 -5783 -5821 -5842 0
5842 5843 0
-5842 -5843 0
5799 5826 5794 5844 0
5799 5826 -5794 -5844 0
5799 -5826 5794 -5844 0
5799 -5826 -5794 -5844 0
-5799 5826 5794 -5844 0
-5799 5826 -5794 -5844 0
-5799 -5826 5794 -5844 0
-5799 -5826 -5794 -5844 0
5844 5845 0
-5844 -5845 0
5843 5845 5781 5846 0
5843 5845 -5781 -5846 0
5843 -5845 5781 -5846 0
5843 -5845 -5781 -5846 0
-5843 5845 5781 -5846 0
-5843 5845 -5781 -5846 0
-5843 -5845 5781 -5846 0
-5843 -5845 -5781 -5846 0
5821 5784 5802 5847 0
5821 5784 -5802 -5847 0
5821 -5784 5802 -5847 0
5821 -5784 -5802 -5847 0
-5821 5784 5802 -5847 0
-5821 5784 -5802 -5847 0
-5821 -5784 5802 -5847 0
-5821 -5784 -5802 -5847 0
5847 5848 0
-5847 -5848 0
5794 5826 5815 5849 0
5794 5826 -5815 -5849 0
5794 -5826 5815 -5849 0
5794 -5826 -5815 -5849 0
-5794 5826 5815 -5849 0
-5794 5826 -5815 -5849 0
-5794 -5826 5815 -5849 0
-5794 -5826 -5815 -5849 0
5849 5850 0
-5849 -5850 0
5848 5850 5781 5851 0
5848 5850 -5781 -5851 0
5848 -5850 5781 -5851 0
5848 -5850 -5781 -5851 0
-5848 5850 5781 -5851 0
-5848 5850 -5781 -5851 0
-5848 -5850 5781 -5851 0
-5848 -5850 -5781 -5851 0
5841 5846 5851 -5852 0
5841 5846 -5851 5852 0
5841 -5846 5851 5852 0
5841 -5846 -5851 5852 0
-5841 5846 5851 5852 0
-5841 5846 -5851 5852 0
-5841 -5846 5851 5852 0
-5841 -5846 -5851 5852 0
5813 5835 5852 5853 0
5813 5835 -5852 -5853 0
5813 -5835 5852 -5853 0
5813 -5835 -5852 -5853 0
-5813 5835 5852 -5853 0
-5813 5835 -5852 -5853 0
-5813 -5835 5852 -5853 0
-5813 -5835 -5852 -5853 0
5853 5854 0
-5853 -5854 0
413 5855 0
-413 -5855 0
353 5856 0
-353 -5856 0
5856 5857 0
-5856 -5857 0
5854 5855 4967 5857 5858 0
5854 5855 4967 -5857 -5858 0
5854 5855 -4967 5857 -5858 0
5854 5855 -4967 -5857 -5858 0
5854 -5855 4967 5857 -5858 0
5854 -5855 4967 -5857 -5858 0
5854 -5855 -4967 5857 -5858 0
5854 -5855 -4967 -5857 -5858 0
-5854 5855 4967 5857 -5858 0
-5854 5855 4967 -5857 -5858 0
-5854 5855 -4967 5857 -5858 0
-5854 5855 -4967 -5857 -5858 0
-5854 -5855 4967 5857 -5858 0
-5854 -5855 4967 -5857 -5858 0
-5854 -5855 -4967 5857 -5858 0
-5854 -5855 -4967 -5857 -5858 0
5141 2700 2575 5859 0
5141 2700 -2575 -5859 0
5141 -2700 2575 -5859 0
5141 -2700 -2575 -5859 0
-5141 2700 2575 -5859 0
-5141 2700 -2575 -5859 0
-5141 -2700 2575 -5859 0
-5141 -2700 -2575 -5859 0
2575 2701 5126 5860 0
2575 2701 -5126 -5860 0
2575 -2701 5126 -5860 0
2575 -2701 -5126 -5860 0
-2575 2701 5126 -5860 0
-2575 2701 -5126 -5860 0
-2575 -2701 5126 -5860 0
-2575 -2701 -5126 -5860 0
5859 5860 -5861 0
5859 -5860 5861 0
-5859 5860 5861 0
-5859 -5860 5861 0
5861 5862 0
-5861 -5862 0
1269 1226 5863 0
1269 -1226 -5863 0
-1269 1226 -5863 0
-1269 -1226 -5863 0
1234 1269 5864 0
1234 -1269 -5864 0
-1234 1269 -5864 0
-1234 -1269 -5864 0
5864 5865 0
-5864 -5865 0
1269 1258 5866 0
1269 -1258 -5866 0
-1269 1258 -5866 0
-1269 -1258 -5866 0
5863 5865 5866 5867 0
5863 5865 -5866 -5867 0
5863 -5865 5866 -5867 0
5863 -5865 -5866 -5867 0
-5863 5865 5866 -5867 0
-5863 5865 -5866 -5867 0
-5863 -5865 5866 -5867 0
-5863 -5865 -5866 -5867 0
5867 5868 0
-5867 -5868 0
4997 4998 5869 0
4997 -4998 -5869 0
-4997 4998 -5869 0
-4997 -4998 -5869 0
5869 5870 0
-5869 -5870 0
4328 5871 0
-4328 -5871 0
4991 5871 5872 0
4991 -5871 -5872 0
-4991 5871 -5872 0
-4991 -5871 -5872 0
5872 5873 0
-5872 -5873 0
4364 5874 0
-4364 -5874 0
5874 5875 0
-5874 -5875 0
5870 5873 5875 5876 0
5870 5873 -5875 -5876 0
5870 -5873 5875 -5876 0
5870 -5873 -5875 -5876 0
-5870 5873 5875 -5876 0
-5870 5873 -5875 -5876 0
-5870 -5873 5875 -5876 0
-5870 -5873 -5875 -5876 0
5876 5877 0
-5876 -5877 0
5862 5868 5877 5878 0
5862 5868 -5877 -5878 0
5862 -5868 5877 -5878 0
5862 -5868 -5877 -5878 0
-5862 5868 5877 -5878 0
-5862 5868 -5877 -5878 0
-5862 -5868 5877 -5878 0
-5862 -5868 -5877 -5878 0
4990 4989 5879 0
4990 -4989 -5879 0
-4990 4989 -5879 0
-4990 -4989 -5879 0
5879 5880 0
-5879 -5880 0
5873 5880 5875 5881 0
5873 5880 -5875 -5881 0
5873 -5880 5875 -5881 0
5873 -5880 -5875 -5881 0
-5873 5880 5875 -5881 0
-5873 5880 -5875 -5881 0
-5873 -5880 5875 -5881 0
-5873 -5880 -5875 -5881 0
5881 5882 0
-5881 -5882 0
5863 5883 0
-5863 -5883 0
5864 5883 5866 5884 0
5864 5883 -5866 -5884 0
5864 -5883 5866 -5884 0
5864 -5883 -5866 -5884 0
-5864 5883 5866 -5884 0
-5864 5883 -5866 -5884 0
-5864 -5883 5866 -5884 0
-5864 -5883 -5866 -5884 0
5884 5885 0
-5884 -5885 0
5882 5862 5885 5886 0
5882 5862 -5885 -5886 0
5882 -5862 5885 -5886 0
5882 -5862 -5885 -5886 0
-5882 5862 5885 -5886 0
-5882 5862 -5885 -5886 0
-5882 -5862 5885 -5886 0
-5882 -5862 -5885 -5886 0
4998 4990 5887 0
4998 -4990 -5887 0
-4998 4990 -5887 0
-4998 -4990 -5887 0
5887 5888 0
-5887 -5888 0
5873 5875 5888 5889 0
5873 5875 -5888 -5889 0
5873 -5875 5888 -5889 0
5873 -5875 -5888 -5889 0
-5873 5875 5888 -5889 0
-5873 5875 -5888 -5889 0
-5873 -5875 5888 -5889 0
-5873 -5875 -5888 -5889 0
5889 5890 0
-5889 -5890 0
5863 5864 5866 1269 5891 0
5863 5864 5866 -1269 -5891 0
5863 5864 -5866 1269 -5891 0
5863 5864 -5866 -1269 -5891 0
5863 -5864 5866 1269 -5891 0
5863 -5864 5866 -1269 -5891 0
5863 -5864 -5866 1269 -5891 0
5863 -5864 -5866 -1269 -5891 0
-5863 5864 5866 1269 -5891 0
-5863 5864 5866 -1269 -5891 0
-5863 5864 -5866 1269 -5891 0
-5863 5864 -5866 -1269 -5891 0
-5863 -5864 5866 1269 -5891 0
-5863 -5864 5866 -1269 -5891 0
-5863 -5864 -5866 1269 -5891 0
-5863 -5864 -5866 -1269 -5891 0
5891 5892 0
-5891 -5892 0
5890 5862 5892 5893 0
5890 5862 -5892 -5893 0
5890 -5862 5892 -5893 0
5890 -5862 -5892 -5893 0
-5890 5862 5892 -5893 0
-5890 5862 -5892 -5893 0
-5890 -5862 5892 -5893 0
-5890 -5862 -5892 -5893 0
5878 5886 5893 -5894 0
5878 5886 -5893 5894 0
5878 -5886 5893 5894 0
5878 -5886 -5893 5894 0
-5878 5886 5893 5894 0
-5878 5886 -5893 5894 0
-5878 -5886 5893 5894 0
-5878 -5886 -5893 5894 0
4989 4997 5895 0
4989 -4997 -5895 0
-4989 4997 -5895 0
-4989 -4997 -5895 0
5895 5896 0
-5895 -5896 0
5896 5873 5875 5897 0
5896 5873 -5875 -5897 0
5896 -5873 5875 -5897 0
5896 -5873 -5875 -5897 0
-5896 5873 5875 -5897 0
-5896 5873 -5875 -5897 0
-5896 -5873 5875 -5897 0
-5896 -5873 -5875 -5897 0
5897 5898 0
-5897 -5898 0
5866 5883 5865 5899 0
5866 5883 -5865 -5899 0
5866 -5883 5865 -5899 0
5866 -5883 -5865 -5899 0
-5866 5883 5865 -5899 0
-5866 5883 -5865 -5899 0
-5866 -5883 5865 -5899 0
-5866 -5883 -5865 -5899 0
5899 5900 0
-5899 -5900 0
5898 5862 5900 5901 0
5898 5862 -5900 -5901 0
5898 -5862 5900 -5901 0
5898 -5862 -5900 -5901 0
-5898 5862 5900 -5901 0
-5898 5862 -5900 -5901 0
-5898 -5862 5900 -5901 0
-5898 -5862 -5900 -5901 0
5866 5902 0
-5866 -5902 0
5865 5902 5863 5903 0
5865 5902 -5863 -5903 0
5865 -5902 5863 -5903 0
5865 -5902 -5863 -5903 0
-5865 5902 5863 -5903 0
-5865 5902 -5863 -5903 0
-5865 -5902 5863 -5903 0
-5865 -5902 -5863 -5903 0
5903 5904 0
-5903 -5904 0
4295 5905 0
-4295 -5905 0
5871 5905 5906 0
5871 -5905 -5906 0
-5871 5905 -5906 0
-5871 -5905 -5906 0
5906 5907 0
-5906 -5907 0
5875 5870 5907 5908 0
5875 5870 -5907 -5908 0
5875 -5870 5907 -5908 0
5875 -5870 -5907 -5908 0
-5875 5870 5907 -5908 0
-5875 5870 -5907 -5908 0
-5875 -5870 5907 -5908 0
-5875 -5870 -5907 -5908 0
5908 5909 0
-5908 -5909 0
5904 5862 5909 5910 0
5904 5862 -5909 -5910 0
5904 -5862 5909 -5910 0
5904 -5862 -5909 -5910 0
-5904 5862 5909 -5910 0
-5904 5862 -5909 -5910 0
-5904 -5862 5909 -5910 0
-5904 -5862 -5909 -5910 0
5888 5875 5907 5911 0
5888 5875 -5907 -5911 0
5888 -5875 5907 -5911 0
5888 -5875 -5907 -5911 0
-5888 5875 5907 -5911 0
-5888 5875 -5907 -5911 0
-5888 -5875 5907 -5911 0
-5888 -5875 -5907 -5911 0
5911 5912 0
-5911 -5912 0
5863 5902 5864 5913 0
5863 5902 -5864 -5913 0
5863 -5902 5864 -5913 0
5863 -5902 -5864 -5913 0
-5863 5902 5864 -5913 0
-5863 5902 -5864 -5913 0
-5863 -5902 5864 -5913 0
-5863 -5902 -5864 -5913 0
5913 5914 0
-5913 -5914 0
5912 5914 5862 5915 0
5912 5914 -5862 -5915 0
5912 -5914 5862 -5915 0
5912 -5914 -5862 -5915 0
-5912 5914 5862 -5915 0
-5912 5914 -5862 -5915 0
-5912 -5914 5862 -5915 0
-5912 -5914 -5862 -5915 0
5901 5910 5915 -5916 0
5901 5910 -5915 5916 0
5901 -5910 5915 5916 0
5901 -5910 -5915 5916 0
-5901 5910 5915 5916 0
-5901 5910 -5915 5916 0
-5901 -5910 5915 5916 0
-5901 -5910 -5915 5916 0
4988 4991 5917 0
4988 -4991 -5917 0
-4988 4991 -5917 0
-4988 -4991 -5917 0
5917 5918 0
-5917 -5918 0
5874 5919 0
-5874 -5919 0
5918 5919 5888 5920 0
5918 5919 -5888 -5920 0
5918 -5919 5888 -5920 0
5918 -5919 -5888 -5920 0
-5918 5919 5888 -5920 0
-5918 5919 -5888 -5920 0
-5918 -5919 5888 -5920 0
-5918 -5919 -5888 -5920 0
5920 5921 0
-5920 -5921 0
5921 5862 5922 0
5921 -5862 -5922 0
-5921 5862 -5922 0
-5921 -5862 -5922 0
5883 5864 5902 5923 0
5883 5864 -5902 -5923 0
5883 -5864 5902 -5923 0
5883 -5864 -5902 -5923 0
-5883 5864 5902 -5923 0
-5883 5864 -5902 -5923 0
-5883 -5864 5902 -5923 0
-5883 -5864 -5902 -5923 0
5923 5924 0
-5923 -5924 0
5880 5907 5875 5925 0
5880 5907 -5875 -5925 0
5880 -5907 5875 -5925 0
5880 -5907 -5875 -5925 0
-5880 5907 5875 -5925 0
-5880 5907 -5875 -5925 0
-5880 -5907 5875 -5925 0
-5880 -5907 -5875 -5925 0
5925 5926 0
-5925 -5926 0
5924 5926 5862 5927 0
5924 5926 -5862 -5927 0
5924 -5926 5862 -5927 0
5924 -5926 -5862 -5927 0
-5924 5926 5862 -5927 0
-5924 5926 -5862 -5927 0
-5924 -5926 5862 -5927 0
-5924 -5926 -5862 -5927 0
5902 5865 5883 5928 0
5902 5865 -5883 -5928 0
5902 -5865 5883 -5928 0
5902 -5865 -5883 -5928 0
-5902 5865 5883 -5928 0
-5902 5865 -5883 -5928 0
-5902 -5865 5883 -5928 0
-5902 -5865 -5883 -5928 0
5928 5929 0
-5928 -5929 0
5875 5907 5896 5930 0
5875 5907 -5896 -5930 0
5875 -5907 5896 -5930 0
5875 -5907 -5896 -5930 0
-5875 5907 5896 -5930 0
-5875 5907 -5896 -5930 0
-5875 -5907 5896 -5930 0
-5875 -5907 -5896 -5930 0
5930 5931 0
-5930 -5931 0
5929 5931 5862 5932 0
5929 5931 -5862 -5932 0
5929 -5931 5862 -5932 0
5929 -5931 -5862 -5932 0
-5929 5931 5862 -5932 0
-5929 5931 -5862 -5932 0
-5929 -5931 5862 -5932 0
-5929 -5931 -5862 -5932 0
5922 5927 5932 -5933 0
5922 5927 -5932 5933 0
5922 -5927 5932 5933 0
5922 -5927 -5932 5933 0
-5922 5927 5932 5933 0
-5922 5927 -5932 5933 0
-5922 -5927 5932 5933 0
-5922 -5927 -5932 5933 0
5894 5916 5933 5934 0
5894 5916 -5933 -5934 0
5894 -5916 5933 -5934 0
5894 -5916 -5933 -5934 0
-5894 5916 5933 -5934 0
-5894 5916 -5933 -5934 0
-5894 -5916 5933 -5934 0
-5894 -5916 -5933 -5934 0
5934 5935 0
-5934 -5935 0
413 5936 0
-413 -5936 0
353 5937 0
-353 -5937 0
5937 5938 0
-5937 -5938 0
5935 5936 5022 5938 5939 0
5935 5936 5022 -5938 -5939 0
5935 5936 -5022 5938 -5939 0
5935 5936 -5022 -5938 -5939 0
5935 -5936 5022 5938 -5939 0
5935 -5936 5022 -5938 -5939 0
5935 -5936 -5022 5938 -5939 0
5935 -5936 -5022 -5938 -5939 0
-5935 5936 5022 5938 -5939 0
-5935 5936 5022 -5938 -5939 0
-5935 5936 -5022 5938 -5939 0
-5935 5936 -5022 -5938 -5939 0
-5935 -5936 5022 5938 -5939 0
-5935 -5936 5022 -5938 -5939 0
-5935 -5936 -5022 5938 -5939 0
-5935 -5936 -5022 -5938 -5939 0
5858 5939 -5940 0
5858 -5939 5940 0
-5858 5939 5940 0
-5858 -5939 -5940 0
358 5941 0
-358 -5941 0
358 5942 0
-358 -5942 0
5941 5942 -5943 0
5941 -5942 5943 0
-5941 5942 5943 0
-5941 -5942 -5943 0
359 5944 0
-359 -5944 0
359 5945 0
-359 -5945 0
5944 5945 -5946 0
5944 -5945 5946 0
-5944 5945 5946 0
-5944 -5945 -5946 0
1889 1909 -5947 0
1889 -1909 5947 0
-1889 1909 5947 0
-1889 -1909 -5947 0
1890 1910 -5948 0
1890 -1910 5948 0
-1890 1910 5948 0
-1890 -1910 -5948 0
368 5949 0
-368 -5949 0
368 5950 0
-368 -5950 0
5949 5950 -5951 0
5949 -5950 5951 0
-5949 5950 5951 0
-5949 -5950 -5951 0
1891 1911 -5952 0
1891 -1911 5952 0
-1891 1911 5952 0
-1891 -1911 -5952 0
1893 1913 -5953 0
1893 -1913 5953 0
-1893 1913 5953 0
-1893 -1913 -5953 0
372 5954 0
-372 -5954 0
372 5955 0
-372 -5955 0
5954 5955 -5956 0
5954 -5955 5956 0
-5954 5955 5956 0
-5954 -5955 -5956 0
373 5957 0
-373 -5957 0
373 5958 0
-373 -5958 0
5957 5958 -5959 0
5957 -5958 5959 0
-5957 5958 5959 0
-5957 -5958 -5959 0
5854 2993 5960 0
5854 -2993 -5960 0
-5854 2993 -5960 0
-5854 -2993 -5960 0
5935 3056 5961 0
5935 -3056 -5961 0
-5935 3056 -5961 0
-5935 -3056 -5961 0
5960 5961 -5962 0
5960 -5961 5962 0
-5960 5961 5962 0
-5960 -5961 -5962 0
369 5963 0
-369 -5963 0
5963 5964 0
-5963 -5964 0
412 5965 0
-412 -5965 0
5965 5966 0
-5965 -5966 0
5964 2990 5966 5967 0
5964 2990 -5966 -5967 0
5964 -2990 5966 -5967 0
5964 -2990 -5966 -5967 0
-5964 2990 5966 -5967 0
-5964 2990 -5966 -5967 0
-5964 -2990 5966 -5967 0
-5964 -2990 -5966 -5967 0
369 5968 0
-369 -5968 0
5968 5969 0
-5968 -5969 0
412 5970 0
-412 -5970 0
5970 5971 0
-5970 -5971 0
5969 3053 5971 5972 0
5969 3053 -5971 -5972 0
5969 -3053 5971 -5972 0
5969 -3053 -5971 -5972 0
-5969 3053 5971 -5972 0
-5969 3053 -5971 -5972 0
-5969 -3053 5971 -5972 0
-5969 -3053 -5971 -5972 0
5967 5972 -5973 0
5967 -5972 5973 0
-5967 5972 5973 0
-5967 -5972 -5973 0
413 5974 0
-413 -5974 0
5974 5975 0
-5974 -5975 0
5975 1885 5976 0
5975 -1885 -5976 0
-5975 1885 -5976 0
-5975 -1885 -5976 0
5976 5854 5977 0
5976 -5854 -5977 0
-5976 5854 -5977 0
-5976 -5854 -5977 0
5977 5978 0
-5977 -5978 0
2993 4967 5978 5979 0
2993 4967 -5978 -5979 0
2993 -4967 5978 -5979 0
2993 -4967 -5978 -5979 0
-2993 4967 5978 -5979 0
-2993 4967 -5978 -5979 0
-2993 -4967 5978 -5979 0
-2993 -4967 -5978 -5979 0
413 5980 0
-413 -5980 0
5980 5981 0
-5980 -5981 0
5981 1905 5982 0
5981 -1905 -5982 0
-5981 1905 -5982 0
-5981 -1905 -5982 0
5982 5935 5983 0
5982 -5935 -5983 0
-5982 5935 -5983 0
-5982 -5935 -5983 0
5983 5984 0
-5983 -5984 0
3056 5022 5984 5985 0
3056 5022 -5984 -5985 0
3056 -5022 5984 -5985 0
3056 -5022 -5984 -5985 0
-3056 5022 5984 -5985 0
-3056 5022 -5984 -5985 0
-3056 -5022 5984 -5985 0
-3056 -5022 -5984 -5985 0
5979 5985 -5986 0
5979 -5985 5986 0
-5979 5985 5986 0
-5979 -5985 -5986 0
3134 5987 0
-3134 -5987 0
3152 5988 0
-3152 -5988 0
5987 5988 -5989 0
5987 -5988 5989 0
-5987 5988 5989 0
-5987 -5988 -5989 0
5854 5063 5990 0
5854 -5063 -5990 0
-5854 5063 -5990 0
-5854 -5063 -5990 0
5935 5126 5991 0
5935 -5126 -5991 0
-5935 5126 -5991 0
-5935 -5126 -5991 0
5990 5991 -5992 0
5990 -5991 5992 0
-5990 5991 5992 0
-5990 -5991 -5992 0
4943 4942 5824 5993 0
4943 4942 -5824 -5993 0
4943 -4942 5824 -5993 0
4943 -4942 -5824 -5993 0
-4943 4942 5824 -5993 0
-4943 4942 -5824 -5993 0
-4943 -4942 5824 -5993 0
-4943 -4942 -5824 -5993 0
5993 5994 0
-5993 -5994 0
4933 5793 5994 5995 0
4933 5793 -5994 -5995 0
4933 -5793 5994 -5995 0
4933 -5793 -5994 -5995 0
-4933 5793 5994 -5995 0
-4933 5793 -5994 -5995 0
-4933 -5793 5994 -5995 0
-4933 -5793 -5994 -5995 0
5995 5996 0
-5995 -5996 0
5070 5996 5997 0
5070 -5996 -5997 0
-5070 5996 -5997 0
-5070 -5996 -5997 0
4998 4997 5905 5998 0
4998 4997 -5905 -5998 0
4998 -4997 5905 -5998 0
4998 -4997 -5905 -5998 0
-4998 4997 5905 -5998 0
-4998 4997 -5905 -5998 0
-4998 -4997 5905 -5998 0
-4998 -4997 -5905 -5998 0
5998 5999 0
-5998 -5999 0
4988 5874 5999 6000 0
4988 5874 -5999 -6000 0
4988 -5874 5999 -6000 0
4988 -5874 -5999 -6000 0
-4988 5874 5999 -6000 0
-4988 5874 -5999 -6000 0
-4988 -5874 5999 -6000 0
-4988 -5874 -5999 -6000 0
6000 6001 0
-6000 -6001 0
5133 6001 6002 0
5133 -6001 -6002 0
-5133 6001 -6002 0
-5133 -6001 -6002 0
5997 6002 -6003 0
5997 -6002 6003 0
-5997 6002 6003 0
-5997 -6002 -6003 0
2337 2701 -6004 0
2337 -2701 6004 0
-2337 2701 6004 0
-2337 -2701 -6004 0
1933 1969 1964 1957 6005 0
1933 1969 1964 -1957 -6005 0
1933 1969 -1964 1957 -6005 0
1933 1969 -1964 -1957 -6005 0
1933 -1969 1964 1957 -6005 0
1933 -1969 1964 -1957 -6005 0
1933 -1969 -1964 1957 -6005 0
1933 -1969 -1964 -1957 -6005 0
-1933 1969 1964 1957 -6005 0
-1933 1969 1964 -1957 -6005 0
-1933 1969 -1964 1957 -6005 0
-1933 1969 -1964 -1957 -6005 0
-1933 -1969 1964 1957 -6005 0
-1933 -1969 1964 -1957 -6005 0
-1933 -1969 -1964 1957 -6005 0
-1933 -1969 -1964 -1957 -6005 0
6005 6006 0
-6005 -6006 0
1987 2023 2018 2011 6007 0
1987 2023 2018 -2011 -6007 0
1987 2023 -2018 2011 -6007 0
1987 2023 -2018 -2011 -6007 0
1987 -2023 2018 2011 -6007 0
1987 -2023 2018 -2011 -6007 0
1987 -2023 -2018 2011 -6007 0
1987 -2023 -2018 -2011 -6007 0
-1987 2023 2018 2011 -6007 0
-1987 2023 2018 -2011 -6007 0
-1987 2023 -2018 2011 -6007 0
-1987 2023 -2018 -2011 -6007 0
-1987 -2023 2018 2011 -6007 0
-1987 -2023 2018 -2011 -6007 0
-1987 -2023 -2018 2011 -6007 0
-1987 -2023 -2018 -2011 -6007 0
6007 6008 0
-6007 -6008 0
6006 6008 -6009 0
6006 -6008 6009 0
-6006 6008 6009 0
-6006 -6008 -6009 0
265 6010 0
-265 -6010 0
6010 6011 0
-6010 -6011 0
6011 6012 0
-6011 -6012 0
6012 6013 0
-6012 -6013 0
342 6014 0
-342 -6014 0
6013 6014 6015 0
6013 -6014 -6015 0
-6013 6014 -6015 0
-6013 -6014 -6015 0
265 6016 0
-265 -6016 0
6016 6017 0
-6016 -6017 0
6017 6018 0
-6017 -6018 0
6018 6019 0
-6018 -6019 0
342 6020 0
-342 -6020 0
6019 6020 6021 0
6019 -6020 -6021 0
-6019 6020 -6021 0
-6019 -6020 -6021 0
6015 6021 -6022 0
6015 -6021 6022 0
-6015 6021 6022 0
-6015 -6021 -6022 0
3004 3067 -6023 0
3004 -3067 6023 0
-3004 3067 6023 0
-3004 -3067 -6023 0
5063 5996 6024 0
5063 -5996 -6024 0
-5063 5996 -6024 0
-5063 -5996 -6024 0
5126 6001 6025 0
5126 -6001 -6025 0
-5126 6001 -6025 0
-5126 -6001 -6025 0
6024 6025 -6026 0
6024 -6025 6026 0
-6024 6025 6026 0
-6024 -6025 -6026 0
2336 5078 6027 0
2336 -5078 -6027 0
-2336 5078 -6027 0
-2336 -5078 -6027 0
2337 5063 6028 0
2337 -5063 -6028 0
-2337 5063 -6028 0
-2337 -5063 -6028 0
6027 6028 6029 0
6027 -6028 -6029 0
-6027 6028 -6029 0
-6027 -6028 -6029 0
5824 4934 4935 6030 0
5824 4934 -4935 -6030 0
5824 -4934 4935 -6030 0
5824 -4934 -4935 -6030 0
-5824 4934 4935 -6030 0
-5824 4934 -4935 -6030 0
-5824 -4934 4935 -6030 0
-5824 -4934 -4935 -6030 0
6030 6031 0
-6030 -6031 0
6031 5793 4933 6032 0
6031 5793 -4933 -6032 0
6031 -5793 4933 -6032 0
6031 -5793 -4933 -6032 0
-6031 5793 4933 -6032 0
-6031 5793 -4933 -6032 0
-6031 -5793 4933 -6032 0
-6031 -5793 -4933 -6032 0
6032 6033 0
-6032 -6033 0
6029 6033 6034 0
6029 -6033 -6034 0
-6029 6033 -6034 0
-6029 -6033 -6034 0
2700 5141 6035 0
2700 -5141 -6035 0
-2700 5141 -6035 0
-2700 -5141 -6035 0
2701 5126 6036 0
2701 -5126 -6036 0
-2701 5126 -6036 0
-2701 -5126 -6036 0
6035 6036 6037 0
6035 -6036 -6037 0
-6035 6036 -6037 0
-6035 -6036 -6037 0
5905 4989 4990 6038 0
5905 4989 -4990 -6038 0
5905 -4989 4990 -6038 0
5905 -4989 -4990 -6038 0
-5905 4989 4990 -6038 0
-5905 4989 -4990 -6038 0
-5905 -4989 4990 -6038 0
-5905 -4989 -4990 -6038 0
6038 6039 0
-6038 -6039 0
6039 5874 4988 6040 0
6039 5874 -4988 -6040 0
6039 -5874 4988 -6040 0
6039 -5874 -4988 -6040 0
-6039 5874 4988 -6040 0
-6039 5874 -4988 -6040 0
-6039 -5874 4988 -6040 0
-6039 -5874 -4988 -6040 0
6040 6041 0
-6040 -6041 0
6037 6041 6042 0
6037 -6041 -6042 0
-6037 6041 -6042 0
-6037 -6041 -6042 0
6034 6042 -6043 0
6034 -6042 6043 0
-6034 6042 6043 0
-6034 -6042 -6043 0
1972 6044 0
-1972 -6044 0
1786 6045 0
-1786 -6045 0
6045 6046 0
-6045 -6046 0
1938 1961 6047 0
1938 -1961 -6047 0
-1938 1961 -6047 0
-1938 -1961 -6047 0
6047 6048 0
-6047 -6048 0
6046 6048 6049 0
6046 -6048 -6049 0
-6046 6048 -6049 0
-6046 -6048 -6049 0
1938 1950 6050 0
1938 -1950 -6050 0
-1938 1950 -6050 0
-1938 -1950 -6050 0
6050 6051 0
-6050 -6051 0
1786 6052 0
-1786 -6052 0
6052 6053 0
-6052 -6053 0
6051 6053 6054 0
6051 -6053 -6054 0
-6051 6053 -6054 0
-6051 -6053 -6054 0
6044 6049 6054 6055 0
6044 6049 -6054 -6055 0
6044 -6049 6054 -6055 0
6044 -6049 -6054 -6055 0
-6044 6049 6054 -6055 0
-6044 6049 -6054 -6055 0
-6044 -6049 6054 -6055 0
-6044 -6049 -6054 -6055 0
6055 6056 0
-6055 -6056 0
2026 6057 0
-2026 -6057 0
1806 6058 0
-1806 -6058 0
6058 6059 0
-6058 -6059 0
1992 2015 6060 0
1992 -2015 -6060 0
-1992 2015 -6060 0
-1992 -2015 -6060 0
6060 6061 0
-6060 -6061 0
6059 6061 6062 0
6059 -6061 -6062 0
-6059 6061 -6062 0
-6059 -6061 -6062 0
1992 2004 6063 0
1992 -2004 -6063 0
-1992 2004 -6063 0
-1992 -2004 -6063 0
6063 6064 0
-6063 -6064 0
1806 6065 0
-1806 -6065 0
6065 6066 0
-6065 -6066 0
6064 6066 6067 0
6064 -6066 -6067 0
-6064 6066 -6067 0
-6064 -6066 -6067 0
6057 6062 6067 6068 0
6057 6062 -6067 -6068 0
6057 -6062 6067 -6068 0
6057 -6062 -6067 -6068 0
-6057 6062 6067 -6068 0
-6057 6062 -6067 -6068 0
-6057 -6062 6067 -6068 0
-6057 -6062 -6067 -6068 0
6068 6069 0
-6068 -6069 0
6056 6069 -6070 0
6056 -6069 6070 0
-6056 6069 6070 0
-6056 -6069 -6070 0
6044 6057 -6071 0
6044 -6057 6071 0
-6044 6057 6071 0
-6044 -6057 -6071 0
1885 1905 -6072 0
1885 -1905 6072 0
-1885 1905 6072 0
-1885 -1905 -6072 0
5069 5132 -6073 0
5069 -5132 6073 0
-5069 5132 6073 0
-5069 -5132 -6073 0
5083 5146 -6074 0
5083 -5146 6074 0
-5083 5146 6074 0
-5083 -5146 -6074 0
1688 6075 0
-1688 -6075 0
6075 5055 5057 -6076 0
6075 5055 -5057 6076 0
6075 -5055 5057 6076 0
6075 -5055 -5057 6076 0
-6075 5055 5057 6076 0
-6075 5055 -5057 6076 0
-6075 -5055 5057 6076 0
-6075 -5055 -5057 6076 0
5074 5056 6076 -6077 0
5074 5056 -6076 6077 0
5074 -5056 6076 6077 0
5074 -5056 -6076 6077 0
-5074 5056 6076 6077 0
-5074 5056 -6076 6077 0
-5074 -5056 6076 6077 0
-5074 -5056 -6076 6077 0
6077 6078 0
-6077 -6078 0
1715 6079 0
-1715 -6079 0
6079 5118 5120 -6080 0
6079 5118 -5120 6080 0
6079 -5118 5120 6080 0
6079 -5118 -5120 6080 0
-6079 5118 5120 6080 0
-6079 5118 -5120 6080 0
-6079 -5118 5120 6080 0
-6079 -5118 -5120 6080 0
5137 5119 6080 -6081 0
5137 5119 -6080 6081 0
5137 -5119 6080 6081 0
5137 -5119 -6080 6081 0
-5137 5119 6080 6081 0
-5137 5119 -6080 6081 0
-5137 -5119 6080 6081 0
-5137 -5119 -6080 6081 0
6081 6082 0
-6081 -6082 0
6078 6082 -6083 0
6078 -6082 6083 0
-6078 6082 6083 0
-6078 -6082 -6083 0
6054 6084 0
-6054 -6084 0
5763 3007 5165 6085 0
5763 3007 -5165 -6085 0
5763 -3007 5165 -6085 0
5763 -3007 -5165 -6085 0
-5763 3007 5165 -6085 0
-5763 3007 -5165 -6085 0
-5763 -3007 5165 -6085 0
-5763 -3007 -5165 -6085 0
6085 6086 0
-6085 -6086 0
6084 6086 6087 0
6084 -6086 -6087 0
-6084 6086 -6087 0
-6084 -6086 -6087 0
6067 6088 0
-6067 -6088 0
5764 3070 5175 6089 0
5764 3070 -5175 -6089 0
5764 -3070 5175 -6089 0
5764 -3070 -5175 -6089 0
-5764 3070 5175 -6089 0
-5764 3070 -5175 -6089 0
-5764 -3070 5175 -6089 0
-5764 -3070 -5175 -6089 0
6089 6090 0
-6089 -6090 0
6088 6090 6091 0
6088 -6090 -6091 0
-6088 6090 -6091 0
-6088 -6090 -6091 0
6087 6091 -6092 0
6087 -6091 6092 0
-6087 6091 6092 0
-6087 -6091 -6092 0
2930 2963 -6093 0
2930 -2963 6093 0
-2930 2963 6093 0
-2930 -2963 -6093 0
5074 5058 5056 -6094 0
5074 5058 -5056 6094 0
5074 -5058 5056 6094 0
5074 -5058 -5056 6094 0
-5074 5058 5056 6094 0
-5074 5058 -5056 6094 0
-5074 -5058 5056 6094 0
-5074 -5058 -5056 6094 0
5073 5066 6094 -6095 0
5073 5066 -6094 6095 0
5073 -5066 6094 6095 0
5073 -5066 -6094 6095 0
-5073 5066 6094 6095 0
-5073 5066 -6094 6095 0
-5073 -5066 6094 6095 0
-5073 -5066 -6094 6095 0
6095 6096 0
-6095 -6096 0
6096 6097 0
-6096 -6097 0
2330 6097 6098 0
2330 -6097 -6098 0
-2330 6097 -6098 0
-2330 -6097 -6098 0
5137 5121 5119 -6099 0
5137 5121 -5119 6099 0
5137 -5121 5119 6099 0
5137 -5121 -5119 6099 0
-5137 5121 5119 6099 0
-5137 5121 -5119 6099 0
-5137 -5121 5119 6099 0
-5137 -5121 -5119 6099 0
5136 5129 6099 -6100 0
5136 5129 -6099 6100 0
5136 -5129 6099 6100 0
5136 -5129 -6099 6100 0
-5136 5129 6099 6100 0
-5136 5129 -6099 6100 0
-5136 -5129 6099 6100 0
-5136 -5129 -6099 6100 0
6100 6101 0
-6100 -6101 0
6101 6102 0
-6101 -6102 0
2694 6102 6103 0
2694 -6102 -6103 0
-2694 6102 -6103 0
-2694 -6102 -6103 0
6098 6103 -6104 0
6098 -6103 6104 0
-6098 6103 6104 0
-6098 -6103 -6104 0
5059 6075 5073 -6105 0
5059 6075 -5073 6105 0
5059 -6075 5073 6105 0
5059 -6075 -5073 6105 0
-5059 6075 5073 6105 0
-5059 6075 -5073 6105 0
-5059 -6075 5073 6105 0
-5059 -6075 -5073 6105 0
5057 5056 6105 -6106 0
5057 5056 -6105 6106 0
5057 -5056 6105 6106 0
5057 -5056 -6105 6106 0
-5057 5056 6105 6106 0
-5057 5056 -6105 6106 0
-5057 -5056 6105 6106 0
-5057 -5056 -6105 6106 0
6106 6107 0
-6106 -6107 0
5122 6079 5136 -6108 0
5122 6079 -5136 6108 0
5122 -6079 5136 6108 0
5122 -6079 -5136 6108 0
-5122 6079 5136 6108 0
-5122 6079 -5136 6108 0
-5122 -6079 5136 6108 0
-5122 -6079 -5136 6108 0
5120 5119 6108 -6109 0
5120 5119 -6108 6109 0
5120 -5119 6108 6109 0
5120 -5119 -6108 6109 0
-5120 5119 6108 6109 0
-5120 5119 -6108 6109 0
-5120 -5119 6108 6109 0
-5120 -5119 -6108 6109 0
6109 6110 0
-6109 -6110 0
6107 6110 -6111 0
6107 -6110 6111 0
-6107 6110 6111 0
-6107 -6110 -6111 0
6054 6067 -6112 0
6054 -6067 6112 0
-6054 6067 6112 0
-6054 -6067 -6112 0
6049 6062 -6113 0
6049 -6062 6113 0
-6049 6062 6113 0
-6049 -6062 -6113 0
1926 1952 6114 0
1926 -1952 -6114 0
-1926 1952 -6114 0
-1926 -1952 -6114 0
1980 2006 6115 0
1980 -2006 -6115 0
-1980 2006 -6115 0
-1980 -2006 -6115 0
6114 6115 -6116 0
6114 -6115 6116 0
-6114 6115 6116 0
-6114 -6115 -6116 0
6049 6117 0
-6049 -6117 0
6117 6086 6118 0
6117 -6086 -6118 0
-6117 6086 -6118 0
-6117 -6086 -6118 0
6062 6119 0
-6062 -6119 0
6119 6090 6120 0
6119 -6090 -6120 0
-6119 6090 -6120 0
-6119 -6090 -6120 0
6118 6120 -6121 0
6118 -6120 6121 0
-6118 6120 6121 0
-6118 -6120 -6121 0
1786 6122 0
-1786 -6122 0
6122 6123 0
-6122 -6123 0
6123 1483 6124 0
6123 -1483 -6124 0
-6123 1483 -6124 0
-6123 -1483 -6124 0
6124 6125 0
-6124 -6125 0
6086 6125 6126 0
6086 -6125 -6126 0
-6086 6125 -6126 0
-6086 -6125 -6126 0
1806 6127 0
-1806 -6127 0
6127 6128 0
-6127 -6128 0
6128 1581 6129 0
6128 -1581 -6129 0
-6128 1581 -6129 0
-6128 -1581 -6129 0
6129 6130 0
-6129 -6130 0
6090 6130 6131 0
6090 -6130 -6131 0
-6090 6130 -6131 0
-6090 -6130 -6131 0
6126 6131 -6132 0
6126 -6131 6132 0
-6126 6131 6132 0
-6126 -6131 -6132 0
6124 6129 -6133 0
6124 -6129 6133 0
-6124 6129 6133 0
-6124 -6129 -6133 0
2251 2615 -6134 0
2251 -2615 6134 0
-2251 2615 6134 0
-2251 -2615 -6134 0
5074 5073 5057 -6135 0
5074 5073 -5057 6135 0
5074 -5073 5057 6135 0
5074 -5073 -5057 6135 0
-5074 5073 5057 6135 0
-5074 5073 -5057 6135 0
-5074 -5073 5057 6135 0
-5074 -5073 -5057 6135 0
5058 5056 6135 -6136 0
5058 5056 -6135 6136 0
5058 -5056 6135 6136 0
5058 -5056 -6135 6136 0
-5058 5056 6135 6136 0
-5058 5056 -6135 6136 0
-5058 -5056 6135 6136 0
-5058 -5056 -6135 6136 0
6136 6137 0
-6136 -6137 0
6137 6138 0
-6137 -6138 0
6138 5855 6139 0
6138 -5855 -6139 0
-6138 5855 -6139 0
-6138 -5855 -6139 0
5137 5136 5120 -6140 0
5137 5136 -5120 6140 0
5137 -5136 5120 6140 0
5137 -5136 -5120 6140 0
-5137 5136 5120 6140 0
-5137 5136 -5120 6140 0
-5137 -5136 5120 6140 0
-5137 -5136 -5120 6140 0
5121 5119 6140 -6141 0
5121 5119 -6140 6141 0
5121 -5119 6140 6141 0
5121 -5119 -6140 6141 0
-5121 5119 6140 6141 0
-5121 5119 -6140 6141 0
-5121 -5119 6140 6141 0
-5121 -5119 -6140 6141 0
6141 6142 0
-6141 -6142 0
6142 6143 0
-6142 -6143 0
6143 5936 6144 0
6143 -5936 -6144 0
-6143 5936 -6144 0
-6143 -5936 -6144 0
6139 6144 -6145 0
6139 -6144 6145 0
-6139 6144 6145 0
-6139 -6144 -6145 0
6078 6146 0
-6078 -6146 0
6146 6033 6147 0
6146 -6033 -6147 0
-6146 6033 -6147 0
-6146 -6033 -6147 0
6082 6148 0
-6082 -6148 0
6148 6041 6149 0
6148 -6041 -6149 0
-6148 6041 -6149 0
-6148 -6041 -6149 0
6147 6149 -6150 0
6147 -6149 6150 0
-6147 6149 6150 0
-6147 -6149 -6150 0
5056 5059 5058 -6151 0
5056 5059 -5058 6151 0
5056 -5059 5058 6151 0
5056 -5059 -5058 6151 0
-5056 5059 5058 6151 0
-5056 5059 -5058 6151 0
-5056 -5059 5058 6151 0
-5056 -5059 -5058 6151 0
5057 5073 6151 -6152 0
5057 5073 -6151 6152 0
5057 -5073 6151 6152 0
5057 -5073 -6151 6152 0
-5057 5073 6151 6152 0
-5057 5073 -6151 6152 0
-5057 -5073 6151 6152 0
-5057 -5073 -6151 6152 0
6152 6153 0
-6152 -6153 0
6153 6154 0
-6153 -6154 0
6033 6154 6155 0
6033 -6154 -6155 0
-6033 6154 -6155 0
-6033 -6154 -6155 0
5119 5122 5121 -6156 0
5119 5122 -5121 6156 0
5119 -5122 5121 6156 0
5119 -5122 -5121 6156 0
-5119 5122 5121 6156 0
-5119 5122 -5121 6156 0
-5119 -5122 5121 6156 0
-5119 -5122 -5121 6156 0
5120 5136 6156 -6157 0
5120 5136 -6156 6157 0
5120 -5136 6156 6157 0
5120 -5136 -6156 6157 0
-5120 5136 6156 6157 0
-5120 5136 -6156 6157 0
-5120 -5136 6156 6157 0
-5120 -5136 -6156 6157 0
6157 6158 0
-6157 -6158 0
6158 6159 0
-6158 -6159 0
6041 6159 6160 0
6041 -6159 -6160 0
-6041 6159 -6160 0
-6041 -6159 -6160 0
6155 6160 -6161 0
6155 -6160 6161 0
-6155 6160 6161 0
-6155 -6160 -6161 0
2330 5078 5854 4939 6162 0
2330 5078 5854 -4939 -6162 0
2330 5078 -5854 4939 -6162 0
2330 5078 -5854 -4939 -6162 0
2330 -5078 5854 4939 -6162 0
2330 -5078 5854 -4939 -6162 0
2330 -5078 -5854 4939 -6162 0
2330 -5078 -5854 -4939 -6162 0
-2330 5078 5854 4939 -6162 0
-2330 5078 5854 -4939 -6162 0
-2330 5078 -5854 4939 -6162 0
-2330 5078 -5854 -4939 -6162 0
-2330 -5078 5854 4939 -6162 0
-2330 -5078 5854 -4939 -6162 0
-2330 -5078 -5854 4939 -6162 0
-2330 -5078 -5854 -4939 -6162 0
2694 5141 5935 4994 6163 0
2694 5141 5935 -4994 -6163 0
2694 5141 -5935 4994 -6163 0
2694 5141 -5935 -4994 -6163 0
2694 -5141 5935 4994 -6163 0
2694 -5141 5935 -4994 -6163 0
2694 -5141 -5935 4994 -6163 0
2694 -5141 -5935 -4994 -6163 0
-2694 5141 5935 4994 -6163 0
-2694 5141 5935 -4994 -6163 0
-2694 5141 -5935 4994 -6163 0
-2694 5141 -5935 -4994 -6163 0
-2694 -5141 5935 4994 -6163 0
-2694 -5141 5935 -4994 -6163 0
-2694 -5141 -5935 4994 -6163 0
-2694 -5141 -5935 -4994 -6163 0
6162 6163 -6164 0
6162 -6163 6164 0
-6162 6163 6164 0
-6162 -6163 -6164 0
4935 4936 4943 6165 0
4935 4936 -4943 -6165 0
4935 -4936 4943 -6165 0
4935 -4936 -4943 -6165 0
-4935 4936 4943 -6165 0
-4935 4936 -4943 -6165 0
-4935 -4936 4943 -6165 0
-4935 -4936 -4943 -6165 0
6165 6166 0
-6165 -6166 0
5790 4932 6166 6167 0
5790 4932 -6166 -6167 0
5790 -4932 6166 -6167 0
5790 -4932 -6166 -6167 0
-5790 4932 6166 -6167 0
-5790 4932 -6166 -6167 0
-5790 -4932 6166 -6167 0
-5790 -4932 -6166 -6167 0
6167 6168 0
-6167 -6168 0
6138 6168 6169 0
6138 -6168 -6169 0
-6138 6168 -6169 0
-6138 -6168 -6169 0
4990 4991 4998 6170 0
4990 4991 -4998 -6170 0
4990 -4991 4998 -6170 0
4990 -4991 -4998 -6170 0
-4990 4991 4998 -6170 0
-4990 4991 -4998 -6170 0
-4990 -4991 4998 -6170 0
-4990 -4991 -4998 -6170 0
6170 6171 0
-6170 -6171 0
5871 4987 6171 6172 0
5871 4987 -6171 -6172 0
5871 -4987 6171 -6172 0
5871 -4987 -6171 -6172 0
-5871 4987 6171 -6172 0
-5871 4987 -6171 -6172 0
-5871 -4987 6171 -6172 0
-5871 -4987 -6171 -6172 0
6172 6173 0
-6172 -6173 0
6143 6173 6174 0
6143 -6173 -6174 0
-6143 6173 -6174 0
-6143 -6173 -6174 0
6169 6174 -6175 0
6169 -6174 6175 0
-6169 6174 6175 0
-6169 -6174 -6175 0
405 6176 0
-405 -6176 0
405 6177 0
-405 -6177 0
6176 6177 -6178 0
6176 -6177 6178 0
-6176 6177 6178 0
-6176 -6177 -6178 0
3031 3094 -6179 0
3031 -3094 6179 0
-3031 3094 6179 0
-3031 -3094 -6179 0
2041 2142 2047 -6180 0
2041 2142 -2047 6180 0
2041 -2142 2047 6180 0
2041 -2142 -2047 6180 0
-2041 2142 2047 6180 0
-2041 2142 -2047 6180 0
-2041 -2142 2047 6180 0
-2041 -2142 -2047 6180 0
2035 2038 6180 -6181 0
2035 2038 -6180 6181 0
2035 -2038 6180 6181 0
2035 -2038 -6180 6181 0
-2035 2038 6180 6181 0
-2035 2038 -6180 6181 0
-2035 -2038 6180 6181 0
-2035 -2038 -6180 6181 0
6181 6182 0
-6181 -6182 0
6182 6183 0
-6182 -6183 0
6183 3133 6184 0
6183 -3133 -6184 0
-6183 3133 -6184 0
-6183 -3133 -6184 0
2405 2506 2411 -6185 0
2405 2506 -2411 6185 0
2405 -2506 2411 6185 0
2405 -2506 -2411 6185 0
-2405 2506 2411 6185 0
-2405 2506 -2411 6185 0
-2405 -2506 2411 6185 0
-2405 -2506 -2411 6185 0
2399 2402 6185 -6186 0
2399 2402 -6185 6186 0
2399 -2402 6185 6186 0
2399 -2402 -6185 6186 0
-2399 2402 6185 6186 0
-2399 2402 -6185 6186 0
-2399 -2402 6185 6186 0
-2399 -2402 -6185 6186 0
6186 6187 0
-6186 -6187 0
6187 6188 0
-6187 -6188 0
6188 3151 6189 0
6188 -3151 -6189 0
-6188 3151 -6189 0
-6188 -3151 -6189 0
6184 6189 -6190 0
6184 -6189 6190 0
-6184 6189 6190 0
-6184 -6189 -6190 0
408 6191 0
-408 -6191 0
408 6192 0
-408 -6192 0
6191 6192 -6193 0
6191 -6192 6193 0
-6191 6192 6193 0
-6191 -6192 -6193 0
411 6194 0
-411 -6194 0
411 6195 0
-411 -6195 0
6194 6195 -6196 0
6194 -6195 6196 0
-6194 6195 6196 0
-6194 -6195 -6196 0
412 6197 0
-412 -6197 0
412 6198 0
-412 -6198 0
6197 6198 -6199 0
6197 -6198 6199 0
-6197 6198 6199 0
-6197 -6198 -6199 0
-626 6200 0
-629 6200 0
-632 6200 0
-635 6200 0
-638 6200 0
-783 6200 0
-786 6200 0
-789 6200 0
-898 6200 0
-901 6200 0
-904 6200 0
-907 6200 0
-910 6200 0
-1097 6200 0
-1294 6200 0
-1481 6200 0
-1678 6200 0
-1733 6200 0
-1784 6200 0
-1825 6200 0
-1848 6200 0
-1863 6200 0
-1882 6200 0
-1923 6200 0
-2032 6200 0
-2761 6200 0
-2908 6200 0
-2975 6200 0
-2988 6200 0
-3114 6200 0
-3127 6200 0
-3164 6200 0
-3321 6200 0
-3366 6200 0
-3411 6200 0
-3456 6200 0
-3501 6200 0
-3546 6200 0
-3591 6200 0
-3636 6200 0
-3821 6200 0
-3840 6200 0
-3859 6200 0
-3878 6200 0
-3935 6200 0
-3962 6200 0
-3989 6200 0
-4004 6200 0
-4019 6200 0
-4034 6200 0
-4049 6200 0
-4064 6200 0
-4079 6200 0
-4092 6200 0
-4131 6200 0
-4164 6200 0
-4199 6200 0
-4238 6200 0
-4271 6200 0
-4306 6200 0
-4339 6200 0
-4374 6200 0
-4391 6200 0
-4410 6200 0
-4455 6200 0
-4498 6200 0
-4571 6200 0
-4596 6200 0
-4637 6200 0
-4712 6200 0
-4745 6200 0
-4788 6200 0
-4825 6200 0
-4862 6200 0
-4891 6200 0
-4920 6200 0
-5031 6200 0
-5158 6200 0
-5179 6200 0
-5186 6200 0
-5193 6200 0
-5200 6200 0
-5207 6200 0
-5214 6200 0
-5221 6200 0
-5228 6200 0
-5235 6200 0
-5242 6200 0
-5249 6200 0
-5278 6200 0
-5285 6200 0
-5292 6200 0
-5299 6200 0
-5340 6200 0
-5341 6200 0
-5350 6200 0
-5371 6200 0
-5372 6200 0
-5431 6200 0
-5448 6200 0
-5461 6200 0
-5468 6200 0
-5475 6200 0
-5482 6200 0
-5489 6200 0
-5496 6200 0
-5515 6200 0
-5528 6200 0
-5535 6200 0
-5542 6200 0
-5549 6200 0
-5556 6200 0
-5563 6200 0
-5570 6200 0
-5577 6200 0
-5584 6200 0
-5593 6200 0
-5602 6200 0
-5611 6200 0
-5624 6200 0
-5631 6200 0
-5638 6200 0
-5645 6200 0
-5652 6200 0
-5661 6200 0
-5670 6200 0
-5679 6200 0
-5688 6200 0
-5697 6200 0
-5702 6200 0
-5707 6200 0
-5712 6200 0
-5717 6200 0
-5722 6200 0
-5727 6200 0
-5732 6200 0
-5737 6200 0
-5742 6200 0
-5747 6200 0
-5748 6200 0
-5749 6200 0
-5750 6200 0
-5751 6200 0
-5752 6200 0
-5755 6200 0
-5756 6200 0
-5757 6200 0
-5758 6200 0
-5759 6200 0
-5760 6200 0
-5761 6200 0
-5762 6200 0
-5765 6200 0
-5768 6200 0
-5769 6200 0
-5770 6200 0
-5771 6200 0
-5772 6200 0
-5773 6200 0
-5774 6200 0
-5775 6200 0
-5776 6200 0
-5777 6200 0
-5940 6200 0
-5943 6200 0
-5946 6200 0
-5947 6200 0
-5948 6200 0
-5951 6200 0
-5952 6200 0
-5953 6200 0
-5956 6200 0
-5959 6200 0
-5962 6200 0
-5973 6200 0
-5986 6200 0
-5989 6200 0
-5992 6200 0
-6003 6200 0
-6004 6200 0
-6009 6200 0
-6022 6200 0
-6023 6200 0
-6026 6200 0
-6043 6200 0
-6070 6200 0
-6071 6200 0
-6072 6200 0
-6073 6200 0
-6074 6200 0
-6083 6200 0
-6092 6200 0
-6093 6200 0
-6104 6200 0
-6111 6200 0
-6112 6200 0
-6113 6200 0
-6116 6200 0
-6121 6200 0
-6132 6200 0
-6133 6200 0
-6134 6200 0
-6145 6200 0
-6150 6200 0
-6161 6200 0
-6164 6200 0
-6175 6200 0
-6178 6200 0
-6179 6200 0
-6190 6200 0
-6193 6200 0
-6196 6200 0
-6199 6200 0
-6200 626 629 632 635 638 783 786 789 898 901 904 907 910 1097 1294 1481 1678 1733 1784 1825 1848 1863 1882 1923 2032 2761 2908 2975 2988 3114 3127 3164 3321 3366 3411 3456 3501 3546 3591 3636 3821 3840 3859 3878 3935 3962 3989 4004 4019 4034 4049 4064 4079 4092 4131 4164 4199 4238 4271 4306 4339 4374 4391 4410 4455 4498 4571 4596 4637 4712 4745 4788 4825 4862 4891 4920 5031 5158 5179 5186 5193 5200 5207 5214 5221 5228 5235 5242 5249 5278 5285 5292 5299 5340 5341 5350 5371 5372 5431 5448 5461 5468 5475 5482 5489 5496 5515 5528 5535 5542 5549 5556 5563 5570 5577 5584 5593 5602 5611 5624 5631 5638 5645 5652 5661 5670 5679 5688 5697 5702 5707 5712 5717 5722 5727 5732 5737 5742 5747 5748 5749 5750 5751 5752 5755 5756 5757 5758 5759 5760 5761 5762 5765 5768 5769 5770 5771 5772 5773 5774 5775 5776 5777 5940 5943 5946 5947 5948 5951 5952 5953 5956 5959 5962 5973 5986 5989 5992 6003 6004 6009 6022 6023 6026 6043 6070 6071 6072 6073 6074 6083 6092 6093 6104 6111 6112 6113 6116 6121 6132 6133 6134 6145 6150 6161 6164 6175 6178 6179 6190 6193 6196 6199 0
-1 215 0
1 -215 0
-2 216 0
2 -216 0
-3 217 0
3 -217 0
-4 218 0
4 -218 0
-5 219 0
5 -219 0
-6 220 0
6 -220 0
-7 221 0
7 -221 0
-8 222 0
8 -222 0
-9 223 0
9 -223 0
-10 224 0
10 -224 0
-11 225 0
11 -225 0
-12 226 0
12 -226 0
-13 227 0
13 -227 0
-14 228 0
14 -228 0
-15 229 0
15 -229 0
-16 230 0
16 -230 0
-17 231 0
17 -231 0
-18 232 0
18 -232 0
-19 233 0
19 -233 0
-20 234 0
20 -234 0
-21 235 0
21 -235 0
-22 236 0
22 -236 0
-23 237 0
23 -237 0
-24 238 0
24 -238 0
-25 239 0
25 -239 0
-26 240 0
26 -240 0
-27 241 0
27 -241 0
-28 242 0
28 -242 0
-29 243 0
29 -243 0
-30 244 0
30 -244 0
-31 245 0
31 -245 0
-32 246 0
32 -246 0
-33 247 0
33 -247 0
-34 248 0
34 -248 0
-35 249 0
35 -249 0
-36 250 0
36 -250 0
-37 251 0
37 -251 0
-38 252 0
38 -252 0
-39 253 0
39 -253 0
-40 254 0
40 -254 0
-41 255 0
41 -255 0
-42 256 0
42 -256 0
-43 257 0
43 -257 0
-44 258 0
44 -258 0
-45 259 0
45 -259 0
-46 260 0
46 -260 0
-47 261 0
47 -261 0
-48 262 0
48 -262 0
-49 263 0
49 -263 0
-50 264 0
50 -264 0
-51 265 0
51 -265 0
-52 266 0
52 -266 0
-53 267 0
53 -267 0
-54 268 0
54 -268 0
-55 269 0
55 -269 0
-56 270 0
56 -270 0
-57 271 0
57 -271 0
-58 272 0
58 -272 0
-59 273 0
59 -273 0
-60 274 0
60 -274 0
-61 275 0
61 -275 0
-62 276 0
62 -276 0
-63 277 0
63 -277 0
-64 278 0
64 -278 0
-65 279 0
65 -279 0
-66 280 0
66 -280 0
-67 281 0
67 -281 0
-68 282 0
68 -282 0
-69 283 0
69 -283 0
-70 284 0
70 -284 0
-71 285 0
71 -285 0
-72 286 0
72 -286 0
-73 287 0
73 -287 0
-74 288 0
74 -288 0
-75 289 0
75 -289 0
-76 290 0
76 -290 0
-77 291 0
77 -291 0
-78 292 0
78 -292 0
-79 293 0
79 -293 0
-80 294 0
80 -294 0
-81 295 0
81 -295 0
-82 296 0
82 -296 0
-83 297 0
83 -297 0
-84 298 0
84 -298 0
-85 299 0
85 -299 0
-86 300 0
86 -300 0
-87 301 0
87 -301 0
-88 302 0
88 -302 0
-89 303 0
89 -303 0
-90 304 0
90 -304 0
-91 305 0
91 -305 0
-92 306 0
92 -306 0
-93 307 0
93 -307 0
-94 308 0
94 -308 0
-95 309 0
95 -309 0
-96 310 0
96 -310 0
-97 311 0
97 -311 0
-98 312 0
98 -312 0
-99 313 0
99 -313 0
-100 314 0
100 -314 0
-101 315 0
101 -315 0
-102 316 0
102 -316 0
-103 317 0
103 -317 0
-104 318 0
104 -318 0
-105 319 0
105 -319 0
-106 320 0
106 -320 0
-107 321 0
107 -321 0
-108 322 0
108 -322 0
-109 323 0
109 -323 0
-110 324 0
110 -324 0
-111 325 0
111 -325 0
-112 326 0
112 -326 0
-113 327 0
113 -327 0
-114 328 0
114 -328 0
-115 329 0
115 -329 0
-116 330 0
116 -330 0
-117 331 0
117 -331 0
-118 332 0
118 -332 0
-119 333 0
119 -333 0
-120 334 0
120 -334 0
-121 335 0
121 -335 0
-122 336 0
122 -336 0
-123 337 0
123 -337 0
-124 338 0
124 -338 0
-125 339 0
125 -339 0
-126 340 0
126 -340 0
-127 341 0
127 -341 0
-128 342 0
128 -342 0
-129 343 0
129 -343 0
-130 344 0
130 -344 0
-131 345 0
131 -345 0
-132 346 0
132 -346 0
-133 347 0
133 -347 0
-134 348 0
134 -348 0
-135 349 0
135 -349 0
-136 350 0
136 -350 0
-137 351 0
137 -351 0
-138 352 0
138 -352 0
-139 353 0
139 -353 0
-140 354 0
140 -354 0
-141 355 0
141 -355 0
-142 356 0
142 -356 0
-143 357 0
143 -357 0
-144 358 0
144 -358 0
-145 359 0
145 -359 0
-146 360 0
146 -360 0
-147 361 0
147 -361 0
-148 362 0
148 -362 0
-149 363 0
149 -363 0
-150 364 0
150 -364 0
-151 365 0
151 -365 0
-152 366 0
152 -366 0
-153 367 0
153 -367 0
-154 368 0
154 -368 0
-155 369 0
155 -369 0
-156 370 0
156 -370 0
-157 371 0
157 -371 0
-158 372 0
158 -372 0
-159 373 0
159 -373 0
-160 374 0
160 -374 0
-161 375 0
161 -375 0
-162 376 0
162 -376 0
-163 377 0
163 -377 0
-164 378 0
164 -378 0
-165 379 0
165 -379 0
-166 380 0
166 -380 0
-167 381 0
167 -381 0
-168 382 0
168 -382 0
-169 383 0
169 -383 0
-170 384 0
170 -384 0
-171 385 0
171 -385 0
-172 386 0
172 -386 0
-173 387 0
173 -387 0
-174 388 0
174 -388 0
-175 389 0
175 -389 0
-176 390 0
176 -390 0
-177 391 0
177 -391 0
-178 392 0
178 -392 0
-179 393 0
179 -393 0
-180 394 0
180 -394 0
-181 395 0
181 -395 0
-182 396 0
182 -396 0
-183 397 0
183 -397 0
-184 398 0
184 -398 0
-185 399 0
185 -399 0
-186 400 0
186 -400 0
-187 401 0
187 -401 0
-188 402 0
188 -402 0
-189 403 0
189 -403 0
-190 404 0
190 -404 0
-191 405 0
191 -405 0
-192 406 0
192 -406 0
-193 407 0
193 -407 0
-194 408 0
194 -408 0
-195 409 0
195 -409 0
-196 410 0
196 -410 0
-197 411 0
197 -411 0
-198 412 0
198 -412 0
-199 413 0
199 -413 0
-200 414 0
200 -414 0
-201 415 0
201 -415 0
-202 416 0
202 -416 0
-203 417 0
203 -417 0
-204 418 0
204 -418 0
-205 419 0
205 -419 0
-206 420 0
206 -420 0
-207 421 0
207 -421 0
-208 422 0
208 -422 0
-209 423 0
209 -423 0
-210 424 0
210 -424 0
-211 425 0
211 -425 0
-212 426 0
212 -426 0
-213 427 0
213 -427 0
-214 428 0
214 -428 0
-6201 -19 0
-6201 -177 0
-6201 -181 0
6201 19 177 181 0
-6202 -39 0
-6202 -177 0
-6202 -181 0
6202 39 177 181 0
-6203 16 0
-6203 -177 0
-6203 -181 0
6203 -16 177 181 0
-6204 116 0
-6204 -177 0
-6204 -181 0
6204 -116 177 181 0
-6205 -6201 0
-6205 -6202 0
-6205 -6203 0
-6205 -6204 0
6205 6201 6202 6203 6204 0
-6206 192 0
6206 -192 0
-6207 -6206 0
6207 6206 0
-6208 148 0
-6208 163 0
6208 -148 -163 0
-6209 148 0
-6209 174 0
6209 -148 -174 0
-6210 -6208 0
-6210 -6209 0
6210 6208 6209 0
-6211 -16 0
-6211 -19 0
-6211 -148 0
-6211 -164 0
-6211 -189 0
-6211 -192 0
6211 16 19 148 164 189 192 0
-6212 -148 0
-6212 -164 0
-6212 186 0
-6212 -189 0
6212 148 164 -186 189 0
-6213 -16 0
-6213 -19 0
-6213 -148 0
-6213 -164 0
-6213 177 0
-6213 189 0
6213 16 19 148 164 -177 -189 0
-6214 16 0
-6214 17 0
-6214 19 0
-6214 39 0
-6214 52 0
-6214 148 0
-6214 163 0
-6214 182 0
6214 -16 -17 -19 -39 -52 -148 -163 -182 0
-6215 16 0
-6215 17 0
-6215 19 0
-6215 39 0
-6215 52 0
-6215 148 0
-6215 163 0
-6215 -181 0
6215 -16 -17 -19 -39 -52 -148 -163 181 0
-6216 16 0
-6216 17 0
-6216 19 0
-6216 39 0
-6216 52 0
-6216 148 0
-6216 174 0
-6216 182 0
6216 -16 -17 -19 -39 -52 -148 -174 -182 0
-6217 16 0
-6217 17 0
-6217 19 0
-6217 39 0
-6217 52 0
-6217 148 0
-6217 174 0
-6217 -181 0
6217 -16 -17 -19 -39 -52 -148 -174 181 0
-6218 52 0
-6218 -163 0
-6218 -174 0
-6218 177 0
-6218 186 0
6218 -52 163 174 -177 -186 0
-6219 16 0
-6219 17 0
-6219 19 0
-6219 39 0
-6219 52 0
-6219 -163 0
-6219 -174 0
-6219 177 0
-6219 189 0
6219 -16 -17 -19 -39 -52 163 174 -177 -189 0
-6220 16 0
-6220 17 0
-6220 19 0
-6220 39 0
-6220 52 0
-6220 -163 0
-6220 -174 0
-6220 177 0
-6220 -192 0
6220 -16 -17 -19 -39 -52 163 174 -177 192 0
-6221 52 0
-6221 -163 0
-6221 -174 0
-6221 186 0
-6221 -189 0
6221 -52 163 174 -186 189 0
-6222 16 0
-6222 17 0
-6222 19 0
-6222 39 0
-6222 52 0
-6222 -163 0
-6222 -174 0
-6222 -189 0
-6222 -192 0
6222 -16 -17 -19 -39 -52 163 174 189 192 0
-6223 -148 0
-6223 -164 0
-6223 177 0
-6223 186 0
6223 148 164 -177 -186 0
-6224 52 0
-6224 -148 0
-6224 177 0
-6224 186 0
6224 -52 148 -177 -186 0
-6225 -148 0
-6225 171 0
-6225 177 0
-6225 186 0
6225 148 -171 -177 -186 0
-6226 -163 0
-6226 -164 0
-6226 -174 0
-6226 177 0
-6226 186 0
6226 163 164 174 -177 -186 0
-6227 -163 0
-6227 171 0
-6227 -174 0
-6227 177 0
-6227 186 0
6227 163 -171 174 -177 -186 0
-6228 52 0
-6228 116 0
-6228 148 0
-6228 163 0
-6228 182 0
6228 -52 -116 -148 -163 -182 0
-6229 16 0
-6229 17 0
-6229 19 0
-6229 39 0
-6229 148 0
-6229 163 0
-6229 -167 0
-6229 168 0
-6229 169 0
-6229 182 0
6229 -16 -17 -19 -39 -148 -163 167 -168 -169 -182 0
-6230 116 0
-6230 148 0
-6230 163 0
-6230 -167 0
-6230 168 0
-6230 169 0
-6230 182 0
6230 -116 -148 -163 167 -168 -169 -182 0
-6231 -16 0
-6231 -19 0
-6231 52 0
-6231 148 0
-6231 163 0
-6231 182 0
6231 16 19 -52 -148 -163 -182 0
-6232 -16 0
-6232 -39 0
-6232 52 0
-6232 148 0
-6232 163 0
-6232 182 0
6232 16 39 -52 -148 -163 -182 0
-6233 -17 0
-6233 -39 0
-6233 52 0
-6233 148 0
-6233 163 0
-6233 182 0
6233 17 39 -52 -148 -163 -182 0
-6234 -19 0
-6234 -39 0
-6234 52 0
-6234 148 0
-6234 163 0
-6234 182 0
6234 19 39 -52 -148 -163 -182 0
-6235 16 0
-6235 52 0
-6235 148 0
-6235 163 0
-6235 182 0
-6235 185 0
6235 -16 -52 -148 -163 -182 -185 0
-6236 16 0
-6236 52 0
-6236 148 0
-6236 163 0
-6236 182 0
-6236 192 0
6236 -16 -52 -148 -163 -182 -192 0
-6237 -16 0
-6237 52 0
-6237 148 0
-6237 163 0
-6237 177 0
-6237 182 0
6237 16 -52 -148 -163 -177 -182 0
-6238 -16 0
-6238 52 0
-6238 148 0
-6238 163 0
-6238 181 0
-6238 182 0
6238 16 -52 -148 -163 -181 -182 0
-6239 16 0
-6239 148 0
-6239 163 0
-6239 -167 0
-6239 168 0
-6239 169 0
-6239 -181 0
-6239 185 0
6239 -16 -148 -163 167 -168 -169 181 -185 0
-6240 16 0
-6240 148 0
-6240 163 0
-6240 171 0
-6240 -181 0
-6240 185 0
6240 -16 -148 -163 -171 181 -185 0
-6241 16 0
-6241 -53 0
-6241 148 0
-6241 163 0
-6241 168 0
-6241 -181 0
-6241 185 0
6241 -16 53 -148 -163 -168 181 -185 0
-6242 16 0
-6242 148 0
-6242 -160 0
-6242 163 0
-6242 168 0
-6242 -181 0
-6242 185 0
6242 -16 -148 160 -163 -168 181 -185 0
-6243 16 0
-6243 148 0
-6243 163 0
-6243 -164 0
-6243 -181 0
-6243 185 0
6243 -16 -148 -163 164 181 -185 0
-6244 16 0
-6244 52 0
-6244 148 0
-6244 163 0
-6244 -181 0
-6244 185 0
6244 -16 -52 -148 -163 181 -185 0
-6245 16 0
-6245 -53 0
-6245 148 0
-6245 163 0
-6245 168 0
-6245 182 0
-6245 185 0
6245 -16 53 -148 -163 -168 -182 -185 0
-6246 16 0
-6246 148 0
-6246 -160 0
-6246 163 0
-6246 168 0
-6246 182 0
-6246 185 0
6246 -16 -148 160 -163 -168 -182 -185 0
-6247 16 0
-6247 148 0
-6247 163 0
-6247 171 0
-6247 182 0
-6247 185 0
6247 -16 -148 -163 -171 -182 -185 0
-6248 -16 0
-6248 -19 0
-6248 148 0
-6248 163 0
-6248 -167 0
-6248 168 0
-6248 169 0
-6248 182 0
6248 16 19 -148 -163 167 -168 -169 -182 0
-6249 -16 0
-6249 -39 0
-6249 148 0
-6249 163 0
-6249 -167 0
-6249 168 0
-6249 169 0
-6249 182 0
6249 16 39 -148 -163 167 -168 -169 -182 0
-6250 16 0
-6250 148 0
-6250 163 0
-6250 -164 0
-6250 182 0
-6250 185 0
6250 -16 -148 -163 164 -182 -185 0
-6251 16 0
-6251 148 0
-6251 163 0
-6251 -167 0
-6251 168 0
-6251 169 0
-6251 182 0
-6251 185 0
6251 -16 -148 -163 167 -168 -169 -182 -185 0
-6252 52 0
-6252 116 0
-6252 148 0
-6252 163 0
-6252 -181 0
6252 -52 -116 -148 -163 181 0
-6253 116 0
-6253 148 0
-6253 163 0
-6253 -167 0
-6253 168 0
-6253 169 0
-6253 -181 0
6253 -116 -148 -163 167 -168 -169 181 0
-6254 -16 0
-6254 -19 0
-6254 52 0
-6254 148 0
-6254 163 0
-6254 -181 0
6254 16 19 -52 -148 -163 181 0
-6255 -16 0
-6255 -39 0
-6255 52 0
-6255 148 0
-6255 163 0
-6255 -181 0
6255 16 39 -52 -148 -163 181 0
-6256 -16 0
-6256 -19 0
-6256 148 0
-6256 163 0
-6256 -167 0
-6256 168 0
-6256 169 0
-6256 -181 0
6256 16 19 -148 -163 167 -168 -169 181 0
-6257 -16 0
-6257 -39 0
-6257 148 0
-6257 163 0
-6257 -167 0
-6257 168 0
-6257 169 0
-6257 -181 0
6257 16 39 -148 -163 167 -168 -169 181 0
-6258 16 0
-6258 148 0
-6258 163 0
-6258 -167 0
-6258 168 0
-6258 169 0
-6258 182 0
-6258 192 0
6258 -16 -148 -163 167 -168 -169 -182 -192 0
-6259 -17 0
-6259 -39 0
-6259 148 0
-6259 163 0
-6259 -167 0
-6259 168 0
-6259 169 0
-6259 182 0
6259 17 39 -148 -163 167 -168 -169 -182 0
-6260 -19 0
-6260 -39 0
-6260 148 0
-6260 163 0
-6260 -167 0
-6260 168 0
-6260 169 0
-6260 182 0
6260 19 39 -148 -163 167 -168 -169 -182 0
-6261 16 0
-6261 148 0
-6261 163 0
-6261 -164 0
-6261 182 0
-6261 192 0
6261 -16 -148 -163 164 -182 -192 0
-6262 16 0
-6262 148 0
-6262 163 0
-6262 171 0
-6262 182 0
-6262 192 0
6262 -16 -148 -163 -171 -182 -192 0
-6263 16 0
-6263 17 0
-6263 19 0
-6263 39 0
-6263 148 0
-6263 163 0
-6263 171 0
-6263 182 0
6263 -16 -17 -19 -39 -148 -163 -171 -182 0
-6264 16 0
-6264 17 0
-6264 19 0
-6264 39 0
-6264 148 0
-6264 163 0
-6264 171 0
-6264 -181 0
6264 -16 -17 -19 -39 -148 -163 -171 181 0
-6265 16 0
-6265 17 0
-6265 19 0
-6265 39 0
-6265 -148 0
-6265 163 0
-6265 166 0
-6265 171 0
-6265 173 0
-6265 -189 0
6265 -16 -17 -19 -39 148 -163 -166 -171 -173 189 0
-6266 -148 0
-6266 171 0
-6266 186 0
-6266 -189 0
6266 148 -171 -186 189 0
-6267 16 0
-6267 17 0
-6267 19 0
-6267 39 0
-6267 -148 0
-6267 171 0
-6267 -189 0
-6267 -192 0
6267 -16 -17 -19 -39 148 -171 189 192 0
-6268 16 0
-6268 17 0
-6268 19 0
-6268 39 0
-6268 -148 0
-6268 171 0
-6268 177 0
-6268 189 0
6268 -16 -17 -19 -39 148 -171 -177 -189 0
-6269 -163 0
-6269 168 0
-6269 -174 0
-6269 186 0
-6269 -189 0
6269 163 -168 174 -186 189 0
-6270 -163 0
-6270 171 0
-6270 -174 0
-6270 186 0
-6270 -189 0
6270 163 -171 174 -186 189 0
-6271 16 0
-6271 17 0
-6271 19 0
-6271 39 0
-6271 -163 0
-6271 171 0
-6271 -174 0
-6271 -189 0
-6271 -192 0
6271 -16 -17 -19 -39 163 -171 174 189 192 0
-6272 16 0
-6272 17 0
-6272 19 0
-6272 39 0
-6272 148 0
-6272 171 0
-6272 174 0
-6272 -181 0
6272 -16 -17 -19 -39 -148 -171 -174 181 0
-6273 16 0
-6273 17 0
-6273 19 0
-6273 39 0
-6273 148 0
-6273 171 0
-6273 174 0
-6273 182 0
6273 -16 -17 -19 -39 -148 -171 -174 -182 0
-6274 16 0
-6274 17 0
-6274 19 0
-6274 39 0
-6274 -163 0
-6274 171 0
-6274 -174 0
-6274 177 0
-6274 189 0
6274 -16 -17 -19 -39 163 -171 174 -177 -189 0
-6275 16 0
-6275 17 0
-6275 19 0
-6275 39 0
-6275 -163 0
-6275 -164 0
-6275 -174 0
-6275 177 0
-6275 189 0
6275 -16 -17 -19 -39 163 164 174 -177 -189 0
-6276 16 0
-6276 17 0
-6276 19 0
-6276 39 0
-6276 -163 0
-6276 168 0
-6276 -174 0
-6276 177 0
-6276 189 0
6276 -16 -17 -19 -39 163 -168 174 -177 -189 0
-6277 16 0
-6277 17 0
-6277 19 0
-6277 39 0
-6277 -163 0
-6277 168 0
-6277 -174 0
-6277 -189 0
-6277 -192 0
6277 -16 -17 -19 -39 163 -168 174 189 192 0
-6278 -148 0
-6278 -163 0
-6278 168 0
-6278 186 0
-6278 -189 0
6278 148 163 -168 -186 189 0
-6279 16 0
-6279 17 0
-6279 19 0
-6279 39 0
-6279 -148 0
-6279 -163 0
-6279 168 0
-6279 -189 0
-6279 -192 0
6279 -16 -17 -19 -39 148 163 -168 189 192 0
-6280 16 0
-6280 17 0
-6280 19 0
-6280 39 0
-6280 148 0
-6280 -163 0
-6280 168 0
-6280 174 0
-6280 -181 0
6280 -16 -17 -19 -39 -148 163 -168 -174 181 0
-6281 16 0
-6281 17 0
-6281 19 0
-6281 39 0
-6281 148 0
-6281 -163 0
-6281 168 0
-6281 174 0
-6281 182 0
6281 -16 -17 -19 -39 -148 163 -168 -174 -182 0
-6282 16 0
-6282 17 0
-6282 19 0
-6282 39 0
-6282 -148 0
-6282 -163 0
-6282 168 0
-6282 177 0
-6282 189 0
6282 -16 -17 -19 -39 148 163 -168 -177 -189 0
-6283 16 0
-6283 17 0
-6283 19 0
-6283 39 0
-6283 -53 0
-6283 -148 0
-6283 168 0
-6283 177 0
-6283 189 0
6283 -16 -17 -19 -39 53 148 -168 -177 -189 0
-6284 16 0
-6284 17 0
-6284 19 0
-6284 39 0
-6284 -148 0
-6284 -160 0
-6284 168 0
-6284 177 0
-6284 189 0
6284 -16 -17 -19 -39 148 160 -168 -177 -189 0
-6285 16 0
-6285 17 0
-6285 19 0
-6285 39 0
-6285 -148 0
-6285 -164 0
-6285 177 0
-6285 189 0
6285 -16 -17 -19 -39 148 164 -177 -189 0
-6286 16 0
-6286 17 0
-6286 19 0
-6286 39 0
-6286 52 0
-6286 -148 0
-6286 177 0
-6286 189 0
6286 -16 -17 -19 -39 -52 148 -177 -189 0
-6287 16 0
-6287 17 0
-6287 19 0
-6287 39 0
-6287 -148 0
-6287 -167 0
-6287 168 0
-6287 169 0
-6287 177 0
-6287 189 0
6287 -16 -17 -19 -39 148 167 -168 -169 -177 -189 0
-6288 -148 0
-6288 -167 0
-6288 168 0
-6288 169 0
-6288 177 0
-6288 186 0
6288 148 167 -168 -169 -177 -186 0
-6289 16 0
-6289 17 0
-6289 19 0
-6289 39 0
-6289 -148 0
-6289 -167 0
-6289 168 0
-6289 169 0
-6289 177 0
-6289 -192 0
6289 -16 -17 -19 -39 148 167 -168 -169 -177 192 0
-6290 16 0
-6290 17 0
-6290 19 0
-6290 39 0
-6290 -148 0
-6290 163 0
-6290 166 0
-6290 -167 0
-6290 168 0
-6290 169 0
-6290 173 0
-6290 177 0
6290 -16 -17 -19 -39 148 -163 -166 167 -168 -169 -173 -177 0
-6291 16 0
-6291 17 0
-6291 19 0
-6291 39 0
-6291 -148 0
-6291 163 0
-6291 -164 0
-6291 166 0
-6291 173 0
-6291 177 0
6291 -16 -17 -19 -39 148 -163 164 -166 -173 -177 0
-6292 16 0
-6292 17 0
-6292 19 0
-6292 39 0
-6292 52 0
-6292 -148 0
-6292 163 0
-6292 166 0
-6292 173 0
-6292 177 0
6292 -16 -17 -19 -39 -52 148 -163 -166 -173 -177 0
-6293 16 0
-6293 17 0
-6293 19 0
-6293 39 0
-6293 -53 0
-6293 -148 0
-6293 163 0
-6293 166 0
-6293 168 0
-6293 173 0
-6293 177 0
6293 -16 -17 -19 -39 53 148 -163 -166 -168 -173 -177 0
-6294 16 0
-6294 17 0
-6294 19 0
-6294 39 0
-6294 -148 0
-6294 -160 0
-6294 163 0
-6294 166 0
-6294 168 0
-6294 173 0
-6294 177 0
6294 -16 -17 -19 -39 148 160 -163 -166 -168 -173 -177 0
-6295 -53 0
-6295 -148 0
-6295 168 0
-6295 177 0
-6295 186 0
6295 53 148 -168 -177 -186 0
-6296 16 0
-6296 17 0
-6296 19 0
-6296 39 0
-6296 -53 0
-6296 -148 0
-6296 168 0
-6296 177 0
-6296 -192 0
6296 -16 -17 -19 -39 53 148 -168 -177 192 0
-6297 -148 0
-6297 -160 0
-6297 168 0
-6297 177 0
-6297 186 0
6297 148 160 -168 -177 -186 0
-6298 16 0
-6298 17 0
-6298 19 0
-6298 39 0
-6298 -148 0
-6298 -160 0
-6298 168 0
-6298 177 0
-6298 -192 0
6298 -16 -17 -19 -39 148 160 -168 -177 192 0
-6299 100 0
-6299 122 0
-6299 -126 0
-6299 -133 0
-6299 -134 0
-6299 -148 0
-6299 -160 0
-6299 168 0
-6299 177 0
-6299 -192 0
6299 -100 -122 126 133 134 148 160 -168 -177 192 0
-6300 -148 0
-6300 -160 0
-6300 168 0
-6300 177 0
-6300 -192 0
-6300 195 0
6300 148 160 -168 -177 192 -195 0
-6301 116 0
-6301 -148 0
-6301 -160 0
-6301 168 0
-6301 177 0
-6301 -192 0
6301 -116 148 160 -168 -177 192 0
-6302 -17 0
-6302 -39 0
-6302 -148 0
-6302 -160 0
-6302 168 0
-6302 177 0
-6302 -192 0
6302 17 39 148 160 -168 -177 192 0
-6303 -19 0
-6303 -39 0
-6303 -148 0
-6303 -160 0
-6303 168 0
-6303 177 0
-6303 -192 0
6303 19 39 148 160 -168 -177 192 0
-6304 -16 0
-6304 -39 0
-6304 -148 0
-6304 -160 0
-6304 168 0
-6304 177 0
-6304 -192 0
6304 16 39 148 160 -168 -177 192 0
-6305 -16 0
-6305 -19 0
-6305 -148 0
-6305 -160 0
-6305 168 0
-6305 177 0
-6305 -192 0
6305 16 19 148 160 -168 -177 192 0
-6306 -16 0
-6306 -19 0
-6306 -148 0
-6306 -160 0
-6306 163 0
-6306 166 0
-6306 168 0
-6306 173 0
-6306 177 0
6306 16 19 148 160 -163 -166 -168 -173 -177 0
-6307 -16 0
-6307 -19 0
-6307 -148 0
-6307 -160 0
-6307 168 0
-6307 177 0
-6307 189 0
6307 16 19 148 160 -168 -177 -189 0
-6308 -148 0
-6308 -163 0
-6308 168 0
-6308 177 0
-6308 186 0
6308 148 163 -168 -177 -186 0
-6309 -148 0
-6309 -164 0
-6309 177 0
-6309 189 0
-6309 195 0
6309 148 164 -177 -189 -195 0
-6310 100 0
-6310 122 0
-6310 -126 0
-6310 -133 0
-6310 -134 0
-6310 -148 0
-6310 -164 0
-6310 177 0
-6310 189 0
6310 -100 -122 126 133 134 148 164 -177 -189 0
-6311 116 0
-6311 -148 0
-6311 -164 0
-6311 177 0
-6311 189 0
6311 -116 148 164 -177 -189 0
-6312 -17 0
-6312 -39 0
-6312 -148 0
-6312 -164 0
-6312 177 0
-6312 189 0
6312 17 39 148 164 -177 -189 0
-6313 -16 0
-6313 -39 0
-6313 -148 0
-6313 -164 0
-6313 177 0
-6313 189 0
6313 16 39 148 164 -177 -189 0
-6314 -19 0
-6314 -39 0
-6314 -148 0
-6314 -164 0
-6314 177 0
-6314 189 0
6314 19 39 148 164 -177 -189 0
-6315 -19 0
-6315 -39 0
-6315 52 0
-6315 -148 0
-6315 177 0
-6315 189 0
6315 19 39 -52 148 -177 -189 0
-6316 -19 0
-6316 -39 0
-6316 -148 0
-6316 -160 0
-6316 168 0
-6316 177 0
-6316 189 0
6316 19 39 148 160 -168 -177 -189 0
-6317 -19 0
-6317 -39 0
-6317 -148 0
-6317 171 0
-6317 177 0
-6317 189 0
6317 19 39 148 -171 -177 -189 0
-6318 -19 0
-6318 -39 0
-6318 -53 0
-6318 -148 0
-6318 168 0
-6318 177 0
-6318 189 0
6318 19 39 53 148 -168 -177 -189 0
-6319 -19 0
-6319 -39 0
-6319 -148 0
-6319 -163 0
-6319 168 0
-6319 177 0
-6319 189 0
6319 19 39 148 163 -168 -177 -189 0
-6320 -19 0
-6320 -39 0
-6320 -148 0
-6320 -167 0
-6320 168 0
-6320 169 0
-6320 177 0
-6320 189 0
6320 19 39 148 167 -168 -169 -177 -189 0
-6321 -148 0
-6321 -167 0
-6321 168 0
-6321 169 0
-6321 177 0
-6321 189 0
-6321 195 0
6321 148 167 -168 -169 -177 -189 -195 0
-6322 100 0
-6322 122 0
-6322 -126 0
-6322 -133 0
-6322 -134 0
-6322 -148 0
-6322 -167 0
-6322 168 0
-6322 169 0
-6322 177 0
-6322 189 0
6322 -100 -122 126 133 134 148 167 -168 -169 -177 -189 0
-6323 116 0
-6323 -148 0
-6323 -167 0
-6323 168 0
-6323 169 0
-6323 177 0
-6323 189 0
6323 -116 148 167 -168 -169 -177 -189 0
-6324 -16 0
-6324 -19 0
-6324 -148 0
-6324 -167 0
-6324 168 0
-6324 169 0
-6324 177 0
-6324 189 0
6324 16 19 148 167 -168 -169 -177 -189 0
-6325 -17 0
-6325 -39 0
-6325 -148 0
-6325 -167 0
-6325 168 0
-6325 169 0
-6325 177 0
-6325 189 0
6325 17 39 148 167 -168 -169 -177 -189 0
-6326 -16 0
-6326 -39 0
-6326 -148 0
-6326 -167 0
-6326 168 0
-6326 169 0
-6326 177 0
-6326 189 0
6326 16 39 148 167 -168 -169 -177 -189 0
-6327 52 0
-6327 -148 0
-6327 177 0
-6327 189 0
-6327 195 0
6327 -52 148 -177 -189 -195 0
-6328 -148 0
-6328 -160 0
-6328 168 0
-6328 177 0
-6328 189 0
-6328 195 0
6328 148 160 -168 -177 -189 -195 0
-6329 -148 0
-6329 171 0
-6329 177 0
-6329 189 0
-6329 195 0
6329 148 -171 -177 -189 -195 0
-6330 -53 0
-6330 -148 0
-6330 168 0
-6330 177 0
-6330 189 0
-6330 195 0
6330 53 148 -168 -177 -189 -195 0
-6331 -148 0
-6331 -163 0
-6331 168 0
-6331 177 0
-6331 189 0
-6331 195 0
6331 148 163 -168 -177 -189 -195 0
-6332 -17 0
-6332 -39 0
-6332 52 0
-6332 -148 0
-6332 177 0
-6332 189 0
6332 17 39 -52 148 -177 -189 0
-6333 52 0
-6333 100 0
-6333 122 0
-6333 -126 0
-6333 -133 0
-6333 -134 0
-6333 -148 0
-6333 177 0
-6333 189 0
6333 -52 -100 -122 126 133 134 148 -177 -189 0
-6334 52 0
-6334 116 0
-6334 -148 0
-6334 177 0
-6334 189 0
6334 -52 -116 148 -177 -189 0
-6335 -16 0
-6335 -39 0
-6335 52 0
-6335 -148 0
-6335 177 0
-6335 189 0
6335 16 39 -52 148 -177 -189 0
-6336 -16 0
-6336 -19 0
-6336 52 0
-6336 -148 0
-6336 177 0
-6336 189 0
6336 16 19 -52 148 -177 -189 0
-6337 100 0
-6337 122 0
-6337 -126 0
-6337 -133 0
-6337 -134 0
-6337 -148 0
-6337 171 0
-6337 177 0
-6337 189 0
6337 -100 -122 126 133 134 148 -171 -177 -189 0
-6338 116 0
-6338 -148 0
-6338 171 0
-6338 177 0
-6338 189 0
6338 -116 148 -171 -177 -189 0
-6339 -17 0
-6339 -39 0
-6339 -148 0
-6339 171 0
-6339 177 0
-6339 189 0
6339 17 39 148 -171 -177 -189 0
-6340 -17 0
-6340 -39 0
-6340 -148 0
-6340 171 0
-6340 -189 0
-6340 -192 0
6340 17 39 148 -171 189 192 0
-6341 -17 0
-6341 -39 0
-6341 -148 0
-6341 163 0
-6341 166 0
-6341 171 0
-6341 173 0
-6341 -189 0
6341 17 39 148 -163 -166 -171 -173 189 0
-6342 -17 0
-6342 -39 0
-6342 -163 0
-6342 171 0
-6342 -174 0
-6342 -189 0
-6342 -192 0
6342 17 39 163 -171 174 189 192 0
-6343 -17 0
-6343 -39 0
-6343 148 0
-6343 171 0
-6343 174 0
-6343 -181 0
6343 17 39 -148 -171 -174 181 0
-6344 -17 0
-6344 -39 0
-6344 148 0
-6344 171 0
-6344 174 0
-6344 182 0
6344 17 39 -148 -171 -174 -182 0
-6345 -17 0
-6345 -39 0
-6345 148 0
-6345 163 0
-6345 171 0
-6345 -181 0
6345 17 39 -148 -163 -171 181 0
-6346 -17 0
-6346 -39 0
-6346 148 0
-6346 163 0
-6346 171 0
-6346 182 0
6346 17 39 -148 -163 -171 -182 0
-6347 -17 0
-6347 -39 0
-6347 -163 0
-6347 171 0
-6347 -174 0
-6347 177 0
-6347 189 0
6347 17 39 163 -171 174 -177 -189 0
-6348 -16 0
-6348 -39 0
-6348 -163 0
-6348 171 0
-6348 -174 0
-6348 177 0
-6348 189 0
6348 16 39 163 -171 174 -177 -189 0
-6349 -163 0
-6349 171 0
-6349 -174 0
-6349 177 0
-6349 189 0
-6349 195 0
6349 163 -171 174 -177 -189 -195 0
-6350 100 0
-6350 122 0
-6350 -126 0
-6350 -133 0
-6350 -134 0
-6350 -163 0
-6350 171 0
-6350 -174 0
-6350 177 0
-6350 189 0
6350 -100 -122 126 133 134 163 -171 174 -177 -189 0
-6351 116 0
-6351 -163 0
-6351 171 0
-6351 -174 0
-6351 177 0
-6351 189 0
6351 -116 163 -171 174 -177 -189 0
-6352 -19 0
-6352 -39 0
-6352 -163 0
-6352 171 0
-6352 -174 0
-6352 177 0
-6352 189 0
6352 19 39 163 -171 174 -177 -189 0
-6353 -16 0
-6353 -19 0
-6353 -163 0
-6353 171 0
-6353 -174 0
-6353 177 0
-6353 189 0
6353 16 19 163 -171 174 -177 -189 0
-6354 -163 0
-6354 171 0
-6354 -174 0
-6354 177 0
-6354 -192 0
-6354 195 0
6354 163 -171 174 -177 192 -195 0
-6355 100 0
-6355 122 0
-6355 -126 0
-6355 -133 0
-6355 -134 0
-6355 -163 0
-6355 171 0
-6355 -174 0
-6355 177 0
-6355 -192 0
6355 -100 -122 126 133 134 163 -171 174 -177 192 0
-6356 100 0
-6356 122 0
-6356 -126 0
-6356 -133 0
-6356 -134 0
-6356 -163 0
-6356 171 0
-6356 -174 0
-6356 -189 0
-6356 -192 0
6356 -100 -122 126 133 134 163 -171 174 189 192 0
-6357 -163 0
-6357 171 0
-6357 -174 0
-6357 -189 0
-6357 -192 0
-6357 195 0
6357 163 -171 174 189 192 -195 0
-6358 116 0
-6358 -163 0
-6358 171 0
-6358 -174 0
-6358 -189 0
-6358 -192 0
6358 -116 163 -171 174 189 192 0
-6359 -16 0
-6359 -19 0
-6359 -163 0
-6359 171 0
-6359 -174 0
-6359 -189 0
-6359 -192 0
6359 16 19 163 -171 174 189 192 0
-6360 -19 0
-6360 -39 0
-6360 -163 0
-6360 171 0
-6360 -174 0
-6360 -189 0
-6360 -192 0
6360 19 39 163 -171 174 189 192 0
-6361 -16 0
-6361 -39 0
-6361 -163 0
-6361 171 0
-6361 -174 0
-6361 -189 0
-6361 -192 0
6361 16 39 163 -171 174 189 192 0
-6362 -148 0
-6362 171 0
-6362 -189 0
-6362 -192 0
-6362 195 0
6362 148 -171 189 192 -195 0
-6363 100 0
-6363 122 0
-6363 -126 0
-6363 -133 0
-6363 -134 0
-6363 -148 0
-6363 171 0
-6363 -189 0
-6363 -192 0
6363 -100 -122 126 133 134 148 -171 189 192 0
-6364 -53 0
-6364 100 0
-6364 122 0
-6364 -126 0
-6364 -133 0
-6364 -134 0
-6364 -148 0
-6364 168 0
-6364 177 0
-6364 189 0
6364 53 -100 -122 126 133 134 148 -168 -177 -189 0
-6365 100 0
-6365 122 0
-6365 -126 0
-6365 -133 0
-6365 -134 0
-6365 -148 0
-6365 -163 0
-6365 168 0
-6365 177 0
-6365 189 0
6365 -100 -122 126 133 134 148 163 -168 -177 -189 0
-6366 100 0
-6366 122 0
-6366 -126 0
-6366 -133 0
-6366 -134 0
-6366 -148 0
-6366 -160 0
-6366 168 0
-6366 177 0
-6366 189 0
6366 -100 -122 126 133 134 148 160 -168 -177 -189 0
-6367 100 0
-6367 122 0
-6367 -126 0
-6367 -133 0
-6367 -134 0
-6367 -148 0
-6367 -160 0
-6367 163 0
-6367 166 0
-6367 168 0
-6367 173 0
-6367 177 0
6367 -100 -122 126 133 134 148 160 -163 -166 -168 -173 -177 0
-6368 -53 0
-6368 100 0
-6368 122 0
-6368 -126 0
-6368 -133 0
-6368 -134 0
-6368 -148 0
-6368 163 0
-6368 166 0
-6368 168 0
-6368 173 0
-6368 177 0
6368 53 -100 -122 126 133 134 148 -163 -166 -168 -173 -177 0
-6369 100 0
-6369 122 0
-6369 -126 0
-6369 -133 0
-6369 -134 0
-6369 -148 0
-6369 163 0
-6369 166 0
-6369 -167 0
-6369 168 0
-6369 169 0
-6369 173 0
-6369 177 0
6369 -100 -122 126 133 134 148 -163 -166 167 -168 -169 -173 -177 0
-6370 100 0
-6370 122 0
-6370 -126 0
-6370 -133 0
-6370 -134 0
-6370 -148 0
-6370 163 0
-6370 -164 0
-6370 166 0
-6370 173 0
-6370 177 0
6370 -100 -122 126 133 134 148 -163 164 -166 -173 -177 0
-6371 52 0
-6371 100 0
-6371 122 0
-6371 -126 0
-6371 -133 0
-6371 -134 0
-6371 -148 0
-6371 163 0
-6371 166 0
-6371 173 0
-6371 177 0
6371 -52 -100 -122 126 133 134 148 -163 -166 -173 -177 0
-6372 100 0
-6372 122 0
-6372 -126 0
-6372 -133 0
-6372 -134 0
-6372 -148 0
-6372 163 0
-6372 166 0
-6372 171 0
-6372 173 0
-6372 177 0
6372 -100 -122 126 133 134 148 -163 -166 -171 -173 -177 0
-6373 -53 0
-6373 100 0
-6373 122 0
-6373 -126 0
-6373 -133 0
-6373 -134 0
-6373 -148 0
-6373 168 0
-6373 177 0
-6373 -192 0
6373 53 -100 -122 126 133 134 148 -168 -177 192 0
-6374 100 0
-6374 122 0
-6374 -126 0
-6374 -133 0
-6374 -134 0
-6374 -148 0
-6374 -164 0
-6374 177 0
-6374 -192 0
6374 -100 -122 126 133 134 148 164 -177 192 0
-6375 52 0
-6375 100 0
-6375 122 0
-6375 -126 0
-6375 -133 0
-6375 -134 0
-6375 -148 0
-6375 177 0
-6375 -192 0
6375 -52 -100 -122 126 133 134 148 -177 192 0
-6376 100 0
-6376 122 0
-6376 -126 0
-6376 -133 0
-6376 -134 0
-6376 -148 0
-6376 -167 0
-6376 168 0
-6376 169 0
-6376 177 0
-6376 -192 0
6376 -100 -122 126 133 134 148 167 -168 -169 -177 192 0
-6377 100 0
-6377 122 0
-6377 -126 0
-6377 -133 0
-6377 -134 0
-6377 -148 0
-6377 -163 0
-6377 168 0
-6377 177 0
-6377 -192 0
6377 -100 -122 126 133 134 148 163 -168 -177 192 0
-6378 -16 0
-6378 -19 0
-6378 -148 0
-6378 171 0
-6378 177 0
-6378 189 0
6378 16 19 148 -171 -177 -189 0
-6379 -16 0
-6379 -39 0
-6379 -148 0
-6379 171 0
-6379 177 0
-6379 189 0
6379 16 39 148 -171 -177 -189 0
-6380 -16 0
-6380 -39 0
-6380 -148 0
-6380 -160 0
-6380 168 0
-6380 177 0
-6380 189 0
6380 16 39 148 160 -168 -177 -189 0
-6381 -16 0
-6381 -39 0
-6381 -53 0
-6381 -148 0
-6381 168 0
-6381 177 0
-6381 189 0
6381 16 39 53 148 -168 -177 -189 0
-6382 -16 0
-6382 -39 0
-6382 -148 0
-6382 -163 0
-6382 168 0
-6382 177 0
-6382 189 0
6382 16 39 148 163 -168 -177 -189 0
-6383 -17 0
-6383 -39 0
-6383 -148 0
-6383 -160 0
-6383 168 0
-6383 177 0
-6383 189 0
6383 17 39 148 160 -168 -177 -189 0
-6384 116 0
-6384 -148 0
-6384 -160 0
-6384 168 0
-6384 177 0
-6384 189 0
6384 -116 148 160 -168 -177 -189 0
-6385 -17 0
-6385 -39 0
-6385 -53 0
-6385 -148 0
-6385 168 0
-6385 177 0
-6385 189 0
6385 17 39 53 148 -168 -177 -189 0
-6386 -17 0
-6386 -39 0
-6386 -148 0
-6386 -163 0
-6386 168 0
-6386 177 0
-6386 189 0
6386 17 39 148 163 -168 -177 -189 0
-6387 -53 0
-6387 116 0
-6387 -148 0
-6387 168 0
-6387 177 0
-6387 189 0
6387 53 -116 148 -168 -177 -189 0
-6388 116 0
-6388 -148 0
-6388 -163 0
-6388 168 0
-6388 177 0
-6388 189 0
6388 -116 148 163 -168 -177 -189 0
-6389 -16 0
-6389 -19 0
-6389 -53 0
-6389 -148 0
-6389 168 0
-6389 177 0
-6389 189 0
6389 16 19 53 148 -168 -177 -189 0
-6390 -16 0
-6390 -19 0
-6390 -148 0
-6390 -163 0
-6390 168 0
-6390 177 0
-6390 189 0
6390 16 19 148 163 -168 -177 -189 0
-6391 -16 0
-6391 -19 0
-6391 -148 0
-6391 -167 0
-6391 168 0
-6391 169 0
-6391 177 0
-6391 -192 0
6391 16 19 148 167 -168 -169 -177 192 0
-6392 -16 0
-6392 -19 0
-6392 -53 0
-6392 -148 0
-6392 168 0
-6392 -189 0
-6392 -192 0
6392 16 19 53 148 -168 189 192 0
-6393 -163 0
-6393 168 0
-6393 -174 0
-6393 177 0
-6393 186 0
6393 163 -168 174 -177 -186 0
-6394 -16 0
-6394 -19 0
-6394 -148 0
-6394 163 0
-6394 166 0
-6394 -167 0
-6394 168 0
-6394 169 0
-6394 173 0
-6394 177 0
6394 16 19 148 -163 -166 167 -168 -169 -173 -177 0
-6395 -16 0
-6395 -19 0
-6395 52 0
-6395 -148 0
-6395 163 0
-6395 166 0
-6395 173 0
-6395 177 0
6395 16 19 -52 148 -163 -166 -173 -177 0
-6396 -16 0
-6396 -19 0
-6396 -148 0
-6396 163 0
-6396 -164 0
-6396 166 0
-6396 173 0
-6396 177 0
6396 16 19 148 -163 164 -166 -173 -177 0
-6397 -16 0
-6397 -19 0
-6397 -53 0
-6397 -148 0
-6397 163 0
-6397 166 0
-6397 168 0
-6397 173 0
-6397 177 0
6397 16 19 53 148 -163 -166 -168 -173 -177 0
-6398 -16 0
-6398 -19 0
-6398 -148 0
-6398 163 0
-6398 166 0
-6398 171 0
-6398 173 0
-6398 177 0
6398 16 19 148 -163 -166 -171 -173 -177 0
-6399 -16 0
-6399 -19 0
-6399 52 0
-6399 -148 0
-6399 177 0
-6399 -192 0
6399 16 19 -52 148 -177 192 0
-6400 -16 0
-6400 -19 0
-6400 -148 0
-6400 171 0
-6400 177 0
-6400 -192 0
6400 16 19 148 -171 -177 192 0
-6401 -16 0
-6401 -19 0
-6401 -148 0
-6401 -163 0
-6401 168 0
-6401 177 0
-6401 -192 0
6401 16 19 148 163 -168 -177 192 0
-6402 -16 0
-6402 -19 0
-6402 -148 0
-6402 -163 0
-6402 168 0
-6402 -189 0
-6402 -192 0
6402 16 19 148 163 -168 189 192 0
-6403 52 0
-6403 -148 0
-6403 186 0
-6403 -189 0
6403 -52 148 -186 189 0
-6404 -16 0
-6404 -19 0
-6404 -148 0
-6404 163 0
-6404 -164 0
-6404 166 0
-6404 173 0
-6404 -189 0
6404 16 19 148 -163 164 -166 -173 189 0
-6405 -53 0
-6405 -148 0
-6405 168 0
-6405 186 0
-6405 -189 0
6405 53 148 -168 -186 189 0
-6406 -16 0
-6406 -19 0
-6406 -53 0
-6406 -148 0
-6406 163 0
-6406 166 0
-6406 168 0
-6406 173 0
-6406 -189 0
6406 16 19 53 148 -163 -166 -168 -173 189 0
-6407 -148 0
-6407 -160 0
-6407 168 0
-6407 186 0
-6407 -189 0
6407 148 160 -168 -186 189 0
-6408 -148 0
-6408 -167 0
-6408 168 0
-6408 169 0
-6408 186 0
-6408 -189 0
6408 148 167 -168 -169 -186 189 0
-6409 -16 0
-6409 -19 0
-6409 -148 0
-6409 -167 0
-6409 168 0
-6409 169 0
-6409 -189 0
-6409 -192 0
6409 16 19 148 167 -168 -169 189 192 0
-6410 -16 0
-6410 -19 0
-6410 -148 0
-6410 163 0
-6410 166 0
-6410 -167 0
-6410 168 0
-6410 169 0
-6410 173 0
-6410 -189 0
6410 16 19 148 -163 -166 167 -168 -169 -173 189 0
-6411 -148 0
-6411 163 0
-6411 166 0
-6411 -167 0
-6411 168 0
-6411 169 0
-6411 173 0
-6411 -189 0
-6411 195 0
6411 148 -163 -166 167 -168 -169 -173 189 -195 0
-6412 100 0
-6412 122 0
-6412 -126 0
-6412 -133 0
-6412 -134 0
-6412 -148 0
-6412 163 0
-6412 166 0
-6412 -167 0
-6412 168 0
-6412 169 0
-6412 173 0
-6412 -189 0
6412 -100 -122 126 133 134 148 -163 -166 167 -168 -169 -173 189 0
-6413 -16 0
-6413 -39 0
-6413 -148 0
-6413 163 0
-6413 166 0
-6413 -167 0
-6413 168 0
-6413 169 0
-6413 173 0
-6413 -189 0
6413 16 39 148 -163 -166 167 -168 -169 -173 189 0
-6414 116 0
-6414 -148 0
-6414 163 0
-6414 166 0
-6414 -167 0
-6414 168 0
-6414 169 0
-6414 173 0
-6414 -189 0
6414 -116 148 -163 -166 167 -168 -169 -173 189 0
-6415 16 0
-6415 17 0
-6415 19 0
-6415 39 0
-6415 -148 0
-6415 163 0
-6415 166 0
-6415 -167 0
-6415 168 0
-6415 169 0
-6415 173 0
-6415 -189 0
6415 -16 -17 -19 -39 148 -163 -166 167 -168 -169 -173 189 0
-6416 -17 0
-6416 -39 0
-6416 -148 0
-6416 163 0
-6416 166 0
-6416 -167 0
-6416 168 0
-6416 169 0
-6416 173 0
-6416 -189 0
6416 17 39 148 -163 -166 167 -168 -169 -173 189 0
-6417 -19 0
-6417 -39 0
-6417 -148 0
-6417 163 0
-6417 166 0
-6417 -167 0
-6417 168 0
-6417 169 0
-6417 173 0
-6417 -189 0
6417 19 39 148 -163 -166 167 -168 -169 -173 189 0
-6418 -148 0
-6418 -167 0
-6418 168 0
-6418 169 0
-6418 -189 0
-6418 -192 0
-6418 195 0
6418 148 167 -168 -169 189 192 -195 0
-6419 100 0
-6419 122 0
-6419 -126 0
-6419 -133 0
-6419 -134 0
-6419 -148 0
-6419 -167 0
-6419 168 0
-6419 169 0
-6419 -189 0
-6419 -192 0
6419 -100 -122 126 133 134 148 167 -168 -169 189 192 0
-6420 -19 0
-6420 -39 0
-6420 -148 0
-6420 -167 0
-6420 168 0
-6420 169 0
-6420 -189 0
-6420 -192 0
6420 19 39 148 167 -168 -169 189 192 0
-6421 116 0
-6421 -148 0
-6421 -167 0
-6421 168 0
-6421 169 0
-6421 -189 0
-6421 -192 0
6421 -116 148 167 -168 -169 189 192 0
-6422 16 0
-6422 17 0
-6422 19 0
-6422 39 0
-6422 -148 0
-6422 -167 0
-6422 168 0
-6422 169 0
-6422 -189 0
-6422 -192 0
6422 -16 -17 -19 -39 148 167 -168 -169 189 192 0
-6423 -17 0
-6423 -39 0
-6423 -148 0
-6423 -167 0
-6423 168 0
-6423 169 0
-6423 -189 0
-6423 -192 0
6423 17 39 148 167 -168 -169 189 192 0
-6424 -16 0
-6424 -39 0
-6424 -148 0
-6424 -167 0
-6424 168 0
-6424 169 0
-6424 -189 0
-6424 -192 0
6424 16 39 148 167 -168 -169 189 192 0
-6425 52 0
-6425 -148 0
-6425 163 0
-6425 166 0
-6425 173 0
-6425 -189 0
-6425 195 0
6425 -52 148 -163 -166 -173 189 -195 0
-6426 -148 0
-6426 163 0
-6426 -164 0
-6426 166 0
-6426 173 0
-6426 -189 0
-6426 195 0
6426 148 -163 164 -166 -173 189 -195 0
-6427 -53 0
-6427 -148 0
-6427 163 0
-6427 166 0
-6427 168 0
-6427 173 0
-6427 -189 0
-6427 195 0
6427 53 148 -163 -166 -168 -173 189 -195 0
-6428 -148 0
-6428 -160 0
-6428 163 0
-6428 166 0
-6428 168 0
-6428 173 0
-6428 -189 0
-6428 195 0
6428 148 160 -163 -166 -168 -173 189 -195 0
-6429 -148 0
-6429 163 0
-6429 166 0
-6429 171 0
-6429 173 0
-6429 -189 0
-6429 195 0
6429 148 -163 -166 -171 -173 189 -195 0
-6430 52 0
-6430 100 0
-6430 122 0
-6430 -126 0
-6430 -133 0
-6430 -134 0
-6430 -148 0
-6430 163 0
-6430 166 0
-6430 173 0
-6430 -189 0
6430 -52 -100 -122 126 133 134 148 -163 -166 -173 189 0
-6431 -17 0
-6431 -39 0
-6431 52 0
-6431 -148 0
-6431 163 0
-6431 166 0
-6431 173 0
-6431 -189 0
6431 17 39 -52 148 -163 -166 -173 189 0
-6432 -16 0
-6432 -39 0
-6432 52 0
-6432 -148 0
-6432 163 0
-6432 166 0
-6432 173 0
-6432 -189 0
6432 16 39 -52 148 -163 -166 -173 189 0
-6433 52 0
-6433 116 0
-6433 -148 0
-6433 163 0
-6433 166 0
-6433 173 0
-6433 -189 0
6433 -52 -116 148 -163 -166 -173 189 0
-6434 -16 0
-6434 -19 0
-6434 52 0
-6434 -148 0
-6434 163 0
-6434 166 0
-6434 173 0
-6434 -189 0
6434 16 19 -52 148 -163 -166 -173 189 0
-6435 16 0
-6435 17 0
-6435 19 0
-6435 39 0
-6435 52 0
-6435 -148 0
-6435 163 0
-6435 166 0
-6435 173 0
-6435 -189 0
6435 -16 -17 -19 -39 -52 148 -163 -166 -173 189 0
-6436 -19 0
-6436 -39 0
-6436 52 0
-6436 -148 0
-6436 163 0
-6436 166 0
-6436 173 0
-6436 -189 0
6436 19 39 -52 148 -163 -166 -173 189 0
-6437 -53 0
-6437 100 0
-6437 122 0
-6437 -126 0
-6437 -133 0
-6437 -134 0
-6437 -148 0
-6437 163 0
-6437 166 0
-6437 168 0
-6437 173 0
-6437 -189 0
6437 53 -100 -122 126 133 134 148 -163 -166 -168 -173 189 0
-6438 100 0
-6438 122 0
-6438 -126 0
-6438 -133 0
-6438 -134 0
-6438 -148 0
-6438 -160 0
-6438 163 0
-6438 166 0
-6438 168 0
-6438 173 0
-6438 -189 0
6438 -100 -122 126 133 134 148 160 -163 -166 -168 -173 189 0
-6439 -19 0
-6439 -39 0
-6439 -53 0
-6439 -148 0
-6439 163 0
-6439 166 0
-6439 168 0
-6439 173 0
-6439 -189 0
6439 19 39 53 148 -163 -166 -168 -173 189 0
-6440 -53 0
-6440 116 0
-6440 -148 0
-6440 163 0
-6440 166 0
-6440 168 0
-6440 173 0
-6440 -189 0
6440 53 -116 148 -163 -166 -168 -173 189 0
-6441 16 0
-6441 17 0
-6441 19 0
-6441 39 0
-6441 -53 0
-6441 -148 0
-6441 163 0
-6441 166 0
-6441 168 0
-6441 173 0
-6441 -189 0
6441 -16 -17 -19 -39 53 148 -163 -166 -168 -173 189 0
-6442 -17 0
-6442 -39 0
-6442 -53 0
-6442 -148 0
-6442 163 0
-6442 166 0
-6442 168 0
-6442 173 0
-6442 -189 0
6442 17 39 53 148 -163 -166 -168 -173 189 0
-6443 -16 0
-6443 -39 0
-6443 -53 0
-6443 -148 0
-6443 163 0
-6443 166 0
-6443 168 0
-6443 173 0
-6443 -189 0
6443 16 39 53 148 -163 -166 -168 -173 189 0
-6444 100 0
-6444 122 0
-6444 -126 0
-6444 -133 0
-6444 -134 0
-6444 -148 0
-6444 163 0
-6444 -164 0
-6444 166 0
-6444 173 0
-6444 -189 0
6444 -100 -122 126 133 134 148 -163 164 -166 -173 189 0
-6445 100 0
-6445 122 0
-6445 -126 0
-6445 -133 0
-6445 -134 0
-6445 -148 0
-6445 163 0
-6445 166 0
-6445 171 0
-6445 173 0
-6445 -189 0
6445 -100 -122 126 133 134 148 -163 -166 -171 -173 189 0
-6446 -16 0
-6446 -39 0
-6446 -148 0
-6446 163 0
-6446 -164 0
-6446 166 0
-6446 173 0
-6446 -189 0
6446 16 39 148 -163 164 -166 -173 189 0
-6447 116 0
-6447 -148 0
-6447 163 0
-6447 -164 0
-6447 166 0
-6447 173 0
-6447 -189 0
6447 -116 148 -163 164 -166 -173 189 0
-6448 16 0
-6448 17 0
-6448 19 0
-6448 39 0
-6448 -148 0
-6448 163 0
-6448 -164 0
-6448 166 0
-6448 173 0
-6448 -189 0
6448 -16 -17 -19 -39 148 -163 164 -166 -173 189 0
-6449 -17 0
-6449 -39 0
-6449 -148 0
-6449 163 0
-6449 -164 0
-6449 166 0
-6449 173 0
-6449 -189 0
6449 17 39 148 -163 164 -166 -173 189 0
-6450 -19 0
-6450 -39 0
-6450 -148 0
-6450 163 0
-6450 -164 0
-6450 166 0
-6450 173 0
-6450 -189 0
6450 19 39 148 -163 164 -166 -173 189 0
-6451 -19 0
-6451 -39 0
-6451 -148 0
-6451 163 0
-6451 166 0
-6451 171 0
-6451 173 0
-6451 -189 0
6451 19 39 148 -163 -166 -171 -173 189 0
-6452 116 0
-6452 -148 0
-6452 163 0
-6452 166 0
-6452 171 0
-6452 173 0
-6452 -189 0
6452 -116 148 -163 -166 -171 -173 189 0
-6453 -16 0
-6453 -39 0
-6453 -148 0
-6453 163 0
-6453 166 0
-6453 171 0
-6453 173 0
-6453 -189 0
6453 16 39 148 -163 -166 -171 -173 189 0
-6454 -16 0
-6454 -19 0
-6454 -148 0
-6454 163 0
-6454 166 0
-6454 171 0
-6454 173 0
-6454 -189 0
6454 16 19 148 -163 -166 -171 -173 189 0
-6455 -16 0
-6455 -39 0
-6455 -148 0
-6455 -160 0
-6455 163 0
-6455 166 0
-6455 168 0
-6455 173 0
-6455 -189 0
6455 16 39 148 160 -163 -166 -168 -173 189 0
-6456 116 0
-6456 -148 0
-6456 -160 0
-6456 163 0
-6456 166 0
-6456 168 0
-6456 173 0
-6456 -189 0
6456 -116 148 160 -163 -166 -168 -173 189 0
-6457 -16 0
-6457 -19 0
-6457 -148 0
-6457 -160 0
-6457 163 0
-6457 166 0
-6457 168 0
-6457 173 0
-6457 -189 0
6457 16 19 148 160 -163 -166 -168 -173 189 0
-6458 16 0
-6458 17 0
-6458 19 0
-6458 39 0
-6458 -148 0
-6458 -160 0
-6458 163 0
-6458 166 0
-6458 168 0
-6458 173 0
-6458 -189 0
6458 -16 -17 -19 -39 148 160 -163 -166 -168 -173 189 0
-6459 -17 0
-6459 -39 0
-6459 -148 0
-6459 -160 0
-6459 163 0
-6459 166 0
-6459 168 0
-6459 173 0
-6459 -189 0
6459 17 39 148 160 -163 -166 -168 -173 189 0
-6460 -19 0
-6460 -39 0
-6460 -148 0
-6460 -160 0
-6460 163 0
-6460 166 0
-6460 168 0
-6460 173 0
-6460 -189 0
6460 19 39 148 160 -163 -166 -168 -173 189 0
-6461 -148 0
-6461 -160 0
-6461 168 0
-6461 -189 0
-6461 -192 0
-6461 195 0
6461 148 160 -168 189 192 -195 0
-6462 100 0
-6462 122 0
-6462 -126 0
-6462 -133 0
-6462 -134 0
-6462 -148 0
-6462 -160 0
-6462 168 0
-6462 -189 0
-6462 -192 0
6462 -100 -122 126 133 134 148 160 -168 189 192 0
-6463 -53 0
-6463 100 0
-6463 122 0
-6463 -126 0
-6463 -133 0
-6463 -134 0
-6463 -148 0
-6463 168 0
-6463 -189 0
-6463 -192 0
6463 53 -100 -122 126 133 134 148 -168 189 192 0
-6464 52 0
-6464 100 0
-6464 122 0
-6464 -126 0
-6464 -133 0
-6464 -134 0
-6464 -148 0
-6464 -189 0
-6464 -192 0
6464 -52 -100 -122 126 133 134 148 189 192 0
-6465 100 0
-6465 122 0
-6465 -126 0
-6465 -133 0
-6465 -134 0
-6465 -148 0
-6465 -164 0
-6465 -189 0
-6465 -192 0
6465 -100 -122 126 133 134 148 164 189 192 0
-6466 100 0
-6466 122 0
-6466 -126 0
-6466 -133 0
-6466 -134 0
-6466 -148 0
-6466 -163 0
-6466 168 0
-6466 -189 0
-6466 -192 0
6466 -100 -122 126 133 134 148 163 -168 189 192 0
-6467 -148 0
-6467 -163 0
-6467 168 0
-6467 -189 0
-6467 -192 0
-6467 195 0
6467 148 163 -168 189 192 -195 0
-6468 -19 0
-6468 -39 0
-6468 -148 0
-6468 -163 0
-6468 168 0
-6468 -189 0
-6468 -192 0
6468 19 39 148 163 -168 189 192 0
-6469 116 0
-6469 -148 0
-6469 -163 0
-6469 168 0
-6469 -189 0
-6469 -192 0
6469 -116 148 163 -168 189 192 0
-6470 -17 0
-6470 -39 0
-6470 -148 0
-6470 -163 0
-6470 168 0
-6470 -189 0
-6470 -192 0
6470 17 39 148 163 -168 189 192 0
-6471 -17 0
-6471 -39 0
-6471 -163 0
-6471 168 0
-6471 -174 0
-6471 -189 0
-6471 -192 0
6471 17 39 163 -168 174 189 192 0
-6472 -17 0
-6472 -39 0
-6472 148 0
-6472 -163 0
-6472 168 0
-6472 174 0
-6472 -181 0
6472 17 39 -148 163 -168 -174 181 0
-6473 -17 0
-6473 -39 0
-6473 148 0
-6473 -163 0
-6473 168 0
-6473 174 0
-6473 182 0
6473 17 39 -148 163 -168 -174 -182 0
-6474 -17 0
-6474 -39 0
-6474 -163 0
-6474 168 0
-6474 -174 0
-6474 177 0
-6474 189 0
6474 17 39 163 -168 174 -177 -189 0
-6475 -163 0
-6475 168 0
-6475 -174 0
-6475 -189 0
-6475 -192 0
-6475 195 0
6475 163 -168 174 189 192 -195 0
-6476 100 0
-6476 122 0
-6476 -126 0
-6476 -133 0
-6476 -134 0
-6476 -163 0
-6476 168 0
-6476 -174 0
-6476 -189 0
-6476 -192 0
6476 -100 -122 126 133 134 163 -168 174 189 192 0
-6477 116 0
-6477 -163 0
-6477 168 0
-6477 -174 0
-6477 -189 0
-6477 -192 0
6477 -116 163 -168 174 189 192 0
-6478 -19 0
-6478 -39 0
-6478 -163 0
-6478 168 0
-6478 -174 0
-6478 -189 0
-6478 -192 0
6478 19 39 163 -168 174 189 192 0
-6479 -16 0
-6479 -39 0
-6479 -163 0
-6479 168 0
-6479 -174 0
-6479 -189 0
-6479 -192 0
6479 16 39 163 -168 174 189 192 0
-6480 -16 0
-6480 -19 0
-6480 -163 0
-6480 168 0
-6480 -174 0
-6480 -189 0
-6480 -192 0
6480 16 19 163 -168 174 189 192 0
-6481 -16 0
-6481 -19 0
-6481 -163 0
-6481 168 0
-6481 -174 0
-6481 177 0
-6481 189 0
6481 16 19 163 -168 174 -177 -189 0
-6482 -16 0
-6482 -19 0
-6482 148 0
-6482 -163 0
-6482 168 0
-6482 174 0
-6482 -181 0
6482 16 19 -148 163 -168 -174 181 0
-6483 -16 0
-6483 -19 0
-6483 148 0
-6483 -163 0
-6483 168 0
-6483 174 0
-6483 182 0
6483 16 19 -148 163 -168 -174 -182 0
-6484 116 0
-6484 148 0
-6484 -163 0
-6484 168 0
-6484 174 0
-6484 -181 0
6484 -116 -148 163 -168 -174 181 0
-6485 -16 0
-6485 -39 0
-6485 148 0
-6485 -163 0
-6485 168 0
-6485 174 0
-6485 -181 0
6485 16 39 -148 163 -168 -174 181 0
-6486 -16 0
-6486 148 0
-6486 -163 0
-6486 168 0
-6486 174 0
-6486 177 0
-6486 -181 0
6486 16 -148 163 -168 -174 -177 181 0
-6487 -16 0
-6487 148 0
-6487 -163 0
-6487 168 0
-6487 174 0
-6487 181 0
-6487 182 0
6487 16 -148 163 -168 -174 -181 -182 0
-6488 -163 0
-6488 168 0
-6488 -174 0
-6488 177 0
-6488 189 0
-6488 195 0
6488 163 -168 174 -177 -189 -195 0
-6489 100 0
-6489 122 0
-6489 -126 0
-6489 -133 0
-6489 -134 0
-6489 -163 0
-6489 168 0
-6489 -174 0
-6489 177 0
-6489 189 0
6489 -100 -122 126 133 134 163 -168 174 -177 -189 0
-6490 16 0
-6490 148 0
-6490 -160 0
-6490 168 0
-6490 174 0
-6490 182 0
-6490 185 0
6490 -16 -148 160 -168 -174 -182 -185 0
-6491 16 0
-6491 148 0
-6491 -163 0
-6491 168 0
-6491 174 0
-6491 182 0
-6491 185 0
6491 -16 -148 163 -168 -174 -182 -185 0
-6492 16 0
-6492 148 0
-6492 -163 0
-6492 168 0
-6492 174 0
-6492 182 0
-6492 192 0
6492 -16 -148 163 -168 -174 -182 -192 0
-6493 16 0
-6493 148 0
-6493 -163 0
-6493 168 0
-6493 174 0
-6493 -181 0
-6493 185 0
6493 -16 -148 163 -168 -174 181 -185 0
-6494 16 0
-6494 148 0
-6494 -163 0
-6494 168 0
-6494 174 0
-6494 -181 0
-6494 192 0
6494 -16 -148 163 -168 -174 181 -192 0
-6495 16 0
-6495 -53 0
-6495 148 0
-6495 163 0
-6495 168 0
-6495 -181 0
-6495 192 0
6495 -16 53 -148 -163 -168 181 -192 0
-6496 16 0
-6496 52 0
-6496 148 0
-6496 163 0
-6496 -181 0
-6496 192 0
6496 -16 -52 -148 -163 181 -192 0
-6497 16 0
-6497 148 0
-6497 163 0
-6497 -164 0
-6497 -181 0
-6497 192 0
6497 -16 -148 -163 164 181 -192 0
-6498 16 0
-6498 148 0
-6498 163 0
-6498 171 0
-6498 -181 0
-6498 192 0
6498 -16 -148 -163 -171 181 -192 0
-6499 16 0
-6499 148 0
-6499 163 0
-6499 -167 0
-6499 168 0
-6499 169 0
-6499 -181 0
-6499 192 0
6499 -16 -148 -163 167 -168 -169 181 -192 0
-6500 16 0
-6500 148 0
-6500 -160 0
-6500 163 0
-6500 168 0
-6500 -181 0
-6500 192 0
6500 -16 -148 160 -163 -168 181 -192 0
-6501 16 0
-6501 -53 0
-6501 148 0
-6501 163 0
-6501 168 0
-6501 182 0
-6501 192 0
6501 -16 53 -148 -163 -168 -182 -192 0
-6502 16 0
-6502 148 0
-6502 -160 0
-6502 163 0
-6502 168 0
-6502 182 0
-6502 192 0
6502 -16 -148 160 -163 -168 -182 -192 0
-6503 -53 0
-6503 116 0
-6503 148 0
-6503 163 0
-6503 168 0
-6503 182 0
6503 53 -116 -148 -163 -168 -182 0
-6504 -19 0
-6504 -39 0
-6504 -53 0
-6504 148 0
-6504 163 0
-6504 168 0
-6504 182 0
6504 19 39 53 -148 -163 -168 -182 0
-6505 16 0
-6505 17 0
-6505 19 0
-6505 39 0
-6505 -53 0
-6505 148 0
-6505 163 0
-6505 168 0
-6505 182 0
6505 -16 -17 -19 -39 53 -148 -163 -168 -182 0
-6506 -17 0
-6506 -39 0
-6506 -53 0
-6506 148 0
-6506 163 0
-6506 168 0
-6506 182 0
6506 17 39 53 -148 -163 -168 -182 0
-6507 -17 0
-6507 -39 0
-6507 -53 0
-6507 148 0
-6507 163 0
-6507 168 0
-6507 -181 0
6507 17 39 53 -148 -163 -168 181 0
-6508 -53 0
-6508 116 0
-6508 148 0
-6508 163 0
-6508 168 0
-6508 -181 0
6508 53 -116 -148 -163 -168 181 0
-6509 16 0
-6509 17 0
-6509 19 0
-6509 39 0
-6509 -53 0
-6509 148 0
-6509 163 0
-6509 168 0
-6509 -181 0
6509 -16 -17 -19 -39 53 -148 -163 -168 181 0
-6510 -19 0
-6510 -39 0
-6510 -53 0
-6510 148 0
-6510 163 0
-6510 168 0
-6510 -181 0
6510 19 39 53 -148 -163 -168 181 0
-6511 116 0
-6511 148 0
-6511 163 0
-6511 -164 0
-6511 -181 0
6511 -116 -148 -163 164 181 0
-6512 116 0
-6512 148 0
-6512 163 0
-6512 171 0
-6512 -181 0
6512 -116 -148 -163 -171 181 0
-6513 116 0
-6513 148 0
-6513 -160 0
-6513 163 0
-6513 168 0
-6513 -181 0
6513 -116 -148 160 -163 -168 181 0
-6514 116 0
-6514 148 0
-6514 163 0
-6514 -164 0
-6514 182 0
6514 -116 -148 -163 164 -182 0
-6515 116 0
-6515 148 0
-6515 163 0
-6515 171 0
-6515 182 0
6515 -116 -148 -163 -171 -182 0
-6516 116 0
-6516 148 0
-6516 -160 0
-6516 163 0
-6516 168 0
-6516 182 0
6516 -116 -148 160 -163 -168 -182 0
-6517 -16 0
-6517 148 0
-6517 163 0
-6517 -167 0
-6517 168 0
-6517 169 0
-6517 177 0
-6517 182 0
6517 16 -148 -163 167 -168 -169 -177 -182 0
-6518 -16 0
-6518 148 0
-6518 163 0
-6518 -167 0
-6518 168 0
-6518 169 0
-6518 181 0
-6518 182 0
6518 16 -148 -163 167 -168 -169 -181 -182 0
-6519 -16 0
-6519 148 0
-6519 163 0
-6519 -164 0
-6519 181 0
-6519 182 0
6519 16 -148 -163 164 -181 -182 0
-6520 -19 0
-6520 -39 0
-6520 52 0
-6520 148 0
-6520 163 0
-6520 -181 0
6520 19 39 -52 -148 -163 181 0
-6521 -16 0
-6521 148 0
-6521 163 0
-6521 171 0
-6521 181 0
-6521 182 0
6521 16 -148 -163 -171 -181 -182 0
-6522 -16 0
-6522 148 0
-6522 -160 0
-6522 163 0
-6522 168 0
-6522 181 0
-6522 182 0
6522 16 -148 160 -163 -168 -181 -182 0
-6523 -16 0
-6523 -53 0
-6523 148 0
-6523 163 0
-6523 168 0
-6523 181 0
-6523 182 0
6523 16 53 -148 -163 -168 -181 -182 0
-6524 16 0
-6524 17 0
-6524 19 0
-6524 39 0
-6524 148 0
-6524 163 0
-6524 -164 0
-6524 182 0
6524 -16 -17 -19 -39 -148 -163 164 -182 0
-6525 -17 0
-6525 -39 0
-6525 148 0
-6525 163 0
-6525 -164 0
-6525 182 0
6525 17 39 -148 -163 164 -182 0
-6526 -19 0
-6526 -39 0
-6526 148 0
-6526 163 0
-6526 -164 0
-6526 182 0
6526 19 39 -148 -163 164 -182 0
-6527 -19 0
-6527 -39 0
-6527 148 0
-6527 163 0
-6527 171 0
-6527 182 0
6527 19 39 -148 -163 -171 -182 0
-6528 -17 0
-6528 -39 0
-6528 148 0
-6528 -160 0
-6528 163 0
-6528 168 0
-6528 182 0
6528 17 39 -148 160 -163 -168 -182 0
-6529 16 0
-6529 17 0
-6529 19 0
-6529 39 0
-6529 148 0
-6529 -160 0
-6529 163 0
-6529 168 0
-6529 182 0
6529 -16 -17 -19 -39 -148 160 -163 -168 -182 0
-6530 -19 0
-6530 -39 0
-6530 148 0
-6530 -160 0
-6530 163 0
-6530 168 0
-6530 182 0
6530 19 39 -148 160 -163 -168 -182 0
-6531 -16 0
-6531 -19 0
-6531 -53 0
-6531 148 0
-6531 163 0
-6531 168 0
-6531 -181 0
6531 16 19 53 -148 -163 -168 181 0
-6532 -16 0
-6532 -19 0
-6532 148 0
-6532 163 0
-6532 -164 0
-6532 -181 0
6532 16 19 -148 -163 164 181 0
-6533 -16 0
-6533 -19 0
-6533 148 0
-6533 163 0
-6533 171 0
-6533 -181 0
6533 16 19 -148 -163 -171 181 0
-6534 -16 0
-6534 -19 0
-6534 148 0
-6534 -160 0
-6534 163 0
-6534 168 0
-6534 -181 0
6534 16 19 -148 160 -163 -168 181 0
-6535 -16 0
-6535 148 0
-6535 163 0
-6535 171 0
-6535 177 0
-6535 -181 0
6535 16 -148 -163 -171 -177 181 0
-6536 -16 0
-6536 -39 0
-6536 148 0
-6536 163 0
-6536 171 0
-6536 -181 0
6536 16 39 -148 -163 -171 181 0
-6537 -16 0
-6537 -53 0
-6537 148 0
-6537 163 0
-6537 168 0
-6537 177 0
-6537 -181 0
6537 16 53 -148 -163 -168 -177 181 0
-6538 -16 0
-6538 148 0
-6538 -160 0
-6538 163 0
-6538 168 0
-6538 177 0
-6538 -181 0
6538 16 -148 160 -163 -168 -177 181 0
-6539 -16 0
-6539 148 0
-6539 163 0
-6539 -164 0
-6539 177 0
-6539 -181 0
6539 16 -148 -163 164 -177 181 0
-6540 -16 0
-6540 -39 0
-6540 -53 0
-6540 148 0
-6540 163 0
-6540 168 0
-6540 -181 0
6540 16 39 53 -148 -163 -168 181 0
-6541 -16 0
-6541 -39 0
-6541 148 0
-6541 -160 0
-6541 163 0
-6541 168 0
-6541 -181 0
6541 16 39 -148 160 -163 -168 181 0
-6542 -16 0
-6542 -39 0
-6542 148 0
-6542 163 0
-6542 -164 0
-6542 -181 0
6542 16 39 -148 -163 164 181 0
-6543 16 0
-6543 17 0
-6543 19 0
-6543 39 0
-6543 148 0
-6543 -160 0
-6543 163 0
-6543 168 0
-6543 -181 0
6543 -16 -17 -19 -39 -148 160 -163 -168 181 0
-6544 16 0
-6544 17 0
-6544 19 0
-6544 39 0
-6544 148 0
-6544 163 0
-6544 -167 0
-6544 168 0
-6544 169 0
-6544 -181 0
6544 -16 -17 -19 -39 -148 -163 167 -168 -169 181 0
-6545 -17 0
-6545 -39 0
-6545 148 0
-6545 163 0
-6545 -167 0
-6545 168 0
-6545 169 0
-6545 -181 0
6545 17 39 -148 -163 167 -168 -169 181 0
-6546 -17 0
-6546 -39 0
-6546 148 0
-6546 -160 0
-6546 163 0
-6546 168 0
-6546 -181 0
6546 17 39 -148 160 -163 -168 181 0
-6547 -17 0
-6547 -39 0
-6547 52 0
-6547 148 0
-6547 163 0
-6547 -181 0
6547 17 39 -52 -148 -163 181 0
-6548 -17 0
-6548 -39 0
-6548 148 0
-6548 163 0
-6548 -164 0
-6548 -181 0
6548 17 39 -148 -163 164 181 0
-6549 -19 0
-6549 -39 0
-6549 148 0
-6549 -160 0
-6549 163 0
-6549 168 0
-6549 -181 0
6549 19 39 -148 160 -163 -168 181 0
-6550 -19 0
-6550 -39 0
-6550 148 0
-6550 163 0
-6550 171 0
-6550 -181 0
6550 19 39 -148 -163 -171 181 0
-6551 -19 0
-6551 -39 0
-6551 148 0
-6551 163 0
-6551 -164 0
-6551 -181 0
6551 19 39 -148 -163 164 181 0
-6552 -19 0
-6552 -39 0
-6552 148 0
-6552 163 0
-6552 -167 0
-6552 168 0
-6552 169 0
-6552 -181 0
6552 19 39 -148 -163 167 -168 -169 181 0
-6553 -16 0
-6553 148 0
-6553 163 0
-6553 -167 0
-6553 168 0
-6553 169 0
-6553 177 0
-6553 -181 0
6553 16 -148 -163 167 -168 -169 -177 181 0
-6554 16 0
-6554 17 0
-6554 19 0
-6554 39 0
-6554 148 0
-6554 163 0
-6554 -164 0
-6554 -181 0
6554 -16 -17 -19 -39 -148 -163 164 181 0
-6555 -16 0
-6555 52 0
-6555 148 0
-6555 163 0
-6555 177 0
-6555 -181 0
6555 16 -52 -148 -163 -177 181 0
-6556 -19 0
-6556 -39 0
-6556 52 0
-6556 -148 0
-6556 -189 0
-6556 -192 0
6556 19 39 -52 148 189 192 0
-6557 52 0
-6557 -148 0
-6557 -189 0
-6557 -192 0
-6557 195 0
6557 -52 148 189 192 -195 0
-6558 -17 0
-6558 -39 0
-6558 52 0
-6558 -148 0
-6558 -189 0
-6558 -192 0
6558 17 39 -52 148 189 192 0
-6559 16 0
-6559 17 0
-6559 19 0
-6559 39 0
-6559 52 0
-6559 -148 0
-6559 -189 0
-6559 -192 0
6559 -16 -17 -19 -39 -52 148 189 192 0
-6560 -16 0
-6560 -39 0
-6560 52 0
-6560 -148 0
-6560 -189 0
-6560 -192 0
6560 16 39 -52 148 189 192 0
-6561 -16 0
-6561 -19 0
-6561 52 0
-6561 -148 0
-6561 -189 0
-6561 -192 0
6561 16 19 -52 148 189 192 0
-6562 52 0
-6562 116 0
-6562 -148 0
-6562 -189 0
-6562 -192 0
6562 -52 -116 148 189 192 0
-6563 116 0
-6563 -148 0
-6563 -160 0
-6563 168 0
-6563 -189 0
-6563 -192 0
6563 -116 148 160 -168 189 192 0
-6564 -53 0
-6564 116 0
-6564 -148 0
-6564 168 0
-6564 -189 0
-6564 -192 0
6564 53 -116 148 -168 189 192 0
-6565 116 0
-6565 -148 0
-6565 -164 0
-6565 -189 0
-6565 -192 0
6565 -116 148 164 189 192 0
-6566 116 0
-6566 -148 0
-6566 171 0
-6566 -189 0
-6566 -192 0
6566 -116 148 -171 189 192 0
-6567 -16 0
-6567 -39 0
-6567 -148 0
-6567 -160 0
-6567 168 0
-6567 -189 0
-6567 -192 0
6567 16 39 148 160 -168 189 192 0
-6568 -16 0
-6568 -19 0
-6568 -148 0
-6568 -160 0
-6568 168 0
-6568 -189 0
-6568 -192 0
6568 16 19 148 160 -168 189 192 0
-6569 16 0
-6569 17 0
-6569 19 0
-6569 39 0
-6569 -148 0
-6569 -160 0
-6569 168 0
-6569 -189 0
-6569 -192 0
6569 -16 -17 -19 -39 148 160 -168 189 192 0
-6570 -17 0
-6570 -39 0
-6570 -148 0
-6570 -160 0
-6570 168 0
-6570 -189 0
-6570 -192 0
6570 17 39 148 160 -168 189 192 0
-6571 -19 0
-6571 -39 0
-6571 -148 0
-6571 -160 0
-6571 168 0
-6571 -189 0
-6571 -192 0
6571 19 39 148 160 -168 189 192 0
-6572 -53 0
-6572 -148 0
-6572 168 0
-6572 -189 0
-6572 -192 0
-6572 195 0
6572 53 148 -168 189 192 -195 0
-6573 -148 0
-6573 -164 0
-6573 -189 0
-6573 -192 0
-6573 195 0
6573 148 164 189 192 -195 0
-6574 -19 0
-6574 -39 0
-6574 -53 0
-6574 -148 0
-6574 168 0
-6574 -189 0
-6574 -192 0
6574 19 39 53 148 -168 189 192 0
-6575 -17 0
-6575 -39 0
-6575 -53 0
-6575 -148 0
-6575 168 0
-6575 -189 0
-6575 -192 0
6575 17 39 53 148 -168 189 192 0
-6576 16 0
-6576 17 0
-6576 19 0
-6576 39 0
-6576 -53 0
-6576 -148 0
-6576 168 0
-6576 -189 0
-6576 -192 0
6576 -16 -17 -19 -39 53 148 -168 189 192 0
-6577 -16 0
-6577 -39 0
-6577 -53 0
-6577 -148 0
-6577 168 0
-6577 -189 0
-6577 -192 0
6577 16 39 53 148 -168 189 192 0
-6578 -16 0
-6578 -39 0
-6578 -148 0
-6578 -164 0
-6578 -189 0
-6578 -192 0
6578 16 39 148 164 189 192 0
-6579 -16 0
-6579 -39 0
-6579 -148 0
-6579 171 0
-6579 -189 0
-6579 -192 0
6579 16 39 148 -171 189 192 0
-6580 -16 0
-6580 -39 0
-6580 -148 0
-6580 -163 0
-6580 168 0
-6580 -189 0
-6580 -192 0
6580 16 39 148 163 -168 189 192 0
-6581 -16 0
-6581 -19 0
-6581 -148 0
-6581 171 0
-6581 -189 0
-6581 -192 0
6581 16 19 148 -171 189 192 0
-6582 -17 0
-6582 -39 0
-6582 -148 0
-6582 -164 0
-6582 -189 0
-6582 -192 0
6582 17 39 148 164 189 192 0
-6583 -19 0
-6583 -39 0
-6583 -148 0
-6583 -164 0
-6583 -189 0
-6583 -192 0
6583 19 39 148 164 189 192 0
-6584 -19 0
-6584 -39 0
-6584 -148 0
-6584 171 0
-6584 -189 0
-6584 -192 0
6584 19 39 148 -171 189 192 0
-6585 16 0
-6585 17 0
-6585 19 0
-6585 39 0
-6585 -148 0
-6585 -164 0
-6585 -189 0
-6585 -192 0
6585 -16 -17 -19 -39 148 164 189 192 0
-6586 16 0
-6586 52 0
-6586 148 0
-6586 174 0
-6586 -181 0
-6586 192 0
6586 -16 -52 -148 -174 181 -192 0
-6587 -16 0
-6587 -19 0
-6587 -163 0
-6587 -164 0
-6587 -174 0
-6587 -189 0
-6587 -192 0
6587 16 19 163 164 174 189 192 0
-6588 -163 0
-6588 -164 0
-6588 -174 0
-6588 186 0
-6588 -189 0
6588 163 164 174 -186 189 0
-6589 -16 0
-6589 -19 0
-6589 -163 0
-6589 -164 0
-6589 -174 0
-6589 177 0
-6589 189 0
6589 16 19 163 164 174 -177 -189 0
-6590 -16 0
-6590 -19 0
-6590 148 0
-6590 -164 0
-6590 174 0
-6590 -181 0
6590 16 19 -148 164 -174 181 0
-6591 -16 0
-6591 -19 0
-6591 148 0
-6591 -164 0
-6591 174 0
-6591 182 0
6591 16 19 -148 164 -174 -182 0
-6592 16 0
-6592 52 0
-6592 148 0
-6592 174 0
-6592 182 0
-6592 192 0
6592 -16 -52 -148 -174 -182 -192 0
-6593 -17 0
-6593 -39 0
-6593 148 0
-6593 -164 0
-6593 174 0
-6593 -181 0
6593 17 39 -148 164 -174 181 0
-6594 -17 0
-6594 -39 0
-6594 148 0
-6594 -164 0
-6594 174 0
-6594 182 0
6594 17 39 -148 164 -174 -182 0
-6595 16 0
-6595 148 0
-6595 171 0
-6595 174 0
-6595 182 0
-6595 192 0
6595 -16 -148 -171 -174 -182 -192 0
-6596 16 0
-6596 148 0
-6596 -164 0
-6596 174 0
-6596 182 0
-6596 192 0
6596 -16 -148 164 -174 -182 -192 0
-6597 16 0
-6597 148 0
-6597 171 0
-6597 174 0
-6597 -181 0
-6597 192 0
6597 -16 -148 -171 -174 181 -192 0
-6598 16 0
-6598 148 0
-6598 -164 0
-6598 174 0
-6598 -181 0
-6598 192 0
6598 -16 -148 164 -174 181 -192 0
-6599 -19 0
-6599 -39 0
-6599 -163 0
-6599 168 0
-6599 -174 0
-6599 177 0
-6599 189 0
6599 19 39 163 -168 174 -177 -189 0
-6600 116 0
-6600 -163 0
-6600 168 0
-6600 -174 0
-6600 177 0
-6600 189 0
6600 -116 163 -168 174 -177 -189 0
-6601 16 0
-6601 17 0
-6601 19 0
-6601 39 0
-6601 -163 0
-6601 -164 0
-6601 -174 0
-6601 -189 0
-6601 -192 0
6601 -16 -17 -19 -39 163 164 174 189 192 0
-6602 -163 0
-6602 -164 0
-6602 -174 0
-6602 -189 0
-6602 -192 0
-6602 195 0
6602 163 164 174 189 192 -195 0
-6603 100 0
-6603 122 0
-6603 -126 0
-6603 -133 0
-6603 -134 0
-6603 -163 0
-6603 -164 0
-6603 -174 0
-6603 -189 0
-6603 -192 0
6603 -100 -122 126 133 134 163 164 174 189 192 0
-6604 116 0
-6604 -163 0
-6604 -164 0
-6604 -174 0
-6604 -189 0
-6604 -192 0
6604 -116 163 164 174 189 192 0
-6605 -17 0
-6605 -39 0
-6605 -163 0
-6605 -164 0
-6605 -174 0
-6605 -189 0
-6605 -192 0
6605 17 39 163 164 174 189 192 0
-6606 -19 0
-6606 -39 0
-6606 -163 0
-6606 -164 0
-6606 -174 0
-6606 -189 0
-6606 -192 0
6606 19 39 163 164 174 189 192 0
-6607 -16 0
-6607 -39 0
-6607 -163 0
-6607 -164 0
-6607 -174 0
-6607 -189 0
-6607 -192 0
6607 16 39 163 164 174 189 192 0
-6608 52 0
-6608 -163 0
-6608 -174 0
-6608 -189 0
-6608 -192 0
-6608 195 0
6608 -52 163 174 189 192 -195 0
-6609 52 0
-6609 100 0
-6609 122 0
-6609 -126 0
-6609 -133 0
-6609 -134 0
-6609 -163 0
-6609 -174 0
-6609 -189 0
-6609 -192 0
6609 -52 -100 -122 126 133 134 163 174 189 192 0
-6610 52 0
-6610 116 0
-6610 -163 0
-6610 -174 0
-6610 -189 0
-6610 -192 0
6610 -52 -116 163 174 189 192 0
-6611 -19 0
-6611 -39 0
-6611 148 0
-6611 -164 0
-6611 174 0
-6611 -181 0
6611 19 39 -148 164 -174 181 0
-6612 -19 0
-6612 -39 0
-6612 148 0
-6612 -164 0
-6612 174 0
-6612 182 0
6612 19 39 -148 164 -174 -182 0
-6613 -16 0
-6613 -19 0
-6613 52 0
-6613 -163 0
-6613 -174 0
-6613 -189 0
-6613 -192 0
6613 16 19 -52 163 174 189 192 0
-6614 -16 0
-6614 -39 0
-6614 52 0
-6614 -163 0
-6614 -174 0
-6614 -189 0
-6614 -192 0
6614 16 39 -52 163 174 189 192 0
-6615 -17 0
-6615 -39 0
-6615 52 0
-6615 -163 0
-6615 -174 0
-6615 -189 0
-6615 -192 0
6615 17 39 -52 163 174 189 192 0
-6616 -19 0
-6616 -39 0
-6616 52 0
-6616 -163 0
-6616 -174 0
-6616 -189 0
-6616 -192 0
6616 19 39 -52 163 174 189 192 0
-6617 -16 0
-6617 -39 0
-6617 -163 0
-6617 168 0
-6617 -174 0
-6617 177 0
-6617 189 0
6617 16 39 163 -168 174 -177 -189 0
-6618 -163 0
-6618 -164 0
-6618 -174 0
-6618 177 0
-6618 189 0
-6618 195 0
6618 163 164 174 -177 -189 -195 0
-6619 52 0
-6619 -163 0
-6619 -174 0
-6619 177 0
-6619 189 0
-6619 195 0
6619 -52 163 174 -177 -189 -195 0
-6620 -19 0
-6620 -39 0
-6620 -163 0
-6620 -164 0
-6620 -174 0
-6620 177 0
-6620 189 0
6620 19 39 163 164 174 -177 -189 0
-6621 -17 0
-6621 -39 0
-6621 -163 0
-6621 -164 0
-6621 -174 0
-6621 177 0
-6621 189 0
6621 17 39 163 164 174 -177 -189 0
-6622 -16 0
-6622 -39 0
-6622 -163 0
-6622 -164 0
-6622 -174 0
-6622 177 0
-6622 189 0
6622 16 39 163 164 174 -177 -189 0
-6623 52 0
-6623 116 0
-6623 -163 0
-6623 -174 0
-6623 177 0
-6623 189 0
6623 -52 -116 163 174 -177 -189 0
-6624 -16 0
-6624 -19 0
-6624 52 0
-6624 -163 0
-6624 -174 0
-6624 177 0
-6624 189 0
6624 16 19 -52 163 174 -177 -189 0
-6625 -16 0
-6625 -39 0
-6625 52 0
-6625 -163 0
-6625 -174 0
-6625 177 0
-6625 189 0
6625 16 39 -52 163 174 -177 -189 0
-6626 -17 0
-6626 -39 0
-6626 52 0
-6626 -163 0
-6626 -174 0
-6626 177 0
-6626 189 0
6626 17 39 -52 163 174 -177 -189 0
-6627 16 0
-6627 17 0
-6627 19 0
-6627 39 0
-6627 148 0
-6627 -164 0
-6627 174 0
-6627 182 0
6627 -16 -17 -19 -39 -148 164 -174 -182 0
-6628 16 0
-6628 17 0
-6628 19 0
-6628 39 0
-6628 148 0
-6628 -164 0
-6628 174 0
-6628 -181 0
6628 -16 -17 -19 -39 -148 164 -174 181 0
-6629 52 0
-6629 100 0
-6629 122 0
-6629 -126 0
-6629 -133 0
-6629 -134 0
-6629 -163 0
-6629 -174 0
-6629 177 0
-6629 189 0
6629 -52 -100 -122 126 133 134 163 174 -177 -189 0
-6630 -19 0
-6630 -39 0
-6630 52 0
-6630 -163 0
-6630 -174 0
-6630 177 0
-6630 189 0
6630 19 39 -52 163 174 -177 -189 0
-6631 116 0
-6631 -163 0
-6631 -164 0
-6631 -174 0
-6631 177 0
-6631 189 0
6631 -116 163 164 174 -177 -189 0
-6632 100 0
-6632 122 0
-6632 -126 0
-6632 -133 0
-6632 -134 0
-6632 -163 0
-6632 -164 0
-6632 -174 0
-6632 177 0
-6632 189 0
6632 -100 -122 126 133 134 163 164 174 -177 -189 0
-6633 -16 0
-6633 -19 0
-6633 52 0
-6633 148 0
-6633 174 0
-6633 -181 0
6633 16 19 -52 -148 -174 181 0
-6634 -16 0
-6634 -19 0
-6634 52 0
-6634 148 0
-6634 174 0
-6634 182 0
6634 16 19 -52 -148 -174 -182 0
-6635 -16 0
-6635 148 0
-6635 -164 0
-6635 174 0
-6635 177 0
-6635 -181 0
6635 16 -148 164 -174 -177 181 0
-6636 -16 0
-6636 52 0
-6636 148 0
-6636 174 0
-6636 177 0
-6636 -181 0
6636 16 -52 -148 -174 -177 181 0
-6637 -16 0
-6637 148 0
-6637 171 0
-6637 174 0
-6637 177 0
-6637 -181 0
6637 16 -148 -171 -174 -177 181 0
-6638 -16 0
-6638 148 0
-6638 -164 0
-6638 174 0
-6638 177 0
-6638 182 0
6638 16 -148 164 -174 -177 -182 0
-6639 16 0
-6639 148 0
-6639 -164 0
-6639 174 0
-6639 -181 0
-6639 185 0
6639 -16 -148 164 -174 181 -185 0
-6640 16 0
-6640 52 0
-6640 148 0
-6640 174 0
-6640 -181 0
-6640 185 0
6640 -16 -52 -148 -174 181 -185 0
-6641 16 0
-6641 148 0
-6641 171 0
-6641 174 0
-6641 -181 0
-6641 185 0
6641 -16 -148 -171 -174 181 -185 0
-6642 16 0
-6642 148 0
-6642 -164 0
-6642 174 0
-6642 182 0
-6642 185 0
6642 -16 -148 164 -174 -182 -185 0
-6643 16 0
-6643 52 0
-6643 148 0
-6643 174 0
-6643 182 0
-6643 185 0
6643 -16 -52 -148 -174 -182 -185 0
-6644 16 0
-6644 148 0
-6644 171 0
-6644 174 0
-6644 182 0
-6644 185 0
6644 -16 -148 -171 -174 -182 -185 0
-6645 -16 0
-6645 148 0
-6645 171 0
-6645 174 0
-6645 177 0
-6645 182 0
6645 16 -148 -171 -174 -177 -182 0
-6646 -16 0
-6646 52 0
-6646 148 0
-6646 174 0
-6646 177 0
-6646 182 0
6646 16 -52 -148 -174 -177 -182 0
-6647 116 0
-6647 148 0
-6647 171 0
-6647 174 0
-6647 -181 0
6647 -116 -148 -171 -174 181 0
-6648 -19 0
-6648 -39 0
-6648 148 0
-6648 171 0
-6648 174 0
-6648 -181 0
6648 19 39 -148 -171 -174 181 0
-6649 -19 0
-6649 -39 0
-6649 148 0
-6649 171 0
-6649 174 0
-6649 182 0
6649 19 39 -148 -171 -174 -182 0
-6650 116 0
-6650 148 0
-6650 171 0
-6650 174 0
-6650 182 0
6650 -116 -148 -171 -174 -182 0
-6651 -16 0
-6651 -39 0
-6651 148 0
-6651 171 0
-6651 174 0
-6651 182 0
6651 16 39 -148 -171 -174 -182 0
-6652 -16 0
-6652 -39 0
-6652 148 0
-6652 171 0
-6652 174 0
-6652 -181 0
6652 16 39 -148 -171 -174 181 0
-6653 -16 0
-6653 -19 0
-6653 148 0
-6653 171 0
-6653 174 0
-6653 -181 0
6653 16 19 -148 -171 -174 181 0
-6654 -16 0
-6654 148 0
-6654 171 0
-6654 174 0
-6654 181 0
-6654 182 0
6654 16 -148 -171 -174 -181 -182 0
-6655 -17 0
-6655 -39 0
-6655 52 0
-6655 148 0
-6655 174 0
-6655 182 0
6655 17 39 -52 -148 -174 -182 0
-6656 -16 0
-6656 148 0
-6656 -164 0
-6656 174 0
-6656 181 0
-6656 182 0
6656 16 -148 164 -174 -181 -182 0
-6657 -16 0
-6657 52 0
-6657 148 0
-6657 174 0
-6657 181 0
-6657 182 0
6657 16 -52 -148 -174 -181 -182 0
-6658 -16 0
-6658 -39 0
-6658 148 0
-6658 -164 0
-6658 174 0
-6658 -181 0
6658 16 39 -148 164 -174 181 0
-6659 -19 0
-6659 -39 0
-6659 52 0
-6659 148 0
-6659 174 0
-6659 182 0
6659 19 39 -52 -148 -174 -182 0
-6660 -19 0
-6660 -39 0
-6660 52 0
-6660 148 0
-6660 174 0
-6660 -181 0
6660 19 39 -52 -148 -174 181 0
-6661 -17 0
-6661 -39 0
-6661 52 0
-6661 148 0
-6661 174 0
-6661 -181 0
6661 17 39 -52 -148 -174 181 0
-6662 52 0
-6662 116 0
-6662 148 0
-6662 174 0
-6662 182 0
6662 -52 -116 -148 -174 -182 0
-6663 -16 0
-6663 -39 0
-6663 52 0
-6663 148 0
-6663 174 0
-6663 -181 0
6663 16 39 -52 -148 -174 181 0
-6664 116 0
-6664 148 0
-6664 -164 0
-6664 174 0
-6664 182 0
6664 -116 -148 164 -174 -182 0
-6665 -19 0
-6665 -39 0
-6665 148 0
-6665 -163 0
-6665 168 0
-6665 174 0
-6665 182 0
6665 19 39 -148 163 -168 -174 -182 0
-6666 116 0
-6666 148 0
-6666 -163 0
-6666 168 0
-6666 174 0
-6666 182 0
6666 -116 -148 163 -168 -174 -182 0
-6667 -19 0
-6667 -39 0
-6667 148 0
-6667 -163 0
-6667 168 0
-6667 174 0
-6667 -181 0
6667 19 39 -148 163 -168 -174 181 0
-6668 52 0
-6668 116 0
-6668 148 0
-6668 174 0
-6668 -181 0
6668 -52 -116 -148 -174 181 0
-6669 116 0
-6669 148 0
-6669 -164 0
-6669 174 0
-6669 -181 0
6669 -116 -148 164 -174 181 0
-6670 -6211 0
-6670 -6212 0
-6670 -6213 0
-6670 -6214 0
-6670 -6215 0
-6670 -6216 0
-6670 -6217 0
-6670 -6218 0
-6670 -6219 0
-6670 -6220 0
-6670 -6221 0
-6670 -6222 0
-6670 -6223 0
-6670 -6224 0
-6670 -6225 0
-6670 -6226 0
-6670 -6227 0
-6670 -6228 0
-6670 -6229 0
-6670 -6230 0
-6670 -6231 0
-6670 -6232 0
-6670 -6233 0
-6670 -6234 0
-6670 -6235 0
-6670 -6236 0
-6670 -6237 0
-6670 -6238 0
-6670 -6239 0
-6670 -6240 0
-6670 -6241 0
-6670 -6242 0
-6670 -6243 0
-6670 -6244 0
-6670 -6245 0
-6670 -6246 0
-6670 -6247 0
-6670 -6248 0
-6670 -6249 0
-6670 -6250 0
-6670 -6251 0
-6670 -6252 0
-6670 -6253 0
-6670 -6254 0
-6670 -6255 0
-6670 -6256 0
-6670 -6257 0
-6670 -6258 0
-6670 -6259 0
-6670 -6260 0
-6670 -6261 0
-6670 -6262 0
-6670 -6263 0
-6670 -6264 0
-6670 -6265 0
-6670 -6266 0
-6670 -6267 0
-6670 -6268 0
-6670 -6269 0
-6670 -6270 0
-6670 -6271 0
-6670 -6272 0
-6670 -6273 0
-6670 -6274 0
-6670 -6275 0
-6670 -6276 0
-6670 -6277 0
-6670 -6278 0
-6670 -6279 0
-6670 -6280 0
-6670 -6281 0
-6670 -6282 0
-6670 -6283 0
-6670 -6284 0
-6670 -6285 0
-6670 -6286 0
-6670 -6287 0
-6670 -6288 0
-6670 -6289 0
-6670 -6290 0
-6670 -6291 0
-6670 -6292 0
-6670 -6293 0
-6670 -6294 0
-6670 -6295 0
-6670 -6296 0
-6670 -6297 0
-6670 -6298 0
-6670 -6299 0
-6670 -6300 0
-6670 -6301 0
-6670 -6302 0
-6670 -6303 0
-6670 -6304 0
-6670 -6305 0
-6670 -6306 0
-6670 -6307 0
-6670 -6308 0
-6670 -6309 0
-6670 -6310 0
-6670 -6311 0
-6670 -6312 0
-6670 -6313 0
-6670 -6314 0
-6670 -6315 0
-6670 -6316 0
-6670 -6317 0
-6670 -6318 0
-6670 -6319 0
-6670 -6320 0
-6670 -6321 0
-6670 -6322 0
-6670 -6323 0
-6670 -6324 0
-6670 -6325 0
-6670 -6326 0
-6670 -6327 0
-6670 -6328 0
-6670 -6329 0
-6670 -6330 0
-6670 -6331 0
-6670 -6332 0
-6670 -6333 0
-6670 -6334 0
-6670 -6335 0
-6670 -6336 0
-6670 -6337 0
-6670 -6338 0
-6670 -6339 0
-6670 -6340 0
-6670 -6341 0
-6670 -6342 0
-6670 -6343 0
-6670 -6344 0
-6670 -6345 0
-6670 -6346 0
-6670 -6347 0
-6670 -6348 0
-6670 -6349 0
-6670 -6350 0
-6670 -6351 0
-6670 -6352 0
-6670 -6353 0
-6670 -6354 0
-6670 -6355 0
-6670 -6356 0
-6670 -6357 0
-6670 -6358 0
-6670 -6359 0
-6670 -6360 0
-6670 -6361 0
-6670 -6362 0
-6670 -6363 0
-6670 -6364 0
-6670 -6365 0
-6670 -6366 0
-6670 -6367 0
-6670 -6368 0
-6670 -6369 0
-6670 -6370 0
-6670 -6371 0
-6670 -6372 0
-6670 -6373 0
-6670 -6374 0
-6670 -6375 0
-6670 -6376 0
-6670 -6377 0
-6670 -6378 0
-6670 -6379 0
-6670 -6380 0
-6670 -6381 0
-6670 -6382 0
-6670 -6383 0
-6670 -6384 0
-6670 -6385 0
-6670 -6386 0
-6670 -6387 0
-6670 -6388 0
-6670 -6389 0
-6670 -6390 0
-6670 -6391 0
-6670 -6392 0
-6670 -6393 0
-6670 -6394 0
-6670 -6395 0
-6670 -6396 0
-6670 -6397 0
-6670 -6398 0
-6670 -6399 0
-6670 -6400 0
-6670 -6401 0
-6670 -6402 0
-6670 -6403 0
-6670 -6404 0
-6670 -6405 0
-6670 -6406 0
-6670 -6407 0
-6670 -6408 0
-6670 -6409 0
-6670 -6410 0
-6670 -6411 0
-6670 -6412 0
-6670 -6413 0
-6670 -6414 0
-6670 -6415 0
-6670 -6416 0
-6670 -6417 0
-6670 -6418 0
-6670 -6419 0
-6670 -6420 0
-6670 -6421 0
-6670 -6422 0
-6670 -6423 0
-6670 -6424 0
-6670 -6425 0
-6670 -6426 0
-6670 -6427 0
-6670 -6428 0
-6670 -6429 0
-6670 -6430 0
-6670 -6431 0
-6670 -6432 0
-6670 -6433 0
-6670 -6434 0
-6670 -6435 0
-6670 -6436 0
-6670 -6437 0
-6670 -6438 0
-6670 -6439 0
-6670 -6440 0
-6670 -6441 0
-6670 -6442 0
-6670 -6443 0
-6670 -6444 0
-6670 -6445 0
-6670 -6446 0
-6670 -6447 0
-6670 -6448 0
-6670 -6449 0
-6670 -6450 0
-6670 -6451 0
-6670 -6452 0
-6670 -6453 0
-6670 -6454 0
-6670 -6455 0
-6670 -6456 0
-6670 -6457 0
-6670 -6458 0
-6670 -6459 0
-6670 -6460 0
-6670 -6461 0
-6670 -6462 0
-6670 -6463 0
-6670 -6464 0
-6670 -6465 0
-6670 -6466 0
-6670 -6467 0
-6670 -6468 0
-6670 -6469 0
-6670 -6470 0
-6670 -6471 0
-6670 -6472 0
-6670 -6473 0
-6670 -6474 0
-6670 -6475 0
-6670 -6476 0
-6670 -6477 0
-6670 -6478 0
-6670 -6479 0
-6670 -6480 0
-6670 -6481 0
-6670 -6482 0
-6670 -6483 0
-6670 -6484 0
-6670 -6485 0
-6670 -6486 0
-6670 -6487 0
-6670 -6488 0
-6670 -6489 0
-6670 -6490 0
-6670 -6491 0
-6670 -6492 0
-6670 -6493 0
-6670 -6494 0
-6670 -6495 0
-6670 -6496 0
-6670 -6497 0
-6670 -6498 0
-6670 -6499 0
-6670 -6500 0
-6670 -6501 0
-6670 -6502 0
-6670 -6503 0
-6670 -6504 0
-6670 -6505 0
-6670 -6506 0
-6670 -6507 0
-6670 -6508 0
-6670 -6509 0
-6670 -6510 0
-6670 -6511 0
-6670 -6512 0
-6670 -6513 0
-6670 -6514 0
-6670 -6515 0
-6670 -6516 0
-6670 -6517 0
-6670 -6518 0
-6670 -6519 0
-6670 -6520 0
-6670 -6521 0
-6670 -6522 0
-6670 -6523 0
-6670 -6524 0
-6670 -6525 0
-6670 -6526 0
-6670 -6527 0
-6670 -6528 0
-6670 -6529 0
-6670 -6530 0
-6670 -6531 0
-6670 -6532 0
-6670 -6533 0
-6670 -6534 0
-6670 -6535 0
-6670 -6536 0
-6670 -6537 0
-6670 -6538 0
-6670 -6539 0
-6670 -6540 0
-6670 -6541 0
-6670 -6542 0
-6670 -6543 0
-6670 -6544 0
-6670 -6545 0
-6670 -6546 0
-6670 -6547 0
-6670 -6548 0
-6670 -6549 0
-6670 -6550 0
-6670 -6551 0
-6670 -6552 0
-6670 -6553 0
-6670 -6554 0
-6670 -6555 0
-6670 -6556 0
-6670 -6557 0
-6670 -6558 0
-6670 -6559 0
-6670 -6560 0
-6670 -6561 0
-6670 -6562 0
-6670 -6563 0
-6670 -6564 0
-6670 -6565 0
-6670 -6566 0
-6670 -6567 0
-6670 -6568 0
-6670 -6569 0
-6670 -6570 0
-6670 -6571 0
-6670 -6572 0
-6670 -6573 0
-6670 -6574 0
-6670 -6575 0
-6670 -6576 0
-6670 -6577 0
-6670 -6578 0
-6670 -6579 0
-6670 -6580 0
-6670 -6581 0
-6670 -6582 0
-6670 -6583 0
-6670 -6584 0
-6670 -6585 0
-6670 -6586 0
-6670 -6587 0
-6670 -6588 0
-6670 -6589 0
-6670 -6590 0
-6670 -6591 0
-6670 -6592 0
-6670 -6593 0
-6670 -6594 0
-6670 -6595 0
-6670 -6596 0
-6670 -6597 0
-6670 -6598 0
-6670 -6599 0
-6670 -6600 0
-6670 -6601 0
-6670 -6602 0
-6670 -6603 0
-6670 -6604 0
-6670 -6605 0
-6670 -6606 0
-6670 -6607 0
-6670 -6608 0
-6670 -6609 0
-6670 -6610 0
-6670 -6611 0
-6670 -6612 0
-6670 -6613 0
-6670 -6614 0
-6670 -6615 0
-6670 -6616 0
-6670 -6617 0
-6670 -6618 0
-6670 -6619 0
-6670 -6620 0
-6670 -6621 0
-6670 -6622 0
-6670 -6623 0
-6670 -6624 0
-6670 -6625 0
-6670 -6626 0
-6670 -6627 0
-6670 -6628 0
-6670 -6629 0
-6670 -6630 0
-6670 -6631 0
-6670 -6632 0
-6670 -6633 0
-6670 -6634 0
-6670 -6635 0
-6670 -6636 0
-6670 -6637 0
-6670 -6638 0
-6670 -6639 0
-6670 -6640 0
-6670 -6641 0
-6670 -6642 0
-6670 -6643 0
-6670 -6644 0
-6670 -6645 0
-6670 -6646 0
-6670 -6647 0
-6670 -6648 0
-6670 -6649 0
-6670 -6650 0
-6670 -6651 0
-6670 -6652 0
-6670 -6653 0
-6670 -6654 0
-6670 -6655 0
-6670 -6656 0
-6670 -6657 0
-6670 -6658 0
-6670 -6659 0
-6670 -6660 0
-6670 -6661 0
-6670 -6662 0
-6670 -6663 0
-6670 -6664 0
-6670 -6665 0
-6670 -6666 0
-6670 -6667 0
-6670 -6668 0
-6670 -6669 0
6670 6211 6212 6213 6214 6215 6216 6217 6218 6219 6220 6221 6222 6223 6224 6225 6226 6227 6228 6229 6230 6231 6232 6233 6234 6235 6236 6237 6238 6239 6240 6241 6242 6243 6244 6245 6246 6247 6248 6249 6250 6251 6252 6253 6254 6255 6256 6257 6258 6259 6260 6261 6262 6263 6264 6265 6266 6267 6268 6269 6270 6271 6272 6273 6274 6275 6276 6277 6278 6279 6280 6281 6282 6283 6284 6285 6286 6287 6288 6289 6290 6291 6292 6293 6294 6295 6296 6297 6298 6299 6300 6301 6302 6303 6304 6305 6306 6307 6308 6309 6310 6311 6312 6313 6314 6315 6316 6317 6318 6319 6320 6321 6322 6323 6324 6325 6326 6327 6328 6329 6330 6331 6332 6333 6334 6335 6336 6337 6338 6339 6340 6341 6342 6343 6344 6345 6346 6347 6348 6349 6350 6351 6352 6353 6354 6355 6356 6357 6358 6359 6360 6361 6362 6363 6364 6365 6366 6367 6368 6369 6370 6371 6372 6373 6374 6375 6376 6377 6378 6379 6380 6381 6382 6383 6384 6385 6386 6387 6388 6389 6390 6391 6392 6393 6394 6395 6396 6397 6398 6399 6400 6401 6402 6403 6404 6405 6406 6407 6408 6409 6410 6411 6412 6413 6414 6415 6416 6417 6418 6419 6420 6421 6422 6423 6424 6425 6426 6427 6428 6429 6430 6431 6432 6433 6434 6435 6436 6437 6438 6439 6440 6441 6442 6443 6444 6445 6446 6447 6448 6449 6450 6451 6452 6453 6454 6455 6456 6457 6458 6459 6460 6461 6462 6463 6464 6465 6466 6467 6468 6469 6470 6471 6472 6473 6474 6475 6476 6477 6478 6479 6480 6481 6482 6483 6484 6485 6486 6487 6488 6489 6490 6491 6492 6493 6494 6495 6496 6497 6498 6499 6500 6501 6502 6503 6504 6505 6506 6507 6508 6509 6510 6511 6512 6513 6514 6515 6516 6517 6518 6519 6520 6521 6522 6523 6524 6525 6526 6527 6528 6529 6530 6531 6532 6533 6534 6535 6536 6537 6538 6539 6540 6541 6542 6543 6544 6545 6546 6547 6548 6549 6550 6551 6552 6553 6554 6555 6556 6557 6558 6559 6560 6561 6562 6563 6564 6565 6566 6567 6568 6569 6570 6571 6572 6573 6574 6575 6576 6577 6578 6579 6580 6581 6582 6583 6584 6585 6586 6587 6588 6589 6590 6591 6592 6593 6594 6595 6596 6597 6598 6599 6600 6601 6602 6603 6604 6605 6606 6607 6608 6609 6610 6611 6612 6613 6614 6615 6616 6617 6618 6619 6620 6621 6622 6623 6624 6625 6626 6627 6628 6629 6630 6631 6632 6633 6634 6635 6636 6637 6638 6639 6640 6641 6642 6643 6644 6645 6646 6647 6648 6649 6650 6651 6652 6653 6654 6655 6656 6657 6658 6659 6660 6661 6662 6663 6664 6665 6666 6667 6668 6669 0
-6671 -6205 0
-6671 -6207 0
-6671 -6210 0
-6671 -6670 0
6671 6205 6207 6210 6670 0
