p cnf 1248 540
-219 -57 0
-219 -58 0
219 57 58 0
-245 54 0
-245 62 0
-245 -64 0
-245 -65 0
-245 -66 0
-245 164 0
245 -54 -62 64 65 66 -164 0
-381 16 0
-381 17 0
-381 -19 0
-381 39 0
-381 -116 0
381 -16 -17 19 -39 116 0
-856 54 0
-856 55 0
-856 61 0
-856 63 0
-856 -64 0
-856 -65 0
-856 -66 0
-856 164 0
-856 -245 0
856 -54 -55 -61 -63 64 65 66 -164 245 0
-884 54 0
-884 55 0
-884 61 0
-884 63 0
-884 -64 0
-884 -65 0
-884 -66 0
-884 71 0
-884 164 0
-884 -245 0
884 -54 -55 -61 -63 64 65 66 -71 -164 245 0
-885 16 0
-885 17 0
-885 -19 0
-885 39 0
-885 -40 0
-885 -45 0
-885 -116 0
885 -16 -17 19 -39 40 45 116 0
-886 16 0
-886 17 0
-886 -19 0
-886 39 0
-886 -40 0
-886 41 0
-886 -45 0
-886 -46 0
-886 -116 0
886 -16 -17 19 -39 40 -41 45 46 116 0
-887 -41 0
-887 46 0
887 41 -46 0
-888 -41 0
-888 -885 0
888 41 885 0
-889 -886 0
-889 -887 0
-889 -888 0
889 886 887 888 0
-890 -856 0
-890 -889 0
890 856 889 0
80 890 -893 0
-80 -890 -893 0
80 -890 893 0
-80 890 893 0
-894 -884 0
-894 893 0
894 884 -893 0
-895 54 0
-895 55 0
-895 61 0
-895 63 0
-895 -64 0
-895 -65 0
-895 -66 0
-895 70 0
-895 164 0
-895 -245 0
895 -54 -55 -61 -63 64 65 66 -70 -164 245 0
-896 16 0
-896 17 0
-896 -19 0
-896 39 0
-896 -40 0
-896 -45 0
-896 46 0
-896 -116 0
896 -16 -17 19 -39 40 45 -46 116 0
-897 -46 0
-897 -885 0
897 46 885 0
-898 -896 0
-898 -897 0
898 896 897 0
-899 -856 0
-899 -898 0
899 856 898 0
79 899 -902 0
-79 -899 -902 0
79 -899 902 0
-79 899 902 0
-903 -895 0
-903 902 0
903 895 -902 0
-904 54 0
-904 55 0
-904 61 0
-904 63 0
-904 -64 0
-904 -65 0
-904 -66 0
-904 67 0
-904 164 0
-904 -245 0
904 -54 -55 -61 -63 64 65 66 -67 -164 245 0
-905 16 0
-905 17 0
-905 -19 0
-905 39 0
-905 -45 0
-905 46 0
-905 -116 0
905 -16 -17 19 -39 45 -46 116 0
-906 16 0
-906 17 0
-906 -19 0
-906 39 0
-906 40 0
-906 -116 0
906 -16 -17 19 -39 -40 116 0
-907 -905 0
-907 -906 0
907 905 906 0
-908 -36 0
-908 -905 0
-908 -906 0
908 36 905 906 0
-909 36 0
-909 -907 0
909 -36 907 0
-910 -908 0
-910 -909 0
910 908 909 0
-911 -856 0
-911 -910 0
911 856 910 0
76 911 -914 0
-76 -911 -914 0
76 -911 914 0
-76 911 914 0
-915 -904 0
-915 914 0
915 904 -914 0
-916 54 0
-916 55 0
-916 61 0
-916 63 0
-916 -64 0
-916 -65 0
-916 -66 0
-916 68 0
-916 164 0
-916 -245 0
916 -54 -55 -61 -63 64 65 66 -68 -164 245 0
-917 -40 0
-917 -381 0
917 40 381 0
-918 -906 0
-918 -917 0
918 906 917 0
-919 -856 0
-919 -918 0
919 856 918 0
77 919 -922 0
-77 -919 -922 0
77 -919 922 0
-77 919 922 0
-923 -916 0
-923 922 0
923 916 -922 0
-924 16 0
-924 17 0
-924 -19 0
-924 39 0
-924 -40 0
-924 45 0
-924 -116 0
924 -16 -17 19 -39 40 -45 116 0
-925 40 0
-925 -45 0
925 -40 45 0
-926 -45 0
-926 -381 0
926 45 381 0
-927 -924 0
-927 -925 0
-927 -926 0
927 924 925 926 0
-928 -856 0
-928 -927 0
928 856 927 0
-929 54 0
-929 55 0
-929 61 0
-929 63 0
-929 -64 0
-929 -65 0
-929 -66 0
-929 69 0
-929 164 0
-929 -245 0
929 -54 -55 -61 -63 64 65 66 -69 -164 245 0
78 928 -932 0
-78 -928 -932 0
78 -928 932 0
-78 928 932 0
-933 -929 0
-933 932 0
933 929 -932 0
-1041 54 0
-1041 55 0
-1041 61 0
-1041 63 0
-1041 -64 0
-1041 -65 0
-1041 -66 0
-1041 73 0
-1041 164 0
-1041 -245 0
1041 -54 -55 -61 -63 64 65 66 -73 -164 245 0
-1042 -82 0
-1042 -1041 0
1042 82 1041 0
1041 1042 -1043 0
-1041 -1042 -1043 0
1041 -1042 1043 0
-1041 1042 1043 0
-1056 54 0
-1056 55 0
-1056 61 0
-1056 63 0
-1056 -64 0
-1056 -65 0
-1056 -66 0
-1056 75 0
-1056 164 0
-1056 -245 0
1056 -54 -55 -61 -63 64 65 66 -75 -164 245 0
-1057 -84 0
-1057 -1056 0
1057 84 1056 0
1056 1057 -1058 0
-1056 -1057 -1058 0
1056 -1057 1058 0
-1056 1057 1058 0
-1071 54 0
-1071 55 0
-1071 61 0
-1071 63 0
-1071 -64 0
-1071 -65 0
-1071 -66 0
-1071 74 0
-1071 164 0
-1071 -245 0
1071 -54 -55 -61 -63 64 65 66 -74 -164 245 0
-1072 -83 0
-1072 -1071 0
1072 83 1071 0
1071 1072 -1073 0
-1071 -1072 -1073 0
1071 -1072 1073 0
-1071 1072 1073 0
-1083 54 0
-1083 55 0
-1083 61 0
-1083 63 0
-1083 -64 0
-1083 -65 0
-1083 -66 0
-1083 72 0
-1083 164 0
-1083 -245 0
1083 -54 -55 -61 -63 64 65 66 -72 -164 245 0
-1084 -81 0
-1084 -1083 0
1084 81 1083 0
1083 1084 -1085 0
-1083 -1084 -1085 0
1083 -1084 1085 0
-1083 1084 1085 0
-1201 -894 0
-1201 -903 0
-1201 -915 0
-1201 -923 0
-1201 -933 0
-1201 1043 0
-1201 1058 0
-1201 1073 0
-1201 1085 0
1201 894 903 915 923 933 -1043 -1058 -1073 -1085 0
-1202 56 0
-1202 -61 0
-1202 62 0
-1202 -63 0
-1202 64 0
-1202 -65 0
-1202 -66 0
-1202 164 0
-1202 -219 0
1202 -56 61 -62 63 -64 65 66 -164 219 0
-1204 -856 0
-1204 -889 0
-1204 -1202 0
1204 856 889 1202 0
-1205 56 0
-1205 -61 0
-1205 62 0
-1205 -63 0
-1205 64 0
-1205 -65 0
-1205 -66 0
-1205 80 0
-1205 164 0
-1205 -219 0
1205 -56 61 -62 63 -64 65 66 -80 -164 219 0
-1207 -1204 0
-1207 -1205 0
1207 1204 1205 0
890 1207 -1208 0
-890 -1207 -1208 0
890 -1207 1208 0
-890 1207 1208 0
-1209 -884 0
-1209 -1208 0
1209 884 1208 0
-1210 -856 0
-1210 -898 0
-1210 -1202 0
1210 856 898 1202 0
-1211 56 0
-1211 -61 0
-1211 62 0
-1211 -63 0
-1211 64 0
-1211 -65 0
-1211 -66 0
-1211 79 0
-1211 164 0
-1211 -219 0
1211 -56 61 -62 63 -64 65 66 -79 -164 219 0
-1213 -1210 0
-1213 -1211 0
1213 1210 1211 0
899 1213 -1214 0
-899 -1213 -1214 0
899 -1213 1214 0
-899 1213 1214 0
-1215 -895 0
-1215 -1214 0
1215 895 1214 0
-1216 -856 0
-1216 -910 0
-1216 -1202 0
1216 856 910 1202 0
-1217 56 0
-1217 -61 0
-1217 62 0
-1217 -63 0
-1217 64 0
-1217 -65 0
-1217 -66 0
-1217 76 0
-1217 164 0
-1217 -219 0
1217 -56 61 -62 63 -64 65 66 -76 -164 219 0
-1219 -1216 0
-1219 -1217 0
1219 1216 1217 0
911 1219 -1220 0
-911 -1219 -1220 0
911 -1219 1220 0
-911 1219 1220 0
-1221 -904 0
-1221 -1220 0
1221 904 1220 0
-1222 -856 0
-1222 -918 0
-1222 -1202 0
1222 856 918 1202 0
-1223 56 0
-1223 -61 0
-1223 62 0
-1223 -63 0
-1223 64 0
-1223 -65 0
-1223 -66 0
-1223 77 0
-1223 164 0
-1223 -219 0
1223 -56 61 -62 63 -64 65 66 -77 -164 219 0
-1225 -1222 0
-1225 -1223 0
1225 1222 1223 0
919 1225 -1226 0
-919 -1225 -1226 0
919 -1225 1226 0
-919 1225 1226 0
-1227 -916 0
-1227 -1226 0
1227 916 1226 0
-1228 56 0
-1228 -61 0
-1228 62 0
-1228 -63 0
-1228 64 0
-1228 -65 0
-1228 -66 0
-1228 78 0
-1228 164 0
-1228 -219 0
1228 -56 61 -62 63 -64 65 66 -78 -164 219 0
-1229 -856 0
-1229 -927 0
-1229 -1202 0
1229 856 927 1202 0
-1231 -1228 0
-1231 -1229 0
1231 1228 1229 0
928 1231 -1232 0
-928 -1231 -1232 0
928 -1231 1232 0
-928 1231 1232 0
-1233 -929 0
-1233 -1232 0
1233 929 1232 0
-1234 56 0
-1234 -61 0
-1234 62 0
-1234 -63 0
-1234 64 0
-1234 -65 0
-1234 -66 0
-1234 82 0
-1234 164 0
-1234 -219 0
1234 -56 61 -62 63 -64 65 66 -82 -164 219 0
-1235 -1041 0
-1235 -1234 0
1235 1041 1234 0
1041 1235 -1236 0
-1041 -1235 -1236 0
1041 -1235 1236 0
-1041 1235 1236 0
-1237 56 0
-1237 -61 0
-1237 62 0
-1237 -63 0
-1237 64 0
-1237 -65 0
-1237 -66 0
-1237 84 0
-1237 164 0
-1237 -219 0
1237 -56 61 -62 63 -64 65 66 -84 -164 219 0
-1238 -1056 0
-1238 -1237 0
1238 1056 1237 0
1056 1238 -1239 0
-1056 -1238 -1239 0
1056 -1238 1239 0
-1056 1238 1239 0
-1240 56 0
-1240 -61 0
-1240 62 0
-1240 -63 0
-1240 64 0
-1240 -65 0
-1240 -66 0
-1240 83 0
-1240 164 0
-1240 -219 0
1240 -56 61 -62 63 -64 65 66 -83 -164 219 0
-1241 -1071 0
-1241 -1240 0
1241 1071 1240 0
1071 1241 -1242 0
-1071 -1241 -1242 0
1071 -1241 1242 0
-1071 1241 1242 0
-1243 56 0
-1243 -61 0
-1243 62 0
-1243 -63 0
-1243 64 0
-1243 -65 0
-1243 -66 0
-1243 81 0
-1243 164 0
-1243 -219 0
1243 -56 61 -62 63 -64 65 66 -81 -164 219 0
-1244 -1083 0
-1244 -1243 0
1244 1083 1243 0
1083 1244 -1245 0
-1083 -1244 -1245 0
1083 -1244 1245 0
-1083 1244 1245 0
-1246 -1209 0
-1246 -1215 0
-1246 -1221 0
-1246 -1227 0
-1246 -1233 0
-1246 1236 0
-1246 1239 0
-1246 1242 0
-1246 1245 0
1246 1209 1215 1221 1227 1233 -1236 -1239 -1242 -1245 0
-1247 56 0
-1247 -61 0
-1247 62 0
-1247 -63 0
-1247 64 0
-1247 -65 0
-1247 -66 0
-1247 164 0
-1247 -219 0
-1247 -1201 0
1247 -56 61 -62 63 -64 65 66 -164 219 1201 0
1246 1247 -1248 0
-1246 -1247 -1248 0
1246 -1247 1248 0
-1246 1247 1248 0
