p cnf 6860 30634
429 0
425 430 0
-425 -430 0
430 431 0
-430 -431 0
431 432 0
-431 -432 0
432 433 0
-432 -433 0
215 434 0
-215 -434 0
434 435 0
-434 -435 0
435 436 0
-435 -436 0
436 437 0
-436 -437 0
220 438 0
-220 -438 0
438 439 0
-438 -439 0
439 440 0
-439 -440 0
440 441 0
-440 -441 0
433 437 441 442 0
433 437 -441 -442 0
433 -437 441 -442 0
433 -437 -441 -442 0
-433 437 441 -442 0
-433 437 -441 -442 0
-433 -437 441 -442 0
-433 -437 -441 -442 0
215 443 0
-215 -443 0
443 444 0
-443 -444 0
444 445 0
-444 -445 0
220 446 0
-220 -446 0
446 447 0
-446 -447 0
447 448 0
-447 -448 0
433 445 448 449 0
433 445 -448 -449 0
433 -445 448 -449 0
433 -445 -448 -449 0
-433 445 448 -449 0
-433 445 -448 -449 0
-433 -445 448 -449 0
-433 -445 -448 -449 0
425 450 0
-425 -450 0
450 451 0
-450 -451 0
451 452 0
-451 -452 0
452 437 448 453 0
452 437 -448 -453 0
452 -437 448 -453 0
452 -437 -448 -453 0
-452 437 448 -453 0
-452 437 -448 -453 0
-452 -437 448 -453 0
-452 -437 -448 -453 0
452 445 441 454 0
452 445 -441 -454 0
452 -445 441 -454 0
452 -445 -441 -454 0
-452 445 441 -454 0
-452 445 -441 -454 0
-452 -445 441 -454 0
-452 -445 -441 -454 0
442 449 453 454 -455 0
442 449 453 -454 455 0
442 449 -453 454 455 0
442 449 -453 -454 455 0
442 -449 453 454 455 0
442 -449 453 -454 455 0
442 -449 -453 454 455 0
442 -449 -453 -454 455 0
-442 449 453 454 455 0
-442 449 453 -454 455 0
-442 449 -453 454 455 0
-442 449 -453 -454 455 0
-442 -449 453 454 455 0
-442 -449 453 -454 455 0
-442 -449 -453 454 455 0
-442 -449 -453 -454 455 0
455 456 0
-455 -456 0
456 457 0
-456 -457 0
457 458 0
-457 -458 0
415 459 0
-415 -459 0
459 460 0
-459 -460 0
460 461 0
-460 -461 0
461 462 0
-461 -462 0
417 463 0
-417 -463 0
463 464 0
-463 -464 0
464 465 0
-464 -465 0
465 466 0
-465 -466 0
414 467 0
-414 -467 0
467 468 0
-467 -468 0
468 469 0
-468 -469 0
469 470 0
-469 -470 0
462 466 470 471 0
462 466 -470 -471 0
462 -466 470 -471 0
462 -466 -470 -471 0
-462 466 470 -471 0
-462 466 -470 -471 0
-462 -466 470 -471 0
-462 -466 -470 -471 0
417 472 0
-417 -472 0
472 473 0
-472 -473 0
473 474 0
-473 -474 0
414 475 0
-414 -475 0
475 476 0
-475 -476 0
476 477 0
-476 -477 0
462 474 477 478 0
462 474 -477 -478 0
462 -474 477 -478 0
462 -474 -477 -478 0
-462 474 477 -478 0
-462 474 -477 -478 0
-462 -474 477 -478 0
-462 -474 -477 -478 0
415 479 0
-415 -479 0
479 480 0
-479 -480 0
480 481 0
-480 -481 0
481 466 477 482 0
481 466 -477 -482 0
481 -466 477 -482 0
481 -466 -477 -482 0
-481 466 477 -482 0
-481 466 -477 -482 0
-481 -466 477 -482 0
-481 -466 -477 -482 0
481 474 470 483 0
481 474 -470 -483 0
481 -474 470 -483 0
481 -474 -470 -483 0
-481 474 470 -483 0
-481 474 -470 -483 0
-481 -474 470 -483 0
-481 -474 -470 -483 0
471 478 482 483 -484 0
471 478 482 -483 484 0
471 478 -482 483 484 0
471 478 -482 -483 484 0
471 -478 482 483 484 0
471 -478 482 -483 484 0
471 -478 -482 483 484 0
471 -478 -482 -483 484 0
-471 478 482 483 484 0
-471 478 482 -483 484 0
-471 478 -482 483 484 0
-471 478 -482 -483 484 0
-471 -478 482 483 484 0
-471 -478 482 -483 484 0
-471 -478 -482 483 484 0
-471 -478 -482 -483 484 0
484 485 0
-484 -485 0
485 486 0
-485 -486 0
219 487 0
-219 -487 0
487 488 0
-487 -488 0
488 489 0
-488 -489 0
489 490 0
-489 -490 0
423 491 0
-423 -491 0
491 492 0
-491 -492 0
492 493 0
-492 -493 0
493 494 0
-493 -494 0
420 495 0
-420 -495 0
495 496 0
-495 -496 0
496 497 0
-496 -497 0
497 498 0
-497 -498 0
490 494 498 499 0
490 494 -498 -499 0
490 -494 498 -499 0
490 -494 -498 -499 0
-490 494 498 -499 0
-490 494 -498 -499 0
-490 -494 498 -499 0
-490 -494 -498 -499 0
423 500 0
-423 -500 0
500 501 0
-500 -501 0
501 502 0
-501 -502 0
420 503 0
-420 -503 0
503 504 0
-503 -504 0
504 505 0
-504 -505 0
490 502 505 506 0
490 502 -505 -506 0
490 -502 505 -506 0
490 -502 -505 -506 0
-490 502 505 -506 0
-490 502 -505 -506 0
-490 -502 505 -506 0
-490 -502 -505 -506 0
219 507 0
-219 -507 0
507 508 0
-507 -508 0
508 509 0
-508 -509 0
509 494 505 510 0
509 494 -505 -510 0
509 -494 505 -510 0
509 -494 -505 -510 0
-509 494 505 -510 0
-509 494 -505 -510 0
-509 -494 505 -510 0
-509 -494 -505 -510 0
509 502 498 511 0
509 502 -498 -511 0
509 -502 498 -511 0
509 -502 -498 -511 0
-509 502 498 -511 0
-509 502 -498 -511 0
-509 -502 498 -511 0
-509 -502 -498 -511 0
499 506 510 511 -512 0
499 506 510 -511 512 0
499 506 -510 511 512 0
499 506 -510 -511 512 0
499 -506 510 511 512 0
499 -506 510 -511 512 0
499 -506 -510 511 512 0
499 -506 -510 -511 512 0
-499 506 510 511 512 0
-499 506 510 -511 512 0
-499 506 -510 511 512 0
-499 506 -510 -511 512 0
-499 -506 510 511 512 0
-499 -506 510 -511 512 0
-499 -506 -510 511 512 0
-499 -506 -510 -511 512 0
512 513 0
-512 -513 0
513 514 0
-513 -514 0
514 515 0
-514 -515 0
458 486 515 516 0
458 486 -515 -516 0
458 -486 515 -516 0
458 -486 -515 -516 0
-458 486 515 -516 0
-458 486 -515 -516 0
-458 -486 515 -516 0
-458 -486 -515 -516 0
484 517 0
-484 -517 0
517 518 0
-517 -518 0
518 519 0
-518 -519 0
512 520 0
-512 -520 0
520 521 0
-520 -521 0
458 519 521 522 0
458 519 -521 -522 0
458 -519 521 -522 0
458 -519 -521 -522 0
-458 519 521 -522 0
-458 519 -521 -522 0
-458 -519 521 -522 0
-458 -519 -521 -522 0
455 523 0
-455 -523 0
523 524 0
-523 -524 0
524 486 521 525 0
524 486 -521 -525 0
524 -486 521 -525 0
524 -486 -521 -525 0
-524 486 521 -525 0
-524 486 -521 -525 0
-524 -486 521 -525 0
-524 -486 -521 -525 0
524 519 515 526 0
524 519 -515 -526 0
524 -519 515 -526 0
524 -519 -515 -526 0
-524 519 515 -526 0
-524 519 -515 -526 0
-524 -519 515 -526 0
-524 -519 -515 -526 0
516 522 525 526 -527 0
516 522 525 -526 527 0
516 522 -525 526 527 0
516 522 -525 -526 527 0
516 -522 525 526 527 0
516 -522 525 -526 527 0
516 -522 -525 526 527 0
516 -522 -525 -526 527 0
-516 522 525 526 527 0
-516 522 525 -526 527 0
-516 522 -525 526 527 0
-516 522 -525 -526 527 0
-516 -522 525 526 527 0
-516 -522 525 -526 527 0
-516 -522 -525 526 527 0
-516 -522 -525 -526 527 0
425 528 0
-425 -528 0
528 529 0
-528 -529 0
529 530 0
-529 -530 0
530 531 0
-530 -531 0
215 532 0
-215 -532 0
532 533 0
-532 -533 0
533 534 0
-533 -534 0
534 535 0
-534 -535 0
220 536 0
-220 -536 0
536 537 0
-536 -537 0
537 538 0
-537 -538 0
538 539 0
-538 -539 0
531 535 539 540 0
531 535 -539 -540 0
531 -535 539 -540 0
531 -535 -539 -540 0
-531 535 539 -540 0
-531 535 -539 -540 0
-531 -535 539 -540 0
-531 -535 -539 -540 0
215 541 0
-215 -541 0
541 542 0
-541 -542 0
542 543 0
-542 -543 0
220 544 0
-220 -544 0
544 545 0
-544 -545 0
545 546 0
-545 -546 0
531 543 546 547 0
531 543 -546 -547 0
531 -543 546 -547 0
531 -543 -546 -547 0
-531 543 546 -547 0
-531 543 -546 -547 0
-531 -543 546 -547 0
-531 -543 -546 -547 0
425 548 0
-425 -548 0
548 549 0
-548 -549 0
549 550 0
-549 -550 0
550 535 546 551 0
550 535 -546 -551 0
550 -535 546 -551 0
550 -535 -546 -551 0
-550 535 546 -551 0
-550 535 -546 -551 0
-550 -535 546 -551 0
-550 -535 -546 -551 0
550 543 539 552 0
550 543 -539 -552 0
550 -543 539 -552 0
550 -543 -539 -552 0
-550 543 539 -552 0
-550 543 -539 -552 0
-550 -543 539 -552 0
-550 -543 -539 -552 0
540 547 551 552 -553 0
540 547 551 -552 553 0
540 547 -551 552 553 0
540 547 -551 -552 553 0
540 -547 551 552 553 0
540 -547 551 -552 553 0
540 -547 -551 552 553 0
540 -547 -551 -552 553 0
-540 547 551 552 553 0
-540 547 551 -552 553 0
-540 547 -551 552 553 0
-540 547 -551 -552 553 0
-540 -547 551 552 553 0
-540 -547 551 -552 553 0
-540 -547 -551 552 553 0
-540 -547 -551 -552 553 0
553 554 0
-553 -554 0
554 555 0
-554 -555 0
555 556 0
-555 -556 0
415 557 0
-415 -557 0
557 558 0
-557 -558 0
558 559 0
-558 -559 0
559 560 0
-559 -560 0
417 561 0
-417 -561 0
561 562 0
-561 -562 0
562 563 0
-562 -563 0
563 564 0
-563 -564 0
414 565 0
-414 -565 0
565 566 0
-565 -566 0
566 567 0
-566 -567 0
567 568 0
-567 -568 0
560 564 568 569 0
560 564 -568 -569 0
560 -564 568 -569 0
560 -564 -568 -569 0
-560 564 568 -569 0
-560 564 -568 -569 0
-560 -564 568 -569 0
-560 -564 -568 -569 0
417 570 0
-417 -570 0
570 571 0
-570 -571 0
571 572 0
-571 -572 0
414 573 0
-414 -573 0
573 574 0
-573 -574 0
574 575 0
-574 -575 0
560 572 575 576 0
560 572 -575 -576 0
560 -572 575 -576 0
560 -572 -575 -576 0
-560 572 575 -576 0
-560 572 -575 -576 0
-560 -572 575 -576 0
-560 -572 -575 -576 0
415 577 0
-415 -577 0
577 578 0
-577 -578 0
578 579 0
-578 -579 0
579 564 575 580 0
579 564 -575 -580 0
579 -564 575 -580 0
579 -564 -575 -580 0
-579 564 575 -580 0
-579 564 -575 -580 0
-579 -564 575 -580 0
-579 -564 -575 -580 0
579 572 568 581 0
579 572 -568 -581 0
579 -572 568 -581 0
579 -572 -568 -581 0
-579 572 568 -581 0
-579 572 -568 -581 0
-579 -572 568 -581 0
-579 -572 -568 -581 0
569 576 580 581 -582 0
569 576 580 -581 582 0
569 576 -580 581 582 0
569 576 -580 -581 582 0
569 -576 580 581 582 0
569 -576 580 -581 582 0
569 -576 -580 581 582 0
569 -576 -580 -581 582 0
-569 576 580 581 582 0
-569 576 580 -581 582 0
-569 576 -580 581 582 0
-569 576 -580 -581 582 0
-569 -576 580 581 582 0
-569 -576 580 -581 582 0
-569 -576 -580 581 582 0
-569 -576 -580 -581 582 0
582 583 0
-582 -583 0
583 584 0
-583 -584 0
219 585 0
-219 -585 0
585 586 0
-585 -586 0
586 587 0
-586 -587 0
587 588 0
-587 -588 0
423 589 0
-423 -589 0
589 590 0
-589 -590 0
590 591 0
-590 -591 0
591 592 0
-591 -592 0
420 593 0
-420 -593 0
593 594 0
-593 -594 0
594 595 0
-594 -595 0
595 596 0
-595 -596 0
588 592 596 597 0
588 592 -596 -597 0
588 -592 596 -597 0
588 -592 -596 -597 0
-588 592 596 -597 0
-588 592 -596 -597 0
-588 -592 596 -597 0
-588 -592 -596 -597 0
423 598 0
-423 -598 0
598 599 0
-598 -599 0
599 600 0
-599 -600 0
420 601 0
-420 -601 0
601 602 0
-601 -602 0
602 603 0
-602 -603 0
588 600 603 604 0
588 600 -603 -604 0
588 -600 603 -604 0
588 -600 -603 -604 0
-588 600 603 -604 0
-588 600 -603 -604 0
-588 -600 603 -604 0
-588 -600 -603 -604 0
219 605 0
-219 -605 0
605 606 0
-605 -606 0
606 607 0
-606 -607 0
607 592 603 608 0
607 592 -603 -608 0
607 -592 603 -608 0
607 -592 -603 -608 0
-607 592 603 -608 0
-607 592 -603 -608 0
-607 -592 603 -608 0
-607 -592 -603 -608 0
607 600 596 609 0
607 600 -596 -609 0
607 -600 596 -609 0
607 -600 -596 -609 0
-607 600 596 -609 0
-607 600 -596 -609 0
-607 -600 596 -609 0
-607 -600 -596 -609 0
597 604 608 609 -610 0
597 604 608 -609 610 0
597 604 -608 609 610 0
597 604 -608 -609 610 0
597 -604 608 609 610 0
597 -604 608 -609 610 0
597 -604 -608 609 610 0
597 -604 -608 -609 610 0
-597 604 608 609 610 0
-597 604 608 -609 610 0
-597 604 -608 609 610 0
-597 604 -608 -609 610 0
-597 -604 608 609 610 0
-597 -604 608 -609 610 0
-597 -604 -608 609 610 0
-597 -604 -608 -609 610 0
610 611 0
-610 -611 0
611 612 0
-611 -612 0
612 613 0
-612 -613 0
556 584 613 614 0
556 584 -613 -614 0
556 -584 613 -614 0
556 -584 -613 -614 0
-556 584 613 -614 0
-556 584 -613 -614 0
-556 -584 613 -614 0
-556 -584 -613 -614 0
582 615 0
-582 -615 0
615 616 0
-615 -616 0
616 617 0
-616 -617 0
610 618 0
-610 -618 0
618 619 0
-618 -619 0
556 617 619 620 0
556 617 -619 -620 0
556 -617 619 -620 0
556 -617 -619 -620 0
-556 617 619 -620 0
-556 617 -619 -620 0
-556 -617 619 -620 0
-556 -617 -619 -620 0
553 621 0
-553 -621 0
621 622 0
-621 -622 0
622 584 619 623 0
622 584 -619 -623 0
622 -584 619 -623 0
622 -584 -619 -623 0
-622 584 619 -623 0
-622 584 -619 -623 0
-622 -584 619 -623 0
-622 -584 -619 -623 0
622 617 613 624 0
622 617 -613 -624 0
622 -617 613 -624 0
622 -617 -613 -624 0
-622 617 613 -624 0
-622 617 -613 -624 0
-622 -617 613 -624 0
-622 -617 -613 -624 0
614 620 623 624 -625 0
614 620 623 -624 625 0
614 620 -623 624 625 0
614 620 -623 -624 625 0
614 -620 623 624 625 0
614 -620 623 -624 625 0
614 -620 -623 624 625 0
614 -620 -623 -624 625 0
-614 620 623 624 625 0
-614 620 623 -624 625 0
-614 620 -623 624 625 0
-614 620 -623 -624 625 0
-614 -620 623 624 625 0
-614 -620 623 -624 625 0
-614 -620 -623 624 625 0
-614 -620 -623 -624 625 0
527 625 -626 0
527 -625 626 0
-527 625 626 0
-527 -625 -626 0
218 627 0
-218 -627 0
218 628 0
-218 -628 0
627 628 -629 0
627 -628 629 0
-627 628 629 0
-627 -628 -629 0
223 630 0
-223 -630 0
223 631 0
-223 -631 0
630 631 -632 0
630 -631 632 0
-630 631 632 0
-630 -631 -632 0
224 633 0
-224 -633 0
224 634 0
-224 -634 0
633 634 -635 0
633 -634 635 0
-633 634 635 0
-633 -634 -635 0
225 636 0
-225 -636 0
225 637 0
-225 -637 0
636 637 -638 0
636 -637 638 0
-636 637 638 0
-636 -637 -638 0
275 639 0
-275 -639 0
639 640 0
-639 -640 0
640 641 0
-640 -641 0
641 642 0
-641 -642 0
276 643 0
-276 -643 0
643 644 0
-643 -644 0
644 645 0
-644 -645 0
642 645 646 0
642 -645 -646 0
-642 645 -646 0
-642 -645 -646 0
646 647 0
-646 -647 0
378 648 0
-378 -648 0
648 649 0
-648 -649 0
649 650 0
-649 -650 0
279 651 0
-279 -651 0
651 652 0
-651 -652 0
652 653 0
-652 -653 0
653 654 0
-653 -654 0
280 655 0
-280 -655 0
655 656 0
-655 -656 0
656 657 0
-656 -657 0
657 658 0
-657 -658 0
270 659 0
-270 -659 0
659 660 0
-659 -660 0
660 661 0
-660 -661 0
661 662 0
-661 -662 0
662 663 0
-662 -663 0
650 654 658 663 664 0
650 654 658 -663 -664 0
650 654 -658 663 -664 0
650 654 -658 -663 -664 0
650 -654 658 663 -664 0
650 -654 658 -663 -664 0
650 -654 -658 663 -664 0
650 -654 -658 -663 -664 0
-650 654 658 663 -664 0
-650 654 658 -663 -664 0
-650 654 -658 663 -664 0
-650 654 -658 -663 -664 0
-650 -654 658 663 -664 0
-650 -654 658 -663 -664 0
-650 -654 -658 663 -664 0
-650 -654 -658 -663 -664 0
664 665 0
-664 -665 0
278 666 0
-278 -666 0
666 667 0
-666 -667 0
667 668 0
-667 -668 0
277 669 0
-277 -669 0
669 670 0
-669 -670 0
670 671 0
-670 -671 0
668 671 672 0
668 -671 -672 0
-668 671 -672 0
-668 -671 -672 0
672 673 0
-672 -673 0
647 665 673 674 0
647 665 -673 -674 0
647 -665 673 -674 0
647 -665 -673 -674 0
-647 665 673 -674 0
-647 665 -673 -674 0
-647 -665 673 -674 0
-647 -665 -673 -674 0
674 675 0
-674 -675 0
272 271 -676 0
272 -271 676 0
-272 271 676 0
-272 -271 676 0
676 677 0
-676 -677 0
677 678 0
-677 -678 0
678 679 0
-678 -679 0
675 679 680 0
675 -679 -680 0
-675 679 -680 0
-675 -679 -680 0
269 681 0
-269 -681 0
681 682 0
-681 -682 0
682 683 0
-682 -683 0
683 684 0
-683 -684 0
684 685 0
-684 -685 0
268 686 0
-268 -686 0
686 687 0
-686 -687 0
687 688 0
-687 -688 0
688 689 0
-688 -689 0
689 690 0
-689 -690 0
648 691 0
-648 -691 0
691 692 0
-691 -692 0
667 693 0
-667 -693 0
693 694 0
-693 -694 0
694 658 654 -695 0
694 658 -654 695 0
694 -658 654 695 0
694 -658 -654 695 0
-694 658 654 695 0
-694 658 -654 695 0
-694 -658 654 695 0
-694 -658 -654 695 0
690 692 695 -696 0
690 692 -695 696 0
690 -692 695 696 0
690 -692 -695 696 0
-690 692 695 696 0
-690 692 -695 696 0
-690 -692 695 696 0
-690 -692 -695 696 0
696 697 0
-696 -697 0
697 698 0
-697 -698 0
698 645 699 0
698 -645 -699 0
-698 645 -699 0
-698 -645 -699 0
699 700 0
-699 -700 0
698 671 701 0
698 -671 -701 0
-698 671 -701 0
-698 -671 -701 0
701 702 0
-701 -702 0
640 703 0
-640 -703 0
698 703 704 0
698 -703 -704 0
-698 703 -704 0
-698 -703 -704 0
704 705 0
-704 -705 0
700 702 705 706 0
700 702 -705 -706 0
700 -702 705 -706 0
700 -702 -705 -706 0
-700 702 705 -706 0
-700 702 -705 -706 0
-700 -702 705 -706 0
-700 -702 -705 -706 0
706 707 0
-706 -707 0
685 707 708 0
685 -707 -708 0
-685 707 -708 0
-685 -707 -708 0
680 708 709 0
680 -708 -709 0
-680 708 -709 0
-680 -708 -709 0
709 710 0
-709 -710 0
275 711 0
-275 -711 0
711 712 0
-711 -712 0
712 713 0
-712 -713 0
713 714 0
-713 -714 0
276 715 0
-276 -715 0
715 716 0
-715 -716 0
716 717 0
-716 -717 0
714 717 718 0
714 -717 -718 0
-714 717 -718 0
-714 -717 -718 0
718 719 0
-718 -719 0
378 720 0
-378 -720 0
720 721 0
-720 -721 0
721 722 0
-721 -722 0
279 723 0
-279 -723 0
723 724 0
-723 -724 0
724 725 0
-724 -725 0
725 726 0
-725 -726 0
280 727 0
-280 -727 0
727 728 0
-727 -728 0
728 729 0
-728 -729 0
729 730 0
-729 -730 0
270 731 0
-270 -731 0
731 732 0
-731 -732 0
732 733 0
-732 -733 0
733 734 0
-733 -734 0
734 735 0
-734 -735 0
722 726 730 735 736 0
722 726 730 -735 -736 0
722 726 -730 735 -736 0
722 726 -730 -735 -736 0
722 -726 730 735 -736 0
722 -726 730 -735 -736 0
722 -726 -730 735 -736 0
722 -726 -730 -735 -736 0
-722 726 730 735 -736 0
-722 726 730 -735 -736 0
-722 726 -730 735 -736 0
-722 726 -730 -735 -736 0
-722 -726 730 735 -736 0
-722 -726 730 -735 -736 0
-722 -726 -730 735 -736 0
-722 -726 -730 -735 -736 0
736 737 0
-736 -737 0
278 738 0
-278 -738 0
738 739 0
-738 -739 0
739 740 0
-739 -740 0
277 741 0
-277 -741 0
741 742 0
-741 -742 0
742 743 0
-742 -743 0
740 743 744 0
740 -743 -744 0
-740 743 -744 0
-740 -743 -744 0
744 745 0
-744 -745 0
719 737 745 746 0
719 737 -745 -746 0
719 -737 745 -746 0
719 -737 -745 -746 0
-719 737 745 -746 0
-719 737 -745 -746 0
-719 -737 745 -746 0
-719 -737 -745 -746 0
746 747 0
-746 -747 0
272 271 -748 0
272 -271 748 0
-272 271 748 0
-272 -271 748 0
748 749 0
-748 -749 0
749 750 0
-749 -750 0
750 751 0
-750 -751 0
747 751 752 0
747 -751 -752 0
-747 751 -752 0
-747 -751 -752 0
269 753 0
-269 -753 0
753 754 0
-753 -754 0
754 755 0
-754 -755 0
755 756 0
-755 -756 0
756 757 0
-756 -757 0
268 758 0
-268 -758 0
758 759 0
-758 -759 0
759 760 0
-759 -760 0
760 761 0
-760 -761 0
761 762 0
-761 -762 0
720 763 0
-720 -763 0
763 764 0
-763 -764 0
739 765 0
-739 -765 0
765 766 0
-765 -766 0
766 730 726 -767 0
766 730 -726 767 0
766 -730 726 767 0
766 -730 -726 767 0
-766 730 726 767 0
-766 730 -726 767 0
-766 -730 726 767 0
-766 -730 -726 767 0
762 764 767 -768 0
762 764 -767 768 0
762 -764 767 768 0
762 -764 -767 768 0
-762 764 767 768 0
-762 764 -767 768 0
-762 -764 767 768 0
-762 -764 -767 768 0
768 769 0
-768 -769 0
769 770 0
-769 -770 0
770 717 771 0
770 -717 -771 0
-770 717 -771 0
-770 -717 -771 0
771 772 0
-771 -772 0
770 743 773 0
770 -743 -773 0
-770 743 -773 0
-770 -743 -773 0
773 774 0
-773 -774 0
712 775 0
-712 -775 0
770 775 776 0
770 -775 -776 0
-770 775 -776 0
-770 -775 -776 0
776 777 0
-776 -777 0
772 774 777 778 0
772 774 -777 -778 0
772 -774 777 -778 0
772 -774 -777 -778 0
-772 774 777 -778 0
-772 774 -777 -778 0
-772 -774 777 -778 0
-772 -774 -777 -778 0
778 779 0
-778 -779 0
757 779 780 0
757 -779 -780 0
-757 779 -780 0
-757 -779 -780 0
752 780 781 0
752 -780 -781 0
-752 780 -781 0
-752 -780 -781 0
781 782 0
-781 -782 0
710 782 -783 0
710 -782 783 0
-710 782 783 0
-710 -782 -783 0
226 784 0
-226 -784 0
226 785 0
-226 -785 0
784 785 -786 0
784 -785 786 0
-784 785 786 0
-784 -785 -786 0
227 787 0
-227 -787 0
227 788 0
-227 -788 0
787 788 -789 0
787 -788 789 0
-787 788 789 0
-787 -788 -789 0
656 790 0
-656 -790 0
790 791 0
-790 -791 0
791 792 0
-791 -792 0
668 793 0
-668 -793 0
793 794 0
-793 -794 0
652 795 0
-652 -795 0
795 796 0
-795 -796 0
796 797 0
-796 -797 0
792 794 797 798 0
792 794 -797 -798 0
792 -794 797 -798 0
792 -794 -797 -798 0
-792 794 797 -798 0
-792 794 -797 -798 0
-792 -794 797 -798 0
-792 -794 -797 -798 0
694 799 0
-694 -799 0
799 800 0
-799 -800 0
654 801 0
-654 -801 0
801 802 0
-801 -802 0
792 800 802 803 0
792 800 -802 -803 0
792 -800 802 -803 0
792 -800 -802 -803 0
-792 800 802 -803 0
-792 800 -802 -803 0
-792 -800 802 -803 0
-792 -800 -802 -803 0
658 804 0
-658 -804 0
804 805 0
-804 -805 0
805 794 802 806 0
805 794 -802 -806 0
805 -794 802 -806 0
805 -794 -802 -806 0
-805 794 802 -806 0
-805 794 -802 -806 0
-805 -794 802 -806 0
-805 -794 -802 -806 0
805 800 797 807 0
805 800 -797 -807 0
805 -800 797 -807 0
805 -800 -797 -807 0
-805 800 797 -807 0
-805 800 -797 -807 0
-805 -800 797 -807 0
-805 -800 -797 -807 0
798 803 806 807 -808 0
798 803 806 -807 808 0
798 803 -806 807 808 0
798 803 -806 -807 808 0
798 -803 806 807 808 0
798 -803 806 -807 808 0
798 -803 -806 807 808 0
798 -803 -806 -807 808 0
-798 803 806 807 808 0
-798 803 806 -807 808 0
-798 803 -806 807 808 0
-798 803 -806 -807 808 0
-798 -803 806 807 808 0
-798 -803 806 -807 808 0
-798 -803 -806 807 808 0
-798 -803 -806 -807 808 0
808 809 0
-808 -809 0
809 810 0
-809 -810 0
810 811 0
-810 -811 0
274 812 0
-274 -812 0
812 813 0
-812 -813 0
813 814 0
-813 -814 0
642 814 815 0
642 -814 -815 0
-642 814 -815 0
-642 -814 -815 0
813 816 0
-813 -816 0
816 817 0
-816 -817 0
703 817 818 0
703 -817 -818 0
-703 817 -818 0
-703 -817 -818 0
815 818 -819 0
815 -818 819 0
-815 818 819 0
-815 -818 819 0
819 820 0
-819 -820 0
820 821 0
-820 -821 0
644 822 0
-644 -822 0
822 823 0
-822 -823 0
823 671 824 0
823 -671 -824 0
-823 671 -824 0
-823 -671 -824 0
670 825 0
-670 -825 0
825 826 0
-825 -826 0
645 826 827 0
645 -826 -827 0
-645 826 -827 0
-645 -826 -827 0
824 827 -828 0
824 -827 828 0
-824 827 828 0
-824 -827 828 0
828 829 0
-828 -829 0
829 830 0
-829 -830 0
830 831 0
-830 -831 0
811 821 831 832 0
811 821 -831 -832 0
811 -821 831 -832 0
811 -821 -831 -832 0
-811 821 831 -832 0
-811 821 -831 -832 0
-811 -821 831 -832 0
-811 -821 -831 -832 0
819 833 0
-819 -833 0
833 834 0
-833 -834 0
834 835 0
-834 -835 0
828 836 0
-828 -836 0
836 837 0
-836 -837 0
811 835 837 838 0
811 835 -837 -838 0
811 -835 837 -838 0
811 -835 -837 -838 0
-811 835 837 -838 0
-811 835 -837 -838 0
-811 -835 837 -838 0
-811 -835 -837 -838 0
808 839 0
-808 -839 0
839 840 0
-839 -840 0
840 821 837 841 0
840 821 -837 -841 0
840 -821 837 -841 0
840 -821 -837 -841 0
-840 821 837 -841 0
-840 821 -837 -841 0
-840 -821 837 -841 0
-840 -821 -837 -841 0
840 835 831 842 0
840 835 -831 -842 0
840 -835 831 -842 0
840 -835 -831 -842 0
-840 835 831 -842 0
-840 835 -831 -842 0
-840 -835 831 -842 0
-840 -835 -831 -842 0
832 838 841 842 -843 0
832 838 841 -842 843 0
832 838 -841 842 843 0
832 838 -841 -842 843 0
832 -838 841 842 843 0
832 -838 841 -842 843 0
832 -838 -841 842 843 0
832 -838 -841 -842 843 0
-832 838 841 842 843 0
-832 838 841 -842 843 0
-832 838 -841 842 843 0
-832 838 -841 -842 843 0
-832 -838 841 842 843 0
-832 -838 841 -842 843 0
-832 -838 -841 842 843 0
-832 -838 -841 -842 843 0
728 844 0
-728 -844 0
844 845 0
-844 -845 0
845 846 0
-845 -846 0
740 847 0
-740 -847 0
847 848 0
-847 -848 0
724 849 0
-724 -849 0
849 850 0
-849 -850 0
850 851 0
-850 -851 0
846 848 851 852 0
846 848 -851 -852 0
846 -848 851 -852 0
846 -848 -851 -852 0
-846 848 851 -852 0
-846 848 -851 -852 0
-846 -848 851 -852 0
-846 -848 -851 -852 0
766 853 0
-766 -853 0
853 854 0
-853 -854 0
726 855 0
-726 -855 0
855 856 0
-855 -856 0
846 854 856 857 0
846 854 -856 -857 0
846 -854 856 -857 0
846 -854 -856 -857 0
-846 854 856 -857 0
-846 854 -856 -857 0
-846 -854 856 -857 0
-846 -854 -856 -857 0
730 858 0
-730 -858 0
858 859 0
-858 -859 0
859 848 856 860 0
859 848 -856 -860 0
859 -848 856 -860 0
859 -848 -856 -860 0
-859 848 856 -860 0
-859 848 -856 -860 0
-859 -848 856 -860 0
-859 -848 -856 -860 0
859 854 851 861 0
859 854 -851 -861 0
859 -854 851 -861 0
859 -854 -851 -861 0
-859 854 851 -861 0
-859 854 -851 -861 0
-859 -854 851 -861 0
-859 -854 -851 -861 0
852 857 860 861 -862 0
852 857 860 -861 862 0
852 857 -860 861 862 0
852 857 -860 -861 862 0
852 -857 860 861 862 0
852 -857 860 -861 862 0
852 -857 -860 861 862 0
852 -857 -860 -861 862 0
-852 857 860 861 862 0
-852 857 860 -861 862 0
-852 857 -860 861 862 0
-852 857 -860 -861 862 0
-852 -857 860 861 862 0
-852 -857 860 -861 862 0
-852 -857 -860 861 862 0
-852 -857 -860 -861 862 0
862 863 0
-862 -863 0
863 864 0
-863 -864 0
864 865 0
-864 -865 0
274 866 0
-274 -866 0
866 867 0
-866 -867 0
867 868 0
-867 -868 0
714 868 869 0
714 -868 -869 0
-714 868 -869 0
-714 -868 -869 0
867 870 0
-867 -870 0
870 871 0
-870 -871 0
775 871 872 0
775 -871 -872 0
-775 871 -872 0
-775 -871 -872 0
869 872 -873 0
869 -872 873 0
-869 872 873 0
-869 -872 873 0
873 874 0
-873 -874 0
874 875 0
-874 -875 0
716 876 0
-716 -876 0
876 877 0
-876 -877 0
877 743 878 0
877 -743 -878 0
-877 743 -878 0
-877 -743 -878 0
742 879 0
-742 -879 0
879 880 0
-879 -880 0
717 880 881 0
717 -880 -881 0
-717 880 -881 0
-717 -880 -881 0
878 881 -882 0
878 -881 882 0
-878 881 882 0
-878 -881 882 0
882 883 0
-882 -883 0
883 884 0
-883 -884 0
884 885 0
-884 -885 0
865 875 885 886 0
865 875 -885 -886 0
865 -875 885 -886 0
865 -875 -885 -886 0
-865 875 885 -886 0
-865 875 -885 -886 0
-865 -875 885 -886 0
-865 -875 -885 -886 0
873 887 0
-873 -887 0
887 888 0
-887 -888 0
888 889 0
-888 -889 0
882 890 0
-882 -890 0
890 891 0
-890 -891 0
865 889 891 892 0
865 889 -891 -892 0
865 -889 891 -892 0
865 -889 -891 -892 0
-865 889 891 -892 0
-865 889 -891 -892 0
-865 -889 891 -892 0
-865 -889 -891 -892 0
862 893 0
-862 -893 0
893 894 0
-893 -894 0
894 875 891 895 0
894 875 -891 -895 0
894 -875 891 -895 0
894 -875 -891 -895 0
-894 875 891 -895 0
-894 875 -891 -895 0
-894 -875 891 -895 0
-894 -875 -891 -895 0
894 889 885 896 0
894 889 -885 -896 0
894 -889 885 -896 0
894 -889 -885 -896 0
-894 889 885 -896 0
-894 889 -885 -896 0
-894 -889 885 -896 0
-894 -889 -885 -896 0
886 892 895 896 -897 0
886 892 895 -896 897 0
886 892 -895 896 897 0
886 892 -895 -896 897 0
886 -892 895 896 897 0
886 -892 895 -896 897 0
886 -892 -895 896 897 0
886 -892 -895 -896 897 0
-886 892 895 896 897 0
-886 892 895 -896 897 0
-886 892 -895 896 897 0
-886 892 -895 -896 897 0
-886 -892 895 896 897 0
-886 -892 895 -896 897 0
-886 -892 -895 896 897 0
-886 -892 -895 -896 897 0
843 897 -898 0
843 -897 898 0
-843 897 898 0
-843 -897 -898 0
232 899 0
-232 -899 0
232 900 0
-232 -900 0
899 900 -901 0
899 -900 901 0
-899 900 901 0
-899 -900 -901 0
234 902 0
-234 -902 0
234 903 0
-234 -903 0
902 903 -904 0
902 -903 904 0
-902 903 904 0
-902 -903 -904 0
235 905 0
-235 -905 0
235 906 0
-235 -906 0
905 906 -907 0
905 -906 907 0
-905 906 907 0
-905 -906 -907 0
243 908 0
-243 -908 0
243 909 0
-243 -909 0
908 909 -910 0
908 -909 910 0
-908 909 910 0
-908 -909 -910 0
236 911 0
-236 -911 0
911 912 0
-911 -912 0
912 913 0
-912 -913 0
913 914 0
-913 -914 0
228 915 0
-228 -915 0
915 916 0
-915 -916 0
916 917 0
-916 -917 0
917 918 0
-917 -918 0
245 919 0
-245 -919 0
919 920 0
-919 -920 0
920 921 0
-920 -921 0
921 922 0
-921 -922 0
914 918 922 923 0
914 918 -922 -923 0
914 -918 922 -923 0
914 -918 -922 -923 0
-914 918 922 -923 0
-914 918 -922 -923 0
-914 -918 922 -923 0
-914 -918 -922 -923 0
228 924 0
-228 -924 0
924 925 0
-924 -925 0
925 926 0
-925 -926 0
245 927 0
-245 -927 0
927 928 0
-927 -928 0
928 929 0
-928 -929 0
914 926 929 930 0
914 926 -929 -930 0
914 -926 929 -930 0
914 -926 -929 -930 0
-914 926 929 -930 0
-914 926 -929 -930 0
-914 -926 929 -930 0
-914 -926 -929 -930 0
236 931 0
-236 -931 0
931 932 0
-931 -932 0
932 933 0
-932 -933 0
933 918 929 934 0
933 918 -929 -934 0
933 -918 929 -934 0
933 -918 -929 -934 0
-933 918 929 -934 0
-933 918 -929 -934 0
-933 -918 929 -934 0
-933 -918 -929 -934 0
933 926 922 935 0
933 926 -922 -935 0
933 -926 922 -935 0
933 -926 -922 -935 0
-933 926 922 -935 0
-933 926 -922 -935 0
-933 -926 922 -935 0
-933 -926 -922 -935 0
923 930 934 935 -936 0
923 930 934 -935 936 0
923 930 -934 935 936 0
923 930 -934 -935 936 0
923 -930 934 935 936 0
923 -930 934 -935 936 0
923 -930 -934 935 936 0
923 -930 -934 -935 936 0
-923 930 934 935 936 0
-923 930 934 -935 936 0
-923 930 -934 935 936 0
-923 930 -934 -935 936 0
-923 -930 934 935 936 0
-923 -930 934 -935 936 0
-923 -930 -934 935 936 0
-923 -930 -934 -935 936 0
936 937 0
-936 -937 0
937 938 0
-937 -938 0
938 939 0
-938 -939 0
226 940 0
-226 -940 0
940 941 0
-940 -941 0
941 942 0
-941 -942 0
942 943 0
-942 -943 0
227 944 0
-227 -944 0
944 945 0
-944 -945 0
945 946 0
-945 -946 0
946 947 0
-946 -947 0
218 948 0
-218 -948 0
948 949 0
-948 -949 0
949 950 0
-949 -950 0
950 951 0
-950 -951 0
943 947 951 952 0
943 947 -951 -952 0
943 -947 951 -952 0
943 -947 -951 -952 0
-943 947 951 -952 0
-943 947 -951 -952 0
-943 -947 951 -952 0
-943 -947 -951 -952 0
787 953 0
-787 -953 0
953 954 0
-953 -954 0
627 955 0
-627 -955 0
955 956 0
-955 -956 0
943 954 956 957 0
943 954 -956 -957 0
943 -954 956 -957 0
943 -954 -956 -957 0
-943 954 956 -957 0
-943 954 -956 -957 0
-943 -954 956 -957 0
-943 -954 -956 -957 0
784 958 0
-784 -958 0
958 959 0
-958 -959 0
959 947 956 960 0
959 947 -956 -960 0
959 -947 956 -960 0
959 -947 -956 -960 0
-959 947 956 -960 0
-959 947 -956 -960 0
-959 -947 956 -960 0
-959 -947 -956 -960 0
959 954 951 961 0
959 954 -951 -961 0
959 -954 951 -961 0
959 -954 -951 -961 0
-959 954 951 -961 0
-959 954 -951 -961 0
-959 -954 951 -961 0
-959 -954 -951 -961 0
952 957 960 961 -962 0
952 957 960 -961 962 0
952 957 -960 961 962 0
952 957 -960 -961 962 0
952 -957 960 961 962 0
952 -957 960 -961 962 0
952 -957 -960 961 962 0
952 -957 -960 -961 962 0
-952 957 960 961 962 0
-952 957 960 -961 962 0
-952 957 -960 961 962 0
-952 957 -960 -961 962 0
-952 -957 960 961 962 0
-952 -957 960 -961 962 0
-952 -957 -960 961 962 0
-952 -957 -960 -961 962 0
962 963 0
-962 -963 0
963 964 0
-963 -964 0
244 965 0
-244 -965 0
965 966 0
-965 -966 0
966 967 0
-966 -967 0
967 968 0
-967 -968 0
235 969 0
-235 -969 0
969 970 0
-969 -970 0
970 971 0
-970 -971 0
971 972 0
-971 -972 0
234 973 0
-234 -973 0
973 974 0
-973 -974 0
974 975 0
-974 -975 0
975 976 0
-975 -976 0
968 972 976 977 0
968 972 -976 -977 0
968 -972 976 -977 0
968 -972 -976 -977 0
-968 972 976 -977 0
-968 972 -976 -977 0
-968 -972 976 -977 0
-968 -972 -976 -977 0
905 978 0
-905 -978 0
978 979 0
-978 -979 0
902 980 0
-902 -980 0
980 981 0
-980 -981 0
968 979 981 982 0
968 979 -981 -982 0
968 -979 981 -982 0
968 -979 -981 -982 0
-968 979 981 -982 0
-968 979 -981 -982 0
-968 -979 981 -982 0
-968 -979 -981 -982 0
244 983 0
-244 -983 0
983 984 0
-983 -984 0
984 985 0
-984 -985 0
985 972 981 986 0
985 972 -981 -986 0
985 -972 981 -986 0
985 -972 -981 -986 0
-985 972 981 -986 0
-985 972 -981 -986 0
-985 -972 981 -986 0
-985 -972 -981 -986 0
985 979 976 987 0
985 979 -976 -987 0
985 -979 976 -987 0
985 -979 -976 -987 0
-985 979 976 -987 0
-985 979 -976 -987 0
-985 -979 976 -987 0
-985 -979 -976 -987 0
977 982 986 987 -988 0
977 982 986 -987 988 0
977 982 -986 987 988 0
977 982 -986 -987 988 0
977 -982 986 987 988 0
977 -982 986 -987 988 0
977 -982 -986 987 988 0
977 -982 -986 -987 988 0
-977 982 986 987 988 0
-977 982 986 -987 988 0
-977 982 -986 987 988 0
-977 982 -986 -987 988 0
-977 -982 986 987 988 0
-977 -982 986 -987 988 0
-977 -982 -986 987 988 0
-977 -982 -986 -987 988 0
988 989 0
-988 -989 0
989 990 0
-989 -990 0
990 991 0
-990 -991 0
939 964 991 992 0
939 964 -991 -992 0
939 -964 991 -992 0
939 -964 -991 -992 0
-939 964 991 -992 0
-939 964 -991 -992 0
-939 -964 991 -992 0
-939 -964 -991 -992 0
962 993 0
-962 -993 0
993 994 0
-993 -994 0
994 995 0
-994 -995 0
988 996 0
-988 -996 0
996 997 0
-996 -997 0
939 995 997 998 0
939 995 -997 -998 0
939 -995 997 -998 0
939 -995 -997 -998 0
-939 995 997 -998 0
-939 995 -997 -998 0
-939 -995 997 -998 0
-939 -995 -997 -998 0
936 999 0
-936 -999 0
999 1000 0
-999 -1000 0
1000 964 997 1001 0
1000 964 -997 -1001 0
1000 -964 997 -1001 0
1000 -964 -997 -1001 0
-1000 964 997 -1001 0
-1000 964 -997 -1001 0
-1000 -964 997 -1001 0
-1000 -964 -997 -1001 0
1000 995 991 1002 0
1000 995 -991 -1002 0
1000 -995 991 -1002 0
1000 -995 -991 -1002 0
-1000 995 991 -1002 0
-1000 995 -991 -1002 0
-1000 -995 991 -1002 0
-1000 -995 -991 -1002 0
992 998 1001 1002 -1003 0
992 998 1001 -1002 1003 0
992 998 -1001 1002 1003 0
992 998 -1001 -1002 1003 0
992 -998 1001 1002 1003 0
992 -998 1001 -1002 1003 0
992 -998 -1001 1002 1003 0
992 -998 -1001 -1002 1003 0
-992 998 1001 1002 1003 0
-992 998 1001 -1002 1003 0
-992 998 -1001 1002 1003 0
-992 998 -1001 -1002 1003 0
-992 -998 1001 1002 1003 0
-992 -998 1001 -1002 1003 0
-992 -998 -1001 1002 1003 0
-992 -998 -1001 -1002 1003 0
236 1004 0
-236 -1004 0
1004 1005 0
-1004 -1005 0
1005 1006 0
-1005 -1006 0
1006 1007 0
-1006 -1007 0
228 1008 0
-228 -1008 0
1008 1009 0
-1008 -1009 0
1009 1010 0
-1009 -1010 0
1010 1011 0
-1010 -1011 0
245 1012 0
-245 -1012 0
1012 1013 0
-1012 -1013 0
1013 1014 0
-1013 -1014 0
1014 1015 0
-1014 -1015 0
1007 1011 1015 1016 0
1007 1011 -1015 -1016 0
1007 -1011 1015 -1016 0
1007 -1011 -1015 -1016 0
-1007 1011 1015 -1016 0
-1007 1011 -1015 -1016 0
-1007 -1011 1015 -1016 0
-1007 -1011 -1015 -1016 0
228 1017 0
-228 -1017 0
1017 1018 0
-1017 -1018 0
1018 1019 0
-1018 -1019 0
245 1020 0
-245 -1020 0
1020 1021 0
-1020 -1021 0
1021 1022 0
-1021 -1022 0
1007 1019 1022 1023 0
1007 1019 -1022 -1023 0
1007 -1019 1022 -1023 0
1007 -1019 -1022 -1023 0
-1007 1019 1022 -1023 0
-1007 1019 -1022 -1023 0
-1007 -1019 1022 -1023 0
-1007 -1019 -1022 -1023 0
236 1024 0
-236 -1024 0
1024 1025 0
-1024 -1025 0
1025 1026 0
-1025 -1026 0
1026 1011 1022 1027 0
1026 1011 -1022 -1027 0
1026 -1011 1022 -1027 0
1026 -1011 -1022 -1027 0
-1026 1011 1022 -1027 0
-1026 1011 -1022 -1027 0
-1026 -1011 1022 -1027 0
-1026 -1011 -1022 -1027 0
1026 1019 1015 1028 0
1026 1019 -1015 -1028 0
1026 -1019 1015 -1028 0
1026 -1019 -1015 -1028 0
-1026 1019 1015 -1028 0
-1026 1019 -1015 -1028 0
-1026 -1019 1015 -1028 0
-1026 -1019 -1015 -1028 0
1016 1023 1027 1028 -1029 0
1016 1023 1027 -1028 1029 0
1016 1023 -1027 1028 1029 0
1016 1023 -1027 -1028 1029 0
1016 -1023 1027 1028 1029 0
1016 -1023 1027 -1028 1029 0
1016 -1023 -1027 1028 1029 0
1016 -1023 -1027 -1028 1029 0
-1016 1023 1027 1028 1029 0
-1016 1023 1027 -1028 1029 0
-1016 1023 -1027 1028 1029 0
-1016 1023 -1027 -1028 1029 0
-1016 -1023 1027 1028 1029 0
-1016 -1023 1027 -1028 1029 0
-1016 -1023 -1027 1028 1029 0
-1016 -1023 -1027 -1028 1029 0
1029 1030 0
-1029 -1030 0
1030 1031 0
-1030 -1031 0
1031 1032 0
-1031 -1032 0
226 1033 0
-226 -1033 0
1033 1034 0
-1033 -1034 0
1034 1035 0
-1034 -1035 0
1035 1036 0
-1035 -1036 0
227 1037 0
-227 -1037 0
1037 1038 0
-1037 -1038 0
1038 1039 0
-1038 -1039 0
1039 1040 0
-1039 -1040 0
218 1041 0
-218 -1041 0
1041 1042 0
-1041 -1042 0
1042 1043 0
-1042 -1043 0
1043 1044 0
-1043 -1044 0
1036 1040 1044 1045 0
1036 1040 -1044 -1045 0
1036 -1040 1044 -1045 0
1036 -1040 -1044 -1045 0
-1036 1040 1044 -1045 0
-1036 1040 -1044 -1045 0
-1036 -1040 1044 -1045 0
-1036 -1040 -1044 -1045 0
788 1046 0
-788 -1046 0
1046 1047 0
-1046 -1047 0
628 1048 0
-628 -1048 0
1048 1049 0
-1048 -1049 0
1036 1047 1049 1050 0
1036 1047 -1049 -1050 0
1036 -1047 1049 -1050 0
1036 -1047 -1049 -1050 0
-1036 1047 1049 -1050 0
-1036 1047 -1049 -1050 0
-1036 -1047 1049 -1050 0
-1036 -1047 -1049 -1050 0
785 1051 0
-785 -1051 0
1051 1052 0
-1051 -1052 0
1052 1040 1049 1053 0
1052 1040 -1049 -1053 0
1052 -1040 1049 -1053 0
1052 -1040 -1049 -1053 0
-1052 1040 1049 -1053 0
-1052 1040 -1049 -1053 0
-1052 -1040 1049 -1053 0
-1052 -1040 -1049 -1053 0
1052 1047 1044 1054 0
1052 1047 -1044 -1054 0
1052 -1047 1044 -1054 0
1052 -1047 -1044 -1054 0
-1052 1047 1044 -1054 0
-1052 1047 -1044 -1054 0
-1052 -1047 1044 -1054 0
-1052 -1047 -1044 -1054 0
1045 1050 1053 1054 -1055 0
1045 1050 1053 -1054 1055 0
1045 1050 -1053 1054 1055 0
1045 1050 -1053 -1054 1055 0
1045 -1050 1053 1054 1055 0
1045 -1050 1053 -1054 1055 0
1045 -1050 -1053 1054 1055 0
1045 -1050 -1053 -1054 1055 0
-1045 1050 1053 1054 1055 0
-1045 1050 1053 -1054 1055 0
-1045 1050 -1053 1054 1055 0
-1045 1050 -1053 -1054 1055 0
-1045 -1050 1053 1054 1055 0
-1045 -1050 1053 -1054 1055 0
-1045 -1050 -1053 1054 1055 0
-1045 -1050 -1053 -1054 1055 0
1055 1056 0
-1055 -1056 0
1056 1057 0
-1056 -1057 0
244 1058 0
-244 -1058 0
1058 1059 0
-1058 -1059 0
1059 1060 0
-1059 -1060 0
1060 1061 0
-1060 -1061 0
235 1062 0
-235 -1062 0
1062 1063 0
-1062 -1063 0
1063 1064 0
-1063 -1064 0
1064 1065 0
-1064 -1065 0
234 1066 0
-234 -1066 0
1066 1067 0
-1066 -1067 0
1067 1068 0
-1067 -1068 0
1068 1069 0
-1068 -1069 0
1061 1065 1069 1070 0
1061 1065 -1069 -1070 0
1061 -1065 1069 -1070 0
1061 -1065 -1069 -1070 0
-1061 1065 1069 -1070 0
-1061 1065 -1069 -1070 0
-1061 -1065 1069 -1070 0
-1061 -1065 -1069 -1070 0
906 1071 0
-906 -1071 0
1071 1072 0
-1071 -1072 0
903 1073 0
-903 -1073 0
1073 1074 0
-1073 -1074 0
1061 1072 1074 1075 0
1061 1072 -1074 -1075 0
1061 -1072 1074 -1075 0
1061 -1072 -1074 -1075 0
-1061 1072 1074 -1075 0
-1061 1072 -1074 -1075 0
-1061 -1072 1074 -1075 0
-1061 -1072 -1074 -1075 0
244 1076 0
-244 -1076 0
1076 1077 0
-1076 -1077 0
1077 1078 0
-1077 -1078 0
1078 1065 1074 1079 0
1078 1065 -1074 -1079 0
1078 -1065 1074 -1079 0
1078 -1065 -1074 -1079 0
-1078 1065 1074 -1079 0
-1078 1065 -1074 -1079 0
-1078 -1065 1074 -1079 0
-1078 -1065 -1074 -1079 0
1078 1072 1069 1080 0
1078 1072 -1069 -1080 0
1078 -1072 1069 -1080 0
1078 -1072 -1069 -1080 0
-1078 1072 1069 -1080 0
-1078 1072 -1069 -1080 0
-1078 -1072 1069 -1080 0
-1078 -1072 -1069 -1080 0
1070 1075 1079 1080 -1081 0
1070 1075 1079 -1080 1081 0
1070 1075 -1079 1080 1081 0
1070 1075 -1079 -1080 1081 0
1070 -1075 1079 1080 1081 0
1070 -1075 1079 -1080 1081 0
1070 -1075 -1079 1080 1081 0
1070 -1075 -1079 -1080 1081 0
-1070 1075 1079 1080 1081 0
-1070 1075 1079 -1080 1081 0
-1070 1075 -1079 1080 1081 0
-1070 1075 -1079 -1080 1081 0
-1070 -1075 1079 1080 1081 0
-1070 -1075 1079 -1080 1081 0
-1070 -1075 -1079 1080 1081 0
-1070 -1075 -1079 -1080 1081 0
1081 1082 0
-1081 -1082 0
1082 1083 0
-1082 -1083 0
1083 1084 0
-1083 -1084 0
1032 1057 1084 1085 0
1032 1057 -1084 -1085 0
1032 -1057 1084 -1085 0
1032 -1057 -1084 -1085 0
-1032 1057 1084 -1085 0
-1032 1057 -1084 -1085 0
-1032 -1057 1084 -1085 0
-1032 -1057 -1084 -1085 0
1055 1086 0
-1055 -1086 0
1086 1087 0
-1086 -1087 0
1087 1088 0
-1087 -1088 0
1081 1089 0
-1081 -1089 0
1089 1090 0
-1089 -1090 0
1032 1088 1090 1091 0
1032 1088 -1090 -1091 0
1032 -1088 1090 -1091 0
1032 -1088 -1090 -1091 0
-1032 1088 1090 -1091 0
-1032 1088 -1090 -1091 0
-1032 -1088 1090 -1091 0
-1032 -1088 -1090 -1091 0
1029 1092 0
-1029 -1092 0
1092 1093 0
-1092 -1093 0
1093 1057 1090 1094 0
1093 1057 -1090 -1094 0
1093 -1057 1090 -1094 0
1093 -1057 -1090 -1094 0
-1093 1057 1090 -1094 0
-1093 1057 -1090 -1094 0
-1093 -1057 1090 -1094 0
-1093 -1057 -1090 -1094 0
1093 1088 1084 1095 0
1093 1088 -1084 -1095 0
1093 -1088 1084 -1095 0
1093 -1088 -1084 -1095 0
-1093 1088 1084 -1095 0
-1093 1088 -1084 -1095 0
-1093 -1088 1084 -1095 0
-1093 -1088 -1084 -1095 0
1085 1091 1094 1095 -1096 0
1085 1091 1094 -1095 1096 0
1085 1091 -1094 1095 1096 0
1085 1091 -1094 -1095 1096 0
1085 -1091 1094 1095 1096 0
1085 -1091 1094 -1095 1096 0
1085 -1091 -1094 1095 1096 0
1085 -1091 -1094 -1095 1096 0
-1085 1091 1094 1095 1096 0
-1085 1091 1094 -1095 1096 0
-1085 1091 -1094 1095 1096 0
-1085 1091 -1094 -1095 1096 0
-1085 -1091 1094 1095 1096 0
-1085 -1091 1094 -1095 1096 0
-1085 -1091 -1094 1095 1096 0
-1085 -1091 -1094 -1095 1096 0
1003 1096 -1097 0
1003 -1096 1097 0
-1003 1096 1097 0
-1003 -1096 -1097 0
299 1098 0
-299 -1098 0
1098 1099 0
-1098 -1099 0
1099 1100 0
-1099 -1100 0
1100 1101 0
-1100 -1101 0
393 1102 0
-393 -1102 0
1102 1103 0
-1102 -1103 0
1103 1104 0
-1103 -1104 0
1104 1105 0
-1104 -1105 0
300 1106 0
-300 -1106 0
1106 1107 0
-1106 -1107 0
1107 1108 0
-1107 -1108 0
1108 1109 0
-1108 -1109 0
1101 1105 1109 1110 0
1101 1105 -1109 -1110 0
1101 -1105 1109 -1110 0
1101 -1105 -1109 -1110 0
-1101 1105 1109 -1110 0
-1101 1105 -1109 -1110 0
-1101 -1105 1109 -1110 0
-1101 -1105 -1109 -1110 0
393 1111 0
-393 -1111 0
1111 1112 0
-1111 -1112 0
1112 1113 0
-1112 -1113 0
300 1114 0
-300 -1114 0
1114 1115 0
-1114 -1115 0
1115 1116 0
-1115 -1116 0
1101 1113 1116 1117 0
1101 1113 -1116 -1117 0
1101 -1113 1116 -1117 0
1101 -1113 -1116 -1117 0
-1101 1113 1116 -1117 0
-1101 1113 -1116 -1117 0
-1101 -1113 1116 -1117 0
-1101 -1113 -1116 -1117 0
299 1118 0
-299 -1118 0
1118 1119 0
-1118 -1119 0
1119 1120 0
-1119 -1120 0
1120 1105 1116 1121 0
1120 1105 -1116 -1121 0
1120 -1105 1116 -1121 0
1120 -1105 -1116 -1121 0
-1120 1105 1116 -1121 0
-1120 1105 -1116 -1121 0
-1120 -1105 1116 -1121 0
-1120 -1105 -1116 -1121 0
1120 1113 1109 1122 0
1120 1113 -1109 -1122 0
1120 -1113 1109 -1122 0
1120 -1113 -1109 -1122 0
-1120 1113 1109 -1122 0
-1120 1113 -1109 -1122 0
-1120 -1113 1109 -1122 0
-1120 -1113 -1109 -1122 0
1110 1117 1121 1122 -1123 0
1110 1117 1121 -1122 1123 0
1110 1117 -1121 1122 1123 0
1110 1117 -1121 -1122 1123 0
1110 -1117 1121 1122 1123 0
1110 -1117 1121 -1122 1123 0
1110 -1117 -1121 1122 1123 0
1110 -1117 -1121 -1122 1123 0
-1110 1117 1121 1122 1123 0
-1110 1117 1121 -1122 1123 0
-1110 1117 -1121 1122 1123 0
-1110 1117 -1121 -1122 1123 0
-1110 -1117 1121 1122 1123 0
-1110 -1117 1121 -1122 1123 0
-1110 -1117 -1121 1122 1123 0
-1110 -1117 -1121 -1122 1123 0
1123 1124 0
-1123 -1124 0
1124 1125 0
-1124 -1125 0
1125 1126 0
-1125 -1126 0
221 1127 0
-221 -1127 0
1127 1128 0
-1127 -1128 0
1128 1129 0
-1128 -1129 0
1129 1130 0
-1129 -1130 0
428 1131 0
-428 -1131 0
1131 1132 0
-1131 -1132 0
1132 1133 0
-1132 -1133 0
1133 1134 0
-1133 -1134 0
217 1135 0
-217 -1135 0
1135 1136 0
-1135 -1136 0
1136 1137 0
-1136 -1137 0
1137 1138 0
-1137 -1138 0
1130 1134 1138 1139 0
1130 1134 -1138 -1139 0
1130 -1134 1138 -1139 0
1130 -1134 -1138 -1139 0
-1130 1134 1138 -1139 0
-1130 1134 -1138 -1139 0
-1130 -1134 1138 -1139 0
-1130 -1134 -1138 -1139 0
428 1140 0
-428 -1140 0
1140 1141 0
-1140 -1141 0
1141 1142 0
-1141 -1142 0
217 1143 0
-217 -1143 0
1143 1144 0
-1143 -1144 0
1144 1145 0
-1144 -1145 0
1130 1142 1145 1146 0
1130 1142 -1145 -1146 0
1130 -1142 1145 -1146 0
1130 -1142 -1145 -1146 0
-1130 1142 1145 -1146 0
-1130 1142 -1145 -1146 0
-1130 -1142 1145 -1146 0
-1130 -1142 -1145 -1146 0
221 1147 0
-221 -1147 0
1147 1148 0
-1147 -1148 0
1148 1149 0
-1148 -1149 0
1149 1134 1145 1150 0
1149 1134 -1145 -1150 0
1149 -1134 1145 -1150 0
1149 -1134 -1145 -1150 0
-1149 1134 1145 -1150 0
-1149 1134 -1145 -1150 0
-1149 -1134 1145 -1150 0
-1149 -1134 -1145 -1150 0
1149 1142 1138 1151 0
1149 1142 -1138 -1151 0
1149 -1142 1138 -1151 0
1149 -1142 -1138 -1151 0
-1149 1142 1138 -1151 0
-1149 1142 -1138 -1151 0
-1149 -1142 1138 -1151 0
-1149 -1142 -1138 -1151 0
1139 1146 1150 1151 -1152 0
1139 1146 1150 -1151 1152 0
1139 1146 -1150 1151 1152 0
1139 1146 -1150 -1151 1152 0
1139 -1146 1150 1151 1152 0
1139 -1146 1150 -1151 1152 0
1139 -1146 -1150 1151 1152 0
1139 -1146 -1150 -1151 1152 0
-1139 1146 1150 1151 1152 0
-1139 1146 1150 -1151 1152 0
-1139 1146 -1150 1151 1152 0
-1139 1146 -1150 -1151 1152 0
-1139 -1146 1150 1151 1152 0
-1139 -1146 1150 -1151 1152 0
-1139 -1146 -1150 1151 1152 0
-1139 -1146 -1150 -1151 1152 0
1152 1153 0
-1152 -1153 0
1153 1154 0
-1153 -1154 0
301 1155 0
-301 -1155 0
1155 1156 0
-1155 -1156 0
1156 1157 0
-1156 -1157 0
1157 1158 0
-1157 -1158 0
251 1159 0
-251 -1159 0
1159 1160 0
-1159 -1160 0
1160 1161 0
-1160 -1161 0
1161 1162 0
-1161 -1162 0
252 1163 0
-252 -1163 0
1163 1164 0
-1163 -1164 0
1164 1165 0
-1164 -1165 0
1165 1166 0
-1165 -1166 0
1158 1162 1166 1167 0
1158 1162 -1166 -1167 0
1158 -1162 1166 -1167 0
1158 -1162 -1166 -1167 0
-1158 1162 1166 -1167 0
-1158 1162 -1166 -1167 0
-1158 -1162 1166 -1167 0
-1158 -1162 -1166 -1167 0
251 1168 0
-251 -1168 0
1168 1169 0
-1168 -1169 0
1169 1170 0
-1169 -1170 0
252 1171 0
-252 -1171 0
1171 1172 0
-1171 -1172 0
1172 1173 0
-1172 -1173 0
1158 1170 1173 1174 0
1158 1170 -1173 -1174 0
1158 -1170 1173 -1174 0
1158 -1170 -1173 -1174 0
-1158 1170 1173 -1174 0
-1158 1170 -1173 -1174 0
-1158 -1170 1173 -1174 0
-1158 -1170 -1173 -1174 0
301 1175 0
-301 -1175 0
1175 1176 0
-1175 -1176 0
1176 1177 0
-1176 -1177 0
1177 1162 1173 1178 0
1177 1162 -1173 -1178 0
1177 -1162 1173 -1178 0
1177 -1162 -1173 -1178 0
-1177 1162 1173 -1178 0
-1177 1162 -1173 -1178 0
-1177 -1162 1173 -1178 0
-1177 -1162 -1173 -1178 0
1177 1170 1166 1179 0
1177 1170 -1166 -1179 0
1177 -1170 1166 -1179 0
1177 -1170 -1166 -1179 0
-1177 1170 1166 -1179 0
-1177 1170 -1166 -1179 0
-1177 -1170 1166 -1179 0
-1177 -1170 -1166 -1179 0
1167 1174 1178 1179 -1180 0
1167 1174 1178 -1179 1180 0
1167 1174 -1178 1179 1180 0
1167 1174 -1178 -1179 1180 0
1167 -1174 1178 1179 1180 0
1167 -1174 1178 -1179 1180 0
1167 -1174 -1178 1179 1180 0
1167 -1174 -1178 -1179 1180 0
-1167 1174 1178 1179 1180 0
-1167 1174 1178 -1179 1180 0
-1167 1174 -1178 1179 1180 0
-1167 1174 -1178 -1179 1180 0
-1167 -1174 1178 1179 1180 0
-1167 -1174 1178 -1179 1180 0
-1167 -1174 -1178 1179 1180 0
-1167 -1174 -1178 -1179 1180 0
1180 1181 0
-1180 -1181 0
1181 1182 0
-1181 -1182 0
1182 1183 0
-1182 -1183 0
1126 1154 1183 1184 0
1126 1154 -1183 -1184 0
1126 -1154 1183 -1184 0
1126 -1154 -1183 -1184 0
-1126 1154 1183 -1184 0
-1126 1154 -1183 -1184 0
-1126 -1154 1183 -1184 0
-1126 -1154 -1183 -1184 0
1152 1185 0
-1152 -1185 0
1185 1186 0
-1185 -1186 0
1186 1187 0
-1186 -1187 0
1180 1188 0
-1180 -1188 0
1188 1189 0
-1188 -1189 0
1126 1187 1189 1190 0
1126 1187 -1189 -1190 0
1126 -1187 1189 -1190 0
1126 -1187 -1189 -1190 0
-1126 1187 1189 -1190 0
-1126 1187 -1189 -1190 0
-1126 -1187 1189 -1190 0
-1126 -1187 -1189 -1190 0
1123 1191 0
-1123 -1191 0
1191 1192 0
-1191 -1192 0
1192 1154 1189 1193 0
1192 1154 -1189 -1193 0
1192 -1154 1189 -1193 0
1192 -1154 -1189 -1193 0
-1192 1154 1189 -1193 0
-1192 1154 -1189 -1193 0
-1192 -1154 1189 -1193 0
-1192 -1154 -1189 -1193 0
1192 1187 1183 1194 0
1192 1187 -1183 -1194 0
1192 -1187 1183 -1194 0
1192 -1187 -1183 -1194 0
-1192 1187 1183 -1194 0
-1192 1187 -1183 -1194 0
-1192 -1187 1183 -1194 0
-1192 -1187 -1183 -1194 0
1184 1190 1193 1194 -1195 0
1184 1190 1193 -1194 1195 0
1184 1190 -1193 1194 1195 0
1184 1190 -1193 -1194 1195 0
1184 -1190 1193 1194 1195 0
1184 -1190 1193 -1194 1195 0
1184 -1190 -1193 1194 1195 0
1184 -1190 -1193 -1194 1195 0
-1184 1190 1193 1194 1195 0
-1184 1190 1193 -1194 1195 0
-1184 1190 -1193 1194 1195 0
-1184 1190 -1193 -1194 1195 0
-1184 -1190 1193 1194 1195 0
-1184 -1190 1193 -1194 1195 0
-1184 -1190 -1193 1194 1195 0
-1184 -1190 -1193 -1194 1195 0
299 1196 0
-299 -1196 0
1196 1197 0
-1196 -1197 0
1197 1198 0
-1197 -1198 0
1198 1199 0
-1198 -1199 0
393 1200 0
-393 -1200 0
1200 1201 0
-1200 -1201 0
1201 1202 0
-1201 -1202 0
1202 1203 0
-1202 -1203 0
300 1204 0
-300 -1204 0
1204 1205 0
-1204 -1205 0
1205 1206 0
-1205 -1206 0
1206 1207 0
-1206 -1207 0
1199 1203 1207 1208 0
1199 1203 -1207 -1208 0
1199 -1203 1207 -1208 0
1199 -1203 -1207 -1208 0
-1199 1203 1207 -1208 0
-1199 1203 -1207 -1208 0
-1199 -1203 1207 -1208 0
-1199 -1203 -1207 -1208 0
393 1209 0
-393 -1209 0
1209 1210 0
-1209 -1210 0
1210 1211 0
-1210 -1211 0
300 1212 0
-300 -1212 0
1212 1213 0
-1212 -1213 0
1213 1214 0
-1213 -1214 0
1199 1211 1214 1215 0
1199 1211 -1214 -1215 0
1199 -1211 1214 -1215 0
1199 -1211 -1214 -1215 0
-1199 1211 1214 -1215 0
-1199 1211 -1214 -1215 0
-1199 -1211 1214 -1215 0
-1199 -1211 -1214 -1215 0
299 1216 0
-299 -1216 0
1216 1217 0
-1216 -1217 0
1217 1218 0
-1217 -1218 0
1218 1203 1214 1219 0
1218 1203 -1214 -1219 0
1218 -1203 1214 -1219 0
1218 -1203 -1214 -1219 0
-1218 1203 1214 -1219 0
-1218 1203 -1214 -1219 0
-1218 -1203 1214 -1219 0
-1218 -1203 -1214 -1219 0
1218 1211 1207 1220 0
1218 1211 -1207 -1220 0
1218 -1211 1207 -1220 0
1218 -1211 -1207 -1220 0
-1218 1211 1207 -1220 0
-1218 1211 -1207 -1220 0
-1218 -1211 1207 -1220 0
-1218 -1211 -1207 -1220 0
1208 1215 1219 1220 -1221 0
1208 1215 1219 -1220 1221 0
1208 1215 -1219 1220 1221 0
1208 1215 -1219 -1220 1221 0
1208 -1215 1219 1220 1221 0
1208 -1215 1219 -1220 1221 0
1208 -1215 -1219 1220 1221 0
1208 -1215 -1219 -1220 1221 0
-1208 1215 1219 1220 1221 0
-1208 1215 1219 -1220 1221 0
-1208 1215 -1219 1220 1221 0
-1208 1215 -1219 -1220 1221 0
-1208 -1215 1219 1220 1221 0
-1208 -1215 1219 -1220 1221 0
-1208 -1215 -1219 1220 1221 0
-1208 -1215 -1219 -1220 1221 0
1221 1222 0
-1221 -1222 0
1222 1223 0
-1222 -1223 0
1223 1224 0
-1223 -1224 0
221 1225 0
-221 -1225 0
1225 1226 0
-1225 -1226 0
1226 1227 0
-1226 -1227 0
1227 1228 0
-1227 -1228 0
428 1229 0
-428 -1229 0
1229 1230 0
-1229 -1230 0
1230 1231 0
-1230 -1231 0
1231 1232 0
-1231 -1232 0
217 1233 0
-217 -1233 0
1233 1234 0
-1233 -1234 0
1234 1235 0
-1234 -1235 0
1235 1236 0
-1235 -1236 0
1228 1232 1236 1237 0
1228 1232 -1236 -1237 0
1228 -1232 1236 -1237 0
1228 -1232 -1236 -1237 0
-1228 1232 1236 -1237 0
-1228 1232 -1236 -1237 0
-1228 -1232 1236 -1237 0
-1228 -1232 -1236 -1237 0
428 1238 0
-428 -1238 0
1238 1239 0
-1238 -1239 0
1239 1240 0
-1239 -1240 0
217 1241 0
-217 -1241 0
1241 1242 0
-1241 -1242 0
1242 1243 0
-1242 -1243 0
1228 1240 1243 1244 0
1228 1240 -1243 -1244 0
1228 -1240 1243 -1244 0
1228 -1240 -1243 -1244 0
-1228 1240 1243 -1244 0
-1228 1240 -1243 -1244 0
-1228 -1240 1243 -1244 0
-1228 -1240 -1243 -1244 0
221 1245 0
-221 -1245 0
1245 1246 0
-1245 -1246 0
1246 1247 0
-1246 -1247 0
1247 1232 1243 1248 0
1247 1232 -1243 -1248 0
1247 -1232 1243 -1248 0
1247 -1232 -1243 -1248 0
-1247 1232 1243 -1248 0
-1247 1232 -1243 -1248 0
-1247 -1232 1243 -1248 0
-1247 -1232 -1243 -1248 0
1247 1240 1236 1249 0
1247 1240 -1236 -1249 0
1247 -1240 1236 -1249 0
1247 -1240 -1236 -1249 0
-1247 1240 1236 -1249 0
-1247 1240 -1236 -1249 0
-1247 -1240 1236 -1249 0
-1247 -1240 -1236 -1249 0
1237 1244 1248 1249 -1250 0
1237 1244 1248 -1249 1250 0
1237 1244 -1248 1249 1250 0
1237 1244 -1248 -1249 1250 0
1237 -1244 1248 1249 1250 0
1237 -1244 1248 -1249 1250 0
1237 -1244 -1248 1249 1250 0
1237 -1244 -1248 -1249 1250 0
-1237 1244 1248 1249 1250 0
-1237 1244 1248 -1249 1250 0
-1237 1244 -1248 1249 1250 0
-1237 1244 -1248 -1249 1250 0
-1237 -1244 1248 1249 1250 0
-1237 -1244 1248 -1249 1250 0
-1237 -1244 -1248 1249 1250 0
-1237 -1244 -1248 -1249 1250 0
1250 1251 0
-1250 -1251 0
1251 1252 0
-1251 -1252 0
301 1253 0
-301 -1253 0
1253 1254 0
-1253 -1254 0
1254 1255 0
-1254 -1255 0
1255 1256 0
-1255 -1256 0
251 1257 0
-251 -1257 0
1257 1258 0
-1257 -1258 0
1258 1259 0
-1258 -1259 0
1259 1260 0
-1259 -1260 0
252 1261 0
-252 -1261 0
1261 1262 0
-1261 -1262 0
1262 1263 0
-1262 -1263 0
1263 1264 0
-1263 -1264 0
1256 1260 1264 1265 0
1256 1260 -1264 -1265 0
1256 -1260 1264 -1265 0
1256 -1260 -1264 -1265 0
-1256 1260 1264 -1265 0
-1256 1260 -1264 -1265 0
-1256 -1260 1264 -1265 0
-1256 -1260 -1264 -1265 0
251 1266 0
-251 -1266 0
1266 1267 0
-1266 -1267 0
1267 1268 0
-1267 -1268 0
252 1269 0
-252 -1269 0
1269 1270 0
-1269 -1270 0
1270 1271 0
-1270 -1271 0
1256 1268 1271 1272 0
1256 1268 -1271 -1272 0
1256 -1268 1271 -1272 0
1256 -1268 -1271 -1272 0
-1256 1268 1271 -1272 0
-1256 1268 -1271 -1272 0
-1256 -1268 1271 -1272 0
-1256 -1268 -1271 -1272 0
301 1273 0
-301 -1273 0
1273 1274 0
-1273 -1274 0
1274 1275 0
-1274 -1275 0
1275 1260 1271 1276 0
1275 1260 -1271 -1276 0
1275 -1260 1271 -1276 0
1275 -1260 -1271 -1276 0
-1275 1260 1271 -1276 0
-1275 1260 -1271 -1276 0
-1275 -1260 1271 -1276 0
-1275 -1260 -1271 -1276 0
1275 1268 1264 1277 0
1275 1268 -1264 -1277 0
1275 -1268 1264 -1277 0
1275 -1268 -1264 -1277 0
-1275 1268 1264 -1277 0
-1275 1268 -1264 -1277 0
-1275 -1268 1264 -1277 0
-1275 -1268 -1264 -1277 0
1265 1272 1276 1277 -1278 0
1265 1272 1276 -1277 1278 0
1265 1272 -1276 1277 1278 0
1265 1272 -1276 -1277 1278 0
1265 -1272 1276 1277 1278 0
1265 -1272 1276 -1277 1278 0
1265 -1272 -1276 1277 1278 0
1265 -1272 -1276 -1277 1278 0
-1265 1272 1276 1277 1278 0
-1265 1272 1276 -1277 1278 0
-1265 1272 -1276 1277 1278 0
-1265 1272 -1276 -1277 1278 0
-1265 -1272 1276 1277 1278 0
-1265 -1272 1276 -1277 1278 0
-1265 -1272 -1276 1277 1278 0
-1265 -1272 -1276 -1277 1278 0
1278 1279 0
-1278 -1279 0
1279 1280 0
-1279 -1280 0
1280 1281 0
-1280 -1281 0
1224 1252 1281 1282 0
1224 1252 -1281 -1282 0
1224 -1252 1281 -1282 0
1224 -1252 -1281 -1282 0
-1224 1252 1281 -1282 0
-1224 1252 -1281 -1282 0
-1224 -1252 1281 -1282 0
-1224 -1252 -1281 -1282 0
1250 1283 0
-1250 -1283 0
1283 1284 0
-1283 -1284 0
1284 1285 0
-1284 -1285 0
1278 1286 0
-1278 -1286 0
1286 1287 0
-1286 -1287 0
1224 1285 1287 1288 0
1224 1285 -1287 -1288 0
1224 -1285 1287 -1288 0
1224 -1285 -1287 -1288 0
-1224 1285 1287 -1288 0
-1224 1285 -1287 -1288 0
-1224 -1285 1287 -1288 0
-1224 -1285 -1287 -1288 0
1221 1289 0
-1221 -1289 0
1289 1290 0
-1289 -1290 0
1290 1252 1287 1291 0
1290 1252 -1287 -1291 0
1290 -1252 1287 -1291 0
1290 -1252 -1287 -1291 0
-1290 1252 1287 -1291 0
-1290 1252 -1287 -1291 0
-1290 -1252 1287 -1291 0
-1290 -1252 -1287 -1291 0
1290 1285 1281 1292 0
1290 1285 -1281 -1292 0
1290 -1285 1281 -1292 0
1290 -1285 -1281 -1292 0
-1290 1285 1281 -1292 0
-1290 1285 -1281 -1292 0
-1290 -1285 1281 -1292 0
-1290 -1285 -1281 -1292 0
1282 1288 1291 1292 -1293 0
1282 1288 1291 -1292 1293 0
1282 1288 -1291 1292 1293 0
1282 1288 -1291 -1292 1293 0
1282 -1288 1291 1292 1293 0
1282 -1288 1291 -1292 1293 0
1282 -1288 -1291 1292 1293 0
1282 -1288 -1291 -1292 1293 0
-1282 1288 1291 1292 1293 0
-1282 1288 1291 -1292 1293 0
-1282 1288 -1291 1292 1293 0
-1282 1288 -1291 -1292 1293 0
-1282 -1288 1291 1292 1293 0
-1282 -1288 1291 -1292 1293 0
-1282 -1288 -1291 1292 1293 0
-1282 -1288 -1291 -1292 1293 0
1195 1293 -1294 0
1195 -1293 1294 0
-1195 1293 1294 0
-1195 -1293 -1294 0
224 1295 0
-224 -1295 0
1295 1296 0
-1295 -1296 0
1296 1297 0
-1296 -1297 0
1297 1298 0
-1297 -1298 0
232 1299 0
-232 -1299 0
1299 1300 0
-1299 -1300 0
1300 1301 0
-1300 -1301 0
1301 1302 0
-1301 -1302 0
223 1303 0
-223 -1303 0
1303 1304 0
-1303 -1304 0
1304 1305 0
-1304 -1305 0
1305 1306 0
-1305 -1306 0
1298 1302 1306 1307 0
1298 1302 -1306 -1307 0
1298 -1302 1306 -1307 0
1298 -1302 -1306 -1307 0
-1298 1302 1306 -1307 0
-1298 1302 -1306 -1307 0
-1298 -1302 1306 -1307 0
-1298 -1302 -1306 -1307 0
899 1308 0
-899 -1308 0
1308 1309 0
-1308 -1309 0
630 1310 0
-630 -1310 0
1310 1311 0
-1310 -1311 0
1298 1309 1311 1312 0
1298 1309 -1311 -1312 0
1298 -1309 1311 -1312 0
1298 -1309 -1311 -1312 0
-1298 1309 1311 -1312 0
-1298 1309 -1311 -1312 0
-1298 -1309 1311 -1312 0
-1298 -1309 -1311 -1312 0
633 1313 0
-633 -1313 0
1313 1314 0
-1313 -1314 0
1314 1302 1311 1315 0
1314 1302 -1311 -1315 0
1314 -1302 1311 -1315 0
1314 -1302 -1311 -1315 0
-1314 1302 1311 -1315 0
-1314 1302 -1311 -1315 0
-1314 -1302 1311 -1315 0
-1314 -1302 -1311 -1315 0
1314 1309 1306 1316 0
1314 1309 -1306 -1316 0
1314 -1309 1306 -1316 0
1314 -1309 -1306 -1316 0
-1314 1309 1306 -1316 0
-1314 1309 -1306 -1316 0
-1314 -1309 1306 -1316 0
-1314 -1309 -1306 -1316 0
1307 1312 1315 1316 -1317 0
1307 1312 1315 -1316 1317 0
1307 1312 -1315 1316 1317 0
1307 1312 -1315 -1316 1317 0
1307 -1312 1315 1316 1317 0
1307 -1312 1315 -1316 1317 0
1307 -1312 -1315 1316 1317 0
1307 -1312 -1315 -1316 1317 0
-1307 1312 1315 1316 1317 0
-1307 1312 1315 -1316 1317 0
-1307 1312 -1315 1316 1317 0
-1307 1312 -1315 -1316 1317 0
-1307 -1312 1315 1316 1317 0
-1307 -1312 1315 -1316 1317 0
-1307 -1312 -1315 1316 1317 0
-1307 -1312 -1315 -1316 1317 0
1317 1318 0
-1317 -1318 0
1318 1319 0
-1318 -1319 0
1319 1320 0
-1319 -1320 0
241 1321 0
-241 -1321 0
1321 1322 0
-1321 -1322 0
1322 1323 0
-1322 -1323 0
1323 1324 0
-1323 -1324 0
225 1325 0
-225 -1325 0
1325 1326 0
-1325 -1326 0
1326 1327 0
-1326 -1327 0
1327 1328 0
-1327 -1328 0
240 1329 0
-240 -1329 0
1329 1330 0
-1329 -1330 0
1330 1331 0
-1330 -1331 0
1331 1332 0
-1331 -1332 0
1324 1328 1332 1333 0
1324 1328 -1332 -1333 0
1324 -1328 1332 -1333 0
1324 -1328 -1332 -1333 0
-1324 1328 1332 -1333 0
-1324 1328 -1332 -1333 0
-1324 -1328 1332 -1333 0
-1324 -1328 -1332 -1333 0
636 1334 0
-636 -1334 0
1334 1335 0
-1334 -1335 0
240 1336 0
-240 -1336 0
1336 1337 0
-1336 -1337 0
1337 1338 0
-1337 -1338 0
1324 1335 1338 1339 0
1324 1335 -1338 -1339 0
1324 -1335 1338 -1339 0
1324 -1335 -1338 -1339 0
-1324 1335 1338 -1339 0
-1324 1335 -1338 -1339 0
-1324 -1335 1338 -1339 0
-1324 -1335 -1338 -1339 0
241 1340 0
-241 -1340 0
1340 1341 0
-1340 -1341 0
1341 1342 0
-1341 -1342 0
1342 1328 1338 1343 0
1342 1328 -1338 -1343 0
1342 -1328 1338 -1343 0
1342 -1328 -1338 -1343 0
-1342 1328 1338 -1343 0
-1342 1328 -1338 -1343 0
-1342 -1328 1338 -1343 0
-1342 -1328 -1338 -1343 0
1342 1335 1332 1344 0
1342 1335 -1332 -1344 0
1342 -1335 1332 -1344 0
1342 -1335 -1332 -1344 0
-1342 1335 1332 -1344 0
-1342 1335 -1332 -1344 0
-1342 -1335 1332 -1344 0
-1342 -1335 -1332 -1344 0
1333 1339 1343 1344 -1345 0
1333 1339 1343 -1344 1345 0
1333 1339 -1343 1344 1345 0
1333 1339 -1343 -1344 1345 0
1333 -1339 1343 1344 1345 0
1333 -1339 1343 -1344 1345 0
1333 -1339 -1343 1344 1345 0
1333 -1339 -1343 -1344 1345 0
-1333 1339 1343 1344 1345 0
-1333 1339 1343 -1344 1345 0
-1333 1339 -1343 1344 1345 0
-1333 1339 -1343 -1344 1345 0
-1333 -1339 1343 1344 1345 0
-1333 -1339 1343 -1344 1345 0
-1333 -1339 -1343 1344 1345 0
-1333 -1339 -1343 -1344 1345 0
1345 1346 0
-1345 -1346 0
1346 1347 0
-1346 -1347 0
243 1348 0
-243 -1348 0
1348 1349 0
-1348 -1349 0
1349 1350 0
-1349 -1350 0
1350 1351 0
-1350 -1351 0
242 1352 0
-242 -1352 0
1352 1353 0
-1352 -1353 0
1353 1354 0
-1353 -1354 0
1354 1355 0
-1354 -1355 0
248 1356 0
-248 -1356 0
1356 1357 0
-1356 -1357 0
1357 1358 0
-1357 -1358 0
1358 1359 0
-1358 -1359 0
1351 1355 1359 1360 0
1351 1355 -1359 -1360 0
1351 -1355 1359 -1360 0
1351 -1355 -1359 -1360 0
-1351 1355 1359 -1360 0
-1351 1355 -1359 -1360 0
-1351 -1355 1359 -1360 0
-1351 -1355 -1359 -1360 0
242 1361 0
-242 -1361 0
1361 1362 0
-1361 -1362 0
1362 1363 0
-1362 -1363 0
248 1364 0
-248 -1364 0
1364 1365 0
-1364 -1365 0
1365 1366 0
-1365 -1366 0
1351 1363 1366 1367 0
1351 1363 -1366 -1367 0
1351 -1363 1366 -1367 0
1351 -1363 -1366 -1367 0
-1351 1363 1366 -1367 0
-1351 1363 -1366 -1367 0
-1351 -1363 1366 -1367 0
-1351 -1363 -1366 -1367 0
908 1368 0
-908 -1368 0
1368 1369 0
-1368 -1369 0
1369 1355 1366 1370 0
1369 1355 -1366 -1370 0
1369 -1355 1366 -1370 0
1369 -1355 -1366 -1370 0
-1369 1355 1366 -1370 0
-1369 1355 -1366 -1370 0
-1369 -1355 1366 -1370 0
-1369 -1355 -1366 -1370 0
1369 1363 1359 1371 0
1369 1363 -1359 -1371 0
1369 -1363 1359 -1371 0
1369 -1363 -1359 -1371 0
-1369 1363 1359 -1371 0
-1369 1363 -1359 -1371 0
-1369 -1363 1359 -1371 0
-1369 -1363 -1359 -1371 0
1360 1367 1370 1371 -1372 0
1360 1367 1370 -1371 1372 0
1360 1367 -1370 1371 1372 0
1360 1367 -1370 -1371 1372 0
1360 -1367 1370 1371 1372 0
1360 -1367 1370 -1371 1372 0
1360 -1367 -1370 1371 1372 0
1360 -1367 -1370 -1371 1372 0
-1360 1367 1370 1371 1372 0
-1360 1367 1370 -1371 1372 0
-1360 1367 -1370 1371 1372 0
-1360 1367 -1370 -1371 1372 0
-1360 -1367 1370 1371 1372 0
-1360 -1367 1370 -1371 1372 0
-1360 -1367 -1370 1371 1372 0
-1360 -1367 -1370 -1371 1372 0
1372 1373 0
-1372 -1373 0
1373 1374 0
-1373 -1374 0
1374 1375 0
-1374 -1375 0
1320 1347 1375 1376 0
1320 1347 -1375 -1376 0
1320 -1347 1375 -1376 0
1320 -1347 -1375 -1376 0
-1320 1347 1375 -1376 0
-1320 1347 -1375 -1376 0
-1320 -1347 1375 -1376 0
-1320 -1347 -1375 -1376 0
1345 1377 0
-1345 -1377 0
1377 1378 0
-1377 -1378 0
1378 1379 0
-1378 -1379 0
1372 1380 0
-1372 -1380 0
1380 1381 0
-1380 -1381 0
1320 1379 1381 1382 0
1320 1379 -1381 -1382 0
1320 -1379 1381 -1382 0
1320 -1379 -1381 -1382 0
-1320 1379 1381 -1382 0
-1320 1379 -1381 -1382 0
-1320 -1379 1381 -1382 0
-1320 -1379 -1381 -1382 0
1317 1383 0
-1317 -1383 0
1383 1384 0
-1383 -1384 0
1384 1347 1381 1385 0
1384 1347 -1381 -1385 0
1384 -1347 1381 -1385 0
1384 -1347 -1381 -1385 0
-1384 1347 1381 -1385 0
-1384 1347 -1381 -1385 0
-1384 -1347 1381 -1385 0
-1384 -1347 -1381 -1385 0
1384 1379 1375 1386 0
1384 1379 -1375 -1386 0
1384 -1379 1375 -1386 0
1384 -1379 -1375 -1386 0
-1384 1379 1375 -1386 0
-1384 1379 -1375 -1386 0
-1384 -1379 1375 -1386 0
-1384 -1379 -1375 -1386 0
1376 1382 1385 1386 -1387 0
1376 1382 1385 -1386 1387 0
1376 1382 -1385 1386 1387 0
1376 1382 -1385 -1386 1387 0
1376 -1382 1385 1386 1387 0
1376 -1382 1385 -1386 1387 0
1376 -1382 -1385 1386 1387 0
1376 -1382 -1385 -1386 1387 0
-1376 1382 1385 1386 1387 0
-1376 1382 1385 -1386 1387 0
-1376 1382 -1385 1386 1387 0
-1376 1382 -1385 -1386 1387 0
-1376 -1382 1385 1386 1387 0
-1376 -1382 1385 -1386 1387 0
-1376 -1382 -1385 1386 1387 0
-1376 -1382 -1385 -1386 1387 0
224 1388 0
-224 -1388 0
1388 1389 0
-1388 -1389 0
1389 1390 0
-1389 -1390 0
1390 1391 0
-1390 -1391 0
232 1392 0
-232 -1392 0
1392 1393 0
-1392 -1393 0
1393 1394 0
-1393 -1394 0
1394 1395 0
-1394 -1395 0
223 1396 0
-223 -1396 0
1396 1397 0
-1396 -1397 0
1397 1398 0
-1397 -1398 0
1398 1399 0
-1398 -1399 0
1391 1395 1399 1400 0
1391 1395 -1399 -1400 0
1391 -1395 1399 -1400 0
1391 -1395 -1399 -1400 0
-1391 1395 1399 -1400 0
-1391 1395 -1399 -1400 0
-1391 -1395 1399 -1400 0
-1391 -1395 -1399 -1400 0
900 1401 0
-900 -1401 0
1401 1402 0
-1401 -1402 0
631 1403 0
-631 -1403 0
1403 1404 0
-1403 -1404 0
1391 1402 1404 1405 0
1391 1402 -1404 -1405 0
1391 -1402 1404 -1405 0
1391 -1402 -1404 -1405 0
-1391 1402 1404 -1405 0
-1391 1402 -1404 -1405 0
-1391 -1402 1404 -1405 0
-1391 -1402 -1404 -1405 0
634 1406 0
-634 -1406 0
1406 1407 0
-1406 -1407 0
1407 1395 1404 1408 0
1407 1395 -1404 -1408 0
1407 -1395 1404 -1408 0
1407 -1395 -1404 -1408 0
-1407 1395 1404 -1408 0
-1407 1395 -1404 -1408 0
-1407 -1395 1404 -1408 0
-1407 -1395 -1404 -1408 0
1407 1402 1399 1409 0
1407 1402 -1399 -1409 0
1407 -1402 1399 -1409 0
1407 -1402 -1399 -1409 0
-1407 1402 1399 -1409 0
-1407 1402 -1399 -1409 0
-1407 -1402 1399 -1409 0
-1407 -1402 -1399 -1409 0
1400 1405 1408 1409 -1410 0
1400 1405 1408 -1409 1410 0
1400 1405 -1408 1409 1410 0
1400 1405 -1408 -1409 1410 0
1400 -1405 1408 1409 1410 0
1400 -1405 1408 -1409 1410 0
1400 -1405 -1408 1409 1410 0
1400 -1405 -1408 -1409 1410 0
-1400 1405 1408 1409 1410 0
-1400 1405 1408 -1409 1410 0
-1400 1405 -1408 1409 1410 0
-1400 1405 -1408 -1409 1410 0
-1400 -1405 1408 1409 1410 0
-1400 -1405 1408 -1409 1410 0
-1400 -1405 -1408 1409 1410 0
-1400 -1405 -1408 -1409 1410 0
1410 1411 0
-1410 -1411 0
1411 1412 0
-1411 -1412 0
1412 1413 0
-1412 -1413 0
241 1414 0
-241 -1414 0
1414 1415 0
-1414 -1415 0
1415 1416 0
-1415 -1416 0
1416 1417 0
-1416 -1417 0
225 1418 0
-225 -1418 0
1418 1419 0
-1418 -1419 0
1419 1420 0
-1419 -1420 0
1420 1421 0
-1420 -1421 0
240 1422 0
-240 -1422 0
1422 1423 0
-1422 -1423 0
1423 1424 0
-1423 -1424 0
1424 1425 0
-1424 -1425 0
1417 1421 1425 1426 0
1417 1421 -1425 -1426 0
1417 -1421 1425 -1426 0
1417 -1421 -1425 -1426 0
-1417 1421 1425 -1426 0
-1417 1421 -1425 -1426 0
-1417 -1421 1425 -1426 0
-1417 -1421 -1425 -1426 0
637 1427 0
-637 -1427 0
1427 1428 0
-1427 -1428 0
240 1429 0
-240 -1429 0
1429 1430 0
-1429 -1430 0
1430 1431 0
-1430 -1431 0
1417 1428 1431 1432 0
1417 1428 -1431 -1432 0
1417 -1428 1431 -1432 0
1417 -1428 -1431 -1432 0
-1417 1428 1431 -1432 0
-1417 1428 -1431 -1432 0
-1417 -1428 1431 -1432 0
-1417 -1428 -1431 -1432 0
241 1433 0
-241 -1433 0
1433 1434 0
-1433 -1434 0
1434 1435 0
-1434 -1435 0
1435 1421 1431 1436 0
1435 1421 -1431 -1436 0
1435 -1421 1431 -1436 0
1435 -1421 -1431 -1436 0
-1435 1421 1431 -1436 0
-1435 1421 -1431 -1436 0
-1435 -1421 1431 -1436 0
-1435 -1421 -1431 -1436 0
1435 1428 1425 1437 0
1435 1428 -1425 -1437 0
1435 -1428 1425 -1437 0
1435 -1428 -1425 -1437 0
-1435 1428 1425 -1437 0
-1435 1428 -1425 -1437 0
-1435 -1428 1425 -1437 0
-1435 -1428 -1425 -1437 0
1426 1432 1436 1437 -1438 0
1426 1432 1436 -1437 1438 0
1426 1432 -1436 1437 1438 0
1426 1432 -1436 -1437 1438 0
1426 -1432 1436 1437 1438 0
1426 -1432 1436 -1437 1438 0
1426 -1432 -1436 1437 1438 0
1426 -1432 -1436 -1437 1438 0
-1426 1432 1436 1437 1438 0
-1426 1432 1436 -1437 1438 0
-1426 1432 -1436 1437 1438 0
-1426 1432 -1436 -1437 1438 0
-1426 -1432 1436 1437 1438 0
-1426 -1432 1436 -1437 1438 0
-1426 -1432 -1436 1437 1438 0
-1426 -1432 -1436 -1437 1438 0
1438 1439 0
-1438 -1439 0
1439 1440 0
-1439 -1440 0
243 1441 0
-243 -1441 0
1441 1442 0
-1441 -1442 0
1442 1443 0
-1442 -1443 0
1443 1444 0
-1443 -1444 0
242 1445 0
-242 -1445 0
1445 1446 0
-1445 -1446 0
1446 1447 0
-1446 -1447 0
1447 1448 0
-1447 -1448 0
248 1449 0
-248 -1449 0
1449 1450 0
-1449 -1450 0
1450 1451 0
-1450 -1451 0
1451 1452 0
-1451 -1452 0
1444 1448 1452 1453 0
1444 1448 -1452 -1453 0
1444 -1448 1452 -1453 0
1444 -1448 -1452 -1453 0
-1444 1448 1452 -1453 0
-1444 1448 -1452 -1453 0
-1444 -1448 1452 -1453 0
-1444 -1448 -1452 -1453 0
242 1454 0
-242 -1454 0
1454 1455 0
-1454 -1455 0
1455 1456 0
-1455 -1456 0
248 1457 0
-248 -1457 0
1457 1458 0
-1457 -1458 0
1458 1459 0
-1458 -1459 0
1444 1456 1459 1460 0
1444 1456 -1459 -1460 0
1444 -1456 1459 -1460 0
1444 -1456 -1459 -1460 0
-1444 1456 1459 -1460 0
-1444 1456 -1459 -1460 0
-1444 -1456 1459 -1460 0
-1444 -1456 -1459 -1460 0
909 1461 0
-909 -1461 0
1461 1462 0
-1461 -1462 0
1462 1448 1459 1463 0
1462 1448 -1459 -1463 0
1462 -1448 1459 -1463 0
1462 -1448 -1459 -1463 0
-1462 1448 1459 -1463 0
-1462 1448 -1459 -1463 0
-1462 -1448 1459 -1463 0
-1462 -1448 -1459 -1463 0
1462 1456 1452 1464 0
1462 1456 -1452 -1464 0
1462 -1456 1452 -1464 0
1462 -1456 -1452 -1464 0
-1462 1456 1452 -1464 0
-1462 1456 -1452 -1464 0
-1462 -1456 1452 -1464 0
-1462 -1456 -1452 -1464 0
1453 1460 1463 1464 -1465 0
1453 1460 1463 -1464 1465 0
1453 1460 -1463 1464 1465 0
1453 1460 -1463 -1464 1465 0
1453 -1460 1463 1464 1465 0
1453 -1460 1463 -1464 1465 0
1453 -1460 -1463 1464 1465 0
1453 -1460 -1463 -1464 1465 0
-1453 1460 1463 1464 1465 0
-1453 1460 1463 -1464 1465 0
-1453 1460 -1463 1464 1465 0
-1453 1460 -1463 -1464 1465 0
-1453 -1460 1463 1464 1465 0
-1453 -1460 1463 -1464 1465 0
-1453 -1460 -1463 1464 1465 0
-1453 -1460 -1463 -1464 1465 0
1465 1466 0
-1465 -1466 0
1466 1467 0
-1466 -1467 0
1467 1468 0
-1467 -1468 0
1413 1440 1468 1469 0
1413 1440 -1468 -1469 0
1413 -1440 1468 -1469 0
1413 -1440 -1468 -1469 0
-1413 1440 1468 -1469 0
-1413 1440 -1468 -1469 0
-1413 -1440 1468 -1469 0
-1413 -1440 -1468 -1469 0
1438 1470 0
-1438 -1470 0
1470 1471 0
-1470 -1471 0
1471 1472 0
-1471 -1472 0
1465 1473 0
-1465 -1473 0
1473 1474 0
-1473 -1474 0
1413 1472 1474 1475 0
1413 1472 -1474 -1475 0
1413 -1472 1474 -1475 0
1413 -1472 -1474 -1475 0
-1413 1472 1474 -1475 0
-1413 1472 -1474 -1475 0
-1413 -1472 1474 -1475 0
-1413 -1472 -1474 -1475 0
1410 1476 0
-1410 -1476 0
1476 1477 0
-1476 -1477 0
1477 1440 1474 1478 0
1477 1440 -1474 -1478 0
1477 -1440 1474 -1478 0
1477 -1440 -1474 -1478 0
-1477 1440 1474 -1478 0
-1477 1440 -1474 -1478 0
-1477 -1440 1474 -1478 0
-1477 -1440 -1474 -1478 0
1477 1472 1468 1479 0
1477 1472 -1468 -1479 0
1477 -1472 1468 -1479 0
1477 -1472 -1468 -1479 0
-1477 1472 1468 -1479 0
-1477 1472 -1468 -1479 0
-1477 -1472 1468 -1479 0
-1477 -1472 -1468 -1479 0
1469 1475 1478 1479 -1480 0
1469 1475 1478 -1479 1480 0
1469 1475 -1478 1479 1480 0
1469 1475 -1478 -1479 1480 0
1469 -1475 1478 1479 1480 0
1469 -1475 1478 -1479 1480 0
1469 -1475 -1478 1479 1480 0
1469 -1475 -1478 -1479 1480 0
-1469 1475 1478 1479 1480 0
-1469 1475 1478 -1479 1480 0
-1469 1475 -1478 1479 1480 0
-1469 1475 -1478 -1479 1480 0
-1469 -1475 1478 1479 1480 0
-1469 -1475 1478 -1479 1480 0
-1469 -1475 -1478 1479 1480 0
-1469 -1475 -1478 -1479 1480 0
1387 1480 -1481 0
1387 -1480 1481 0
-1387 1480 1481 0
-1387 -1480 -1481 0
302 1482 0
-302 -1482 0
1482 1483 0
-1482 -1483 0
1483 1484 0
-1483 -1484 0
1484 1485 0
-1484 -1485 0
394 1486 0
-394 -1486 0
1486 1487 0
-1486 -1487 0
1487 1488 0
-1487 -1488 0
1488 1489 0
-1488 -1489 0
258 1490 0
-258 -1490 0
1490 1491 0
-1490 -1491 0
1491 1492 0
-1491 -1492 0
1492 1493 0
-1492 -1493 0
1485 1489 1493 1494 0
1485 1489 -1493 -1494 0
1485 -1489 1493 -1494 0
1485 -1489 -1493 -1494 0
-1485 1489 1493 -1494 0
-1485 1489 -1493 -1494 0
-1485 -1489 1493 -1494 0
-1485 -1489 -1493 -1494 0
394 1495 0
-394 -1495 0
1495 1496 0
-1495 -1496 0
1496 1497 0
-1496 -1497 0
258 1498 0
-258 -1498 0
1498 1499 0
-1498 -1499 0
1499 1500 0
-1499 -1500 0
1485 1497 1500 1501 0
1485 1497 -1500 -1501 0
1485 -1497 1500 -1501 0
1485 -1497 -1500 -1501 0
-1485 1497 1500 -1501 0
-1485 1497 -1500 -1501 0
-1485 -1497 1500 -1501 0
-1485 -1497 -1500 -1501 0
302 1502 0
-302 -1502 0
1502 1503 0
-1502 -1503 0
1503 1504 0
-1503 -1504 0
1504 1489 1500 1505 0
1504 1489 -1500 -1505 0
1504 -1489 1500 -1505 0
1504 -1489 -1500 -1505 0
-1504 1489 1500 -1505 0
-1504 1489 -1500 -1505 0
-1504 -1489 1500 -1505 0
-1504 -1489 -1500 -1505 0
1504 1497 1493 1506 0
1504 1497 -1493 -1506 0
1504 -1497 1493 -1506 0
1504 -1497 -1493 -1506 0
-1504 1497 1493 -1506 0
-1504 1497 -1493 -1506 0
-1504 -1497 1493 -1506 0
-1504 -1497 -1493 -1506 0
1494 1501 1505 1506 -1507 0
1494 1501 1505 -1506 1507 0
1494 1501 -1505 1506 1507 0
1494 1501 -1505 -1506 1507 0
1494 -1501 1505 1506 1507 0
1494 -1501 1505 -1506 1507 0
1494 -1501 -1505 1506 1507 0
1494 -1501 -1505 -1506 1507 0
-1494 1501 1505 1506 1507 0
-1494 1501 1505 -1506 1507 0
-1494 1501 -1505 1506 1507 0
-1494 1501 -1505 -1506 1507 0
-1494 -1501 1505 1506 1507 0
-1494 -1501 1505 -1506 1507 0
-1494 -1501 -1505 1506 1507 0
-1494 -1501 -1505 -1506 1507 0
1507 1508 0
-1507 -1508 0
1508 1509 0
-1508 -1509 0
1509 1510 0
-1509 -1510 0
230 1511 0
-230 -1511 0
1511 1512 0
-1511 -1512 0
1512 1513 0
-1512 -1513 0
1513 1514 0
-1513 -1514 0
222 1515 0
-222 -1515 0
1515 1516 0
-1515 -1516 0
1516 1517 0
-1516 -1517 0
1517 1518 0
-1517 -1518 0
231 1519 0
-231 -1519 0
1519 1520 0
-1519 -1520 0
1520 1521 0
-1520 -1521 0
1521 1522 0
-1521 -1522 0
1514 1518 1522 1523 0
1514 1518 -1522 -1523 0
1514 -1518 1522 -1523 0
1514 -1518 -1522 -1523 0
-1514 1518 1522 -1523 0
-1514 1518 -1522 -1523 0
-1514 -1518 1522 -1523 0
-1514 -1518 -1522 -1523 0
222 1524 0
-222 -1524 0
1524 1525 0
-1524 -1525 0
1525 1526 0
-1525 -1526 0
231 1527 0
-231 -1527 0
1527 1528 0
-1527 -1528 0
1528 1529 0
-1528 -1529 0
1514 1526 1529 1530 0
1514 1526 -1529 -1530 0
1514 -1526 1529 -1530 0
1514 -1526 -1529 -1530 0
-1514 1526 1529 -1530 0
-1514 1526 -1529 -1530 0
-1514 -1526 1529 -1530 0
-1514 -1526 -1529 -1530 0
230 1531 0
-230 -1531 0
1531 1532 0
-1531 -1532 0
1532 1533 0
-1532 -1533 0
1533 1518 1529 1534 0
1533 1518 -1529 -1534 0
1533 -1518 1529 -1534 0
1533 -1518 -1529 -1534 0
-1533 1518 1529 -1534 0
-1533 1518 -1529 -1534 0
-1533 -1518 1529 -1534 0
-1533 -1518 -1529 -1534 0
1533 1526 1522 1535 0
1533 1526 -1522 -1535 0
1533 -1526 1522 -1535 0
1533 -1526 -1522 -1535 0
-1533 1526 1522 -1535 0
-1533 1526 -1522 -1535 0
-1533 -1526 1522 -1535 0
-1533 -1526 -1522 -1535 0
1523 1530 1534 1535 -1536 0
1523 1530 1534 -1535 1536 0
1523 1530 -1534 1535 1536 0
1523 1530 -1534 -1535 1536 0
1523 -1530 1534 1535 1536 0
1523 -1530 1534 -1535 1536 0
1523 -1530 -1534 1535 1536 0
1523 -1530 -1534 -1535 1536 0
-1523 1530 1534 1535 1536 0
-1523 1530 1534 -1535 1536 0
-1523 1530 -1534 1535 1536 0
-1523 1530 -1534 -1535 1536 0
-1523 -1530 1534 1535 1536 0
-1523 -1530 1534 -1535 1536 0
-1523 -1530 -1534 1535 1536 0
-1523 -1530 -1534 -1535 1536 0
1536 1537 0
-1536 -1537 0
1537 1538 0
-1537 -1538 0
257 1539 0
-257 -1539 0
1539 1540 0
-1539 -1540 0
1540 1541 0
-1540 -1541 0
1541 1542 0
-1541 -1542 0
233 1543 0
-233 -1543 0
1543 1544 0
-1543 -1544 0
1544 1545 0
-1544 -1545 0
1545 1546 0
-1545 -1546 0
253 1547 0
-253 -1547 0
1547 1548 0
-1547 -1548 0
1548 1549 0
-1548 -1549 0
1549 1550 0
-1549 -1550 0
1542 1546 1550 1551 0
1542 1546 -1550 -1551 0
1542 -1546 1550 -1551 0
1542 -1546 -1550 -1551 0
-1542 1546 1550 -1551 0
-1542 1546 -1550 -1551 0
-1542 -1546 1550 -1551 0
-1542 -1546 -1550 -1551 0
233 1552 0
-233 -1552 0
1552 1553 0
-1552 -1553 0
1553 1554 0
-1553 -1554 0
253 1555 0
-253 -1555 0
1555 1556 0
-1555 -1556 0
1556 1557 0
-1556 -1557 0
1542 1554 1557 1558 0
1542 1554 -1557 -1558 0
1542 -1554 1557 -1558 0
1542 -1554 -1557 -1558 0
-1542 1554 1557 -1558 0
-1542 1554 -1557 -1558 0
-1542 -1554 1557 -1558 0
-1542 -1554 -1557 -1558 0
257 1559 0
-257 -1559 0
1559 1560 0
-1559 -1560 0
1560 1561 0
-1560 -1561 0
1561 1546 1557 1562 0
1561 1546 -1557 -1562 0
1561 -1546 1557 -1562 0
1561 -1546 -1557 -1562 0
-1561 1546 1557 -1562 0
-1561 1546 -1557 -1562 0
-1561 -1546 1557 -1562 0
-1561 -1546 -1557 -1562 0
1561 1554 1550 1563 0
1561 1554 -1550 -1563 0
1561 -1554 1550 -1563 0
1561 -1554 -1550 -1563 0
-1561 1554 1550 -1563 0
-1561 1554 -1550 -1563 0
-1561 -1554 1550 -1563 0
-1561 -1554 -1550 -1563 0
1551 1558 1562 1563 -1564 0
1551 1558 1562 -1563 1564 0
1551 1558 -1562 1563 1564 0
1551 1558 -1562 -1563 1564 0
1551 -1558 1562 1563 1564 0
1551 -1558 1562 -1563 1564 0
1551 -1558 -1562 1563 1564 0
1551 -1558 -1562 -1563 1564 0
-1551 1558 1562 1563 1564 0
-1551 1558 1562 -1563 1564 0
-1551 1558 -1562 1563 1564 0
-1551 1558 -1562 -1563 1564 0
-1551 -1558 1562 1563 1564 0
-1551 -1558 1562 -1563 1564 0
-1551 -1558 -1562 1563 1564 0
-1551 -1558 -1562 -1563 1564 0
1564 1565 0
-1564 -1565 0
1565 1566 0
-1565 -1566 0
1566 1567 0
-1566 -1567 0
1510 1538 1567 1568 0
1510 1538 -1567 -1568 0
1510 -1538 1567 -1568 0
1510 -1538 -1567 -1568 0
-1510 1538 1567 -1568 0
-1510 1538 -1567 -1568 0
-1510 -1538 1567 -1568 0
-1510 -1538 -1567 -1568 0
1536 1569 0
-1536 -1569 0
1569 1570 0
-1569 -1570 0
1570 1571 0
-1570 -1571 0
1564 1572 0
-1564 -1572 0
1572 1573 0
-1572 -1573 0
1510 1571 1573 1574 0
1510 1571 -1573 -1574 0
1510 -1571 1573 -1574 0
1510 -1571 -1573 -1574 0
-1510 1571 1573 -1574 0
-1510 1571 -1573 -1574 0
-1510 -1571 1573 -1574 0
-1510 -1571 -1573 -1574 0
1507 1575 0
-1507 -1575 0
1575 1576 0
-1575 -1576 0
1576 1538 1573 1577 0
1576 1538 -1573 -1577 0
1576 -1538 1573 -1577 0
1576 -1538 -1573 -1577 0
-1576 1538 1573 -1577 0
-1576 1538 -1573 -1577 0
-1576 -1538 1573 -1577 0
-1576 -1538 -1573 -1577 0
1576 1571 1567 1578 0
1576 1571 -1567 -1578 0
1576 -1571 1567 -1578 0
1576 -1571 -1567 -1578 0
-1576 1571 1567 -1578 0
-1576 1571 -1567 -1578 0
-1576 -1571 1567 -1578 0
-1576 -1571 -1567 -1578 0
1568 1574 1577 1578 -1579 0
1568 1574 1577 -1578 1579 0
1568 1574 -1577 1578 1579 0
1568 1574 -1577 -1578 1579 0
1568 -1574 1577 1578 1579 0
1568 -1574 1577 -1578 1579 0
1568 -1574 -1577 1578 1579 0
1568 -1574 -1577 -1578 1579 0
-1568 1574 1577 1578 1579 0
-1568 1574 1577 -1578 1579 0
-1568 1574 -1577 1578 1579 0
-1568 1574 -1577 -1578 1579 0
-1568 -1574 1577 1578 1579 0
-1568 -1574 1577 -1578 1579 0
-1568 -1574 -1577 1578 1579 0
-1568 -1574 -1577 -1578 1579 0
302 1580 0
-302 -1580 0
1580 1581 0
-1580 -1581 0
1581 1582 0
-1581 -1582 0
1582 1583 0
-1582 -1583 0
394 1584 0
-394 -1584 0
1584 1585 0
-1584 -1585 0
1585 1586 0
-1585 -1586 0
1586 1587 0
-1586 -1587 0
258 1588 0
-258 -1588 0
1588 1589 0
-1588 -1589 0
1589 1590 0
-1589 -1590 0
1590 1591 0
-1590 -1591 0
1583 1587 1591 1592 0
1583 1587 -1591 -1592 0
1583 -1587 1591 -1592 0
1583 -1587 -1591 -1592 0
-1583 1587 1591 -1592 0
-1583 1587 -1591 -1592 0
-1583 -1587 1591 -1592 0
-1583 -1587 -1591 -1592 0
394 1593 0
-394 -1593 0
1593 1594 0
-1593 -1594 0
1594 1595 0
-1594 -1595 0
258 1596 0
-258 -1596 0
1596 1597 0
-1596 -1597 0
1597 1598 0
-1597 -1598 0
1583 1595 1598 1599 0
1583 1595 -1598 -1599 0
1583 -1595 1598 -1599 0
1583 -1595 -1598 -1599 0
-1583 1595 1598 -1599 0
-1583 1595 -1598 -1599 0
-1583 -1595 1598 -1599 0
-1583 -1595 -1598 -1599 0
302 1600 0
-302 -1600 0
1600 1601 0
-1600 -1601 0
1601 1602 0
-1601 -1602 0
1602 1587 1598 1603 0
1602 1587 -1598 -1603 0
1602 -1587 1598 -1603 0
1602 -1587 -1598 -1603 0
-1602 1587 1598 -1603 0
-1602 1587 -1598 -1603 0
-1602 -1587 1598 -1603 0
-1602 -1587 -1598 -1603 0
1602 1595 1591 1604 0
1602 1595 -1591 -1604 0
1602 -1595 1591 -1604 0
1602 -1595 -1591 -1604 0
-1602 1595 1591 -1604 0
-1602 1595 -1591 -1604 0
-1602 -1595 1591 -1604 0
-1602 -1595 -1591 -1604 0
1592 1599 1603 1604 -1605 0
1592 1599 1603 -1604 1605 0
1592 1599 -1603 1604 1605 0
1592 1599 -1603 -1604 1605 0
1592 -1599 1603 1604 1605 0
1592 -1599 1603 -1604 1605 0
1592 -1599 -1603 1604 1605 0
1592 -1599 -1603 -1604 1605 0
-1592 1599 1603 1604 1605 0
-1592 1599 1603 -1604 1605 0
-1592 1599 -1603 1604 1605 0
-1592 1599 -1603 -1604 1605 0
-1592 -1599 1603 1604 1605 0
-1592 -1599 1603 -1604 1605 0
-1592 -1599 -1603 1604 1605 0
-1592 -1599 -1603 -1604 1605 0
1605 1606 0
-1605 -1606 0
1606 1607 0
-1606 -1607 0
1607 1608 0
-1607 -1608 0
230 1609 0
-230 -1609 0
1609 1610 0
-1609 -1610 0
1610 1611 0
-1610 -1611 0
1611 1612 0
-1611 -1612 0
222 1613 0
-222 -1613 0
1613 1614 0
-1613 -1614 0
1614 1615 0
-1614 -1615 0
1615 1616 0
-1615 -1616 0
231 1617 0
-231 -1617 0
1617 1618 0
-1617 -1618 0
1618 1619 0
-1618 -1619 0
1619 1620 0
-1619 -1620 0
1612 1616 1620 1621 0
1612 1616 -1620 -1621 0
1612 -1616 1620 -1621 0
1612 -1616 -1620 -1621 0
-1612 1616 1620 -1621 0
-1612 1616 -1620 -1621 0
-1612 -1616 1620 -1621 0
-1612 -1616 -1620 -1621 0
222 1622 0
-222 -1622 0
1622 1623 0
-1622 -1623 0
1623 1624 0
-1623 -1624 0
231 1625 0
-231 -1625 0
1625 1626 0
-1625 -1626 0
1626 1627 0
-1626 -1627 0
1612 1624 1627 1628 0
1612 1624 -1627 -1628 0
1612 -1624 1627 -1628 0
1612 -1624 -1627 -1628 0
-1612 1624 1627 -1628 0
-1612 1624 -1627 -1628 0
-1612 -1624 1627 -1628 0
-1612 -1624 -1627 -1628 0
230 1629 0
-230 -1629 0
1629 1630 0
-1629 -1630 0
1630 1631 0
-1630 -1631 0
1631 1616 1627 1632 0
1631 1616 -1627 -1632 0
1631 -1616 1627 -1632 0
1631 -1616 -1627 -1632 0
-1631 1616 1627 -1632 0
-1631 1616 -1627 -1632 0
-1631 -1616 1627 -1632 0
-1631 -1616 -1627 -1632 0
1631 1624 1620 1633 0
1631 1624 -1620 -1633 0
1631 -1624 1620 -1633 0
1631 -1624 -1620 -1633 0
-1631 1624 1620 -1633 0
-1631 1624 -1620 -1633 0
-1631 -1624 1620 -1633 0
-1631 -1624 -1620 -1633 0
1621 1628 1632 1633 -1634 0
1621 1628 1632 -1633 1634 0
1621 1628 -1632 1633 1634 0
1621 1628 -1632 -1633 1634 0
1621 -1628 1632 1633 1634 0
1621 -1628 1632 -1633 1634 0
1621 -1628 -1632 1633 1634 0
1621 -1628 -1632 -1633 1634 0
-1621 1628 1632 1633 1634 0
-1621 1628 1632 -1633 1634 0
-1621 1628 -1632 1633 1634 0
-1621 1628 -1632 -1633 1634 0
-1621 -1628 1632 1633 1634 0
-1621 -1628 1632 -1633 1634 0
-1621 -1628 -1632 1633 1634 0
-1621 -1628 -1632 -1633 1634 0
1634 1635 0
-1634 -1635 0
1635 1636 0
-1635 -1636 0
257 1637 0
-257 -1637 0
1637 1638 0
-1637 -1638 0
1638 1639 0
-1638 -1639 0
1639 1640 0
-1639 -1640 0
233 1641 0
-233 -1641 0
1641 1642 0
-1641 -1642 0
1642 1643 0
-1642 -1643 0
1643 1644 0
-1643 -1644 0
253 1645 0
-253 -1645 0
1645 1646 0
-1645 -1646 0
1646 1647 0
-1646 -1647 0
1647 1648 0
-1647 -1648 0
1640 1644 1648 1649 0
1640 1644 -1648 -1649 0
1640 -1644 1648 -1649 0
1640 -1644 -1648 -1649 0
-1640 1644 1648 -1649 0
-1640 1644 -1648 -1649 0
-1640 -1644 1648 -1649 0
-1640 -1644 -1648 -1649 0
233 1650 0
-233 -1650 0
1650 1651 0
-1650 -1651 0
1651 1652 0
-1651 -1652 0
253 1653 0
-253 -1653 0
1653 1654 0
-1653 -1654 0
1654 1655 0
-1654 -1655 0
1640 1652 1655 1656 0
1640 1652 -1655 -1656 0
1640 -1652 1655 -1656 0
1640 -1652 -1655 -1656 0
-1640 1652 1655 -1656 0
-1640 1652 -1655 -1656 0
-1640 -1652 1655 -1656 0
-1640 -1652 -1655 -1656 0
257 1657 0
-257 -1657 0
1657 1658 0
-1657 -1658 0
1658 1659 0
-1658 -1659 0
1659 1644 1655 1660 0
1659 1644 -1655 -1660 0
1659 -1644 1655 -1660 0
1659 -1644 -1655 -1660 0
-1659 1644 1655 -1660 0
-1659 1644 -1655 -1660 0
-1659 -1644 1655 -1660 0
-1659 -1644 -1655 -1660 0
1659 1652 1648 1661 0
1659 1652 -1648 -1661 0
1659 -1652 1648 -1661 0
1659 -1652 -1648 -1661 0
-1659 1652 1648 -1661 0
-1659 1652 -1648 -1661 0
-1659 -1652 1648 -1661 0
-1659 -1652 -1648 -1661 0
1649 1656 1660 1661 -1662 0
1649 1656 1660 -1661 1662 0
1649 1656 -1660 1661 1662 0
1649 1656 -1660 -1661 1662 0
1649 -1656 1660 1661 1662 0
1649 -1656 1660 -1661 1662 0
1649 -1656 -1660 1661 1662 0
1649 -1656 -1660 -1661 1662 0
-1649 1656 1660 1661 1662 0
-1649 1656 1660 -1661 1662 0
-1649 1656 -1660 1661 1662 0
-1649 1656 -1660 -1661 1662 0
-1649 -1656 1660 1661 1662 0
-1649 -1656 1660 -1661 1662 0
-1649 -1656 -1660 1661 1662 0
-1649 -1656 -1660 -1661 1662 0
1662 1663 0
-1662 -1663 0
1663 1664 0
-1663 -1664 0
1664 1665 0
-1664 -1665 0
1608 1636 1665 1666 0
1608 1636 -1665 -1666 0
1608 -1636 1665 -1666 0
1608 -1636 -1665 -1666 0
-1608 1636 1665 -1666 0
-1608 1636 -1665 -1666 0
-1608 -1636 1665 -1666 0
-1608 -1636 -1665 -1666 0
1634 1667 0
-1634 -1667 0
1667 1668 0
-1667 -1668 0
1668 1669 0
-1668 -1669 0
1662 1670 0
-1662 -1670 0
1670 1671 0
-1670 -1671 0
1608 1669 1671 1672 0
1608 1669 -1671 -1672 0
1608 -1669 1671 -1672 0
1608 -1669 -1671 -1672 0
-1608 1669 1671 -1672 0
-1608 1669 -1671 -1672 0
-1608 -1669 1671 -1672 0
-1608 -1669 -1671 -1672 0
1605 1673 0
-1605 -1673 0
1673 1674 0
-1673 -1674 0
1674 1636 1671 1675 0
1674 1636 -1671 -1675 0
1674 -1636 1671 -1675 0
1674 -1636 -1671 -1675 0
-1674 1636 1671 -1675 0
-1674 1636 -1671 -1675 0
-1674 -1636 1671 -1675 0
-1674 -1636 -1671 -1675 0
1674 1669 1665 1676 0
1674 1669 -1665 -1676 0
1674 -1669 1665 -1676 0
1674 -1669 -1665 -1676 0
-1674 1669 1665 -1676 0
-1674 1669 -1665 -1676 0
-1674 -1669 1665 -1676 0
-1674 -1669 -1665 -1676 0
1666 1672 1675 1676 -1677 0
1666 1672 1675 -1676 1677 0
1666 1672 -1675 1676 1677 0
1666 1672 -1675 -1676 1677 0
1666 -1672 1675 1676 1677 0
1666 -1672 1675 -1676 1677 0
1666 -1672 -1675 1676 1677 0
1666 -1672 -1675 -1676 1677 0
-1666 1672 1675 1676 1677 0
-1666 1672 1675 -1676 1677 0
-1666 1672 -1675 1676 1677 0
-1666 1672 -1675 -1676 1677 0
-1666 -1672 1675 1676 1677 0
-1666 -1672 1675 -1676 1677 0
-1666 -1672 -1675 1676 1677 0
-1666 -1672 -1675 -1676 1677 0
1579 1677 -1678 0
1579 -1677 1678 0
-1579 1677 1678 0
-1579 -1677 -1678 0
668 826 1679 0
668 -826 -1679 0
-668 826 -1679 0
-668 -826 -1679 0
1679 1680 0
-1679 -1680 0
823 703 1681 0
823 -703 -1681 0
-823 703 -1681 0
-823 -703 -1681 0
1681 1682 0
-1681 -1682 0
665 1680 1682 1683 0
665 1680 -1682 -1683 0
665 -1680 1682 -1683 0
665 -1680 -1682 -1683 0
-665 1680 1682 -1683 0
-665 1680 -1682 -1683 0
-665 -1680 1682 -1683 0
-665 -1680 -1682 -1683 0
699 702 704 1684 0
699 702 -704 -1684 0
699 -702 704 -1684 0
699 -702 -704 -1684 0
-699 702 704 -1684 0
-699 702 -704 -1684 0
-699 -702 704 -1684 0
-699 -702 -704 -1684 0
1683 1684 1685 0
1683 -1684 -1685 0
-1683 1684 -1685 0
-1683 -1684 -1685 0
1685 1686 0
-1685 -1686 0
376 1687 0
-376 -1687 0
1687 1688 0
-1687 -1688 0
1688 1689 0
-1688 -1689 0
1689 1690 0
-1689 -1690 0
1690 1691 0
-1690 -1691 0
1691 1692 0
-1691 -1692 0
376 1693 0
-376 -1693 0
1693 1694 0
-1693 -1694 0
1694 1695 0
-1694 -1695 0
1695 1696 0
-1695 -1696 0
1696 1697 0
-1696 -1697 0
1692 1697 -1698 0
1692 -1697 1698 0
-1692 1697 1698 0
-1692 -1697 1698 0
1698 1699 0
-1698 -1699 0
1699 1700 0
-1699 -1700 0
1686 1700 -1701 0
1686 -1700 1701 0
-1686 1700 1701 0
-1686 -1700 1701 0
1701 1702 0
-1701 -1702 0
1702 1703 0
-1702 -1703 0
1703 1704 0
-1703 -1704 0
1704 1705 0
-1704 -1705 0
740 880 1706 0
740 -880 -1706 0
-740 880 -1706 0
-740 -880 -1706 0
1706 1707 0
-1706 -1707 0
877 775 1708 0
877 -775 -1708 0
-877 775 -1708 0
-877 -775 -1708 0
1708 1709 0
-1708 -1709 0
737 1707 1709 1710 0
737 1707 -1709 -1710 0
737 -1707 1709 -1710 0
737 -1707 -1709 -1710 0
-737 1707 1709 -1710 0
-737 1707 -1709 -1710 0
-737 -1707 1709 -1710 0
-737 -1707 -1709 -1710 0
771 774 776 1711 0
771 774 -776 -1711 0
771 -774 776 -1711 0
771 -774 -776 -1711 0
-771 774 776 -1711 0
-771 774 -776 -1711 0
-771 -774 776 -1711 0
-771 -774 -776 -1711 0
1710 1711 1712 0
1710 -1711 -1712 0
-1710 1711 -1712 0
-1710 -1711 -1712 0
1712 1713 0
-1712 -1713 0
376 1714 0
-376 -1714 0
1714 1715 0
-1714 -1715 0
1715 1716 0
-1715 -1716 0
1716 1717 0
-1716 -1717 0
1717 1718 0
-1717 -1718 0
1718 1719 0
-1718 -1719 0
376 1720 0
-376 -1720 0
1720 1721 0
-1720 -1721 0
1721 1722 0
-1721 -1722 0
1722 1723 0
-1722 -1723 0
1723 1724 0
-1723 -1724 0
1719 1724 -1725 0
1719 -1724 1725 0
-1719 1724 1725 0
-1719 -1724 1725 0
1725 1726 0
-1725 -1726 0
1726 1727 0
-1726 -1727 0
1713 1727 -1728 0
1713 -1727 1728 0
-1713 1727 1728 0
-1713 -1727 1728 0
1728 1729 0
-1728 -1729 0
1729 1730 0
-1729 -1730 0
1730 1731 0
-1730 -1731 0
1731 1732 0
-1731 -1732 0
1705 1732 -1733 0
1705 -1732 1733 0
-1705 1732 1733 0
-1705 -1732 -1733 0
700 704 701 1734 0
700 704 -701 -1734 0
700 -704 701 -1734 0
700 -704 -701 -1734 0
-700 704 701 -1734 0
-700 704 -701 -1734 0
-700 -704 701 -1734 0
-700 -704 -701 -1734 0
664 1735 0
-664 -1735 0
671 694 1736 0
671 -694 -1736 0
-671 694 -1736 0
-671 -694 -1736 0
1736 1737 0
-1736 -1737 0
1735 1737 1682 1738 0
1735 1737 -1682 -1738 0
1735 -1737 1682 -1738 0
1735 -1737 -1682 -1738 0
-1735 1737 1682 -1738 0
-1735 1737 -1682 -1738 0
-1735 -1737 1682 -1738 0
-1735 -1737 -1682 -1738 0
1734 1738 1739 0
1734 -1738 -1739 0
-1734 1738 -1739 0
-1734 -1738 -1739 0
1739 1740 0
-1739 -1740 0
356 1741 0
-356 -1741 0
1741 1742 0
-1741 -1742 0
1742 1743 0
-1742 -1743 0
1743 1744 0
-1743 -1744 0
1744 1745 0
-1744 -1745 0
1689 1742 1746 0
1689 -1742 -1746 0
-1689 1742 -1746 0
-1689 -1742 -1746 0
356 1747 0
-356 -1747 0
1747 1748 0
-1747 -1748 0
1748 1749 0
-1748 -1749 0
1694 1749 1750 0
1694 -1749 -1750 0
-1694 1749 -1750 0
-1694 -1749 -1750 0
1745 1746 1750 -1751 0
1745 1746 -1750 1751 0
1745 -1746 1750 1751 0
1745 -1746 -1750 1751 0
-1745 1746 1750 1751 0
-1745 1746 -1750 1751 0
-1745 -1746 1750 1751 0
-1745 -1746 -1750 1751 0
1751 1752 0
-1751 -1752 0
1752 1753 0
-1752 -1753 0
1740 1753 -1754 0
1740 -1753 1754 0
-1740 1753 1754 0
-1740 -1753 1754 0
1754 1755 0
-1754 -1755 0
1755 1756 0
-1755 -1756 0
1756 1757 0
-1756 -1757 0
1757 1758 0
-1757 -1758 0
772 776 773 1759 0
772 776 -773 -1759 0
772 -776 773 -1759 0
772 -776 -773 -1759 0
-772 776 773 -1759 0
-772 776 -773 -1759 0
-772 -776 773 -1759 0
-772 -776 -773 -1759 0
736 1760 0
-736 -1760 0
743 766 1761 0
743 -766 -1761 0
-743 766 -1761 0
-743 -766 -1761 0
1761 1762 0
-1761 -1762 0
1760 1762 1709 1763 0
1760 1762 -1709 -1763 0
1760 -1762 1709 -1763 0
1760 -1762 -1709 -1763 0
-1760 1762 1709 -1763 0
-1760 1762 -1709 -1763 0
-1760 -1762 1709 -1763 0
-1760 -1762 -1709 -1763 0
1759 1763 1764 0
1759 -1763 -1764 0
-1759 1763 -1764 0
-1759 -1763 -1764 0
1764 1765 0
-1764 -1765 0
356 1766 0
-356 -1766 0
1766 1767 0
-1766 -1767 0
1767 1768 0
-1767 -1768 0
1768 1769 0
-1768 -1769 0
1769 1770 0
-1769 -1770 0
1716 1767 1771 0
1716 -1767 -1771 0
-1716 1767 -1771 0
-1716 -1767 -1771 0
356 1772 0
-356 -1772 0
1772 1773 0
-1772 -1773 0
1773 1774 0
-1773 -1774 0
1721 1774 1775 0
1721 -1774 -1775 0
-1721 1774 -1775 0
-1721 -1774 -1775 0
1770 1771 1775 -1776 0
1770 1771 -1775 1776 0
1770 -1771 1775 1776 0
1770 -1771 -1775 1776 0
-1770 1771 1775 1776 0
-1770 1771 -1775 1776 0
-1770 -1771 1775 1776 0
-1770 -1771 -1775 1776 0
1776 1777 0
-1776 -1777 0
1777 1778 0
-1777 -1778 0
1765 1778 -1779 0
1765 -1778 1779 0
-1765 1778 1779 0
-1765 -1778 1779 0
1779 1780 0
-1779 -1780 0
1780 1781 0
-1780 -1781 0
1781 1782 0
-1781 -1782 0
1782 1783 0
-1782 -1783 0
1758 1783 -1784 0
1758 -1783 1784 0
-1758 1783 1784 0
-1758 -1783 -1784 0
330 1785 0
-330 -1785 0
1785 1786 0
-1785 -1786 0
1786 1491 1787 0
1786 -1491 -1787 0
-1786 1491 -1787 0
-1786 -1491 -1787 0
367 1788 0
-367 -1788 0
1788 1789 0
-1788 -1789 0
1742 1694 1790 0
1742 -1694 -1790 0
-1742 1694 -1790 0
-1742 -1694 -1790 0
1789 1790 1791 0
1789 -1790 -1791 0
-1789 1790 -1791 0
-1789 -1790 -1791 0
367 1792 0
-367 -1792 0
1792 1793 0
-1792 -1793 0
1793 1794 0
-1793 -1794 0
1790 1795 0
-1790 -1795 0
1794 1795 1796 0
1794 -1795 -1796 0
-1794 1795 -1796 0
-1794 -1795 -1796 0
1791 1796 -1797 0
1791 -1796 1797 0
-1791 1796 1797 0
-1791 -1796 1797 0
1797 1798 0
-1797 -1798 0
1798 1799 0
-1798 -1799 0
1787 1799 -1800 0
1787 -1799 1800 0
-1787 1799 1800 0
-1787 -1799 1800 0
1800 1801 0
-1800 -1801 0
1801 1802 0
-1801 -1802 0
1802 1803 0
-1802 -1803 0
1803 1804 0
-1803 -1804 0
330 1805 0
-330 -1805 0
1805 1806 0
-1805 -1806 0
1806 1589 1807 0
1806 -1589 -1807 0
-1806 1589 -1807 0
-1806 -1589 -1807 0
367 1808 0
-367 -1808 0
1808 1809 0
-1808 -1809 0
1767 1721 1810 0
1767 -1721 -1810 0
-1767 1721 -1810 0
-1767 -1721 -1810 0
1809 1810 1811 0
1809 -1810 -1811 0
-1809 1810 -1811 0
-1809 -1810 -1811 0
367 1812 0
-367 -1812 0
1812 1813 0
-1812 -1813 0
1813 1814 0
-1813 -1814 0
1810 1815 0
-1810 -1815 0
1814 1815 1816 0
1814 -1815 -1816 0
-1814 1815 -1816 0
-1814 -1815 -1816 0
1811 1816 -1817 0
1811 -1816 1817 0
-1811 1816 1817 0
-1811 -1816 1817 0
1817 1818 0
-1817 -1818 0
1818 1819 0
-1818 -1819 0
1807 1819 -1820 0
1807 -1819 1820 0
-1807 1819 1820 0
-1807 -1819 1820 0
1820 1821 0
-1820 -1821 0
1821 1822 0
-1821 -1822 0
1822 1823 0
-1822 -1823 0
1823 1824 0
-1823 -1824 0
1804 1824 -1825 0
1804 -1824 1825 0
-1804 1824 1825 0
-1804 -1824 -1825 0
380 1826 0
-380 -1826 0
387 1827 0
-387 -1827 0
377 1828 0
-377 -1828 0
1826 1827 1828 1829 0
1826 1827 -1828 -1829 0
1826 -1827 1828 -1829 0
1826 -1827 -1828 -1829 0
-1826 1827 1828 -1829 0
-1826 1827 -1828 -1829 0
-1826 -1827 1828 -1829 0
-1826 -1827 -1828 -1829 0
1829 1830 0
-1829 -1830 0
1830 1831 0
-1830 -1831 0
1831 1832 0
-1831 -1832 0
1832 1833 0
-1832 -1833 0
1833 1834 0
-1833 -1834 0
1834 1835 0
-1834 -1835 0
1835 1836 0
-1835 -1836 0
380 1837 0
-380 -1837 0
387 1838 0
-387 -1838 0
377 1839 0
-377 -1839 0
1837 1838 1839 1840 0
1837 1838 -1839 -1840 0
1837 -1838 1839 -1840 0
1837 -1838 -1839 -1840 0
-1837 1838 1839 -1840 0
-1837 1838 -1839 -1840 0
-1837 -1838 1839 -1840 0
-1837 -1838 -1839 -1840 0
1840 1841 0
-1840 -1841 0
1841 1842 0
-1841 -1842 0
1842 1843 0
-1842 -1843 0
1843 1844 0
-1843 -1844 0
1844 1845 0
-1844 -1845 0
1845 1846 0
-1845 -1846 0
1846 1847 0
-1846 -1847 0
1836 1847 -1848 0
1836 -1847 1848 0
-1836 1847 1848 0
-1836 -1847 -1848 0
331 1849 0
-331 -1849 0
1849 1850 0
-1849 -1850 0
1850 1851 0
-1850 -1851 0
1851 1852 0
-1851 -1852 0
1852 1853 0
-1852 -1853 0
1853 1854 0
-1853 -1854 0
1854 1855 0
-1854 -1855 0
331 1856 0
-331 -1856 0
1856 1857 0
-1856 -1857 0
1857 1858 0
-1857 -1858 0
1858 1859 0
-1858 -1859 0
1859 1860 0
-1859 -1860 0
1860 1861 0
-1860 -1861 0
1861 1862 0
-1861 -1862 0
1855 1862 -1863 0
1855 -1862 1863 0
-1855 1862 1863 0
-1855 -1862 -1863 0
332 1864 0
-332 -1864 0
331 1865 0
-331 -1865 0
1865 1866 0
-1865 -1866 0
1866 1867 0
-1866 -1867 0
1864 1867 -1868 0
1864 -1867 1868 0
-1864 1867 1868 0
-1864 -1867 1868 0
1868 1869 0
-1868 -1869 0
1869 1870 0
-1869 -1870 0
1870 1871 0
-1870 -1871 0
1871 1872 0
-1871 -1872 0
332 1873 0
-332 -1873 0
331 1874 0
-331 -1874 0
1874 1875 0
-1874 -1875 0
1875 1876 0
-1875 -1876 0
1873 1876 -1877 0
1873 -1876 1877 0
-1873 1876 1877 0
-1873 -1876 1877 0
1877 1878 0
-1877 -1878 0
1878 1879 0
-1878 -1879 0
1879 1880 0
-1879 -1880 0
1880 1881 0
-1880 -1881 0
1872 1881 -1882 0
1872 -1881 1882 0
-1872 1881 1882 0
-1872 -1881 -1882 0
319 1883 0
-319 -1883 0
386 1884 0
-386 -1884 0
385 1885 0
-385 -1885 0
1883 1884 1885 1886 0
1883 1884 -1885 -1886 0
1883 -1884 1885 -1886 0
1883 -1884 -1885 -1886 0
-1883 1884 1885 -1886 0
-1883 1884 -1885 -1886 0
-1883 -1884 1885 -1886 0
-1883 -1884 -1885 -1886 0
1886 1887 0
-1886 -1887 0
648 1887 1888 0
648 -1887 -1888 0
-648 1887 -1888 0
-648 -1887 -1888 0
361 1889 0
-361 -1889 0
364 1890 0
-364 -1890 0
370 1891 0
-370 -1891 0
353 1892 0
-353 -1892 0
371 1893 0
-371 -1893 0
352 1894 0
-352 -1894 0
1892 1893 1894 -1895 0
1892 1893 -1894 1895 0
1892 -1893 1894 1895 0
1892 -1893 -1894 1895 0
-1892 1893 1894 1895 0
-1892 1893 -1894 1895 0
-1892 -1893 1894 1895 0
-1892 -1893 -1894 1895 0
1889 1890 1891 1895 -1896 0
1889 1890 1891 -1895 1896 0
1889 1890 -1891 1895 1896 0
1889 1890 -1891 -1895 1896 0
1889 -1890 1891 1895 1896 0
1889 -1890 1891 -1895 1896 0
1889 -1890 -1891 1895 1896 0
1889 -1890 -1891 -1895 1896 0
-1889 1890 1891 1895 1896 0
-1889 1890 1891 -1895 1896 0
-1889 1890 -1891 1895 1896 0
-1889 1890 -1891 -1895 1896 0
-1889 -1890 1891 1895 1896 0
-1889 -1890 1891 -1895 1896 0
-1889 -1890 -1891 1895 1896 0
-1889 -1890 -1891 -1895 1896 0
1896 1897 0
-1896 -1897 0
1897 1898 0
-1897 -1898 0
1888 1898 -1899 0
1888 -1898 1899 0
-1888 1898 1899 0
-1888 -1898 1899 0
1899 1900 0
-1899 -1900 0
1900 1901 0
-1900 -1901 0
1901 1902 0
-1901 -1902 0
319 1903 0
-319 -1903 0
386 1904 0
-386 -1904 0
385 1905 0
-385 -1905 0
1903 1904 1905 1906 0
1903 1904 -1905 -1906 0
1903 -1904 1905 -1906 0
1903 -1904 -1905 -1906 0
-1903 1904 1905 -1906 0
-1903 1904 -1905 -1906 0
-1903 -1904 1905 -1906 0
-1903 -1904 -1905 -1906 0
1906 1907 0
-1906 -1907 0
720 1907 1908 0
720 -1907 -1908 0
-720 1907 -1908 0
-720 -1907 -1908 0
361 1909 0
-361 -1909 0
364 1910 0
-364 -1910 0
370 1911 0
-370 -1911 0
353 1912 0
-353 -1912 0
371 1913 0
-371 -1913 0
352 1914 0
-352 -1914 0
1912 1913 1914 -1915 0
1912 1913 -1914 1915 0
1912 -1913 1914 1915 0
1912 -1913 -1914 1915 0
-1912 1913 1914 1915 0
-1912 1913 -1914 1915 0
-1912 -1913 1914 1915 0
-1912 -1913 -1914 1915 0
1909 1910 1911 1915 -1916 0
1909 1910 1911 -1915 1916 0
1909 1910 -1911 1915 1916 0
1909 1910 -1911 -1915 1916 0
1909 -1910 1911 1915 1916 0
1909 -1910 1911 -1915 1916 0
1909 -1910 -1911 1915 1916 0
1909 -1910 -1911 -1915 1916 0
-1909 1910 1911 1915 1916 0
-1909 1910 1911 -1915 1916 0
-1909 1910 -1911 1915 1916 0
-1909 1910 -1911 -1915 1916 0
-1909 -1910 1911 1915 1916 0
-1909 -1910 1911 -1915 1916 0
-1909 -1910 -1911 1915 1916 0
-1909 -1910 -1911 -1915 1916 0
1916 1917 0
-1916 -1917 0
1917 1918 0
-1917 -1918 0
1908 1918 -1919 0
1908 -1918 1919 0
-1908 1918 1919 0
-1908 -1918 1919 0
1919 1920 0
-1919 -1920 0
1920 1921 0
-1920 -1921 0
1921 1922 0
-1921 -1922 0
1902 1922 -1923 0
1902 -1922 1923 0
-1902 1922 1923 0
-1902 -1922 -1923 0
1884 1885 1883 1924 0
1884 1885 -1883 -1924 0
1884 -1885 1883 -1924 0
1884 -1885 -1883 -1924 0
-1884 1885 1883 -1924 0
-1884 1885 -1883 -1924 0
-1884 -1885 1883 -1924 0
-1884 -1885 -1883 -1924 0
1531 1527 1925 0
1531 -1527 -1925 0
-1531 1527 -1925 0
-1531 -1527 -1925 0
1925 1926 0
-1925 -1926 0
1548 1552 1927 0
1548 -1552 -1927 0
-1548 1552 -1927 0
-1548 -1552 -1927 0
1927 1928 0
-1927 -1928 0
1926 1928 1929 0
1926 -1928 -1929 0
-1926 1928 -1929 0
-1926 -1928 -1929 0
1929 1930 0
-1929 -1930 0
1786 1931 0
-1786 -1931 0
1931 1932 0
-1931 -1932 0
1930 1932 1933 0
1930 -1932 -1933 0
-1930 1932 -1933 0
-1930 -1932 -1933 0
1785 1934 0
-1785 -1934 0
1934 1935 0
-1934 -1935 0
1935 1936 0
-1935 -1936 0
1555 1544 1937 0
1555 -1544 -1937 0
-1555 1544 -1937 0
-1555 -1544 -1937 0
1937 1938 0
-1937 -1938 0
1531 1520 1939 0
1531 -1520 -1939 0
-1531 1520 -1939 0
-1531 -1520 -1939 0
1939 1940 0
-1939 -1940 0
1938 1940 1941 0
1938 -1940 -1941 0
-1938 1940 -1941 0
-1938 -1940 -1941 0
1941 1942 0
-1941 -1942 0
1936 1942 1943 0
1936 -1942 -1943 0
-1936 1942 -1943 0
-1936 -1942 -1943 0
1938 1926 1944 0
1938 -1926 -1944 0
-1938 1926 -1944 0
-1938 -1926 -1944 0
1944 1945 0
-1944 -1945 0
1934 1946 0
-1934 -1946 0
1946 1947 0
-1946 -1947 0
1945 1947 1948 0
1945 -1947 -1948 0
-1945 1947 -1948 0
-1945 -1947 -1948 0
1527 1512 1949 0
1527 -1512 -1949 0
-1527 1512 -1949 0
-1527 -1512 -1949 0
1949 1950 0
-1949 -1950 0
1555 1552 1951 0
1555 -1552 -1951 0
-1555 1552 -1951 0
-1555 -1552 -1951 0
1951 1952 0
-1951 -1952 0
1950 1952 1953 0
1950 -1952 -1953 0
-1950 1952 -1953 0
-1950 -1952 -1953 0
1953 1954 0
-1953 -1954 0
1934 1955 0
-1934 -1955 0
1955 1956 0
-1955 -1956 0
1954 1956 1957 0
1954 -1956 -1957 0
-1954 1956 -1957 0
-1954 -1956 -1957 0
1934 1958 0
-1934 -1958 0
1958 1959 0
-1958 -1959 0
1512 1520 1960 0
1512 -1520 -1960 0
-1512 1520 -1960 0
-1512 -1520 -1960 0
1960 1961 0
-1960 -1961 0
1961 1952 1962 0
1961 -1952 -1962 0
-1961 1952 -1962 0
-1961 -1952 -1962 0
1962 1963 0
-1962 -1963 0
1959 1963 1964 0
1959 -1963 -1964 0
-1959 1963 -1964 0
-1959 -1963 -1964 0
1934 1965 0
-1934 -1965 0
1965 1966 0
-1965 -1966 0
1940 1952 1967 0
1940 -1952 -1967 0
-1940 1952 -1967 0
-1940 -1952 -1967 0
1967 1968 0
-1967 -1968 0
1966 1968 1969 0
1966 -1968 -1969 0
-1966 1968 -1969 0
-1966 -1968 -1969 0
1957 1964 1969 -1970 0
1957 1964 -1969 1970 0
1957 -1964 1969 1970 0
1957 -1964 -1969 1970 0
-1957 1964 1969 1970 0
-1957 1964 -1969 1970 0
-1957 -1964 1969 1970 0
-1957 -1964 -1969 1970 0
1933 1943 1948 1970 -1971 0
1933 1943 1948 -1970 1971 0
1933 1943 -1948 1970 1971 0
1933 1943 -1948 -1970 1971 0
1933 -1943 1948 1970 1971 0
1933 -1943 1948 -1970 1971 0
1933 -1943 -1948 1970 1971 0
1933 -1943 -1948 -1970 1971 0
-1933 1943 1948 1970 1971 0
-1933 1943 1948 -1970 1971 0
-1933 1943 -1948 1970 1971 0
-1933 1943 -1948 -1970 1971 0
-1933 -1943 1948 1970 1971 0
-1933 -1943 1948 -1970 1971 0
-1933 -1943 -1948 1970 1971 0
-1933 -1943 -1948 -1970 1971 0
1971 1972 0
-1971 -1972 0
1972 1973 0
-1972 -1973 0
1924 1973 -1974 0
1924 -1973 1974 0
-1924 1973 1974 0
-1924 -1973 1974 0
1974 1975 0
-1974 -1975 0
1975 1976 0
-1975 -1976 0
1976 1977 0
-1976 -1977 0
1904 1905 1903 1978 0
1904 1905 -1903 -1978 0
1904 -1905 1903 -1978 0
1904 -1905 -1903 -1978 0
-1904 1905 1903 -1978 0
-1904 1905 -1903 -1978 0
-1904 -1905 1903 -1978 0
-1904 -1905 -1903 -1978 0
1629 1625 1979 0
1629 -1625 -1979 0
-1629 1625 -1979 0
-1629 -1625 -1979 0
1979 1980 0
-1979 -1980 0
1646 1650 1981 0
1646 -1650 -1981 0
-1646 1650 -1981 0
-1646 -1650 -1981 0
1981 1982 0
-1981 -1982 0
1980 1982 1983 0
1980 -1982 -1983 0
-1980 1982 -1983 0
-1980 -1982 -1983 0
1983 1984 0
-1983 -1984 0
1806 1985 0
-1806 -1985 0
1985 1986 0
-1985 -1986 0
1984 1986 1987 0
1984 -1986 -1987 0
-1984 1986 -1987 0
-1984 -1986 -1987 0
1805 1988 0
-1805 -1988 0
1988 1989 0
-1988 -1989 0
1989 1990 0
-1989 -1990 0
1653 1642 1991 0
1653 -1642 -1991 0
-1653 1642 -1991 0
-1653 -1642 -1991 0
1991 1992 0
-1991 -1992 0
1629 1618 1993 0
1629 -1618 -1993 0
-1629 1618 -1993 0
-1629 -1618 -1993 0
1993 1994 0
-1993 -1994 0
1992 1994 1995 0
1992 -1994 -1995 0
-1992 1994 -1995 0
-1992 -1994 -1995 0
1995 1996 0
-1995 -1996 0
1990 1996 1997 0
1990 -1996 -1997 0
-1990 1996 -1997 0
-1990 -1996 -1997 0
1992 1980 1998 0
1992 -1980 -1998 0
-1992 1980 -1998 0
-1992 -1980 -1998 0
1998 1999 0
-1998 -1999 0
1988 2000 0
-1988 -2000 0
2000 2001 0
-2000 -2001 0
1999 2001 2002 0
1999 -2001 -2002 0
-1999 2001 -2002 0
-1999 -2001 -2002 0
1625 1610 2003 0
1625 -1610 -2003 0
-1625 1610 -2003 0
-1625 -1610 -2003 0
2003 2004 0
-2003 -2004 0
1653 1650 2005 0
1653 -1650 -2005 0
-1653 1650 -2005 0
-1653 -1650 -2005 0
2005 2006 0
-2005 -2006 0
2004 2006 2007 0
2004 -2006 -2007 0
-2004 2006 -2007 0
-2004 -2006 -2007 0
2007 2008 0
-2007 -2008 0
1988 2009 0
-1988 -2009 0
2009 2010 0
-2009 -2010 0
2008 2010 2011 0
2008 -2010 -2011 0
-2008 2010 -2011 0
-2008 -2010 -2011 0
1988 2012 0
-1988 -2012 0
2012 2013 0
-2012 -2013 0
1610 1618 2014 0
1610 -1618 -2014 0
-1610 1618 -2014 0
-1610 -1618 -2014 0
2014 2015 0
-2014 -2015 0
2015 2006 2016 0
2015 -2006 -2016 0
-2015 2006 -2016 0
-2015 -2006 -2016 0
2016 2017 0
-2016 -2017 0
2013 2017 2018 0
2013 -2017 -2018 0
-2013 2017 -2018 0
-2013 -2017 -2018 0
1988 2019 0
-1988 -2019 0
2019 2020 0
-2019 -2020 0
1994 2006 2021 0
1994 -2006 -2021 0
-1994 2006 -2021 0
-1994 -2006 -2021 0
2021 2022 0
-2021 -2022 0
2020 2022 2023 0
2020 -2022 -2023 0
-2020 2022 -2023 0
-2020 -2022 -2023 0
2011 2018 2023 -2024 0
2011 2018 -2023 2024 0
2011 -2018 2023 2024 0
2011 -2018 -2023 2024 0
-2011 2018 2023 2024 0
-2011 2018 -2023 2024 0
-2011 -2018 2023 2024 0
-2011 -2018 -2023 2024 0
1987 1997 2002 2024 -2025 0
1987 1997 2002 -2024 2025 0
1987 1997 -2002 2024 2025 0
1987 1997 -2002 -2024 2025 0
1987 -1997 2002 2024 2025 0
1987 -1997 2002 -2024 2025 0
1987 -1997 -2002 2024 2025 0
1987 -1997 -2002 -2024 2025 0
-1987 1997 2002 2024 2025 0
-1987 1997 2002 -2024 2025 0
-1987 1997 -2002 2024 2025 0
-1987 1997 -2002 -2024 2025 0
-1987 -1997 2002 2024 2025 0
-1987 -1997 2002 -2024 2025 0
-1987 -1997 -2002 2024 2025 0
-1987 -1997 -2002 -2024 2025 0
2025 2026 0
-2025 -2026 0
2026 2027 0
-2026 -2027 0
1978 2027 -2028 0
1978 -2027 2028 0
-1978 2027 2028 0
-1978 -2027 2028 0
2028 2029 0
-2028 -2029 0
2029 2030 0
-2029 -2030 0
2030 2031 0
-2030 -2031 0
1977 2031 -2032 0
1977 -2031 2032 0
-1977 2031 2032 0
-1977 -2031 -2032 0
336 2033 0
-336 -2033 0
2033 2034 0
-2033 -2034 0
2034 2035 0
-2034 -2035 0
340 2036 0
-340 -2036 0
2036 2037 0
-2036 -2037 0
2037 2038 0
-2037 -2038 0
314 2039 0
-314 -2039 0
2039 2040 0
-2039 -2040 0
2040 2041 0
-2040 -2041 0
2035 2038 2041 2042 0
2035 2038 -2041 -2042 0
2035 -2038 2041 -2042 0
2035 -2038 -2041 -2042 0
-2035 2038 2041 -2042 0
-2035 2038 -2041 -2042 0
-2035 -2038 2041 -2042 0
-2035 -2038 -2041 -2042 0
2042 2043 0
-2042 -2043 0
348 2044 0
-348 -2044 0
2044 2045 0
-2044 -2045 0
347 2046 0
-347 -2046 0
2046 2047 0
-2046 -2047 0
2045 2047 2048 0
2045 -2047 -2048 0
-2045 2047 -2048 0
-2045 -2047 -2048 0
2048 2049 0
-2048 -2049 0
2043 2049 2050 0
2043 -2049 -2050 0
-2043 2049 -2050 0
-2043 -2049 -2050 0
2050 2051 0
-2050 -2051 0
239 2052 0
-239 -2052 0
2052 2053 0
-2052 -2053 0
2053 2054 0
-2053 -2054 0
2054 2055 0
-2054 -2055 0
247 2056 0
-247 -2056 0
2056 2057 0
-2056 -2057 0
2057 2058 0
-2057 -2058 0
2058 2059 0
-2058 -2059 0
229 2060 0
-229 -2060 0
2060 2061 0
-2060 -2061 0
2061 2062 0
-2061 -2062 0
2062 2063 0
-2062 -2063 0
2055 2059 2063 2064 0
2055 2059 -2063 -2064 0
2055 -2059 2063 -2064 0
2055 -2059 -2063 -2064 0
-2055 2059 2063 -2064 0
-2055 2059 -2063 -2064 0
-2055 -2059 2063 -2064 0
-2055 -2059 -2063 -2064 0
247 2065 0
-247 -2065 0
2065 2066 0
-2065 -2066 0
2066 2067 0
-2066 -2067 0
229 2068 0
-229 -2068 0
2068 2069 0
-2068 -2069 0
2069 2070 0
-2069 -2070 0
2055 2067 2070 2071 0
2055 2067 -2070 -2071 0
2055 -2067 2070 -2071 0
2055 -2067 -2070 -2071 0
-2055 2067 2070 -2071 0
-2055 2067 -2070 -2071 0
-2055 -2067 2070 -2071 0
-2055 -2067 -2070 -2071 0
239 2072 0
-239 -2072 0
2072 2073 0
-2072 -2073 0
2073 2074 0
-2073 -2074 0
2074 2059 2070 2075 0
2074 2059 -2070 -2075 0
2074 -2059 2070 -2075 0
2074 -2059 -2070 -2075 0
-2074 2059 2070 -2075 0
-2074 2059 -2070 -2075 0
-2074 -2059 2070 -2075 0
-2074 -2059 -2070 -2075 0
2074 2067 2063 2076 0
2074 2067 -2063 -2076 0
2074 -2067 2063 -2076 0
2074 -2067 -2063 -2076 0
-2074 2067 2063 -2076 0
-2074 2067 -2063 -2076 0
-2074 -2067 2063 -2076 0
-2074 -2067 -2063 -2076 0
2064 2071 2075 2076 -2077 0
2064 2071 2075 -2076 2077 0
2064 2071 -2075 2076 2077 0
2064 2071 -2075 -2076 2077 0
2064 -2071 2075 2076 2077 0
2064 -2071 2075 -2076 2077 0
2064 -2071 -2075 2076 2077 0
2064 -2071 -2075 -2076 2077 0
-2064 2071 2075 2076 2077 0
-2064 2071 2075 -2076 2077 0
-2064 2071 -2075 2076 2077 0
-2064 2071 -2075 -2076 2077 0
-2064 -2071 2075 2076 2077 0
-2064 -2071 2075 -2076 2077 0
-2064 -2071 -2075 2076 2077 0
-2064 -2071 -2075 -2076 2077 0
2077 2078 0
-2077 -2078 0
2078 2079 0
-2078 -2079 0
2079 2080 0
-2079 -2080 0
246 2081 0
-246 -2081 0
256 2082 0
-256 -2082 0
2082 2083 0
-2082 -2083 0
2081 2083 2084 0
2081 -2083 -2084 0
-2081 2083 -2084 0
-2081 -2083 -2084 0
246 2085 0
-246 -2085 0
2085 2086 0
-2085 -2086 0
256 2087 0
-256 -2087 0
2086 2087 2088 0
2086 -2087 -2088 0
-2086 2087 -2088 0
-2086 -2087 -2088 0
2084 2088 -2089 0
2084 -2088 2089 0
-2084 2088 2089 0
-2084 -2088 2089 0
2089 2090 0
-2089 -2090 0
2090 2091 0
-2090 -2091 0
261 2092 0
-261 -2092 0
2092 2093 0
-2092 -2093 0
2093 2094 0
-2093 -2094 0
2094 2095 0
-2094 -2095 0
262 2096 0
-262 -2096 0
2096 2097 0
-2096 -2097 0
2097 2098 0
-2097 -2098 0
2098 2099 0
-2098 -2099 0
263 2100 0
-263 -2100 0
2100 2101 0
-2100 -2101 0
2101 2102 0
-2101 -2102 0
2102 2103 0
-2102 -2103 0
2095 2099 2103 2104 0
2095 2099 -2103 -2104 0
2095 -2099 2103 -2104 0
2095 -2099 -2103 -2104 0
-2095 2099 2103 -2104 0
-2095 2099 -2103 -2104 0
-2095 -2099 2103 -2104 0
-2095 -2099 -2103 -2104 0
262 2105 0
-262 -2105 0
2105 2106 0
-2105 -2106 0
2106 2107 0
-2106 -2107 0
263 2108 0
-263 -2108 0
2108 2109 0
-2108 -2109 0
2109 2110 0
-2109 -2110 0
2095 2107 2110 2111 0
2095 2107 -2110 -2111 0
2095 -2107 2110 -2111 0
2095 -2107 -2110 -2111 0
-2095 2107 2110 -2111 0
-2095 2107 -2110 -2111 0
-2095 -2107 2110 -2111 0
-2095 -2107 -2110 -2111 0
261 2112 0
-261 -2112 0
2112 2113 0
-2112 -2113 0
2113 2114 0
-2113 -2114 0
2114 2099 2110 2115 0
2114 2099 -2110 -2115 0
2114 -2099 2110 -2115 0
2114 -2099 -2110 -2115 0
-2114 2099 2110 -2115 0
-2114 2099 -2110 -2115 0
-2114 -2099 2110 -2115 0
-2114 -2099 -2110 -2115 0
2114 2107 2103 2116 0
2114 2107 -2103 -2116 0
2114 -2107 2103 -2116 0
2114 -2107 -2103 -2116 0
-2114 2107 2103 -2116 0
-2114 2107 -2103 -2116 0
-2114 -2107 2103 -2116 0
-2114 -2107 -2103 -2116 0
2104 2111 2115 2116 -2117 0
2104 2111 2115 -2116 2117 0
2104 2111 -2115 2116 2117 0
2104 2111 -2115 -2116 2117 0
2104 -2111 2115 2116 2117 0
2104 -2111 2115 -2116 2117 0
2104 -2111 -2115 2116 2117 0
2104 -2111 -2115 -2116 2117 0
-2104 2111 2115 2116 2117 0
-2104 2111 2115 -2116 2117 0
-2104 2111 -2115 2116 2117 0
-2104 2111 -2115 -2116 2117 0
-2104 -2111 2115 2116 2117 0
-2104 -2111 2115 -2116 2117 0
-2104 -2111 -2115 2116 2117 0
-2104 -2111 -2115 -2116 2117 0
2117 2118 0
-2117 -2118 0
2118 2119 0
-2118 -2119 0
2119 2120 0
-2119 -2120 0
2080 2091 2120 2121 0
2080 2091 -2120 -2121 0
2080 -2091 2120 -2121 0
2080 -2091 -2120 -2121 0
-2080 2091 2120 -2121 0
-2080 2091 -2120 -2121 0
-2080 -2091 2120 -2121 0
-2080 -2091 -2120 -2121 0
2089 2122 0
-2089 -2122 0
2122 2123 0
-2122 -2123 0
2123 2124 0
-2123 -2124 0
2117 2125 0
-2117 -2125 0
2125 2126 0
-2125 -2126 0
2080 2124 2126 2127 0
2080 2124 -2126 -2127 0
2080 -2124 2126 -2127 0
2080 -2124 -2126 -2127 0
-2080 2124 2126 -2127 0
-2080 2124 -2126 -2127 0
-2080 -2124 2126 -2127 0
-2080 -2124 -2126 -2127 0
2077 2128 0
-2077 -2128 0
2128 2129 0
-2128 -2129 0
2129 2091 2126 2130 0
2129 2091 -2126 -2130 0
2129 -2091 2126 -2130 0
2129 -2091 -2126 -2130 0
-2129 2091 2126 -2130 0
-2129 2091 -2126 -2130 0
-2129 -2091 2126 -2130 0
-2129 -2091 -2126 -2130 0
2129 2124 2120 2131 0
2129 2124 -2120 -2131 0
2129 -2124 2120 -2131 0
2129 -2124 -2120 -2131 0
-2129 2124 2120 -2131 0
-2129 2124 -2120 -2131 0
-2129 -2124 2120 -2131 0
-2129 -2124 -2120 -2131 0
2121 2127 2130 2131 -2132 0
2121 2127 2130 -2131 2132 0
2121 2127 -2130 2131 2132 0
2121 2127 -2130 -2131 2132 0
2121 -2127 2130 2131 2132 0
2121 -2127 2130 -2131 2132 0
2121 -2127 -2130 2131 2132 0
2121 -2127 -2130 -2131 2132 0
-2121 2127 2130 2131 2132 0
-2121 2127 2130 -2131 2132 0
-2121 2127 -2130 2131 2132 0
-2121 2127 -2130 -2131 2132 0
-2121 -2127 2130 2131 2132 0
-2121 -2127 2130 -2131 2132 0
-2121 -2127 -2130 2131 2132 0
-2121 -2127 -2130 -2131 2132 0
1964 2133 0
-1964 -2133 0
2132 2133 2134 0
2132 -2133 -2134 0
-2132 2133 -2134 0
-2132 -2133 -2134 0
2132 2135 0
-2132 -2135 0
2135 1964 2136 0
2135 -1964 -2136 0
-2135 1964 -2136 0
-2135 -1964 -2136 0
2134 2136 -2137 0
2134 -2136 2137 0
-2134 2136 2137 0
-2134 -2136 2137 0
2137 2138 0
-2137 -2138 0
2051 2138 2139 0
2051 -2138 -2139 0
-2051 2138 -2139 0
-2051 -2138 -2139 0
348 2140 0
-348 -2140 0
2140 2141 0
-2140 -2141 0
2141 2142 0
-2141 -2142 0
2047 2142 2143 0
2047 -2142 -2143 0
-2047 2142 -2143 0
-2047 -2142 -2143 0
2143 2144 0
-2143 -2144 0
336 2145 0
-336 -2145 0
2145 2146 0
-2145 -2146 0
314 2147 0
-314 -2147 0
2147 2148 0
-2147 -2148 0
340 2149 0
-340 -2149 0
2149 2150 0
-2149 -2150 0
2146 2148 2150 2151 0
2146 2148 -2150 -2151 0
2146 -2148 2150 -2151 0
2146 -2148 -2150 -2151 0
-2146 2148 2150 -2151 0
-2146 2148 -2150 -2151 0
-2146 -2148 2150 -2151 0
-2146 -2148 -2150 -2151 0
2151 2152 0
-2151 -2152 0
2144 2152 2153 0
2144 -2152 -2153 0
-2144 2152 -2153 0
-2144 -2152 -2153 0
2153 2154 0
-2153 -2154 0
2087 2155 0
-2087 -2155 0
2154 2155 2156 0
2154 -2155 -2156 0
-2154 2155 -2156 0
-2154 -2155 -2156 0
2041 2038 2146 2157 0
2041 2038 -2146 -2157 0
2041 -2038 2146 -2157 0
2041 -2038 -2146 -2157 0
-2041 2038 2146 -2157 0
-2041 2038 -2146 -2157 0
-2041 -2038 2146 -2157 0
-2041 -2038 -2146 -2157 0
2157 2158 0
-2157 -2158 0
2144 2158 2159 0
2144 -2158 -2159 0
-2144 2158 -2159 0
-2144 -2158 -2159 0
2159 2160 0
-2159 -2160 0
2108 2161 0
-2108 -2161 0
2160 2161 2162 0
2160 -2161 -2162 0
-2160 2161 -2162 0
-2160 -2161 -2162 0
2105 2163 0
-2105 -2163 0
2148 2038 2146 2164 0
2148 2038 -2146 -2164 0
2148 -2038 2146 -2164 0
2148 -2038 -2146 -2164 0
-2148 2038 2146 -2164 0
-2148 2038 -2146 -2164 0
-2148 -2038 2146 -2164 0
-2148 -2038 -2146 -2164 0
2164 2165 0
-2164 -2165 0
2144 2165 2166 0
2144 -2165 -2166 0
-2144 2165 -2166 0
-2144 -2165 -2166 0
2166 2167 0
-2166 -2167 0
2163 2167 2168 0
2163 -2167 -2168 0
-2163 2167 -2168 0
-2163 -2167 -2168 0
2081 2169 0
-2081 -2169 0
2146 2150 2041 2170 0
2146 2150 -2041 -2170 0
2146 -2150 2041 -2170 0
2146 -2150 -2041 -2170 0
-2146 2150 2041 -2170 0
-2146 2150 -2041 -2170 0
-2146 -2150 2041 -2170 0
-2146 -2150 -2041 -2170 0
2170 2171 0
-2170 -2171 0
2144 2171 2172 0
2144 -2171 -2172 0
-2144 2171 -2172 0
-2144 -2171 -2172 0
2172 2173 0
-2172 -2173 0
2169 2173 2174 0
2169 -2173 -2174 0
-2169 2173 -2174 0
-2169 -2173 -2174 0
2156 2162 2168 2174 -2175 0
2156 2162 2168 -2174 2175 0
2156 2162 -2168 2174 2175 0
2156 2162 -2168 -2174 2175 0
2156 -2162 2168 2174 2175 0
2156 -2162 2168 -2174 2175 0
2156 -2162 -2168 2174 2175 0
2156 -2162 -2168 -2174 2175 0
-2156 2162 2168 2174 2175 0
-2156 2162 2168 -2174 2175 0
-2156 2162 -2168 2174 2175 0
-2156 2162 -2168 -2174 2175 0
-2156 -2162 2168 2174 2175 0
-2156 -2162 2168 -2174 2175 0
-2156 -2162 -2168 2174 2175 0
-2156 -2162 -2168 -2174 2175 0
2144 2043 2176 0
2144 -2043 -2176 0
-2144 2043 -2176 0
-2144 -2043 -2176 0
2176 2177 0
-2176 -2177 0
2072 2178 0
-2072 -2178 0
2177 2178 2179 0
2177 -2178 -2179 0
-2177 2178 -2179 0
-2177 -2178 -2179 0
2112 2180 0
-2112 -2180 0
2035 2148 2150 2181 0
2035 2148 -2150 -2181 0
2035 -2148 2150 -2181 0
2035 -2148 -2150 -2181 0
-2035 2148 2150 -2181 0
-2035 2148 -2150 -2181 0
-2035 -2148 2150 -2181 0
-2035 -2148 -2150 -2181 0
2181 2182 0
-2181 -2182 0
2144 2182 2183 0
2144 -2182 -2183 0
-2144 2182 -2183 0
-2144 -2182 -2183 0
2183 2184 0
-2183 -2184 0
2180 2184 2185 0
2180 -2184 -2185 0
-2180 2184 -2185 0
-2180 -2184 -2185 0
2068 2186 0
-2068 -2186 0
2035 2038 2148 2187 0
2035 2038 -2148 -2187 0
2035 -2038 2148 -2187 0
2035 -2038 -2148 -2187 0
-2035 2038 2148 -2187 0
-2035 2038 -2148 -2187 0
-2035 -2038 2148 -2187 0
-2035 -2038 -2148 -2187 0
2187 2188 0
-2187 -2188 0
2144 2188 2189 0
2144 -2188 -2189 0
-2144 2188 -2189 0
-2144 -2188 -2189 0
2189 2190 0
-2189 -2190 0
2186 2190 2191 0
2186 -2190 -2191 0
-2186 2190 -2191 0
-2186 -2190 -2191 0
2065 2192 0
-2065 -2192 0
2035 2150 2041 2193 0
2035 2150 -2041 -2193 0
2035 -2150 2041 -2193 0
2035 -2150 -2041 -2193 0
-2035 2150 2041 -2193 0
-2035 2150 -2041 -2193 0
-2035 -2150 2041 -2193 0
-2035 -2150 -2041 -2193 0
2193 2194 0
-2193 -2194 0
2194 2144 2195 0
2194 -2144 -2195 0
-2194 2144 -2195 0
-2194 -2144 -2195 0
2195 2196 0
-2195 -2196 0
2192 2196 2197 0
2192 -2196 -2197 0
-2192 2196 -2197 0
-2192 -2196 -2197 0
2179 2185 2191 2197 -2198 0
2179 2185 2191 -2197 2198 0
2179 2185 -2191 2197 2198 0
2179 2185 -2191 -2197 2198 0
2179 -2185 2191 2197 2198 0
2179 -2185 2191 -2197 2198 0
2179 -2185 -2191 2197 2198 0
2179 -2185 -2191 -2197 2198 0
-2179 2185 2191 2197 2198 0
-2179 2185 2191 -2197 2198 0
-2179 2185 -2191 2197 2198 0
-2179 2185 -2191 -2197 2198 0
-2179 -2185 2191 2197 2198 0
-2179 -2185 2191 -2197 2198 0
-2179 -2185 -2191 2197 2198 0
-2179 -2185 -2191 -2197 2198 0
2139 2175 2198 2199 0
2139 2175 -2198 -2199 0
2139 -2175 2198 -2199 0
2139 -2175 -2198 -2199 0
-2139 2175 2198 -2199 0
-2139 2175 -2198 -2199 0
-2139 -2175 2198 -2199 0
-2139 -2175 -2198 -2199 0
1964 1957 2200 0
1964 -1957 -2200 0
-1964 1957 -2200 0
-1964 -1957 -2200 0
2199 2200 2201 0
2199 -2200 -2201 0
-2199 2200 -2201 0
-2199 -2200 -2201 0
347 2202 0
-347 -2202 0
2202 2203 0
-2202 -2203 0
2203 2204 0
-2203 -2204 0
2045 2204 2205 0
2045 -2204 -2205 0
-2045 2204 -2205 0
-2045 -2204 -2205 0
2205 2206 0
-2205 -2206 0
2206 2158 2207 0
2206 -2158 -2207 0
-2206 2158 -2207 0
-2206 -2158 -2207 0
2207 2208 0
-2207 -2208 0
1829 2209 0
-1829 -2209 0
2209 1300 2210 0
2209 -1300 -2210 0
-2209 1300 -2210 0
-2209 -1300 -2210 0
2209 2211 0
-2209 -2211 0
2211 1103 2212 0
2211 -1103 -2212 0
-2211 1103 -2212 0
-2211 -1103 -2212 0
2210 2212 -2213 0
2210 -2212 2213 0
-2210 2212 2213 0
-2210 -2212 2213 0
2213 2214 0
-2213 -2214 0
2208 2214 2215 0
2208 -2214 -2215 0
-2208 2214 -2215 0
-2208 -2214 -2215 0
2209 1304 2216 0
2209 -1304 -2216 0
-2209 1304 -2216 0
-2209 -1304 -2216 0
2211 1107 2217 0
2211 -1107 -2217 0
-2211 1107 -2217 0
-2211 -1107 -2217 0
2216 2217 -2218 0
2216 -2217 2218 0
-2216 2217 2218 0
-2216 -2217 2218 0
2218 2219 0
-2218 -2219 0
2182 2206 2220 0
2182 -2206 -2220 0
-2182 2206 -2220 0
-2182 -2206 -2220 0
2220 2221 0
-2220 -2221 0
2219 2221 2222 0
2219 -2221 -2222 0
-2219 2221 -2222 0
-2219 -2221 -2222 0
2165 2206 2223 0
2165 -2206 -2223 0
-2165 2206 -2223 0
-2165 -2206 -2223 0
2223 2224 0
-2223 -2224 0
2209 1349 2225 0
2209 -1349 -2225 0
-2209 1349 -2225 0
-2209 -1349 -2225 0
1156 2211 2226 0
1156 -2211 -2226 0
-1156 2211 -2226 0
-1156 -2211 -2226 0
2225 2226 -2227 0
2225 -2226 2227 0
-2225 2226 2227 0
-2225 -2226 2227 0
2227 2228 0
-2227 -2228 0
2224 2228 2229 0
2224 -2228 -2229 0
-2224 2228 -2229 0
-2224 -2228 -2229 0
2194 2206 2230 0
2194 -2206 -2230 0
-2194 2206 -2230 0
-2194 -2206 -2230 0
2230 2231 0
-2230 -2231 0
1296 2209 2232 0
1296 -2209 -2232 0
-1296 2209 -2232 0
-1296 -2209 -2232 0
1099 2211 2233 0
1099 -2211 -2233 0
-1099 2211 -2233 0
-1099 -2211 -2233 0
2232 2233 -2234 0
2232 -2233 2234 0
-2232 2233 2234 0
-2232 -2233 2234 0
2234 2235 0
-2234 -2235 0
2231 2235 2236 0
2231 -2235 -2236 0
-2231 2235 -2236 0
-2231 -2235 -2236 0
2215 2222 2229 2236 -2237 0
2215 2222 2229 -2236 2237 0
2215 2222 -2229 2236 2237 0
2215 2222 -2229 -2236 2237 0
2215 -2222 2229 2236 2237 0
2215 -2222 2229 -2236 2237 0
2215 -2222 -2229 2236 2237 0
2215 -2222 -2229 -2236 2237 0
-2215 2222 2229 2236 2237 0
-2215 2222 2229 -2236 2237 0
-2215 2222 -2229 2236 2237 0
-2215 2222 -2229 -2236 2237 0
-2215 -2222 2229 2236 2237 0
-2215 -2222 2229 -2236 2237 0
-2215 -2222 -2229 2236 2237 0
-2215 -2222 -2229 -2236 2237 0
2142 2204 2238 0
2142 -2204 -2238 0
-2142 2204 -2238 0
-2142 -2204 -2238 0
2238 2239 0
-2238 -2239 0
2239 2188 2240 0
2239 -2188 -2240 0
-2239 2188 -2240 0
-2239 -2188 -2240 0
2240 2241 0
-2240 -2241 0
2200 2242 0
-2200 -2242 0
1933 2242 2243 0
1933 -2242 -2243 0
-1933 2242 -2243 0
-1933 -2242 -2243 0
2241 2243 2244 0
2241 -2243 -2244 0
-2241 2243 -2244 0
-2241 -2243 -2244 0
366 2245 0
-366 -2245 0
2245 1933 2246 0
2245 -1933 -2246 0
-2245 1933 -2246 0
-2245 -1933 -2246 0
2043 2239 2247 0
2043 -2239 -2247 0
-2043 2239 -2247 0
-2043 -2239 -2247 0
2247 2248 0
-2247 -2248 0
2246 2248 2249 0
2246 -2248 -2249 0
-2246 2248 -2249 0
-2246 -2248 -2249 0
2244 2249 -2250 0
2244 -2249 2250 0
-2244 2249 2250 0
-2244 -2249 2250 0
1829 2251 0
-1829 -2251 0
2251 916 2252 0
2251 -916 -2252 0
-2251 916 -2252 0
-2251 -916 -2252 0
2251 2253 0
-2251 -2253 0
435 2253 2254 0
435 -2253 -2254 0
-435 2253 -2254 0
-435 -2253 -2254 0
2252 2254 -2255 0
2252 -2254 2255 0
-2252 2254 2255 0
-2252 -2254 2255 0
2255 2256 0
-2255 -2256 0
2239 2158 2257 0
2239 -2158 -2257 0
-2239 2158 -2257 0
-2239 -2158 -2257 0
2257 2258 0
-2257 -2258 0
2256 2258 2259 0
2256 -2258 -2259 0
-2256 2258 -2259 0
-2256 -2258 -2259 0
2253 431 2260 0
2253 -431 -2260 0
-2253 431 -2260 0
-2253 -431 -2260 0
912 2251 2261 0
912 -2251 -2261 0
-912 2251 -2261 0
-912 -2251 -2261 0
2260 2261 -2262 0
2260 -2261 2262 0
-2260 2261 2262 0
-2260 -2261 2262 0
2262 2263 0
-2262 -2263 0
2239 2194 2264 0
2239 -2194 -2264 0
-2239 2194 -2264 0
-2239 -2194 -2264 0
2264 2265 0
-2264 -2265 0
2263 2265 2266 0
2263 -2265 -2266 0
-2263 2265 -2266 0
-2263 -2265 -2266 0
488 2253 2267 0
488 -2253 -2267 0
-488 2253 -2267 0
-488 -2253 -2267 0
966 2251 2268 0
966 -2251 -2268 0
-966 2251 -2268 0
-966 -2251 -2268 0
2267 2268 -2269 0
2267 -2268 2269 0
-2267 2268 2269 0
-2267 -2268 2269 0
2269 2270 0
-2269 -2270 0
2165 2239 2271 0
2165 -2239 -2271 0
-2165 2239 -2271 0
-2165 -2239 -2271 0
2271 2272 0
-2271 -2272 0
2270 2272 2273 0
2270 -2272 -2273 0
-2270 2272 -2273 0
-2270 -2272 -2273 0
2251 920 2274 0
2251 -920 -2274 0
-2251 920 -2274 0
-2251 -920 -2274 0
2253 439 2275 0
2253 -439 -2275 0
-2253 439 -2275 0
-2253 -439 -2275 0
2274 2275 -2276 0
2274 -2275 2276 0
-2274 2275 2276 0
-2274 -2275 2276 0
2276 2277 0
-2276 -2277 0
2182 2239 2278 0
2182 -2239 -2278 0
-2182 2239 -2278 0
-2182 -2239 -2278 0
2278 2279 0
-2278 -2279 0
2277 2279 2280 0
2277 -2279 -2280 0
-2277 2279 -2280 0
-2277 -2279 -2280 0
2259 2266 2273 2280 -2281 0
2259 2266 2273 -2280 2281 0
2259 2266 -2273 2280 2281 0
2259 2266 -2273 -2280 2281 0
2259 -2266 2273 2280 2281 0
2259 -2266 2273 -2280 2281 0
2259 -2266 -2273 2280 2281 0
2259 -2266 -2273 -2280 2281 0
-2259 2266 2273 2280 2281 0
-2259 2266 2273 -2280 2281 0
-2259 2266 -2273 2280 2281 0
-2259 2266 -2273 -2280 2281 0
-2259 -2266 2273 2280 2281 0
-2259 -2266 2273 -2280 2281 0
-2259 -2266 -2273 2280 2281 0
-2259 -2266 -2273 -2280 2281 0
949 2251 2282 0
949 -2251 -2282 0
-949 2251 -2282 0
-949 -2251 -2282 0
468 2253 2283 0
468 -2253 -2283 0
-468 2253 -2283 0
-468 -2253 -2283 0
2282 2283 -2284 0
2282 -2283 2284 0
-2282 2283 2284 0
-2282 -2283 2284 0
2284 2285 0
-2284 -2285 0
2206 2188 2286 0
2206 -2188 -2286 0
-2206 2188 -2286 0
-2206 -2188 -2286 0
2286 2287 0
-2286 -2287 0
2285 2287 2288 0
2285 -2287 -2288 0
-2285 2287 -2288 0
-2285 -2287 -2288 0
2206 2043 2289 0
2206 -2043 -2289 0
-2206 2043 -2289 0
-2206 -2043 -2289 0
2289 2290 0
-2289 -2290 0
2253 460 2291 0
2253 -460 -2291 0
-2253 460 -2291 0
-2253 -460 -2291 0
2251 941 2292 0
2251 -941 -2292 0
-2251 941 -2292 0
-2251 -941 -2292 0
2291 2292 -2293 0
2291 -2292 2293 0
-2291 2292 2293 0
-2291 -2292 2293 0
2293 2294 0
-2293 -2294 0
2290 2294 2295 0
2290 -2294 -2295 0
-2290 2294 -2295 0
-2290 -2294 -2295 0
2239 2152 2296 0
2239 -2152 -2296 0
-2239 2152 -2296 0
-2239 -2152 -2296 0
2296 2297 0
-2296 -2297 0
492 2253 2298 0
492 -2253 -2298 0
-492 2253 -2298 0
-492 -2253 -2298 0
2251 970 2299 0
2251 -970 -2299 0
-2251 970 -2299 0
-2251 -970 -2299 0
2298 2299 -2300 0
2298 -2299 2300 0
-2298 2299 2300 0
-2298 -2299 2300 0
2300 2301 0
-2300 -2301 0
2297 2301 2302 0
2297 -2301 -2302 0
-2297 2301 -2302 0
-2297 -2301 -2302 0
2171 2239 2303 0
2171 -2239 -2303 0
-2171 2239 -2303 0
-2171 -2239 -2303 0
2303 2304 0
-2303 -2304 0
496 2253 2305 0
496 -2253 -2305 0
-496 2253 -2305 0
-496 -2253 -2305 0
974 2251 2306 0
974 -2251 -2306 0
-974 2251 -2306 0
-974 -2251 -2306 0
2305 2306 -2307 0
2305 -2306 2307 0
-2305 2306 2307 0
-2305 -2306 2307 0
2307 2308 0
-2307 -2308 0
2304 2308 2309 0
2304 -2308 -2309 0
-2304 2308 -2309 0
-2304 -2308 -2309 0
2288 2295 2302 2309 -2310 0
2288 2295 2302 -2309 2310 0
2288 2295 -2302 2309 2310 0
2288 2295 -2302 -2309 2310 0
2288 -2295 2302 2309 2310 0
2288 -2295 2302 -2309 2310 0
2288 -2295 -2302 2309 2310 0
2288 -2295 -2302 -2309 2310 0
-2288 2295 2302 2309 2310 0
-2288 2295 2302 -2309 2310 0
-2288 2295 -2302 2309 2310 0
-2288 2295 -2302 -2309 2310 0
-2288 -2295 2302 2309 2310 0
-2288 -2295 2302 -2309 2310 0
-2288 -2295 -2302 2309 2310 0
-2288 -2295 -2302 -2309 2310 0
2237 2250 2281 2310 2311 0
2237 2250 2281 -2310 -2311 0
2237 2250 -2281 2310 -2311 0
2237 2250 -2281 -2310 -2311 0
2237 -2250 2281 2310 -2311 0
2237 -2250 2281 -2310 -2311 0
2237 -2250 -2281 2310 -2311 0
2237 -2250 -2281 -2310 -2311 0
-2237 2250 2281 2310 -2311 0
-2237 2250 2281 -2310 -2311 0
-2237 2250 -2281 2310 -2311 0
-2237 2250 -2281 -2310 -2311 0
-2237 -2250 2281 2310 -2311 0
-2237 -2250 2281 -2310 -2311 0
-2237 -2250 -2281 2310 -2311 0
-2237 -2250 -2281 -2310 -2311 0
407 2312 0
-407 -2312 0
2311 2312 2313 0
2311 -2312 -2313 0
-2311 2312 -2313 0
-2311 -2312 -2313 0
237 2314 0
-237 -2314 0
2314 2315 0
-2314 -2315 0
311 2316 0
-311 -2316 0
2316 2317 0
-2316 -2317 0
648 2315 2317 2318 0
648 2315 -2317 -2318 0
648 -2315 2317 -2318 0
648 -2315 -2317 -2318 0
-648 2315 2317 -2318 0
-648 2315 -2317 -2318 0
-648 -2315 2317 -2318 0
-648 -2315 -2317 -2318 0
400 2319 0
-400 -2319 0
2319 2320 0
-2319 -2320 0
362 2321 0
-362 -2321 0
2321 2322 0
-2321 -2322 0
2322 2323 0
-2322 -2323 0
377 2324 0
-377 -2324 0
2324 2325 0
-2324 -2325 0
388 2326 0
-388 -2326 0
2326 2327 0
-2326 -2327 0
2325 2327 2328 0
2325 -2327 -2328 0
-2325 2327 -2328 0
-2325 -2327 -2328 0
2323 2328 -2329 0
2323 -2328 2329 0
-2323 2328 2329 0
-2323 -2328 2329 0
2329 2330 0
-2329 -2330 0
2330 2253 2331 0
2330 -2253 -2331 0
-2330 2253 -2331 0
-2330 -2253 -2331 0
2331 2332 0
-2331 -2332 0
406 2333 0
-406 -2333 0
2333 2334 0
-2333 -2334 0
2320 2332 2334 2335 0
2320 2332 -2334 -2335 0
2320 -2332 2334 -2335 0
2320 -2332 -2334 -2335 0
-2320 2332 2334 -2335 0
-2320 2332 -2334 -2335 0
-2320 -2332 2334 -2335 0
-2320 -2332 -2334 -2335 0
2329 2336 0
-2329 -2336 0
2336 2337 0
-2336 -2337 0
2337 2253 2338 0
2337 -2253 -2338 0
-2337 2253 -2338 0
-2337 -2253 -2338 0
2338 2339 0
-2338 -2339 0
391 2340 0
-391 -2340 0
2340 2341 0
-2340 -2341 0
2334 2339 2341 2342 0
2334 2339 -2341 -2342 0
2334 -2339 2341 -2342 0
2334 -2339 -2341 -2342 0
-2334 2339 2341 -2342 0
-2334 2339 -2341 -2342 0
-2334 -2339 2341 -2342 0
-2334 -2339 -2341 -2342 0
2318 2335 2342 -2343 0
2318 2335 -2342 2343 0
2318 -2335 2342 2343 0
2318 -2335 -2342 2343 0
-2318 2335 2342 2343 0
-2318 2335 -2342 2343 0
-2318 -2335 2342 2343 0
-2318 -2335 -2342 2343 0
2201 2313 2343 2344 0
2201 2313 -2343 -2344 0
2201 -2313 2343 -2344 0
2201 -2313 -2343 -2344 0
-2201 2313 2343 -2344 0
-2201 2313 -2343 -2344 0
-2201 -2313 2343 -2344 0
-2201 -2313 -2343 -2344 0
2344 2345 0
-2344 -2345 0
2037 2346 0
-2037 -2346 0
2346 2347 0
-2346 -2347 0
305 2348 0
-305 -2348 0
2348 2349 0
-2348 -2349 0
2349 2350 0
-2349 -2350 0
2040 2351 0
-2040 -2351 0
2351 2352 0
-2351 -2352 0
2347 2350 2352 2353 0
2347 2350 -2352 -2353 0
2347 -2350 2352 -2353 0
2347 -2350 -2352 -2353 0
-2347 2350 2352 -2353 0
-2347 2350 -2352 -2353 0
-2347 -2350 2352 -2353 0
-2347 -2350 -2352 -2353 0
305 2354 0
-305 -2354 0
2354 2355 0
-2354 -2355 0
2355 2356 0
-2355 -2356 0
2356 2357 0
-2356 -2357 0
2147 2358 0
-2147 -2358 0
2358 2359 0
-2358 -2359 0
2347 2357 2359 2360 0
2347 2357 -2359 -2360 0
2347 -2357 2359 -2360 0
2347 -2357 -2359 -2360 0
-2347 2357 2359 -2360 0
-2347 2357 -2359 -2360 0
-2347 -2357 2359 -2360 0
-2347 -2357 -2359 -2360 0
2149 2361 0
-2149 -2361 0
2361 2362 0
-2361 -2362 0
2362 2350 2359 2363 0
2362 2350 -2359 -2363 0
2362 -2350 2359 -2363 0
2362 -2350 -2359 -2363 0
-2362 2350 2359 -2363 0
-2362 2350 -2359 -2363 0
-2362 -2350 2359 -2363 0
-2362 -2350 -2359 -2363 0
2362 2357 2352 2364 0
2362 2357 -2352 -2364 0
2362 -2357 2352 -2364 0
2362 -2357 -2352 -2364 0
-2362 2357 2352 -2364 0
-2362 2357 -2352 -2364 0
-2362 -2357 2352 -2364 0
-2362 -2357 -2352 -2364 0
2353 2360 2363 2364 -2365 0
2353 2360 2363 -2364 2365 0
2353 2360 -2363 2364 2365 0
2353 2360 -2363 -2364 2365 0
2353 -2360 2363 2364 2365 0
2353 -2360 2363 -2364 2365 0
2353 -2360 -2363 2364 2365 0
2353 -2360 -2363 -2364 2365 0
-2353 2360 2363 2364 2365 0
-2353 2360 2363 -2364 2365 0
-2353 2360 -2363 2364 2365 0
-2353 2360 -2363 -2364 2365 0
-2353 -2360 2363 2364 2365 0
-2353 -2360 2363 -2364 2365 0
-2353 -2360 -2363 2364 2365 0
-2353 -2360 -2363 -2364 2365 0
2365 2366 0
-2365 -2366 0
2366 2367 0
-2366 -2367 0
2203 2368 0
-2203 -2368 0
2368 2369 0
-2368 -2369 0
2034 2370 0
-2034 -2370 0
2370 2371 0
-2370 -2371 0
2141 2372 0
-2141 -2372 0
2372 2373 0
-2372 -2373 0
2369 2371 2373 2374 0
2369 2371 -2373 -2374 0
2369 -2371 2373 -2374 0
2369 -2371 -2373 -2374 0
-2369 2371 2373 -2374 0
-2369 2371 -2373 -2374 0
-2369 -2371 2373 -2374 0
-2369 -2371 -2373 -2374 0
2145 2375 0
-2145 -2375 0
2375 2376 0
-2375 -2376 0
2044 2377 0
-2044 -2377 0
2377 2378 0
-2377 -2378 0
2369 2376 2378 2379 0
2369 2376 -2378 -2379 0
2369 -2376 2378 -2379 0
2369 -2376 -2378 -2379 0
-2369 2376 2378 -2379 0
-2369 2376 -2378 -2379 0
-2369 -2376 2378 -2379 0
-2369 -2376 -2378 -2379 0
2046 2380 0
-2046 -2380 0
2380 2381 0
-2380 -2381 0
2381 2371 2378 2382 0
2381 2371 -2378 -2382 0
2381 -2371 2378 -2382 0
2381 -2371 -2378 -2382 0
-2381 2371 2378 -2382 0
-2381 2371 -2378 -2382 0
-2381 -2371 2378 -2382 0
-2381 -2371 -2378 -2382 0
2381 2376 2373 2383 0
2381 2376 -2373 -2383 0
2381 -2376 2373 -2383 0
2381 -2376 -2373 -2383 0
-2381 2376 2373 -2383 0
-2381 2376 -2373 -2383 0
-2381 -2376 2373 -2383 0
-2381 -2376 -2373 -2383 0
2374 2379 2382 2383 -2384 0
2374 2379 2382 -2383 2384 0
2374 2379 -2382 2383 2384 0
2374 2379 -2382 -2383 2384 0
2374 -2379 2382 2383 2384 0
2374 -2379 2382 -2383 2384 0
2374 -2379 -2382 2383 2384 0
2374 -2379 -2382 -2383 2384 0
-2374 2379 2382 2383 2384 0
-2374 2379 2382 -2383 2384 0
-2374 2379 -2382 2383 2384 0
-2374 2379 -2382 -2383 2384 0
-2374 -2379 2382 2383 2384 0
-2374 -2379 2382 -2383 2384 0
-2374 -2379 -2382 2383 2384 0
-2374 -2379 -2382 -2383 2384 0
2384 2385 0
-2384 -2385 0
2385 2386 0
-2385 -2386 0
2367 2386 2387 0
2367 -2386 -2387 0
-2367 2386 -2387 0
-2367 -2386 -2387 0
2367 2387 2388 0
2367 -2387 -2388 0
-2367 2387 -2388 0
-2367 -2387 -2388 0
2387 2386 2389 0
2387 -2386 -2389 0
-2387 2386 -2389 0
-2387 -2386 -2389 0
2388 2389 -2390 0
2388 -2389 2390 0
-2388 2389 2390 0
-2388 -2389 2390 0
2390 2391 0
-2390 -2391 0
2345 2391 -2392 0
2345 -2391 2392 0
-2345 2391 2392 0
-2345 -2391 2392 0
2392 2393 0
-2392 -2393 0
2393 2394 0
-2393 -2394 0
2394 2395 0
-2394 -2395 0
2395 2396 0
-2395 -2396 0
336 2397 0
-336 -2397 0
2397 2398 0
-2397 -2398 0
2398 2399 0
-2398 -2399 0
340 2400 0
-340 -2400 0
2400 2401 0
-2400 -2401 0
2401 2402 0
-2401 -2402 0
314 2403 0
-314 -2403 0
2403 2404 0
-2403 -2404 0
2404 2405 0
-2404 -2405 0
2399 2402 2405 2406 0
2399 2402 -2405 -2406 0
2399 -2402 2405 -2406 0
2399 -2402 -2405 -2406 0
-2399 2402 2405 -2406 0
-2399 2402 -2405 -2406 0
-2399 -2402 2405 -2406 0
-2399 -2402 -2405 -2406 0
2406 2407 0
-2406 -2407 0
348 2408 0
-348 -2408 0
2408 2409 0
-2408 -2409 0
347 2410 0
-347 -2410 0
2410 2411 0
-2410 -2411 0
2409 2411 2412 0
2409 -2411 -2412 0
-2409 2411 -2412 0
-2409 -2411 -2412 0
2412 2413 0
-2412 -2413 0
2407 2413 2414 0
2407 -2413 -2414 0
-2407 2413 -2414 0
-2407 -2413 -2414 0
2414 2415 0
-2414 -2415 0
239 2416 0
-239 -2416 0
2416 2417 0
-2416 -2417 0
2417 2418 0
-2417 -2418 0
2418 2419 0
-2418 -2419 0
247 2420 0
-247 -2420 0
2420 2421 0
-2420 -2421 0
2421 2422 0
-2421 -2422 0
2422 2423 0
-2422 -2423 0
229 2424 0
-229 -2424 0
2424 2425 0
-2424 -2425 0
2425 2426 0
-2425 -2426 0
2426 2427 0
-2426 -2427 0
2419 2423 2427 2428 0
2419 2423 -2427 -2428 0
2419 -2423 2427 -2428 0
2419 -2423 -2427 -2428 0
-2419 2423 2427 -2428 0
-2419 2423 -2427 -2428 0
-2419 -2423 2427 -2428 0
-2419 -2423 -2427 -2428 0
247 2429 0
-247 -2429 0
2429 2430 0
-2429 -2430 0
2430 2431 0
-2430 -2431 0
229 2432 0
-229 -2432 0
2432 2433 0
-2432 -2433 0
2433 2434 0
-2433 -2434 0
2419 2431 2434 2435 0
2419 2431 -2434 -2435 0
2419 -2431 2434 -2435 0
2419 -2431 -2434 -2435 0
-2419 2431 2434 -2435 0
-2419 2431 -2434 -2435 0
-2419 -2431 2434 -2435 0
-2419 -2431 -2434 -2435 0
239 2436 0
-239 -2436 0
2436 2437 0
-2436 -2437 0
2437 2438 0
-2437 -2438 0
2438 2423 2434 2439 0
2438 2423 -2434 -2439 0
2438 -2423 2434 -2439 0
2438 -2423 -2434 -2439 0
-2438 2423 2434 -2439 0
-2438 2423 -2434 -2439 0
-2438 -2423 2434 -2439 0
-2438 -2423 -2434 -2439 0
2438 2431 2427 2440 0
2438 2431 -2427 -2440 0
2438 -2431 2427 -2440 0
2438 -2431 -2427 -2440 0
-2438 2431 2427 -2440 0
-2438 2431 -2427 -2440 0
-2438 -2431 2427 -2440 0
-2438 -2431 -2427 -2440 0
2428 2435 2439 2440 -2441 0
2428 2435 2439 -2440 2441 0
2428 2435 -2439 2440 2441 0
2428 2435 -2439 -2440 2441 0
2428 -2435 2439 2440 2441 0
2428 -2435 2439 -2440 2441 0
2428 -2435 -2439 2440 2441 0
2428 -2435 -2439 -2440 2441 0
-2428 2435 2439 2440 2441 0
-2428 2435 2439 -2440 2441 0
-2428 2435 -2439 2440 2441 0
-2428 2435 -2439 -2440 2441 0
-2428 -2435 2439 2440 2441 0
-2428 -2435 2439 -2440 2441 0
-2428 -2435 -2439 2440 2441 0
-2428 -2435 -2439 -2440 2441 0
2441 2442 0
-2441 -2442 0
2442 2443 0
-2442 -2443 0
2443 2444 0
-2443 -2444 0
246 2445 0
-246 -2445 0
256 2446 0
-256 -2446 0
2446 2447 0
-2446 -2447 0
2445 2447 2448 0
2445 -2447 -2448 0
-2445 2447 -2448 0
-2445 -2447 -2448 0
246 2449 0
-246 -2449 0
2449 2450 0
-2449 -2450 0
256 2451 0
-256 -2451 0
2450 2451 2452 0
2450 -2451 -2452 0
-2450 2451 -2452 0
-2450 -2451 -2452 0
2448 2452 -2453 0
2448 -2452 2453 0
-2448 2452 2453 0
-2448 -2452 2453 0
2453 2454 0
-2453 -2454 0
2454 2455 0
-2454 -2455 0
261 2456 0
-261 -2456 0
2456 2457 0
-2456 -2457 0
2457 2458 0
-2457 -2458 0
2458 2459 0
-2458 -2459 0
262 2460 0
-262 -2460 0
2460 2461 0
-2460 -2461 0
2461 2462 0
-2461 -2462 0
2462 2463 0
-2462 -2463 0
263 2464 0
-263 -2464 0
2464 2465 0
-2464 -2465 0
2465 2466 0
-2465 -2466 0
2466 2467 0
-2466 -2467 0
2459 2463 2467 2468 0
2459 2463 -2467 -2468 0
2459 -2463 2467 -2468 0
2459 -2463 -2467 -2468 0
-2459 2463 2467 -2468 0
-2459 2463 -2467 -2468 0
-2459 -2463 2467 -2468 0
-2459 -2463 -2467 -2468 0
262 2469 0
-262 -2469 0
2469 2470 0
-2469 -2470 0
2470 2471 0
-2470 -2471 0
263 2472 0
-263 -2472 0
2472 2473 0
-2472 -2473 0
2473 2474 0
-2473 -2474 0
2459 2471 2474 2475 0
2459 2471 -2474 -2475 0
2459 -2471 2474 -2475 0
2459 -2471 -2474 -2475 0
-2459 2471 2474 -2475 0
-2459 2471 -2474 -2475 0
-2459 -2471 2474 -2475 0
-2459 -2471 -2474 -2475 0
261 2476 0
-261 -2476 0
2476 2477 0
-2476 -2477 0
2477 2478 0
-2477 -2478 0
2478 2463 2474 2479 0
2478 2463 -2474 -2479 0
2478 -2463 2474 -2479 0
2478 -2463 -2474 -2479 0
-2478 2463 2474 -2479 0
-2478 2463 -2474 -2479 0
-2478 -2463 2474 -2479 0
-2478 -2463 -2474 -2479 0
2478 2471 2467 2480 0
2478 2471 -2467 -2480 0
2478 -2471 2467 -2480 0
2478 -2471 -2467 -2480 0
-2478 2471 2467 -2480 0
-2478 2471 -2467 -2480 0
-2478 -2471 2467 -2480 0
-2478 -2471 -2467 -2480 0
2468 2475 2479 2480 -2481 0
2468 2475 2479 -2480 2481 0
2468 2475 -2479 2480 2481 0
2468 2475 -2479 -2480 2481 0
2468 -2475 2479 2480 2481 0
2468 -2475 2479 -2480 2481 0
2468 -2475 -2479 2480 2481 0
2468 -2475 -2479 -2480 2481 0
-2468 2475 2479 2480 2481 0
-2468 2475 2479 -2480 2481 0
-2468 2475 -2479 2480 2481 0
-2468 2475 -2479 -2480 2481 0
-2468 -2475 2479 2480 2481 0
-2468 -2475 2479 -2480 2481 0
-2468 -2475 -2479 2480 2481 0
-2468 -2475 -2479 -2480 2481 0
2481 2482 0
-2481 -2482 0
2482 2483 0
-2482 -2483 0
2483 2484 0
-2483 -2484 0
2444 2455 2484 2485 0
2444 2455 -2484 -2485 0
2444 -2455 2484 -2485 0
2444 -2455 -2484 -2485 0
-2444 2455 2484 -2485 0
-2444 2455 -2484 -2485 0
-2444 -2455 2484 -2485 0
-2444 -2455 -2484 -2485 0
2453 2486 0
-2453 -2486 0
2486 2487 0
-2486 -2487 0
2487 2488 0
-2487 -2488 0
2481 2489 0
-2481 -2489 0
2489 2490 0
-2489 -2490 0
2444 2488 2490 2491 0
2444 2488 -2490 -2491 0
2444 -2488 2490 -2491 0
2444 -2488 -2490 -2491 0
-2444 2488 2490 -2491 0
-2444 2488 -2490 -2491 0
-2444 -2488 2490 -2491 0
-2444 -2488 -2490 -2491 0
2441 2492 0
-2441 -2492 0
2492 2493 0
-2492 -2493 0
2493 2455 2490 2494 0
2493 2455 -2490 -2494 0
2493 -2455 2490 -2494 0
2493 -2455 -2490 -2494 0
-2493 2455 2490 -2494 0
-2493 2455 -2490 -2494 0
-2493 -2455 2490 -2494 0
-2493 -2455 -2490 -2494 0
2493 2488 2484 2495 0
2493 2488 -2484 -2495 0
2493 -2488 2484 -2495 0
2493 -2488 -2484 -2495 0
-2493 2488 2484 -2495 0
-2493 2488 -2484 -2495 0
-2493 -2488 2484 -2495 0
-2493 -2488 -2484 -2495 0
2485 2491 2494 2495 -2496 0
2485 2491 2494 -2495 2496 0
2485 2491 -2494 2495 2496 0
2485 2491 -2494 -2495 2496 0
2485 -2491 2494 2495 2496 0
2485 -2491 2494 -2495 2496 0
2485 -2491 -2494 2495 2496 0
2485 -2491 -2494 -2495 2496 0
-2485 2491 2494 2495 2496 0
-2485 2491 2494 -2495 2496 0
-2485 2491 -2494 2495 2496 0
-2485 2491 -2494 -2495 2496 0
-2485 -2491 2494 2495 2496 0
-2485 -2491 2494 -2495 2496 0
-2485 -2491 -2494 2495 2496 0
-2485 -2491 -2494 -2495 2496 0
2018 2497 0
-2018 -2497 0
2496 2497 2498 0
2496 -2497 -2498 0
-2496 2497 -2498 0
-2496 -2497 -2498 0
2496 2499 0
-2496 -2499 0
2499 2018 2500 0
2499 -2018 -2500 0
-2499 2018 -2500 0
-2499 -2018 -2500 0
2498 2500 -2501 0
2498 -2500 2501 0
-2498 2500 2501 0
-2498 -2500 2501 0
2501 2502 0
-2501 -2502 0
2415 2502 2503 0
2415 -2502 -2503 0
-2415 2502 -2503 0
-2415 -2502 -2503 0
348 2504 0
-348 -2504 0
2504 2505 0
-2504 -2505 0
2505 2506 0
-2505 -2506 0
2411 2506 2507 0
2411 -2506 -2507 0
-2411 2506 -2507 0
-2411 -2506 -2507 0
2507 2508 0
-2507 -2508 0
336 2509 0
-336 -2509 0
2509 2510 0
-2509 -2510 0
314 2511 0
-314 -2511 0
2511 2512 0
-2511 -2512 0
340 2513 0
-340 -2513 0
2513 2514 0
-2513 -2514 0
2510 2512 2514 2515 0
2510 2512 -2514 -2515 0
2510 -2512 2514 -2515 0
2510 -2512 -2514 -2515 0
-2510 2512 2514 -2515 0
-2510 2512 -2514 -2515 0
-2510 -2512 2514 -2515 0
-2510 -2512 -2514 -2515 0
2515 2516 0
-2515 -2516 0
2508 2516 2517 0
2508 -2516 -2517 0
-2508 2516 -2517 0
-2508 -2516 -2517 0
2517 2518 0
-2517 -2518 0
2451 2519 0
-2451 -2519 0
2518 2519 2520 0
2518 -2519 -2520 0
-2518 2519 -2520 0
-2518 -2519 -2520 0
2405 2402 2510 2521 0
2405 2402 -2510 -2521 0
2405 -2402 2510 -2521 0
2405 -2402 -2510 -2521 0
-2405 2402 2510 -2521 0
-2405 2402 -2510 -2521 0
-2405 -2402 2510 -2521 0
-2405 -2402 -2510 -2521 0
2521 2522 0
-2521 -2522 0
2508 2522 2523 0
2508 -2522 -2523 0
-2508 2522 -2523 0
-2508 -2522 -2523 0
2523 2524 0
-2523 -2524 0
2472 2525 0
-2472 -2525 0
2524 2525 2526 0
2524 -2525 -2526 0
-2524 2525 -2526 0
-2524 -2525 -2526 0
2469 2527 0
-2469 -2527 0
2512 2402 2510 2528 0
2512 2402 -2510 -2528 0
2512 -2402 2510 -2528 0
2512 -2402 -2510 -2528 0
-2512 2402 2510 -2528 0
-2512 2402 -2510 -2528 0
-2512 -2402 2510 -2528 0
-2512 -2402 -2510 -2528 0
2528 2529 0
-2528 -2529 0
2508 2529 2530 0
2508 -2529 -2530 0
-2508 2529 -2530 0
-2508 -2529 -2530 0
2530 2531 0
-2530 -2531 0
2527 2531 2532 0
2527 -2531 -2532 0
-2527 2531 -2532 0
-2527 -2531 -2532 0
2445 2533 0
-2445 -2533 0
2510 2514 2405 2534 0
2510 2514 -2405 -2534 0
2510 -2514 2405 -2534 0
2510 -2514 -2405 -2534 0
-2510 2514 2405 -2534 0
-2510 2514 -2405 -2534 0
-2510 -2514 2405 -2534 0
-2510 -2514 -2405 -2534 0
2534 2535 0
-2534 -2535 0
2508 2535 2536 0
2508 -2535 -2536 0
-2508 2535 -2536 0
-2508 -2535 -2536 0
2536 2537 0
-2536 -2537 0
2533 2537 2538 0
2533 -2537 -2538 0
-2533 2537 -2538 0
-2533 -2537 -2538 0
2520 2526 2532 2538 -2539 0
2520 2526 2532 -2538 2539 0
2520 2526 -2532 2538 2539 0
2520 2526 -2532 -2538 2539 0
2520 -2526 2532 2538 2539 0
2520 -2526 2532 -2538 2539 0
2520 -2526 -2532 2538 2539 0
2520 -2526 -2532 -2538 2539 0
-2520 2526 2532 2538 2539 0
-2520 2526 2532 -2538 2539 0
-2520 2526 -2532 2538 2539 0
-2520 2526 -2532 -2538 2539 0
-2520 -2526 2532 2538 2539 0
-2520 -2526 2532 -2538 2539 0
-2520 -2526 -2532 2538 2539 0
-2520 -2526 -2532 -2538 2539 0
2508 2407 2540 0
2508 -2407 -2540 0
-2508 2407 -2540 0
-2508 -2407 -2540 0
2540 2541 0
-2540 -2541 0
2436 2542 0
-2436 -2542 0
2541 2542 2543 0
2541 -2542 -2543 0
-2541 2542 -2543 0
-2541 -2542 -2543 0
2476 2544 0
-2476 -2544 0
2399 2512 2514 2545 0
2399 2512 -2514 -2545 0
2399 -2512 2514 -2545 0
2399 -2512 -2514 -2545 0
-2399 2512 2514 -2545 0
-2399 2512 -2514 -2545 0
-2399 -2512 2514 -2545 0
-2399 -2512 -2514 -2545 0
2545 2546 0
-2545 -2546 0
2508 2546 2547 0
2508 -2546 -2547 0
-2508 2546 -2547 0
-2508 -2546 -2547 0
2547 2548 0
-2547 -2548 0
2544 2548 2549 0
2544 -2548 -2549 0
-2544 2548 -2549 0
-2544 -2548 -2549 0
2432 2550 0
-2432 -2550 0
2399 2402 2512 2551 0
2399 2402 -2512 -2551 0
2399 -2402 2512 -2551 0
2399 -2402 -2512 -2551 0
-2399 2402 2512 -2551 0
-2399 2402 -2512 -2551 0
-2399 -2402 2512 -2551 0
-2399 -2402 -2512 -2551 0
2551 2552 0
-2551 -2552 0
2508 2552 2553 0
2508 -2552 -2553 0
-2508 2552 -2553 0
-2508 -2552 -2553 0
2553 2554 0
-2553 -2554 0
2550 2554 2555 0
2550 -2554 -2555 0
-2550 2554 -2555 0
-2550 -2554 -2555 0
2429 2556 0
-2429 -2556 0
2399 2514 2405 2557 0
2399 2514 -2405 -2557 0
2399 -2514 2405 -2557 0
2399 -2514 -2405 -2557 0
-2399 2514 2405 -2557 0
-2399 2514 -2405 -2557 0
-2399 -2514 2405 -2557 0
-2399 -2514 -2405 -2557 0
2557 2558 0
-2557 -2558 0
2558 2508 2559 0
2558 -2508 -2559 0
-2558 2508 -2559 0
-2558 -2508 -2559 0
2559 2560 0
-2559 -2560 0
2556 2560 2561 0
2556 -2560 -2561 0
-2556 2560 -2561 0
-2556 -2560 -2561 0
2543 2549 2555 2561 -2562 0
2543 2549 2555 -2561 2562 0
2543 2549 -2555 2561 2562 0
2543 2549 -2555 -2561 2562 0
2543 -2549 2555 2561 2562 0
2543 -2549 2555 -2561 2562 0
2543 -2549 -2555 2561 2562 0
2543 -2549 -2555 -2561 2562 0
-2543 2549 2555 2561 2562 0
-2543 2549 2555 -2561 2562 0
-2543 2549 -2555 2561 2562 0
-2543 2549 -2555 -2561 2562 0
-2543 -2549 2555 2561 2562 0
-2543 -2549 2555 -2561 2562 0
-2543 -2549 -2555 2561 2562 0
-2543 -2549 -2555 -2561 2562 0
2503 2539 2562 2563 0
2503 2539 -2562 -2563 0
2503 -2539 2562 -2563 0
2503 -2539 -2562 -2563 0
-2503 2539 2562 -2563 0
-2503 2539 -2562 -2563 0
-2503 -2539 2562 -2563 0
-2503 -2539 -2562 -2563 0
2018 2011 2564 0
2018 -2011 -2564 0
-2018 2011 -2564 0
-2018 -2011 -2564 0
2563 2564 2565 0
2563 -2564 -2565 0
-2563 2564 -2565 0
-2563 -2564 -2565 0
347 2566 0
-347 -2566 0
2566 2567 0
-2566 -2567 0
2567 2568 0
-2567 -2568 0
2409 2568 2569 0
2409 -2568 -2569 0
-2409 2568 -2569 0
-2409 -2568 -2569 0
2569 2570 0
-2569 -2570 0
2570 2522 2571 0
2570 -2522 -2571 0
-2570 2522 -2571 0
-2570 -2522 -2571 0
2571 2572 0
-2571 -2572 0
1840 2573 0
-1840 -2573 0
2573 1393 2574 0
2573 -1393 -2574 0
-2573 1393 -2574 0
-2573 -1393 -2574 0
2573 2575 0
-2573 -2575 0
2575 1201 2576 0
2575 -1201 -2576 0
-2575 1201 -2576 0
-2575 -1201 -2576 0
2574 2576 -2577 0
2574 -2576 2577 0
-2574 2576 2577 0
-2574 -2576 2577 0
2577 2578 0
-2577 -2578 0
2572 2578 2579 0
2572 -2578 -2579 0
-2572 2578 -2579 0
-2572 -2578 -2579 0
2573 1397 2580 0
2573 -1397 -2580 0
-2573 1397 -2580 0
-2573 -1397 -2580 0
2575 1205 2581 0
2575 -1205 -2581 0
-2575 1205 -2581 0
-2575 -1205 -2581 0
2580 2581 -2582 0
2580 -2581 2582 0
-2580 2581 2582 0
-2580 -2581 2582 0
2582 2583 0
-2582 -2583 0
2546 2570 2584 0
2546 -2570 -2584 0
-2546 2570 -2584 0
-2546 -2570 -2584 0
2584 2585 0
-2584 -2585 0
2583 2585 2586 0
2583 -2585 -2586 0
-2583 2585 -2586 0
-2583 -2585 -2586 0
2529 2570 2587 0
2529 -2570 -2587 0
-2529 2570 -2587 0
-2529 -2570 -2587 0
2587 2588 0
-2587 -2588 0
2573 1442 2589 0
2573 -1442 -2589 0
-2573 1442 -2589 0
-2573 -1442 -2589 0
1254 2575 2590 0
1254 -2575 -2590 0
-1254 2575 -2590 0
-1254 -2575 -2590 0
2589 2590 -2591 0
2589 -2590 2591 0
-2589 2590 2591 0
-2589 -2590 2591 0
2591 2592 0
-2591 -2592 0
2588 2592 2593 0
2588 -2592 -2593 0
-2588 2592 -2593 0
-2588 -2592 -2593 0
2558 2570 2594 0
2558 -2570 -2594 0
-2558 2570 -2594 0
-2558 -2570 -2594 0
2594 2595 0
-2594 -2595 0
1389 2573 2596 0
1389 -2573 -2596 0
-1389 2573 -2596 0
-1389 -2573 -2596 0
1197 2575 2597 0
1197 -2575 -2597 0
-1197 2575 -2597 0
-1197 -2575 -2597 0
2596 2597 -2598 0
2596 -2597 2598 0
-2596 2597 2598 0
-2596 -2597 2598 0
2598 2599 0
-2598 -2599 0
2595 2599 2600 0
2595 -2599 -2600 0
-2595 2599 -2600 0
-2595 -2599 -2600 0
2579 2586 2593 2600 -2601 0
2579 2586 2593 -2600 2601 0
2579 2586 -2593 2600 2601 0
2579 2586 -2593 -2600 2601 0
2579 -2586 2593 2600 2601 0
2579 -2586 2593 -2600 2601 0
2579 -2586 -2593 2600 2601 0
2579 -2586 -2593 -2600 2601 0
-2579 2586 2593 2600 2601 0
-2579 2586 2593 -2600 2601 0
-2579 2586 -2593 2600 2601 0
-2579 2586 -2593 -2600 2601 0
-2579 -2586 2593 2600 2601 0
-2579 -2586 2593 -2600 2601 0
-2579 -2586 -2593 2600 2601 0
-2579 -2586 -2593 -2600 2601 0
2506 2568 2602 0
2506 -2568 -2602 0
-2506 2568 -2602 0
-2506 -2568 -2602 0
2602 2603 0
-2602 -2603 0
2603 2552 2604 0
2603 -2552 -2604 0
-2603 2552 -2604 0
-2603 -2552 -2604 0
2604 2605 0
-2604 -2605 0
2564 2606 0
-2564 -2606 0
1987 2606 2607 0
1987 -2606 -2607 0
-1987 2606 -2607 0
-1987 -2606 -2607 0
2605 2607 2608 0
2605 -2607 -2608 0
-2605 2607 -2608 0
-2605 -2607 -2608 0
366 2609 0
-366 -2609 0
2609 1987 2610 0
2609 -1987 -2610 0
-2609 1987 -2610 0
-2609 -1987 -2610 0
2407 2603 2611 0
2407 -2603 -2611 0
-2407 2603 -2611 0
-2407 -2603 -2611 0
2611 2612 0
-2611 -2612 0
2610 2612 2613 0
2610 -2612 -2613 0
-2610 2612 -2613 0
-2610 -2612 -2613 0
2608 2613 -2614 0
2608 -2613 2614 0
-2608 2613 2614 0
-2608 -2613 2614 0
1840 2615 0
-1840 -2615 0
2615 1009 2616 0
2615 -1009 -2616 0
-2615 1009 -2616 0
-2615 -1009 -2616 0
2615 2617 0
-2615 -2617 0
533 2617 2618 0
533 -2617 -2618 0
-533 2617 -2618 0
-533 -2617 -2618 0
2616 2618 -2619 0
2616 -2618 2619 0
-2616 2618 2619 0
-2616 -2618 2619 0
2619 2620 0
-2619 -2620 0
2603 2522 2621 0
2603 -2522 -2621 0
-2603 2522 -2621 0
-2603 -2522 -2621 0
2621 2622 0
-2621 -2622 0
2620 2622 2623 0
2620 -2622 -2623 0
-2620 2622 -2623 0
-2620 -2622 -2623 0
2617 529 2624 0
2617 -529 -2624 0
-2617 529 -2624 0
-2617 -529 -2624 0
1005 2615 2625 0
1005 -2615 -2625 0
-1005 2615 -2625 0
-1005 -2615 -2625 0
2624 2625 -2626 0
2624 -2625 2626 0
-2624 2625 2626 0
-2624 -2625 2626 0
2626 2627 0
-2626 -2627 0
2603 2558 2628 0
2603 -2558 -2628 0
-2603 2558 -2628 0
-2603 -2558 -2628 0
2628 2629 0
-2628 -2629 0
2627 2629 2630 0
2627 -2629 -2630 0
-2627 2629 -2630 0
-2627 -2629 -2630 0
586 2617 2631 0
586 -2617 -2631 0
-586 2617 -2631 0
-586 -2617 -2631 0
1059 2615 2632 0
1059 -2615 -2632 0
-1059 2615 -2632 0
-1059 -2615 -2632 0
2631 2632 -2633 0
2631 -2632 2633 0
-2631 2632 2633 0
-2631 -2632 2633 0
2633 2634 0
-2633 -2634 0
2529 2603 2635 0
2529 -2603 -2635 0
-2529 2603 -2635 0
-2529 -2603 -2635 0
2635 2636 0
-2635 -2636 0
2634 2636 2637 0
2634 -2636 -2637 0
-2634 2636 -2637 0
-2634 -2636 -2637 0
2615 1013 2638 0
2615 -1013 -2638 0
-2615 1013 -2638 0
-2615 -1013 -2638 0
2617 537 2639 0
2617 -537 -2639 0
-2617 537 -2639 0
-2617 -537 -2639 0
2638 2639 -2640 0
2638 -2639 2640 0
-2638 2639 2640 0
-2638 -2639 2640 0
2640 2641 0
-2640 -2641 0
2546 2603 2642 0
2546 -2603 -2642 0
-2546 2603 -2642 0
-2546 -2603 -2642 0
2642 2643 0
-2642 -2643 0
2641 2643 2644 0
2641 -2643 -2644 0
-2641 2643 -2644 0
-2641 -2643 -2644 0
2623 2630 2637 2644 -2645 0
2623 2630 2637 -2644 2645 0
2623 2630 -2637 2644 2645 0
2623 2630 -2637 -2644 2645 0
2623 -2630 2637 2644 2645 0
2623 -2630 2637 -2644 2645 0
2623 -2630 -2637 2644 2645 0
2623 -2630 -2637 -2644 2645 0
-2623 2630 2637 2644 2645 0
-2623 2630 2637 -2644 2645 0
-2623 2630 -2637 2644 2645 0
-2623 2630 -2637 -2644 2645 0
-2623 -2630 2637 2644 2645 0
-2623 -2630 2637 -2644 2645 0
-2623 -2630 -2637 2644 2645 0
-2623 -2630 -2637 -2644 2645 0
1042 2615 2646 0
1042 -2615 -2646 0
-1042 2615 -2646 0
-1042 -2615 -2646 0
566 2617 2647 0
566 -2617 -2647 0
-566 2617 -2647 0
-566 -2617 -2647 0
2646 2647 -2648 0
2646 -2647 2648 0
-2646 2647 2648 0
-2646 -2647 2648 0
2648 2649 0
-2648 -2649 0
2570 2552 2650 0
2570 -2552 -2650 0
-2570 2552 -2650 0
-2570 -2552 -2650 0
2650 2651 0
-2650 -2651 0
2649 2651 2652 0
2649 -2651 -2652 0
-2649 2651 -2652 0
-2649 -2651 -2652 0
2570 2407 2653 0
2570 -2407 -2653 0
-2570 2407 -2653 0
-2570 -2407 -2653 0
2653 2654 0
-2653 -2654 0
2617 558 2655 0
2617 -558 -2655 0
-2617 558 -2655 0
-2617 -558 -2655 0
2615 1034 2656 0
2615 -1034 -2656 0
-2615 1034 -2656 0
-2615 -1034 -2656 0
2655 2656 -2657 0
2655 -2656 2657 0
-2655 2656 2657 0
-2655 -2656 2657 0
2657 2658 0
-2657 -2658 0
2654 2658 2659 0
2654 -2658 -2659 0
-2654 2658 -2659 0
-2654 -2658 -2659 0
2603 2516 2660 0
2603 -2516 -2660 0
-2603 2516 -2660 0
-2603 -2516 -2660 0
2660 2661 0
-2660 -2661 0
590 2617 2662 0
590 -2617 -2662 0
-590 2617 -2662 0
-590 -2617 -2662 0
2615 1063 2663 0
2615 -1063 -2663 0
-2615 1063 -2663 0
-2615 -1063 -2663 0
2662 2663 -2664 0
2662 -2663 2664 0
-2662 2663 2664 0
-2662 -2663 2664 0
2664 2665 0
-2664 -2665 0
2661 2665 2666 0
2661 -2665 -2666 0
-2661 2665 -2666 0
-2661 -2665 -2666 0
2535 2603 2667 0
2535 -2603 -2667 0
-2535 2603 -2667 0
-2535 -2603 -2667 0
2667 2668 0
-2667 -2668 0
594 2617 2669 0
594 -2617 -2669 0
-594 2617 -2669 0
-594 -2617 -2669 0
1067 2615 2670 0
1067 -2615 -2670 0
-1067 2615 -2670 0
-1067 -2615 -2670 0
2669 2670 -2671 0
2669 -2670 2671 0
-2669 2670 2671 0
-2669 -2670 2671 0
2671 2672 0
-2671 -2672 0
2668 2672 2673 0
2668 -2672 -2673 0
-2668 2672 -2673 0
-2668 -2672 -2673 0
2652 2659 2666 2673 -2674 0
2652 2659 2666 -2673 2674 0
2652 2659 -2666 2673 2674 0
2652 2659 -2666 -2673 2674 0
2652 -2659 2666 2673 2674 0
2652 -2659 2666 -2673 2674 0
2652 -2659 -2666 2673 2674 0
2652 -2659 -2666 -2673 2674 0
-2652 2659 2666 2673 2674 0
-2652 2659 2666 -2673 2674 0
-2652 2659 -2666 2673 2674 0
-2652 2659 -2666 -2673 2674 0
-2652 -2659 2666 2673 2674 0
-2652 -2659 2666 -2673 2674 0
-2652 -2659 -2666 2673 2674 0
-2652 -2659 -2666 -2673 2674 0
2601 2614 2645 2674 2675 0
2601 2614 2645 -2674 -2675 0
2601 2614 -2645 2674 -2675 0
2601 2614 -2645 -2674 -2675 0
2601 -2614 2645 2674 -2675 0
2601 -2614 2645 -2674 -2675 0
2601 -2614 -2645 2674 -2675 0
2601 -2614 -2645 -2674 -2675 0
-2601 2614 2645 2674 -2675 0
-2601 2614 2645 -2674 -2675 0
-2601 2614 -2645 2674 -2675 0
-2601 2614 -2645 -2674 -2675 0
-2601 -2614 2645 2674 -2675 0
-2601 -2614 2645 -2674 -2675 0
-2601 -2614 -2645 2674 -2675 0
-2601 -2614 -2645 -2674 -2675 0
407 2676 0
-407 -2676 0
2675 2676 2677 0
2675 -2676 -2677 0
-2675 2676 -2677 0
-2675 -2676 -2677 0
237 2678 0
-237 -2678 0
2678 2679 0
-2678 -2679 0
311 2680 0
-311 -2680 0
2680 2681 0
-2680 -2681 0
720 2679 2681 2682 0
720 2679 -2681 -2682 0
720 -2679 2681 -2682 0
720 -2679 -2681 -2682 0
-720 2679 2681 -2682 0
-720 2679 -2681 -2682 0
-720 -2679 2681 -2682 0
-720 -2679 -2681 -2682 0
400 2683 0
-400 -2683 0
2683 2684 0
-2683 -2684 0
362 2685 0
-362 -2685 0
2685 2686 0
-2685 -2686 0
2686 2687 0
-2686 -2687 0
377 2688 0
-377 -2688 0
2688 2689 0
-2688 -2689 0
388 2690 0
-388 -2690 0
2690 2691 0
-2690 -2691 0
2689 2691 2692 0
2689 -2691 -2692 0
-2689 2691 -2692 0
-2689 -2691 -2692 0
2687 2692 -2693 0
2687 -2692 2693 0
-2687 2692 2693 0
-2687 -2692 2693 0
2693 2694 0
-2693 -2694 0
2694 2617 2695 0
2694 -2617 -2695 0
-2694 2617 -2695 0
-2694 -2617 -2695 0
2695 2696 0
-2695 -2696 0
406 2697 0
-406 -2697 0
2697 2698 0
-2697 -2698 0
2684 2696 2698 2699 0
2684 2696 -2698 -2699 0
2684 -2696 2698 -2699 0
2684 -2696 -2698 -2699 0
-2684 2696 2698 -2699 0
-2684 2696 -2698 -2699 0
-2684 -2696 2698 -2699 0
-2684 -2696 -2698 -2699 0
2693 2700 0
-2693 -2700 0
2700 2701 0
-2700 -2701 0
2701 2617 2702 0
2701 -2617 -2702 0
-2701 2617 -2702 0
-2701 -2617 -2702 0
2702 2703 0
-2702 -2703 0
391 2704 0
-391 -2704 0
2704 2705 0
-2704 -2705 0
2698 2703 2705 2706 0
2698 2703 -2705 -2706 0
2698 -2703 2705 -2706 0
2698 -2703 -2705 -2706 0
-2698 2703 2705 -2706 0
-2698 2703 -2705 -2706 0
-2698 -2703 2705 -2706 0
-2698 -2703 -2705 -2706 0
2682 2699 2706 -2707 0
2682 2699 -2706 2707 0
2682 -2699 2706 2707 0
2682 -2699 -2706 2707 0
-2682 2699 2706 2707 0
-2682 2699 -2706 2707 0
-2682 -2699 2706 2707 0
-2682 -2699 -2706 2707 0
2565 2677 2707 2708 0
2565 2677 -2707 -2708 0
2565 -2677 2707 -2708 0
2565 -2677 -2707 -2708 0
-2565 2677 2707 -2708 0
-2565 2677 -2707 -2708 0
-2565 -2677 2707 -2708 0
-2565 -2677 -2707 -2708 0
2708 2709 0
-2708 -2709 0
2401 2710 0
-2401 -2710 0
2710 2711 0
-2710 -2711 0
305 2712 0
-305 -2712 0
2712 2713 0
-2712 -2713 0
2713 2714 0
-2713 -2714 0
2404 2715 0
-2404 -2715 0
2715 2716 0
-2715 -2716 0
2711 2714 2716 2717 0
2711 2714 -2716 -2717 0
2711 -2714 2716 -2717 0
2711 -2714 -2716 -2717 0
-2711 2714 2716 -2717 0
-2711 2714 -2716 -2717 0
-2711 -2714 2716 -2717 0
-2711 -2714 -2716 -2717 0
305 2718 0
-305 -2718 0
2718 2719 0
-2718 -2719 0
2719 2720 0
-2719 -2720 0
2720 2721 0
-2720 -2721 0
2511 2722 0
-2511 -2722 0
2722 2723 0
-2722 -2723 0
2711 2721 2723 2724 0
2711 2721 -2723 -2724 0
2711 -2721 2723 -2724 0
2711 -2721 -2723 -2724 0
-2711 2721 2723 -2724 0
-2711 2721 -2723 -2724 0
-2711 -2721 2723 -2724 0
-2711 -2721 -2723 -2724 0
2513 2725 0
-2513 -2725 0
2725 2726 0
-2725 -2726 0
2726 2714 2723 2727 0
2726 2714 -2723 -2727 0
2726 -2714 2723 -2727 0
2726 -2714 -2723 -2727 0
-2726 2714 2723 -2727 0
-2726 2714 -2723 -2727 0
-2726 -2714 2723 -2727 0
-2726 -2714 -2723 -2727 0
2726 2721 2716 2728 0
2726 2721 -2716 -2728 0
2726 -2721 2716 -2728 0
2726 -2721 -2716 -2728 0
-2726 2721 2716 -2728 0
-2726 2721 -2716 -2728 0
-2726 -2721 2716 -2728 0
-2726 -2721 -2716 -2728 0
2717 2724 2727 2728 -2729 0
2717 2724 2727 -2728 2729 0
2717 2724 -2727 2728 2729 0
2717 2724 -2727 -2728 2729 0
2717 -2724 2727 2728 2729 0
2717 -2724 2727 -2728 2729 0
2717 -2724 -2727 2728 2729 0
2717 -2724 -2727 -2728 2729 0
-2717 2724 2727 2728 2729 0
-2717 2724 2727 -2728 2729 0
-2717 2724 -2727 2728 2729 0
-2717 2724 -2727 -2728 2729 0
-2717 -2724 2727 2728 2729 0
-2717 -2724 2727 -2728 2729 0
-2717 -2724 -2727 2728 2729 0
-2717 -2724 -2727 -2728 2729 0
2729 2730 0
-2729 -2730 0
2730 2731 0
-2730 -2731 0
2567 2732 0
-2567 -2732 0
2732 2733 0
-2732 -2733 0
2398 2734 0
-2398 -2734 0
2734 2735 0
-2734 -2735 0
2505 2736 0
-2505 -2736 0
2736 2737 0
-2736 -2737 0
2733 2735 2737 2738 0
2733 2735 -2737 -2738 0
2733 -2735 2737 -2738 0
2733 -2735 -2737 -2738 0
-2733 2735 2737 -2738 0
-2733 2735 -2737 -2738 0
-2733 -2735 2737 -2738 0
-2733 -2735 -2737 -2738 0
2509 2739 0
-2509 -2739 0
2739 2740 0
-2739 -2740 0
2408 2741 0
-2408 -2741 0
2741 2742 0
-2741 -2742 0
2733 2740 2742 2743 0
2733 2740 -2742 -2743 0
2733 -2740 2742 -2743 0
2733 -2740 -2742 -2743 0
-2733 2740 2742 -2743 0
-2733 2740 -2742 -2743 0
-2733 -2740 2742 -2743 0
-2733 -2740 -2742 -2743 0
2410 2744 0
-2410 -2744 0
2744 2745 0
-2744 -2745 0
2745 2735 2742 2746 0
2745 2735 -2742 -2746 0
2745 -2735 2742 -2746 0
2745 -2735 -2742 -2746 0
-2745 2735 2742 -2746 0
-2745 2735 -2742 -2746 0
-2745 -2735 2742 -2746 0
-2745 -2735 -2742 -2746 0
2745 2740 2737 2747 0
2745 2740 -2737 -2747 0
2745 -2740 2737 -2747 0
2745 -2740 -2737 -2747 0
-2745 2740 2737 -2747 0
-2745 2740 -2737 -2747 0
-2745 -2740 2737 -2747 0
-2745 -2740 -2737 -2747 0
2738 2743 2746 2747 -2748 0
2738 2743 2746 -2747 2748 0
2738 2743 -2746 2747 2748 0
2738 2743 -2746 -2747 2748 0
2738 -2743 2746 2747 2748 0
2738 -2743 2746 -2747 2748 0
2738 -2743 -2746 2747 2748 0
2738 -2743 -2746 -2747 2748 0
-2738 2743 2746 2747 2748 0
-2738 2743 2746 -2747 2748 0
-2738 2743 -2746 2747 2748 0
-2738 2743 -2746 -2747 2748 0
-2738 -2743 2746 2747 2748 0
-2738 -2743 2746 -2747 2748 0
-2738 -2743 -2746 2747 2748 0
-2738 -2743 -2746 -2747 2748 0
2748 2749 0
-2748 -2749 0
2749 2750 0
-2749 -2750 0
2731 2750 2751 0
2731 -2750 -2751 0
-2731 2750 -2751 0
-2731 -2750 -2751 0
2731 2751 2752 0
2731 -2751 -2752 0
-2731 2751 -2752 0
-2731 -2751 -2752 0
2751 2750 2753 0
2751 -2750 -2753 0
-2751 2750 -2753 0
-2751 -2750 -2753 0
2752 2753 -2754 0
2752 -2753 2754 0
-2752 2753 2754 0
-2752 -2753 2754 0
2754 2755 0
-2754 -2755 0
2709 2755 -2756 0
2709 -2755 2756 0
-2709 2755 2756 0
-2709 -2755 2756 0
2756 2757 0
-2756 -2757 0
2757 2758 0
-2757 -2758 0
2758 2759 0
-2758 -2759 0
2759 2760 0
-2759 -2760 0
2396 2760 -2761 0
2396 -2760 2761 0
-2396 2760 2761 0
-2396 -2760 -2761 0
2344 2762 0
-2344 -2762 0
309 2763 0
-309 -2763 0
2763 2764 0
-2763 -2764 0
2764 2765 0
-2764 -2765 0
2765 2766 0
-2765 -2766 0
308 2767 0
-308 -2767 0
2767 2768 0
-2767 -2768 0
2768 2769 0
-2768 -2769 0
2769 2770 0
-2769 -2770 0
2770 2771 0
-2770 -2771 0
324 2772 0
-324 -2772 0
2772 2773 0
-2772 -2773 0
2773 2774 0
-2773 -2774 0
2774 2775 0
-2774 -2775 0
2766 2771 2775 2776 0
2766 2771 -2775 -2776 0
2766 -2771 2775 -2776 0
2766 -2771 -2775 -2776 0
-2766 2771 2775 -2776 0
-2766 2771 -2775 -2776 0
-2766 -2771 2775 -2776 0
-2766 -2771 -2775 -2776 0
308 2777 0
-308 -2777 0
2777 2778 0
-2777 -2778 0
2778 2779 0
-2778 -2779 0
2779 2780 0
-2779 -2780 0
324 2781 0
-324 -2781 0
2781 2782 0
-2781 -2782 0
2782 2783 0
-2782 -2783 0
2783 2784 0
-2783 -2784 0
2784 2785 0
-2784 -2785 0
2766 2780 2785 2786 0
2766 2780 -2785 -2786 0
2766 -2780 2785 -2786 0
2766 -2780 -2785 -2786 0
-2766 2780 2785 -2786 0
-2766 2780 -2785 -2786 0
-2766 -2780 2785 -2786 0
-2766 -2780 -2785 -2786 0
309 2787 0
-309 -2787 0
2787 2788 0
-2787 -2788 0
2788 2789 0
-2788 -2789 0
2789 2790 0
-2789 -2790 0
2790 2791 0
-2790 -2791 0
2791 2771 2785 2792 0
2791 2771 -2785 -2792 0
2791 -2771 2785 -2792 0
2791 -2771 -2785 -2792 0
-2791 2771 2785 -2792 0
-2791 2771 -2785 -2792 0
-2791 -2771 2785 -2792 0
-2791 -2771 -2785 -2792 0
2791 2780 2775 2793 0
2791 2780 -2775 -2793 0
2791 -2780 2775 -2793 0
2791 -2780 -2775 -2793 0
-2791 2780 2775 -2793 0
-2791 2780 -2775 -2793 0
-2791 -2780 2775 -2793 0
-2791 -2780 -2775 -2793 0
2776 2786 2792 2793 -2794 0
2776 2786 2792 -2793 2794 0
2776 2786 -2792 2793 2794 0
2776 2786 -2792 -2793 2794 0
2776 -2786 2792 2793 2794 0
2776 -2786 2792 -2793 2794 0
2776 -2786 -2792 2793 2794 0
2776 -2786 -2792 -2793 2794 0
-2776 2786 2792 2793 2794 0
-2776 2786 2792 -2793 2794 0
-2776 2786 -2792 2793 2794 0
-2776 2786 -2792 -2793 2794 0
-2776 -2786 2792 2793 2794 0
-2776 -2786 2792 -2793 2794 0
-2776 -2786 -2792 2793 2794 0
-2776 -2786 -2792 -2793 2794 0
2794 2795 0
-2794 -2795 0
2795 2796 0
-2795 -2796 0
307 2797 0
-307 -2797 0
2797 2798 0
-2797 -2798 0
2798 2799 0
-2798 -2799 0
2799 2800 0
-2799 -2800 0
306 2801 0
-306 -2801 0
2801 2802 0
-2801 -2802 0
2802 2803 0
-2802 -2803 0
2803 2804 0
-2803 -2804 0
315 2805 0
-315 -2805 0
2805 2806 0
-2805 -2806 0
2806 2807 0
-2806 -2807 0
2807 2808 0
-2807 -2808 0
2800 2804 2808 2809 0
2800 2804 -2808 -2809 0
2800 -2804 2808 -2809 0
2800 -2804 -2808 -2809 0
-2800 2804 2808 -2809 0
-2800 2804 -2808 -2809 0
-2800 -2804 2808 -2809 0
-2800 -2804 -2808 -2809 0
306 2810 0
-306 -2810 0
2810 2811 0
-2810 -2811 0
2811 2812 0
-2811 -2812 0
315 2813 0
-315 -2813 0
2813 2814 0
-2813 -2814 0
2814 2815 0
-2814 -2815 0
2800 2812 2815 2816 0
2800 2812 -2815 -2816 0
2800 -2812 2815 -2816 0
2800 -2812 -2815 -2816 0
-2800 2812 2815 -2816 0
-2800 2812 -2815 -2816 0
-2800 -2812 2815 -2816 0
-2800 -2812 -2815 -2816 0
307 2817 0
-307 -2817 0
2817 2818 0
-2817 -2818 0
2818 2819 0
-2818 -2819 0
2819 2804 2815 2820 0
2819 2804 -2815 -2820 0
2819 -2804 2815 -2820 0
2819 -2804 -2815 -2820 0
-2819 2804 2815 -2820 0
-2819 2804 -2815 -2820 0
-2819 -2804 2815 -2820 0
-2819 -2804 -2815 -2820 0
2819 2812 2808 2821 0
2819 2812 -2808 -2821 0
2819 -2812 2808 -2821 0
2819 -2812 -2808 -2821 0
-2819 2812 2808 -2821 0
-2819 2812 -2808 -2821 0
-2819 -2812 2808 -2821 0
-2819 -2812 -2808 -2821 0
2809 2816 2820 2821 -2822 0
2809 2816 2820 -2821 2822 0
2809 2816 -2820 2821 2822 0
2809 2816 -2820 -2821 2822 0
2809 -2816 2820 2821 2822 0
2809 -2816 2820 -2821 2822 0
2809 -2816 -2820 2821 2822 0
2809 -2816 -2820 -2821 2822 0
-2809 2816 2820 2821 2822 0
-2809 2816 2820 -2821 2822 0
-2809 2816 -2820 2821 2822 0
-2809 2816 -2820 -2821 2822 0
-2809 -2816 2820 2821 2822 0
-2809 -2816 2820 -2821 2822 0
-2809 -2816 -2820 2821 2822 0
-2809 -2816 -2820 -2821 2822 0
2822 2823 0
-2822 -2823 0
2823 2824 0
-2823 -2824 0
2796 2824 2825 0
2796 -2824 -2825 0
-2796 2824 -2825 0
-2796 -2824 -2825 0
2796 2825 2826 0
2796 -2825 -2826 0
-2796 2825 -2826 0
-2796 -2825 -2826 0
2825 2824 2827 0
2825 -2824 -2827 0
-2825 2824 -2827 0
-2825 -2824 -2827 0
2826 2827 -2828 0
2826 -2827 2828 0
-2826 2827 2828 0
-2826 -2827 2828 0
2828 2829 0
-2828 -2829 0
2762 2829 -2830 0
2762 -2829 2830 0
-2762 2829 2830 0
-2762 -2829 2830 0
2830 2831 0
-2830 -2831 0
2831 2832 0
-2831 -2832 0
2832 2833 0
-2832 -2833 0
2833 2834 0
-2833 -2834 0
2708 2835 0
-2708 -2835 0
309 2836 0
-309 -2836 0
2836 2837 0
-2836 -2837 0
2837 2838 0
-2837 -2838 0
2838 2839 0
-2838 -2839 0
308 2840 0
-308 -2840 0
2840 2841 0
-2840 -2841 0
2841 2842 0
-2841 -2842 0
2842 2843 0
-2842 -2843 0
2843 2844 0
-2843 -2844 0
324 2845 0
-324 -2845 0
2845 2846 0
-2845 -2846 0
2846 2847 0
-2846 -2847 0
2847 2848 0
-2847 -2848 0
2839 2844 2848 2849 0
2839 2844 -2848 -2849 0
2839 -2844 2848 -2849 0
2839 -2844 -2848 -2849 0
-2839 2844 2848 -2849 0
-2839 2844 -2848 -2849 0
-2839 -2844 2848 -2849 0
-2839 -2844 -2848 -2849 0
308 2850 0
-308 -2850 0
2850 2851 0
-2850 -2851 0
2851 2852 0
-2851 -2852 0
2852 2853 0
-2852 -2853 0
324 2854 0
-324 -2854 0
2854 2855 0
-2854 -2855 0
2855 2856 0
-2855 -2856 0
2856 2857 0
-2856 -2857 0
2857 2858 0
-2857 -2858 0
2839 2853 2858 2859 0
2839 2853 -2858 -2859 0
2839 -2853 2858 -2859 0
2839 -2853 -2858 -2859 0
-2839 2853 2858 -2859 0
-2839 2853 -2858 -2859 0
-2839 -2853 2858 -2859 0
-2839 -2853 -2858 -2859 0
309 2860 0
-309 -2860 0
2860 2861 0
-2860 -2861 0
2861 2862 0
-2861 -2862 0
2862 2863 0
-2862 -2863 0
2863 2864 0
-2863 -2864 0
2864 2844 2858 2865 0
2864 2844 -2858 -2865 0
2864 -2844 2858 -2865 0
2864 -2844 -2858 -2865 0
-2864 2844 2858 -2865 0
-2864 2844 -2858 -2865 0
-2864 -2844 2858 -2865 0
-2864 -2844 -2858 -2865 0
2864 2853 2848 2866 0
2864 2853 -2848 -2866 0
2864 -2853 2848 -2866 0
2864 -2853 -2848 -2866 0
-2864 2853 2848 -2866 0
-2864 2853 -2848 -2866 0
-2864 -2853 2848 -2866 0
-2864 -2853 -2848 -2866 0
2849 2859 2865 2866 -2867 0
2849 2859 2865 -2866 2867 0
2849 2859 -2865 2866 2867 0
2849 2859 -2865 -2866 2867 0
2849 -2859 2865 2866 2867 0
2849 -2859 2865 -2866 2867 0
2849 -2859 -2865 2866 2867 0
2849 -2859 -2865 -2866 2867 0
-2849 2859 2865 2866 2867 0
-2849 2859 2865 -2866 2867 0
-2849 2859 -2865 2866 2867 0
-2849 2859 -2865 -2866 2867 0
-2849 -2859 2865 2866 2867 0
-2849 -2859 2865 -2866 2867 0
-2849 -2859 -2865 2866 2867 0
-2849 -2859 -2865 -2866 2867 0
2867 2868 0
-2867 -2868 0
2868 2869 0
-2868 -2869 0
307 2870 0
-307 -2870 0
2870 2871 0
-2870 -2871 0
2871 2872 0
-2871 -2872 0
2872 2873 0
-2872 -2873 0
306 2874 0
-306 -2874 0
2874 2875 0
-2874 -2875 0
2875 2876 0
-2875 -2876 0
2876 2877 0
-2876 -2877 0
315 2878 0
-315 -2878 0
2878 2879 0
-2878 -2879 0
2879 2880 0
-2879 -2880 0
2880 2881 0
-2880 -2881 0
2873 2877 2881 2882 0
2873 2877 -2881 -2882 0
2873 -2877 2881 -2882 0
2873 -2877 -2881 -2882 0
-2873 2877 2881 -2882 0
-2873 2877 -2881 -2882 0
-2873 -2877 2881 -2882 0
-2873 -2877 -2881 -2882 0
306 2883 0
-306 -2883 0
2883 2884 0
-2883 -2884 0
2884 2885 0
-2884 -2885 0
315 2886 0
-315 -2886 0
2886 2887 0
-2886 -2887 0
2887 2888 0
-2887 -2888 0
2873 2885 2888 2889 0
2873 2885 -2888 -2889 0
2873 -2885 2888 -2889 0
2873 -2885 -2888 -2889 0
-2873 2885 2888 -2889 0
-2873 2885 -2888 -2889 0
-2873 -2885 2888 -2889 0
-2873 -2885 -2888 -2889 0
307 2890 0
-307 -2890 0
2890 2891 0
-2890 -2891 0
2891 2892 0
-2891 -2892 0
2892 2877 2888 2893 0
2892 2877 -2888 -2893 0
2892 -2877 2888 -2893 0
2892 -2877 -2888 -2893 0
-2892 2877 2888 -2893 0
-2892 2877 -2888 -2893 0
-2892 -2877 2888 -2893 0
-2892 -2877 -2888 -2893 0
2892 2885 2881 2894 0
2892 2885 -2881 -2894 0
2892 -2885 2881 -2894 0
2892 -2885 -2881 -2894 0
-2892 2885 2881 -2894 0
-2892 2885 -2881 -2894 0
-2892 -2885 2881 -2894 0
-2892 -2885 -2881 -2894 0
2882 2889 2893 2894 -2895 0
2882 2889 2893 -2894 2895 0
2882 2889 -2893 2894 2895 0
2882 2889 -2893 -2894 2895 0
2882 -2889 2893 2894 2895 0
2882 -2889 2893 -2894 2895 0
2882 -2889 -2893 2894 2895 0
2882 -2889 -2893 -2894 2895 0
-2882 2889 2893 2894 2895 0
-2882 2889 2893 -2894 2895 0
-2882 2889 -2893 2894 2895 0
-2882 2889 -2893 -2894 2895 0
-2882 -2889 2893 2894 2895 0
-2882 -2889 2893 -2894 2895 0
-2882 -2889 -2893 2894 2895 0
-2882 -2889 -2893 -2894 2895 0
2895 2896 0
-2895 -2896 0
2896 2897 0
-2896 -2897 0
2869 2897 2898 0
2869 -2897 -2898 0
-2869 2897 -2898 0
-2869 -2897 -2898 0
2869 2898 2899 0
2869 -2898 -2899 0
-2869 2898 -2899 0
-2869 -2898 -2899 0
2898 2897 2900 0
2898 -2897 -2900 0
-2898 2897 -2900 0
-2898 -2897 -2900 0
2899 2900 -2901 0
2899 -2900 2901 0
-2899 2900 2901 0
-2899 -2900 2901 0
2901 2902 0
-2901 -2902 0
2835 2902 -2903 0
2835 -2902 2903 0
-2835 2902 2903 0
-2835 -2902 2903 0
2903 2904 0
-2903 -2904 0
2904 2905 0
-2904 -2905 0
2905 2906 0
-2905 -2906 0
2906 2907 0
-2906 -2907 0
2834 2907 -2908 0
2834 -2907 2908 0
-2834 2907 2908 0
-2834 -2907 -2908 0
410 2909 0
-410 -2909 0
1969 1933 1943 1948 2910 0
1969 1933 1943 -1948 -2910 0
1969 1933 -1943 1948 -2910 0
1969 1933 -1943 -1948 -2910 0
1969 -1933 1943 1948 -2910 0
1969 -1933 1943 -1948 -2910 0
1969 -1933 -1943 1948 -2910 0
1969 -1933 -1943 -1948 -2910 0
-1969 1933 1943 1948 -2910 0
-1969 1933 1943 -1948 -2910 0
-1969 1933 -1943 1948 -2910 0
-1969 1933 -1943 -1948 -2910 0
-1969 -1933 1943 1948 -2910 0
-1969 -1933 1943 -1948 -2910 0
-1969 -1933 -1943 1948 -2910 0
-1969 -1933 -1943 -1948 -2910 0
2909 2337 2910 2911 0
2909 2337 -2910 -2911 0
2909 -2337 2910 -2911 0
2909 -2337 -2910 -2911 0
-2909 2337 2910 -2911 0
-2909 2337 -2910 -2911 0
-2909 -2337 2910 -2911 0
-2909 -2337 -2910 -2911 0
2337 2200 2912 0
2337 -2200 -2912 0
-2337 2200 -2912 0
-2337 -2200 -2912 0
2338 2911 2912 2913 0
2338 2911 -2912 -2913 0
2338 -2911 2912 -2913 0
2338 -2911 -2912 -2913 0
-2338 2911 2912 -2913 0
-2338 2911 -2912 -2913 0
-2338 -2911 2912 -2913 0
-2338 -2911 -2912 -2913 0
389 2914 0
-389 -2914 0
2914 2915 0
-2914 -2915 0
2913 2915 2916 0
2913 -2915 -2916 0
-2913 2915 -2916 0
-2913 -2915 -2916 0
392 2917 0
-392 -2917 0
2917 2918 0
-2917 -2918 0
2337 2334 2910 2919 0
2337 2334 -2910 -2919 0
2337 -2334 2910 -2919 0
2337 -2334 -2910 -2919 0
-2337 2334 2910 -2919 0
-2337 2334 -2910 -2919 0
-2337 -2334 2910 -2919 0
-2337 -2334 -2910 -2919 0
2919 2920 0
-2919 -2920 0
2918 2920 2921 0
2918 -2920 -2921 0
-2918 2920 -2921 0
-2918 -2920 -2921 0
384 2922 0
-384 -2922 0
2922 2923 0
-2922 -2923 0
409 2924 0
-409 -2924 0
2923 2924 2330 2925 0
2923 2924 -2330 -2925 0
2923 -2924 2330 -2925 0
2923 -2924 -2330 -2925 0
-2923 2924 2330 -2925 0
-2923 2924 -2330 -2925 0
-2923 -2924 2330 -2925 0
-2923 -2924 -2330 -2925 0
404 2926 0
-404 -2926 0
2926 2927 0
-2926 -2927 0
409 2928 0
-409 -2928 0
2928 2929 0
-2928 -2929 0
2910 2930 0
-2910 -2930 0
2930 2242 2931 0
2930 -2242 -2931 0
-2930 2242 -2931 0
-2930 -2242 -2931 0
2330 2929 2931 2932 0
2330 2929 -2931 -2932 0
2330 -2929 2931 -2932 0
2330 -2929 -2931 -2932 0
-2330 2929 2931 -2932 0
-2330 2929 -2931 -2932 0
-2330 -2929 2931 -2932 0
-2330 -2929 -2931 -2932 0
2932 2331 2933 0
2932 -2331 -2933 0
-2932 2331 -2933 0
-2932 -2331 -2933 0
2927 2933 2934 0
2927 -2933 -2934 0
-2927 2933 -2934 0
-2927 -2933 -2934 0
2916 2921 2925 2934 -2935 0
2916 2921 2925 -2934 2935 0
2916 2921 -2925 2934 2935 0
2916 2921 -2925 -2934 2935 0
2916 -2921 2925 2934 2935 0
2916 -2921 2925 -2934 2935 0
2916 -2921 -2925 2934 2935 0
2916 -2921 -2925 -2934 2935 0
-2916 2921 2925 2934 2935 0
-2916 2921 2925 -2934 2935 0
-2916 2921 -2925 2934 2935 0
-2916 2921 -2925 -2934 2935 0
-2916 -2921 2925 2934 2935 0
-2916 -2921 2925 -2934 2935 0
-2916 -2921 -2925 2934 2935 0
-2916 -2921 -2925 -2934 2935 0
2935 2936 0
-2935 -2936 0
2936 2937 0
-2936 -2937 0
2937 2938 0
-2937 -2938 0
2938 2939 0
-2938 -2939 0
2939 2940 0
-2939 -2940 0
2940 2941 0
-2940 -2941 0
410 2942 0
-410 -2942 0
2023 1987 1997 2002 2943 0
2023 1987 1997 -2002 -2943 0
2023 1987 -1997 2002 -2943 0
2023 1987 -1997 -2002 -2943 0
2023 -1987 1997 2002 -2943 0
2023 -1987 1997 -2002 -2943 0
2023 -1987 -1997 2002 -2943 0
2023 -1987 -1997 -2002 -2943 0
-2023 1987 1997 2002 -2943 0
-2023 1987 1997 -2002 -2943 0
-2023 1987 -1997 2002 -2943 0
-2023 1987 -1997 -2002 -2943 0
-2023 -1987 1997 2002 -2943 0
-2023 -1987 1997 -2002 -2943 0
-2023 -1987 -1997 2002 -2943 0
-2023 -1987 -1997 -2002 -2943 0
2942 2701 2943 2944 0
2942 2701 -2943 -2944 0
2942 -2701 2943 -2944 0
2942 -2701 -2943 -2944 0
-2942 2701 2943 -2944 0
-2942 2701 -2943 -2944 0
-2942 -2701 2943 -2944 0
-2942 -2701 -2943 -2944 0
2701 2564 2945 0
2701 -2564 -2945 0
-2701 2564 -2945 0
-2701 -2564 -2945 0
2702 2944 2945 2946 0
2702 2944 -2945 -2946 0
2702 -2944 2945 -2946 0
2702 -2944 -2945 -2946 0
-2702 2944 2945 -2946 0
-2702 2944 -2945 -2946 0
-2702 -2944 2945 -2946 0
-2702 -2944 -2945 -2946 0
389 2947 0
-389 -2947 0
2947 2948 0
-2947 -2948 0
2946 2948 2949 0
2946 -2948 -2949 0
-2946 2948 -2949 0
-2946 -2948 -2949 0
392 2950 0
-392 -2950 0
2950 2951 0
-2950 -2951 0
2701 2698 2943 2952 0
2701 2698 -2943 -2952 0
2701 -2698 2943 -2952 0
2701 -2698 -2943 -2952 0
-2701 2698 2943 -2952 0
-2701 2698 -2943 -2952 0
-2701 -2698 2943 -2952 0
-2701 -2698 -2943 -2952 0
2952 2953 0
-2952 -2953 0
2951 2953 2954 0
2951 -2953 -2954 0
-2951 2953 -2954 0
-2951 -2953 -2954 0
384 2955 0
-384 -2955 0
2955 2956 0
-2955 -2956 0
409 2957 0
-409 -2957 0
2956 2957 2694 2958 0
2956 2957 -2694 -2958 0
2956 -2957 2694 -2958 0
2956 -2957 -2694 -2958 0
-2956 2957 2694 -2958 0
-2956 2957 -2694 -2958 0
-2956 -2957 2694 -2958 0
-2956 -2957 -2694 -2958 0
404 2959 0
-404 -2959 0
2959 2960 0
-2959 -2960 0
409 2961 0
-409 -2961 0
2961 2962 0
-2961 -2962 0
2943 2963 0
-2943 -2963 0
2963 2606 2964 0
2963 -2606 -2964 0
-2963 2606 -2964 0
-2963 -2606 -2964 0
2694 2962 2964 2965 0
2694 2962 -2964 -2965 0
2694 -2962 2964 -2965 0
2694 -2962 -2964 -2965 0
-2694 2962 2964 -2965 0
-2694 2962 -2964 -2965 0
-2694 -2962 2964 -2965 0
-2694 -2962 -2964 -2965 0
2965 2695 2966 0
2965 -2695 -2966 0
-2965 2695 -2966 0
-2965 -2695 -2966 0
2960 2966 2967 0
2960 -2966 -2967 0
-2960 2966 -2967 0
-2960 -2966 -2967 0
2949 2954 2958 2967 -2968 0
2949 2954 2958 -2967 2968 0
2949 2954 -2958 2967 2968 0
2949 2954 -2958 -2967 2968 0
2949 -2954 2958 2967 2968 0
2949 -2954 2958 -2967 2968 0
2949 -2954 -2958 2967 2968 0
2949 -2954 -2958 -2967 2968 0
-2949 2954 2958 2967 2968 0
-2949 2954 2958 -2967 2968 0
-2949 2954 -2958 2967 2968 0
-2949 2954 -2958 -2967 2968 0
-2949 -2954 2958 2967 2968 0
-2949 -2954 2958 -2967 2968 0
-2949 -2954 -2958 2967 2968 0
-2949 -2954 -2958 -2967 2968 0
2968 2969 0
-2968 -2969 0
2969 2970 0
-2969 -2970 0
2970 2971 0
-2970 -2971 0
2971 2972 0
-2971 -2972 0
2972 2973 0
-2972 -2973 0
2973 2974 0
-2973 -2974 0
2941 2974 -2975 0
2941 -2974 2975 0
-2941 2974 2975 0
-2941 -2974 -2975 0
2935 2976 0
-2935 -2976 0
2976 2977 0
-2976 -2977 0
2977 2978 0
-2977 -2978 0
2978 2979 0
-2978 -2979 0
2979 2980 0
-2979 -2980 0
2980 2981 0
-2980 -2981 0
2968 2982 0
-2968 -2982 0
2982 2983 0
-2982 -2983 0
2983 2984 0
-2983 -2984 0
2984 2985 0
-2984 -2985 0
2985 2986 0
-2985 -2986 0
2986 2987 0
-2986 -2987 0
2981 2987 -2988 0
2981 -2987 2988 0
-2981 2987 2988 0
-2981 -2987 -2988 0
385 2989 0
-385 -2989 0
2989 2990 0
-2989 -2990 0
382 2991 0
-382 -2991 0
374 2992 0
-374 -2992 0
2992 1828 2993 0
2992 -1828 -2993 0
-2992 1828 -2993 0
-2992 -1828 -2993 0
2993 2994 0
-2993 -2994 0
2994 2990 2995 0
2994 -2990 -2995 0
-2994 2990 -2995 0
-2994 -2990 -2995 0
2995 2996 0
-2995 -2996 0
267 2997 0
-267 -2997 0
2997 2998 0
-2997 -2998 0
2998 2999 0
-2998 -2999 0
2996 2999 3000 0
2996 -2999 -3000 0
-2996 2999 -3000 0
-2996 -2999 -3000 0
2991 3000 3001 0
2991 -3000 -3001 0
-2991 3000 -3001 0
-2991 -3000 -3001 0
383 3002 0
-383 -3002 0
3002 2991 3003 0
3002 -2991 -3003 0
-3002 2991 -3003 0
-3002 -2991 -3003 0
3003 3004 0
-3003 -3004 0
381 3005 0
-381 -3005 0
3005 3006 0
-3005 -3006 0
3004 3006 3007 0
3004 -3006 -3007 0
-3004 3006 -3007 0
-3004 -3006 -3007 0
266 3008 0
-266 -3008 0
3008 3009 0
-3008 -3009 0
3009 3010 0
-3009 -3010 0
3010 3011 0
-3010 -3011 0
3001 3007 3011 3012 0
3001 3007 -3011 -3012 0
3001 -3007 3011 -3012 0
3001 -3007 -3011 -3012 0
-3001 3007 3011 -3012 0
-3001 3007 -3011 -3012 0
-3001 -3007 3011 -3012 0
-3001 -3007 -3011 -3012 0
3012 3013 0
-3012 -3013 0
2990 648 3013 3014 0
2990 648 -3013 -3014 0
2990 -648 3013 -3014 0
2990 -648 -3013 -3014 0
-2990 648 3013 -3014 0
-2990 648 -3013 -3014 0
-2990 -648 3013 -3014 0
-2990 -648 -3013 -3014 0
399 3015 0
-399 -3015 0
3015 3016 0
-3015 -3016 0
3016 2920 3017 0
3016 -2920 -3017 0
-3016 2920 -3017 0
-3016 -2920 -3017 0
403 3018 0
-403 -3018 0
2330 3018 3019 0
2330 -3018 -3019 0
-2330 3018 -3019 0
-2330 -3018 -3019 0
395 3020 0
-395 -3020 0
3020 3021 0
-3020 -3021 0
2912 3022 0
-2912 -3022 0
3021 3022 3023 0
3021 -3022 -3023 0
-3021 3022 -3023 0
-3021 -3022 -3023 0
3019 3023 3024 0
3019 -3023 -3024 0
-3019 3023 -3024 0
-3019 -3023 -3024 0
2341 3024 3025 0
2341 -3024 -3025 0
-2341 3024 -3025 0
-2341 -3024 -3025 0
2045 2035 2047 -3026 0
2045 2035 -2047 3026 0
2045 -2035 2047 3026 0
2045 -2035 -2047 3026 0
-2045 2035 2047 3026 0
-2045 2035 -2047 3026 0
-2045 -2035 2047 3026 0
-2045 -2035 -2047 3026 0
2150 2041 3026 -3027 0
2150 2041 -3026 3027 0
2150 -2041 3026 3027 0
2150 -2041 -3026 3027 0
-2150 2041 3026 3027 0
-2150 2041 -3026 3027 0
-2150 -2041 3026 3027 0
-2150 -2041 -3026 3027 0
3027 3028 0
-3027 -3028 0
2932 3029 0
-2932 -3029 0
3028 3029 3030 0
3028 -3029 -3030 0
-3028 3029 -3030 0
-3028 -3029 -3030 0
406 3031 0
-406 -3031 0
403 3032 0
-403 -3032 0
3032 3033 0
-3032 -3033 0
3031 3033 2332 3034 0
3031 3033 -2332 -3034 0
3031 -3033 2332 -3034 0
3031 -3033 -2332 -3034 0
-3031 3033 2332 -3034 0
-3031 3033 -2332 -3034 0
-3031 -3033 2332 -3034 0
-3031 -3033 -2332 -3034 0
3030 3034 -3035 0
3030 -3034 3035 0
-3030 3034 3035 0
-3030 -3034 3035 0
3035 3036 0
-3035 -3036 0
2320 3036 3037 0
2320 -3036 -3037 0
-2320 3036 -3037 0
-2320 -3036 -3037 0
3014 3017 3025 3037 -3038 0
3014 3017 3025 -3037 3038 0
3014 3017 -3025 3037 3038 0
3014 3017 -3025 -3037 3038 0
3014 -3017 3025 3037 3038 0
3014 -3017 3025 -3037 3038 0
3014 -3017 -3025 3037 3038 0
3014 -3017 -3025 -3037 3038 0
-3014 3017 3025 3037 3038 0
-3014 3017 3025 -3037 3038 0
-3014 3017 -3025 3037 3038 0
-3014 3017 -3025 -3037 3038 0
-3014 -3017 3025 3037 3038 0
-3014 -3017 3025 -3037 3038 0
-3014 -3017 -3025 3037 3038 0
-3014 -3017 -3025 -3037 3038 0
395 3039 0
-395 -3039 0
396 3040 0
-396 -3040 0
3040 3041 0
-3040 -3041 0
3039 3041 2329 3042 0
3039 3041 -2329 -3042 0
3039 -3041 2329 -3042 0
3039 -3041 -2329 -3042 0
-3039 3041 2329 -3042 0
-3039 3041 -2329 -3042 0
-3039 -3041 2329 -3042 0
-3039 -3041 -2329 -3042 0
2242 3021 2341 -3043 0
2242 3021 -2341 3043 0
2242 -3021 2341 3043 0
2242 -3021 -2341 3043 0
-2242 3021 2341 3043 0
-2242 3021 -2341 3043 0
-2242 -3021 2341 3043 0
-2242 -3021 -2341 3043 0
3031 2329 3043 -3044 0
3031 2329 -3043 3044 0
3031 -2329 3043 3044 0
3031 -2329 -3043 3044 0
-3031 2329 3043 3044 0
-3031 2329 -3043 3044 0
-3031 -2329 3043 3044 0
-3031 -2329 -3043 3044 0
3044 3045 0
-3044 -3045 0
3038 3042 3045 3046 0
3038 3042 -3045 -3046 0
3038 -3042 3045 -3046 0
3038 -3042 -3045 -3046 0
-3038 3042 3045 -3046 0
-3038 3042 -3045 -3046 0
-3038 -3042 3045 -3046 0
-3038 -3042 -3045 -3046 0
3046 3047 0
-3046 -3047 0
3047 3048 0
-3047 -3048 0
3048 3049 0
-3048 -3049 0
3049 3050 0
-3049 -3050 0
3050 3051 0
-3050 -3051 0
385 3052 0
-385 -3052 0
3052 3053 0
-3052 -3053 0
382 3054 0
-382 -3054 0
374 3055 0
-374 -3055 0
3055 1839 3056 0
3055 -1839 -3056 0
-3055 1839 -3056 0
-3055 -1839 -3056 0
3056 3057 0
-3056 -3057 0
3057 3053 3058 0
3057 -3053 -3058 0
-3057 3053 -3058 0
-3057 -3053 -3058 0
3058 3059 0
-3058 -3059 0
267 3060 0
-267 -3060 0
3060 3061 0
-3060 -3061 0
3061 3062 0
-3061 -3062 0
3059 3062 3063 0
3059 -3062 -3063 0
-3059 3062 -3063 0
-3059 -3062 -3063 0
3054 3063 3064 0
3054 -3063 -3064 0
-3054 3063 -3064 0
-3054 -3063 -3064 0
383 3065 0
-383 -3065 0
3065 3054 3066 0
3065 -3054 -3066 0
-3065 3054 -3066 0
-3065 -3054 -3066 0
3066 3067 0
-3066 -3067 0
381 3068 0
-381 -3068 0
3068 3069 0
-3068 -3069 0
3067 3069 3070 0
3067 -3069 -3070 0
-3067 3069 -3070 0
-3067 -3069 -3070 0
266 3071 0
-266 -3071 0
3071 3072 0
-3071 -3072 0
3072 3073 0
-3072 -3073 0
3073 3074 0
-3073 -3074 0
3064 3070 3074 3075 0
3064 3070 -3074 -3075 0
3064 -3070 3074 -3075 0
3064 -3070 -3074 -3075 0
-3064 3070 3074 -3075 0
-3064 3070 -3074 -3075 0
-3064 -3070 3074 -3075 0
-3064 -3070 -3074 -3075 0
3075 3076 0
-3075 -3076 0
3053 720 3076 3077 0
3053 720 -3076 -3077 0
3053 -720 3076 -3077 0
3053 -720 -3076 -3077 0
-3053 720 3076 -3077 0
-3053 720 -3076 -3077 0
-3053 -720 3076 -3077 0
-3053 -720 -3076 -3077 0
399 3078 0
-399 -3078 0
3078 3079 0
-3078 -3079 0
3079 2953 3080 0
3079 -2953 -3080 0
-3079 2953 -3080 0
-3079 -2953 -3080 0
403 3081 0
-403 -3081 0
2694 3081 3082 0
2694 -3081 -3082 0
-2694 3081 -3082 0
-2694 -3081 -3082 0
395 3083 0
-395 -3083 0
3083 3084 0
-3083 -3084 0
2945 3085 0
-2945 -3085 0
3084 3085 3086 0
3084 -3085 -3086 0
-3084 3085 -3086 0
-3084 -3085 -3086 0
3082 3086 3087 0
3082 -3086 -3087 0
-3082 3086 -3087 0
-3082 -3086 -3087 0
2705 3087 3088 0
2705 -3087 -3088 0
-2705 3087 -3088 0
-2705 -3087 -3088 0
2409 2399 2411 -3089 0
2409 2399 -2411 3089 0
2409 -2399 2411 3089 0
2409 -2399 -2411 3089 0
-2409 2399 2411 3089 0
-2409 2399 -2411 3089 0
-2409 -2399 2411 3089 0
-2409 -2399 -2411 3089 0
2514 2405 3089 -3090 0
2514 2405 -3089 3090 0
2514 -2405 3089 3090 0
2514 -2405 -3089 3090 0
-2514 2405 3089 3090 0
-2514 2405 -3089 3090 0
-2514 -2405 3089 3090 0
-2514 -2405 -3089 3090 0
3090 3091 0
-3090 -3091 0
2965 3092 0
-2965 -3092 0
3091 3092 3093 0
3091 -3092 -3093 0
-3091 3092 -3093 0
-3091 -3092 -3093 0
406 3094 0
-406 -3094 0
403 3095 0
-403 -3095 0
3095 3096 0
-3095 -3096 0
3094 3096 2696 3097 0
3094 3096 -2696 -3097 0
3094 -3096 2696 -3097 0
3094 -3096 -2696 -3097 0
-3094 3096 2696 -3097 0
-3094 3096 -2696 -3097 0
-3094 -3096 2696 -3097 0
-3094 -3096 -2696 -3097 0
3093 3097 -3098 0
3093 -3097 3098 0
-3093 3097 3098 0
-3093 -3097 3098 0
3098 3099 0
-3098 -3099 0
2684 3099 3100 0
2684 -3099 -3100 0
-2684 3099 -3100 0
-2684 -3099 -3100 0
3077 3080 3088 3100 -3101 0
3077 3080 3088 -3100 3101 0
3077 3080 -3088 3100 3101 0
3077 3080 -3088 -3100 3101 0
3077 -3080 3088 3100 3101 0
3077 -3080 3088 -3100 3101 0
3077 -3080 -3088 3100 3101 0
3077 -3080 -3088 -3100 3101 0
-3077 3080 3088 3100 3101 0
-3077 3080 3088 -3100 3101 0
-3077 3080 -3088 3100 3101 0
-3077 3080 -3088 -3100 3101 0
-3077 -3080 3088 3100 3101 0
-3077 -3080 3088 -3100 3101 0
-3077 -3080 -3088 3100 3101 0
-3077 -3080 -3088 -3100 3101 0
395 3102 0
-395 -3102 0
396 3103 0
-396 -3103 0
3103 3104 0
-3103 -3104 0
3102 3104 2693 3105 0
3102 3104 -2693 -3105 0
3102 -3104 2693 -3105 0
3102 -3104 -2693 -3105 0
-3102 3104 2693 -3105 0
-3102 3104 -2693 -3105 0
-3102 -3104 2693 -3105 0
-3102 -3104 -2693 -3105 0
2606 3084 2705 -3106 0
2606 3084 -2705 3106 0
2606 -3084 2705 3106 0
2606 -3084 -2705 3106 0
-2606 3084 2705 3106 0
-2606 3084 -2705 3106 0
-2606 -3084 2705 3106 0
-2606 -3084 -2705 3106 0
3094 2693 3106 -3107 0
3094 2693 -3106 3107 0
3094 -2693 3106 3107 0
3094 -2693 -3106 3107 0
-3094 2693 3106 3107 0
-3094 2693 -3106 3107 0
-3094 -2693 3106 3107 0
-3094 -2693 -3106 3107 0
3107 3108 0
-3107 -3108 0
3101 3105 3108 3109 0
3101 3105 -3108 -3109 0
3101 -3105 3108 -3109 0
3101 -3105 -3108 -3109 0
-3101 3105 3108 -3109 0
-3101 3105 -3108 -3109 0
-3101 -3105 3108 -3109 0
-3101 -3105 -3108 -3109 0
3109 3110 0
-3109 -3110 0
3110 3111 0
-3110 -3111 0
3111 3112 0
-3111 -3112 0
3112 3113 0
-3112 -3113 0
3113 3114 0
-3113 -3114 0
3051 3114 -3115 0
3051 -3114 3115 0
-3051 3114 3115 0
-3051 -3114 -3115 0
3045 3042 3038 3116 0
3045 3042 -3038 -3116 0
3045 -3042 3038 -3116 0
3045 -3042 -3038 -3116 0
-3045 3042 3038 -3116 0
-3045 3042 -3038 -3116 0
-3045 -3042 3038 -3116 0
-3045 -3042 -3038 -3116 0
3116 3117 0
-3116 -3117 0
3117 3118 0
-3117 -3118 0
3118 3119 0
-3118 -3119 0
3119 3120 0
-3119 -3120 0
3120 3121 0
-3120 -3121 0
3108 3105 3101 3122 0
3108 3105 -3101 -3122 0
3108 -3105 3101 -3122 0
3108 -3105 -3101 -3122 0
-3108 3105 3101 -3122 0
-3108 3105 -3101 -3122 0
-3108 -3105 3101 -3122 0
-3108 -3105 -3101 -3122 0
3122 3123 0
-3122 -3123 0
3123 3124 0
-3123 -3124 0
3124 3125 0
-3124 -3125 0
3125 3126 0
-3125 -3126 0
3126 3127 0
-3126 -3127 0
3121 3127 -3128 0
3121 -3127 3128 0
-3121 3127 3128 0
-3121 -3127 -3128 0
2763 2768 2772 3129 0
2763 2768 -2772 -3129 0
2763 -2768 2772 -3129 0
2763 -2768 -2772 -3129 0
-2763 2768 2772 -3129 0
-2763 2768 -2772 -3129 0
-2763 -2768 2772 -3129 0
-2763 -2768 -2772 -3129 0
3129 3130 0
-3129 -3130 0
2806 3131 0
-2806 -3131 0
2798 3132 0
-2798 -3132 0
3130 3131 3132 3133 0
3130 3131 -3132 -3133 0
3130 -3131 3132 -3133 0
3130 -3131 -3132 -3133 0
-3130 3131 3132 -3133 0
-3130 3131 -3132 -3133 0
-3130 -3131 3132 -3133 0
-3130 -3131 -3132 -3133 0
3133 3134 0
-3133 -3134 0
1948 1943 3135 0
1948 -1943 -3135 0
-1948 1943 -3135 0
-1948 -1943 -3135 0
2035 2038 2045 -3136 0
2035 2038 -2045 3136 0
2035 -2038 2045 3136 0
2035 -2038 -2045 3136 0
-2035 2038 2045 3136 0
-2035 2038 -2045 3136 0
-2035 -2038 2045 3136 0
-2035 -2038 -2045 3136 0
2148 2047 3136 -3137 0
2148 2047 -3136 3137 0
2148 -2047 3136 3137 0
2148 -2047 -3136 3137 0
-2148 2047 3136 3137 0
-2148 2047 -3136 3137 0
-2148 -2047 3136 3137 0
-2148 -2047 -3136 3137 0
3137 3138 0
-3137 -3138 0
3138 3139 0
-3138 -3139 0
3134 3135 3139 3140 0
3134 3135 -3139 -3140 0
3134 -3135 3139 -3140 0
3134 -3135 -3139 -3140 0
-3134 3135 3139 -3140 0
-3134 3135 -3139 -3140 0
-3134 -3135 3139 -3140 0
-3134 -3135 -3139 -3140 0
3140 3141 0
-3140 -3141 0
3141 3142 0
-3141 -3142 0
3142 3143 0
-3142 -3143 0
3143 3144 0
-3143 -3144 0
3144 3145 0
-3144 -3145 0
3145 3146 0
-3145 -3146 0
2836 2841 2845 3147 0
2836 2841 -2845 -3147 0
2836 -2841 2845 -3147 0
2836 -2841 -2845 -3147 0
-2836 2841 2845 -3147 0
-2836 2841 -2845 -3147 0
-2836 -2841 2845 -3147 0
-2836 -2841 -2845 -3147 0
3147 3148 0
-3147 -3148 0
2879 3149 0
-2879 -3149 0
2871 3150 0
-2871 -3150 0
3148 3149 3150 3151 0
3148 3149 -3150 -3151 0
3148 -3149 3150 -3151 0
3148 -3149 -3150 -3151 0
-3148 3149 3150 -3151 0
-3148 3149 -3150 -3151 0
-3148 -3149 3150 -3151 0
-3148 -3149 -3150 -3151 0
3151 3152 0
-3151 -3152 0
2002 1997 3153 0
2002 -1997 -3153 0
-2002 1997 -3153 0
-2002 -1997 -3153 0
2399 2402 2409 -3154 0
2399 2402 -2409 3154 0
2399 -2402 2409 3154 0
2399 -2402 -2409 3154 0
-2399 2402 2409 3154 0
-2399 2402 -2409 3154 0
-2399 -2402 2409 3154 0
-2399 -2402 -2409 3154 0
2512 2411 3154 -3155 0
2512 2411 -3154 3155 0
2512 -2411 3154 3155 0
2512 -2411 -3154 3155 0
-2512 2411 3154 3155 0
-2512 2411 -3154 3155 0
-2512 -2411 3154 3155 0
-2512 -2411 -3154 3155 0
3155 3156 0
-3155 -3156 0
3156 3157 0
-3156 -3157 0
3152 3153 3157 3158 0
3152 3153 -3157 -3158 0
3152 -3153 3157 -3158 0
3152 -3153 -3157 -3158 0
-3152 3153 3157 -3158 0
-3152 3153 -3157 -3158 0
-3152 -3153 3157 -3158 0
-3152 -3153 -3157 -3158 0
3158 3159 0
-3158 -3159 0
3159 3160 0
-3159 -3160 0
3160 3161 0
-3160 -3161 0
3161 3162 0
-3161 -3162 0
3162 3163 0
-3162 -3163 0
3163 3164 0
-3163 -3164 0
3146 3164 -3165 0
3146 -3164 3165 0
-3146 3164 3165 0
-3146 -3164 -3165 0
663 703 3166 0
663 -703 -3166 0
-663 703 -3166 0
-663 -703 -3166 0
663 795 3167 0
663 -795 -3167 0
-663 795 -3167 0
-663 -795 -3167 0
790 663 3168 0
790 -663 -3168 0
-790 663 -3168 0
-790 -663 -3168 0
3167 3168 3169 0
3167 -3168 -3169 0
-3167 3168 -3169 0
-3167 -3168 -3169 0
3169 3170 0
-3169 -3170 0
663 645 3171 0
663 -645 -3171 0
-663 645 -3171 0
-663 -645 -3171 0
3171 3172 0
-3171 -3172 0
663 671 3173 0
663 -671 -3173 0
-663 671 -3173 0
-663 -671 -3173 0
3173 3174 0
-3173 -3174 0
663 668 3175 0
663 -668 -3175 0
-663 668 -3175 0
-663 -668 -3175 0
3175 3176 0
-3175 -3176 0
3166 3177 0
-3166 -3177 0
3172 3174 3176 3177 3178 0
3172 3174 3176 -3177 -3178 0
3172 3174 -3176 3177 -3178 0
3172 3174 -3176 -3177 -3178 0
3172 -3174 3176 3177 -3178 0
3172 -3174 3176 -3177 -3178 0
3172 -3174 -3176 3177 -3178 0
3172 -3174 -3176 -3177 -3178 0
-3172 3174 3176 3177 -3178 0
-3172 3174 3176 -3177 -3178 0
-3172 3174 -3176 3177 -3178 0
-3172 3174 -3176 -3177 -3178 0
-3172 -3174 3176 3177 -3178 0
-3172 -3174 3176 -3177 -3178 0
-3172 -3174 -3176 3177 -3178 0
-3172 -3174 -3176 -3177 -3178 0
3173 3175 3179 0
3173 -3175 -3179 0
-3173 3175 -3179 0
-3173 -3175 -3179 0
3170 3178 3179 3180 0
3170 3178 -3179 -3180 0
3170 -3178 3179 -3180 0
3170 -3178 -3179 -3180 0
-3170 3178 3179 -3180 0
-3170 3178 -3179 -3180 0
-3170 -3178 3179 -3180 0
-3170 -3178 -3179 -3180 0
3180 3181 0
-3180 -3181 0
3166 3181 3182 0
3166 -3181 -3182 0
-3166 3181 -3182 0
-3166 -3181 -3182 0
668 690 3183 0
668 -690 -3183 0
-668 690 -3183 0
-668 -690 -3183 0
690 790 3184 0
690 -790 -3184 0
-690 790 -3184 0
-690 -790 -3184 0
795 690 3185 0
795 -690 -3185 0
-795 690 -3185 0
-795 -690 -3185 0
3183 3184 3185 3186 0
3183 3184 -3185 -3186 0
3183 -3184 3185 -3186 0
3183 -3184 -3185 -3186 0
-3183 3184 3185 -3186 0
-3183 3184 -3185 -3186 0
-3183 -3184 3185 -3186 0
-3183 -3184 -3185 -3186 0
3186 3187 0
-3186 -3187 0
671 690 3188 0
671 -690 -3188 0
-671 690 -3188 0
-671 -690 -3188 0
3188 3189 0
-3188 -3189 0
645 690 3190 0
645 -690 -3190 0
-645 690 -3190 0
-645 -690 -3190 0
3190 3191 0
-3190 -3191 0
690 703 3192 0
690 -703 -3192 0
-690 703 -3192 0
-690 -703 -3192 0
3192 3193 0
-3192 -3193 0
3189 3191 3193 3194 0
3189 3191 -3193 -3194 0
3189 -3191 3193 -3194 0
3189 -3191 -3193 -3194 0
-3189 3191 3193 -3194 0
-3189 3191 -3193 -3194 0
-3189 -3191 3193 -3194 0
-3189 -3191 -3193 -3194 0
3194 3195 0
-3194 -3195 0
3187 3195 3196 0
3187 -3195 -3196 0
-3187 3195 -3196 0
-3187 -3195 -3196 0
3182 3196 3197 0
3182 -3196 -3197 0
-3182 3196 -3197 0
-3182 -3196 -3197 0
3175 3188 3198 0
3175 -3188 -3198 0
-3175 3188 -3198 0
-3175 -3188 -3198 0
3198 3199 0
-3198 -3199 0
3171 3192 3200 0
3171 -3192 -3200 0
-3171 3192 -3200 0
-3171 -3192 -3200 0
3173 3190 3201 0
3173 -3190 -3201 0
-3173 3190 -3201 0
-3173 -3190 -3201 0
3199 3200 3201 3202 0
3199 3200 -3201 -3202 0
3199 -3200 3201 -3202 0
3199 -3200 -3201 -3202 0
-3199 3200 3201 -3202 0
-3199 3200 -3201 -3202 0
-3199 -3200 3201 -3202 0
-3199 -3200 -3201 -3202 0
3202 3203 0
-3202 -3203 0
468 3203 3204 0
468 -3203 -3204 0
-468 3203 -3204 0
-468 -3203 -3204 0
3201 3205 0
-3201 -3205 0
3200 3198 3205 3206 0
3200 3198 -3205 -3206 0
3200 -3198 3205 -3206 0
3200 -3198 -3205 -3206 0
-3200 3198 3205 -3206 0
-3200 3198 -3205 -3206 0
-3200 -3198 3205 -3206 0
-3200 -3198 -3205 -3206 0
3206 3207 0
-3206 -3207 0
3207 949 3208 0
3207 -949 -3208 0
-3207 949 -3208 0
-3207 -949 -3208 0
3201 3200 3198 3209 0
3201 3200 -3198 -3209 0
3201 -3200 3198 -3209 0
3201 -3200 -3198 -3209 0
-3201 3200 3198 -3209 0
-3201 3200 -3198 -3209 0
-3201 -3200 3198 -3209 0
-3201 -3200 -3198 -3209 0
3209 3210 0
-3209 -3210 0
1520 3210 3211 0
1520 -3210 -3211 0
-1520 3210 -3211 0
-1520 -3210 -3211 0
3200 3212 0
-3200 -3212 0
3201 3198 3212 3213 0
3201 3198 -3212 -3213 0
3201 -3198 3212 -3213 0
3201 -3198 -3212 -3213 0
-3201 3198 3212 -3213 0
-3201 3198 -3212 -3213 0
-3201 -3198 3212 -3213 0
-3201 -3198 -3212 -3213 0
3213 3214 0
-3213 -3214 0
3214 2155 3215 0
3214 -2155 -3215 0
-3214 2155 -3215 0
-3214 -2155 -3215 0
3204 3208 3211 3215 -3216 0
3204 3208 3211 -3215 3216 0
3204 3208 -3211 3215 3216 0
3204 3208 -3211 -3215 3216 0
3204 -3208 3211 3215 3216 0
3204 -3208 3211 -3215 3216 0
3204 -3208 -3211 3215 3216 0
3204 -3208 -3211 -3215 3216 0
-3204 3208 3211 3215 3216 0
-3204 3208 3211 -3215 3216 0
-3204 3208 -3211 3215 3216 0
-3204 3208 -3211 -3215 3216 0
-3204 -3208 3211 3215 3216 0
-3204 -3208 3211 -3215 3216 0
-3204 -3208 -3211 3215 3216 0
-3204 -3208 -3211 -3215 3216 0
3201 3212 3199 3217 0
3201 3212 -3199 -3217 0
3201 -3212 3199 -3217 0
3201 -3212 -3199 -3217 0
-3201 3212 3199 -3217 0
-3201 3212 -3199 -3217 0
-3201 -3212 3199 -3217 0
-3201 -3212 -3199 -3217 0
3217 3218 0
-3217 -3218 0
2315 3218 3219 0
2315 -3218 -3219 0
-2315 3218 -3219 0
-2315 -3218 -3219 0
3216 3219 3220 0
3216 -3219 -3220 0
-3216 3219 -3220 0
-3216 -3219 -3220 0
3197 3220 3221 0
3197 -3220 -3221 0
-3197 3220 -3221 0
-3197 -3220 -3221 0
3213 3222 0
-3213 -3222 0
418 3223 0
-418 -3223 0
3223 3224 0
-3223 -3224 0
3222 3224 3225 0
3222 -3224 -3225 0
-3222 3224 -3225 0
-3222 -3224 -3225 0
3202 3226 0
-3202 -3226 0
3226 1136 3227 0
3226 -1136 -3227 0
-3226 1136 -3227 0
-3226 -1136 -3227 0
3206 3228 0
-3206 -3228 0
1330 3228 3229 0
1330 -3228 -3229 0
-1330 3228 -3229 0
-1330 -3228 -3229 0
3227 3229 -3230 0
3227 -3229 3230 0
-3227 3229 3230 0
-3227 -3229 3230 0
3225 3230 3231 0
3225 -3230 -3231 0
-3225 3230 -3231 0
-3225 -3230 -3231 0
3177 3181 3232 0
3177 -3181 -3232 0
-3177 3181 -3232 0
-3177 -3181 -3232 0
3190 3188 3233 0
3190 -3188 -3233 0
-3190 3188 -3233 0
-3190 -3188 -3233 0
3187 3233 3234 0
3187 -3233 -3234 0
-3187 3233 -3234 0
-3187 -3233 -3234 0
3232 3234 3235 0
3232 -3234 -3235 0
-3232 3234 -3235 0
-3232 -3234 -3235 0
3231 3235 3236 0
3231 -3235 -3236 0
-3231 3235 -3236 0
-3231 -3235 -3236 0
3221 3236 -3237 0
3221 -3236 3237 0
-3221 3236 3237 0
-3221 -3236 3237 0
3237 3238 0
-3237 -3238 0
3238 3239 0
-3238 -3239 0
3239 3240 0
-3239 -3240 0
3240 3241 0
-3240 -3241 0
3241 3242 0
-3241 -3242 0
3242 3243 0
-3242 -3243 0
735 775 3244 0
735 -775 -3244 0
-735 775 -3244 0
-735 -775 -3244 0
735 849 3245 0
735 -849 -3245 0
-735 849 -3245 0
-735 -849 -3245 0
844 735 3246 0
844 -735 -3246 0
-844 735 -3246 0
-844 -735 -3246 0
3245 3246 3247 0
3245 -3246 -3247 0
-3245 3246 -3247 0
-3245 -3246 -3247 0
3247 3248 0
-3247 -3248 0
735 717 3249 0
735 -717 -3249 0
-735 717 -3249 0
-735 -717 -3249 0
3249 3250 0
-3249 -3250 0
735 743 3251 0
735 -743 -3251 0
-735 743 -3251 0
-735 -743 -3251 0
3251 3252 0
-3251 -3252 0
735 740 3253 0
735 -740 -3253 0
-735 740 -3253 0
-735 -740 -3253 0
3253 3254 0
-3253 -3254 0
3244 3255 0
-3244 -3255 0
3250 3252 3254 3255 3256 0
3250 3252 3254 -3255 -3256 0
3250 3252 -3254 3255 -3256 0
3250 3252 -3254 -3255 -3256 0
3250 -3252 3254 3255 -3256 0
3250 -3252 3254 -3255 -3256 0
3250 -3252 -3254 3255 -3256 0
3250 -3252 -3254 -3255 -3256 0
-3250 3252 3254 3255 -3256 0
-3250 3252 3254 -3255 -3256 0
-3250 3252 -3254 3255 -3256 0
-3250 3252 -3254 -3255 -3256 0
-3250 -3252 3254 3255 -3256 0
-3250 -3252 3254 -3255 -3256 0
-3250 -3252 -3254 3255 -3256 0
-3250 -3252 -3254 -3255 -3256 0
3251 3253 3257 0
3251 -3253 -3257 0
-3251 3253 -3257 0
-3251 -3253 -3257 0
3248 3256 3257 3258 0
3248 3256 -3257 -3258 0
3248 -3256 3257 -3258 0
3248 -3256 -3257 -3258 0
-3248 3256 3257 -3258 0
-3248 3256 -3257 -3258 0
-3248 -3256 3257 -3258 0
-3248 -3256 -3257 -3258 0
3258 3259 0
-3258 -3259 0
3244 3259 3260 0
3244 -3259 -3260 0
-3244 3259 -3260 0
-3244 -3259 -3260 0
740 762 3261 0
740 -762 -3261 0
-740 762 -3261 0
-740 -762 -3261 0
762 844 3262 0
762 -844 -3262 0
-762 844 -3262 0
-762 -844 -3262 0
849 762 3263 0
849 -762 -3263 0
-849 762 -3263 0
-849 -762 -3263 0
3261 3262 3263 3264 0
3261 3262 -3263 -3264 0
3261 -3262 3263 -3264 0
3261 -3262 -3263 -3264 0
-3261 3262 3263 -3264 0
-3261 3262 -3263 -3264 0
-3261 -3262 3263 -3264 0
-3261 -3262 -3263 -3264 0
3264 3265 0
-3264 -3265 0
743 762 3266 0
743 -762 -3266 0
-743 762 -3266 0
-743 -762 -3266 0
3266 3267 0
-3266 -3267 0
717 762 3268 0
717 -762 -3268 0
-717 762 -3268 0
-717 -762 -3268 0
3268 3269 0
-3268 -3269 0
762 775 3270 0
762 -775 -3270 0
-762 775 -3270 0
-762 -775 -3270 0
3270 3271 0
-3270 -3271 0
3267 3269 3271 3272 0
3267 3269 -3271 -3272 0
3267 -3269 3271 -3272 0
3267 -3269 -3271 -3272 0
-3267 3269 3271 -3272 0
-3267 3269 -3271 -3272 0
-3267 -3269 3271 -3272 0
-3267 -3269 -3271 -3272 0
3272 3273 0
-3272 -3273 0
3265 3273 3274 0
3265 -3273 -3274 0
-3265 3273 -3274 0
-3265 -3273 -3274 0
3260 3274 3275 0
3260 -3274 -3275 0
-3260 3274 -3275 0
-3260 -3274 -3275 0
3253 3266 3276 0
3253 -3266 -3276 0
-3253 3266 -3276 0
-3253 -3266 -3276 0
3276 3277 0
-3276 -3277 0
3249 3270 3278 0
3249 -3270 -3278 0
-3249 3270 -3278 0
-3249 -3270 -3278 0
3251 3268 3279 0
3251 -3268 -3279 0
-3251 3268 -3279 0
-3251 -3268 -3279 0
3277 3278 3279 3280 0
3277 3278 -3279 -3280 0
3277 -3278 3279 -3280 0
3277 -3278 -3279 -3280 0
-3277 3278 3279 -3280 0
-3277 3278 -3279 -3280 0
-3277 -3278 3279 -3280 0
-3277 -3278 -3279 -3280 0
3280 3281 0
-3280 -3281 0
566 3281 3282 0
566 -3281 -3282 0
-566 3281 -3282 0
-566 -3281 -3282 0
3279 3283 0
-3279 -3283 0
3278 3276 3283 3284 0
3278 3276 -3283 -3284 0
3278 -3276 3283 -3284 0
3278 -3276 -3283 -3284 0
-3278 3276 3283 -3284 0
-3278 3276 -3283 -3284 0
-3278 -3276 3283 -3284 0
-3278 -3276 -3283 -3284 0
3284 3285 0
-3284 -3285 0
3285 1042 3286 0
3285 -1042 -3286 0
-3285 1042 -3286 0
-3285 -1042 -3286 0
3279 3278 3276 3287 0
3279 3278 -3276 -3287 0
3279 -3278 3276 -3287 0
3279 -3278 -3276 -3287 0
-3279 3278 3276 -3287 0
-3279 3278 -3276 -3287 0
-3279 -3278 3276 -3287 0
-3279 -3278 -3276 -3287 0
3287 3288 0
-3287 -3288 0
1618 3288 3289 0
1618 -3288 -3289 0
-1618 3288 -3289 0
-1618 -3288 -3289 0
3278 3290 0
-3278 -3290 0
3279 3276 3290 3291 0
3279 3276 -3290 -3291 0
3279 -3276 3290 -3291 0
3279 -3276 -3290 -3291 0
-3279 3276 3290 -3291 0
-3279 3276 -3290 -3291 0
-3279 -3276 3290 -3291 0
-3279 -3276 -3290 -3291 0
3291 3292 0
-3291 -3292 0
3292 2519 3293 0
3292 -2519 -3293 0
-3292 2519 -3293 0
-3292 -2519 -3293 0
3282 3286 3289 3293 -3294 0
3282 3286 3289 -3293 3294 0
3282 3286 -3289 3293 3294 0
3282 3286 -3289 -3293 3294 0
3282 -3286 3289 3293 3294 0
3282 -3286 3289 -3293 3294 0
3282 -3286 -3289 3293 3294 0
3282 -3286 -3289 -3293 3294 0
-3282 3286 3289 3293 3294 0
-3282 3286 3289 -3293 3294 0
-3282 3286 -3289 3293 3294 0
-3282 3286 -3289 -3293 3294 0
-3282 -3286 3289 3293 3294 0
-3282 -3286 3289 -3293 3294 0
-3282 -3286 -3289 3293 3294 0
-3282 -3286 -3289 -3293 3294 0
3279 3290 3277 3295 0
3279 3290 -3277 -3295 0
3279 -3290 3277 -3295 0
3279 -3290 -3277 -3295 0
-3279 3290 3277 -3295 0
-3279 3290 -3277 -3295 0
-3279 -3290 3277 -3295 0
-3279 -3290 -3277 -3295 0
3295 3296 0
-3295 -3296 0
2679 3296 3297 0
2679 -3296 -3297 0
-2679 3296 -3297 0
-2679 -3296 -3297 0
3294 3297 3298 0
3294 -3297 -3298 0
-3294 3297 -3298 0
-3294 -3297 -3298 0
3275 3298 3299 0
3275 -3298 -3299 0
-3275 3298 -3299 0
-3275 -3298 -3299 0
3291 3300 0
-3291 -3300 0
418 3301 0
-418 -3301 0
3301 3302 0
-3301 -3302 0
3300 3302 3303 0
3300 -3302 -3303 0
-3300 3302 -3303 0
-3300 -3302 -3303 0
3280 3304 0
-3280 -3304 0
3304 1234 3305 0
3304 -1234 -3305 0
-3304 1234 -3305 0
-3304 -1234 -3305 0
3284 3306 0
-3284 -3306 0
1423 3306 3307 0
1423 -3306 -3307 0
-1423 3306 -3307 0
-1423 -3306 -3307 0
3305 3307 -3308 0
3305 -3307 3308 0
-3305 3307 3308 0
-3305 -3307 3308 0
3303 3308 3309 0
3303 -3308 -3309 0
-3303 3308 -3309 0
-3303 -3308 -3309 0
3255 3259 3310 0
3255 -3259 -3310 0
-3255 3259 -3310 0
-3255 -3259 -3310 0
3268 3266 3311 0
3268 -3266 -3311 0
-3268 3266 -3311 0
-3268 -3266 -3311 0
3265 3311 3312 0
3265 -3311 -3312 0
-3265 3311 -3312 0
-3265 -3311 -3312 0
3310 3312 3313 0
3310 -3312 -3313 0
-3310 3312 -3313 0
-3310 -3312 -3313 0
3309 3313 3314 0
3309 -3313 -3314 0
-3309 3313 -3314 0
-3309 -3313 -3314 0
3299 3314 -3315 0
3299 -3314 3315 0
-3299 3314 3315 0
-3299 -3314 3315 0
3315 3316 0
-3315 -3316 0
3316 3317 0
-3316 -3317 0
3317 3318 0
-3317 -3318 0
3318 3319 0
-3318 -3319 0
3319 3320 0
-3319 -3320 0
3320 3321 0
-3320 -3321 0
3243 3321 -3322 0
3243 -3321 3322 0
-3243 3321 3322 0
-3243 -3321 -3322 0
3203 460 3323 0
3203 -460 -3323 0
-3203 460 -3323 0
-3203 -460 -3323 0
1512 3210 3324 0
1512 -3210 -3324 0
-1512 3210 -3324 0
-1512 -3210 -3324 0
941 3207 3325 0
941 -3207 -3325 0
-941 3207 -3325 0
-941 -3207 -3325 0
2169 3214 3326 0
2169 -3214 -3326 0
-2169 3214 -3326 0
-2169 -3214 -3326 0
3323 3324 3325 3326 -3327 0
3323 3324 3325 -3326 3327 0
3323 3324 -3325 3326 3327 0
3323 3324 -3325 -3326 3327 0
3323 -3324 3325 3326 3327 0
3323 -3324 3325 -3326 3327 0
3323 -3324 -3325 3326 3327 0
3323 -3324 -3325 -3326 3327 0
-3323 3324 3325 3326 3327 0
-3323 3324 3325 -3326 3327 0
-3323 3324 -3325 3326 3327 0
-3323 3324 -3325 -3326 3327 0
-3323 -3324 3325 3326 3327 0
-3323 -3324 3325 -3326 3327 0
-3323 -3324 -3325 3326 3327 0
-3323 -3324 -3325 -3326 3327 0
3327 3328 0
-3327 -3328 0
3197 3328 3329 0
3197 -3328 -3329 0
-3197 3328 -3329 0
-3197 -3328 -3329 0
1322 3228 3330 0
1322 -3228 -3330 0
-1322 3228 -3330 0
-1322 -3228 -3330 0
1128 3226 3331 0
1128 -3226 -3331 0
-1128 3226 -3331 0
-1128 -3226 -3331 0
3330 3331 -3332 0
3330 -3331 3332 0
-3330 3331 3332 0
-3330 -3331 3332 0
416 3333 0
-416 -3333 0
3333 3334 0
-3333 -3334 0
3334 3222 3335 0
3334 -3222 -3335 0
-3334 3222 -3335 0
-3334 -3222 -3335 0
3332 3335 3336 0
3332 -3335 -3336 0
-3332 3335 -3336 0
-3332 -3335 -3336 0
3235 3336 3337 0
3235 -3336 -3337 0
-3235 3336 -3337 0
-3235 -3336 -3337 0
3329 3337 -3338 0
3329 -3337 3338 0
-3329 3337 3338 0
-3329 -3337 3338 0
3338 3339 0
-3338 -3339 0
3339 3340 0
-3339 -3340 0
3340 3341 0
-3340 -3341 0
3341 3342 0
-3341 -3342 0
3342 3343 0
-3342 -3343 0
3343 3344 0
-3343 -3344 0
3281 558 3345 0
3281 -558 -3345 0
-3281 558 -3345 0
-3281 -558 -3345 0
1610 3288 3346 0
1610 -3288 -3346 0
-1610 3288 -3346 0
-1610 -3288 -3346 0
2533 3292 3347 0
2533 -3292 -3347 0
-2533 3292 -3347 0
-2533 -3292 -3347 0
3345 3346 -429 3347 -3348 0
3345 3346 -429 -3347 3348 0
3345 3346 429 3347 3348 0
3345 3346 429 -3347 3348 0
3345 -3346 -429 3347 3348 0
3345 -3346 -429 -3347 3348 0
3345 -3346 429 3347 3348 0
3345 -3346 429 -3347 3348 0
-3345 3346 -429 3347 3348 0
-3345 3346 -429 -3347 3348 0
-3345 3346 429 3347 3348 0
-3345 3346 429 -3347 3348 0
-3345 -3346 -429 3347 3348 0
-3345 -3346 -429 -3347 3348 0
-3345 -3346 429 3347 3348 0
-3345 -3346 429 -3347 3348 0
3348 3349 0
-3348 -3349 0
3275 3349 3350 0
3275 -3349 -3350 0
-3275 3349 -3350 0
-3275 -3349 -3350 0
1415 3306 3351 0
1415 -3306 -3351 0
-1415 3306 -3351 0
-1415 -3306 -3351 0
1226 3304 3352 0
1226 -3304 -3352 0
-1226 3304 -3352 0
-1226 -3304 -3352 0
3351 3352 -3353 0
3351 -3352 3353 0
-3351 3352 3353 0
-3351 -3352 3353 0
416 3354 0
-416 -3354 0
3354 3355 0
-3354 -3355 0
3355 3300 3356 0
3355 -3300 -3356 0
-3355 3300 -3356 0
-3355 -3300 -3356 0
3353 3356 3357 0
3353 -3356 -3357 0
-3353 3356 -3357 0
-3353 -3356 -3357 0
3313 3357 3358 0
3313 -3357 -3358 0
-3313 3357 -3358 0
-3313 -3357 -3358 0
3350 3358 -3359 0
3350 -3358 3359 0
-3350 3358 3359 0
-3350 -3358 3359 0
3359 3360 0
-3359 -3360 0
3360 3361 0
-3360 -3361 0
3361 3362 0
-3361 -3362 0
3362 3363 0
-3362 -3363 0
3363 3364 0
-3363 -3364 0
3364 3365 0
-3364 -3365 0
3344 3365 -3366 0
3344 -3365 3366 0
-3344 3365 3366 0
-3344 -3365 -3366 0
421 3367 0
-421 -3367 0
3367 3368 0
-3367 -3368 0
3222 3368 3369 0
3222 -3368 -3369 0
-3222 3368 -3369 0
-3222 -3368 -3369 0
3226 1160 3370 0
3226 -1160 -3370 0
-3226 1160 -3370 0
-3226 -1160 -3370 0
3228 1353 3371 0
3228 -1353 -3371 0
-3228 1353 -3371 0
-3228 -1353 -3371 0
3370 3371 -3372 0
3370 -3371 3372 0
-3370 3371 3372 0
-3370 -3371 3372 0
3369 3372 3373 0
3369 -3372 -3373 0
-3369 3372 -3373 0
-3369 -3372 -3373 0
3235 3373 3374 0
3235 -3373 -3374 0
-3235 3373 -3374 0
-3235 -3373 -3374 0
3214 2163 3375 0
3214 -2163 -3375 0
-3214 2163 -3375 0
-3214 -2163 -3375 0
3210 1544 3376 0
3210 -1544 -3376 0
-3210 1544 -3376 0
-3210 -1544 -3376 0
3203 492 3377 0
3203 -492 -3377 0
-3203 492 -3377 0
-3203 -492 -3377 0
970 3207 3378 0
970 -3207 -3378 0
-970 3207 -3378 0
-970 -3207 -3378 0
3375 3376 3377 3378 -3379 0
3375 3376 3377 -3378 3379 0
3375 3376 -3377 3378 3379 0
3375 3376 -3377 -3378 3379 0
3375 -3376 3377 3378 3379 0
3375 -3376 3377 -3378 3379 0
3375 -3376 -3377 3378 3379 0
3375 -3376 -3377 -3378 3379 0
-3375 3376 3377 3378 3379 0
-3375 3376 3377 -3378 3379 0
-3375 3376 -3377 3378 3379 0
-3375 3376 -3377 -3378 3379 0
-3375 -3376 3377 3378 3379 0
-3375 -3376 3377 -3378 3379 0
-3375 -3376 -3377 3378 3379 0
-3375 -3376 -3377 -3378 3379 0
3379 3380 0
-3379 -3380 0
3197 3380 3381 0
3197 -3380 -3381 0
-3197 3380 -3381 0
-3197 -3380 -3381 0
3374 3381 -3382 0
3374 -3381 3382 0
-3374 3381 3382 0
-3374 -3381 3382 0
3382 3383 0
-3382 -3383 0
3383 3384 0
-3383 -3384 0
3384 3385 0
-3384 -3385 0
3385 3386 0
-3385 -3386 0
3386 3387 0
-3386 -3387 0
3387 3388 0
-3387 -3388 0
421 3389 0
-421 -3389 0
3389 3390 0
-3389 -3390 0
3300 3390 3391 0
3300 -3390 -3391 0
-3300 3390 -3391 0
-3300 -3390 -3391 0
3304 1258 3392 0
3304 -1258 -3392 0
-3304 1258 -3392 0
-3304 -1258 -3392 0
3306 1446 3393 0
3306 -1446 -3393 0
-3306 1446 -3393 0
-3306 -1446 -3393 0
3392 3393 -3394 0
3392 -3393 3394 0
-3392 3393 3394 0
-3392 -3393 3394 0
3391 3394 3395 0
3391 -3394 -3395 0
-3391 3394 -3395 0
-3391 -3394 -3395 0
3313 3395 3396 0
3313 -3395 -3396 0
-3313 3395 -3396 0
-3313 -3395 -3396 0
3292 2527 3397 0
3292 -2527 -3397 0
-3292 2527 -3397 0
-3292 -2527 -3397 0
3288 1642 3398 0
3288 -1642 -3398 0
-3288 1642 -3398 0
-3288 -1642 -3398 0
3281 590 3399 0
3281 -590 -3399 0
-3281 590 -3399 0
-3281 -590 -3399 0
1063 3285 3400 0
1063 -3285 -3400 0
-1063 3285 -3400 0
-1063 -3285 -3400 0
3397 3398 3399 3400 -3401 0
3397 3398 3399 -3400 3401 0
3397 3398 -3399 3400 3401 0
3397 3398 -3399 -3400 3401 0
3397 -3398 3399 3400 3401 0
3397 -3398 3399 -3400 3401 0
3397 -3398 -3399 3400 3401 0
3397 -3398 -3399 -3400 3401 0
-3397 3398 3399 3400 3401 0
-3397 3398 3399 -3400 3401 0
-3397 3398 -3399 3400 3401 0
-3397 3398 -3399 -3400 3401 0
-3397 -3398 3399 3400 3401 0
-3397 -3398 3399 -3400 3401 0
-3397 -3398 -3399 3400 3401 0
-3397 -3398 -3399 -3400 3401 0
3401 3402 0
-3401 -3402 0
3275 3402 3403 0
3275 -3402 -3403 0
-3275 3402 -3403 0
-3275 -3402 -3403 0
3396 3403 -3404 0
3396 -3403 3404 0
-3396 3403 3404 0
-3396 -3403 3404 0
3404 3405 0
-3404 -3405 0
3405 3406 0
-3405 -3406 0
3406 3407 0
-3406 -3407 0
3407 3408 0
-3407 -3408 0
3408 3409 0
-3408 -3409 0
3409 3410 0
-3409 -3410 0
3388 3410 -3411 0
3388 -3410 3411 0
-3388 3410 3411 0
-3388 -3410 -3411 0
3228 1357 3412 0
3228 -1357 -3412 0
-3228 1357 -3412 0
-3228 -1357 -3412 0
3226 1164 3413 0
3226 -1164 -3413 0
-3226 1164 -3413 0
-3226 -1164 -3413 0
3412 3413 -3414 0
3412 -3413 3414 0
-3412 3413 3414 0
-3412 -3413 3414 0
426 3415 0
-426 -3415 0
3415 3416 0
-3415 -3416 0
3222 3416 3417 0
3222 -3416 -3417 0
-3222 3416 -3417 0
-3222 -3416 -3417 0
3414 3417 3418 0
3414 -3417 -3418 0
-3414 3417 -3418 0
-3414 -3417 -3418 0
3235 3418 3419 0
3235 -3418 -3419 0
-3235 3418 -3419 0
-3235 -3418 -3419 0
3214 2161 3420 0
3214 -2161 -3420 0
-3214 2161 -3420 0
-3214 -2161 -3420 0
496 3203 3421 0
496 -3203 -3421 0
-496 3203 -3421 0
-496 -3203 -3421 0
3210 1548 3422 0
3210 -1548 -3422 0
-3210 1548 -3422 0
-3210 -1548 -3422 0
3207 974 3423 0
3207 -974 -3423 0
-3207 974 -3423 0
-3207 -974 -3423 0
3420 3421 3422 3423 -3424 0
3420 3421 3422 -3423 3424 0
3420 3421 -3422 3423 3424 0
3420 3421 -3422 -3423 3424 0
3420 -3421 3422 3423 3424 0
3420 -3421 3422 -3423 3424 0
3420 -3421 -3422 3423 3424 0
3420 -3421 -3422 -3423 3424 0
-3420 3421 3422 3423 3424 0
-3420 3421 3422 -3423 3424 0
-3420 3421 -3422 3423 3424 0
-3420 3421 -3422 -3423 3424 0
-3420 -3421 3422 3423 3424 0
-3420 -3421 3422 -3423 3424 0
-3420 -3421 -3422 3423 3424 0
-3420 -3421 -3422 -3423 3424 0
3424 3425 0
-3424 -3425 0
3197 3425 3426 0
3197 -3425 -3426 0
-3197 3425 -3426 0
-3197 -3425 -3426 0
3419 3426 -3427 0
3419 -3426 3427 0
-3419 3426 3427 0
-3419 -3426 3427 0
3427 3428 0
-3427 -3428 0
3428 3429 0
-3428 -3429 0
3429 3430 0
-3429 -3430 0
3430 3431 0
-3430 -3431 0
3431 3432 0
-3431 -3432 0
3432 3433 0
-3432 -3433 0
3306 1450 3434 0
3306 -1450 -3434 0
-3306 1450 -3434 0
-3306 -1450 -3434 0
3304 1262 3435 0
3304 -1262 -3435 0
-3304 1262 -3435 0
-3304 -1262 -3435 0
3434 3435 -3436 0
3434 -3435 3436 0
-3434 3435 3436 0
-3434 -3435 3436 0
426 3437 0
-426 -3437 0
3437 3438 0
-3437 -3438 0
3300 3438 3439 0
3300 -3438 -3439 0
-3300 3438 -3439 0
-3300 -3438 -3439 0
3436 3439 3440 0
3436 -3439 -3440 0
-3436 3439 -3440 0
-3436 -3439 -3440 0
3313 3440 3441 0
3313 -3440 -3441 0
-3313 3440 -3441 0
-3313 -3440 -3441 0
3292 2525 3442 0
3292 -2525 -3442 0
-3292 2525 -3442 0
-3292 -2525 -3442 0
594 3281 3443 0
594 -3281 -3443 0
-594 3281 -3443 0
-594 -3281 -3443 0
3288 1646 3444 0
3288 -1646 -3444 0
-3288 1646 -3444 0
-3288 -1646 -3444 0
3285 1067 3445 0
3285 -1067 -3445 0
-3285 1067 -3445 0
-3285 -1067 -3445 0
3442 3443 3444 3445 -3446 0
3442 3443 3444 -3445 3446 0
3442 3443 -3444 3445 3446 0
3442 3443 -3444 -3445 3446 0
3442 -3443 3444 3445 3446 0
3442 -3443 3444 -3445 3446 0
3442 -3443 -3444 3445 3446 0
3442 -3443 -3444 -3445 3446 0
-3442 3443 3444 3445 3446 0
-3442 3443 3444 -3445 3446 0
-3442 3443 -3444 3445 3446 0
-3442 3443 -3444 -3445 3446 0
-3442 -3443 3444 3445 3446 0
-3442 -3443 3444 -3445 3446 0
-3442 -3443 -3444 3445 3446 0
-3442 -3443 -3444 -3445 3446 0
3446 3447 0
-3446 -3447 0
3275 3447 3448 0
3275 -3447 -3448 0
-3275 3447 -3448 0
-3275 -3447 -3448 0
3441 3448 -3449 0
3441 -3448 3449 0
-3441 3448 3449 0
-3441 -3448 3449 0
3449 3450 0
-3449 -3450 0
3450 3451 0
-3450 -3451 0
3451 3452 0
-3451 -3452 0
3452 3453 0
-3452 -3453 0
3453 3454 0
-3453 -3454 0
3454 3455 0
-3454 -3455 0
3433 3455 -3456 0
3433 -3455 3456 0
-3433 3455 3456 0
-3433 -3455 -3456 0
3207 966 3457 0
3207 -966 -3457 0
-3207 966 -3457 0
-3207 -966 -3457 0
3203 488 3458 0
3203 -488 -3458 0
-3203 488 -3458 0
-3203 -488 -3458 0
1540 3210 3459 0
1540 -3210 -3459 0
-1540 3210 -3459 0
-1540 -3210 -3459 0
3214 2180 3460 0
3214 -2180 -3460 0
-3214 2180 -3460 0
-3214 -2180 -3460 0
3457 3458 3459 3460 -3461 0
3457 3458 3459 -3460 3461 0
3457 3458 -3459 3460 3461 0
3457 3458 -3459 -3460 3461 0
3457 -3458 3459 3460 3461 0
3457 -3458 3459 -3460 3461 0
3457 -3458 -3459 3460 3461 0
3457 -3458 -3459 -3460 3461 0
-3457 3458 3459 3460 3461 0
-3457 3458 3459 -3460 3461 0
-3457 3458 -3459 3460 3461 0
-3457 3458 -3459 -3460 3461 0
-3457 -3458 3459 3460 3461 0
-3457 -3458 3459 -3460 3461 0
-3457 -3458 -3459 3460 3461 0
-3457 -3458 -3459 -3460 3461 0
3461 3462 0
-3461 -3462 0
3197 3462 3463 0
3197 -3462 -3463 0
-3197 3462 -3463 0
-3197 -3462 -3463 0
1349 3228 3464 0
1349 -3228 -3464 0
-1349 3228 -3464 0
-1349 -3228 -3464 0
3226 1156 3465 0
3226 -1156 -3465 0
-3226 1156 -3465 0
-3226 -1156 -3465 0
3464 3465 -3466 0
3464 -3465 3466 0
-3464 3465 3466 0
-3464 -3465 3466 0
216 3467 0
-216 -3467 0
3467 3468 0
-3467 -3468 0
3468 3222 3469 0
3468 -3222 -3469 0
-3468 3222 -3469 0
-3468 -3222 -3469 0
3466 3469 3470 0
3466 -3469 -3470 0
-3466 3469 -3470 0
-3466 -3469 -3470 0
3235 3470 3471 0
3235 -3470 -3471 0
-3235 3470 -3471 0
-3235 -3470 -3471 0
3463 3471 -3472 0
3463 -3471 3472 0
-3463 3471 3472 0
-3463 -3471 3472 0
3472 3473 0
-3472 -3473 0
3473 3474 0
-3473 -3474 0
3474 3475 0
-3474 -3475 0
3475 3476 0
-3475 -3476 0
3476 3477 0
-3476 -3477 0
3477 3478 0
-3477 -3478 0
3285 1059 3479 0
3285 -1059 -3479 0
-3285 1059 -3479 0
-3285 -1059 -3479 0
3281 586 3480 0
3281 -586 -3480 0
-3281 586 -3480 0
-3281 -586 -3480 0
1638 3288 3481 0
1638 -3288 -3481 0
-1638 3288 -3481 0
-1638 -3288 -3481 0
3292 2544 3482 0
3292 -2544 -3482 0
-3292 2544 -3482 0
-3292 -2544 -3482 0
3479 3480 3481 3482 -3483 0
3479 3480 3481 -3482 3483 0
3479 3480 -3481 3482 3483 0
3479 3480 -3481 -3482 3483 0
3479 -3480 3481 3482 3483 0
3479 -3480 3481 -3482 3483 0
3479 -3480 -3481 3482 3483 0
3479 -3480 -3481 -3482 3483 0
-3479 3480 3481 3482 3483 0
-3479 3480 3481 -3482 3483 0
-3479 3480 -3481 3482 3483 0
-3479 3480 -3481 -3482 3483 0
-3479 -3480 3481 3482 3483 0
-3479 -3480 3481 -3482 3483 0
-3479 -3480 -3481 3482 3483 0
-3479 -3480 -3481 -3482 3483 0
3483 3484 0
-3483 -3484 0
3275 3484 3485 0
3275 -3484 -3485 0
-3275 3484 -3485 0
-3275 -3484 -3485 0
1442 3306 3486 0
1442 -3306 -3486 0
-1442 3306 -3486 0
-1442 -3306 -3486 0
3304 1254 3487 0
3304 -1254 -3487 0
-3304 1254 -3487 0
-3304 -1254 -3487 0
3486 3487 -3488 0
3486 -3487 3488 0
-3486 3487 3488 0
-3486 -3487 3488 0
216 3489 0
-216 -3489 0
3489 3490 0
-3489 -3490 0
3490 3300 3491 0
3490 -3300 -3491 0
-3490 3300 -3491 0
-3490 -3300 -3491 0
3488 3491 3492 0
3488 -3491 -3492 0
-3488 3491 -3492 0
-3488 -3491 -3492 0
3313 3492 3493 0
3313 -3492 -3493 0
-3313 3492 -3493 0
-3313 -3492 -3493 0
3485 3493 -3494 0
3485 -3493 3494 0
-3485 3493 3494 0
-3485 -3493 3494 0
3494 3495 0
-3494 -3495 0
3495 3496 0
-3495 -3496 0
3496 3497 0
-3496 -3497 0
3497 3498 0
-3497 -3498 0
3498 3499 0
-3498 -3499 0
3499 3500 0
-3499 -3500 0
3478 3500 -3501 0
3478 -3500 3501 0
-3478 3500 3501 0
-3478 -3500 -3501 0
3228 1300 3502 0
3228 -1300 -3502 0
-3228 1300 -3502 0
-3228 -1300 -3502 0
1103 3226 3503 0
1103 -3226 -3503 0
-1103 3226 -3503 0
-1103 -3226 -3503 0
3502 3503 -3504 0
3502 -3503 3504 0
-3502 3503 3504 0
-3502 -3503 3504 0
422 3505 0
-422 -3505 0
3505 3506 0
-3505 -3506 0
3506 3222 3507 0
3506 -3222 -3507 0
-3506 3222 -3507 0
-3506 -3222 -3507 0
3504 3507 3508 0
3504 -3507 -3508 0
-3504 3507 -3508 0
-3504 -3507 -3508 0
3235 3508 3509 0
3235 -3508 -3509 0
-3235 3508 -3509 0
-3235 -3508 -3509 0
3203 435 3510 0
3203 -435 -3510 0
-3203 435 -3510 0
-3203 -435 -3510 0
2192 3214 3511 0
2192 -3214 -3511 0
-2192 3214 -3511 0
-2192 -3214 -3511 0
916 3207 3512 0
916 -3207 -3512 0
-916 3207 -3512 0
-916 -3207 -3512 0
3210 1487 3513 0
3210 -1487 -3513 0
-3210 1487 -3513 0
-3210 -1487 -3513 0
3510 3511 3512 3513 -3514 0
3510 3511 3512 -3513 3514 0
3510 3511 -3512 3513 3514 0
3510 3511 -3512 -3513 3514 0
3510 -3511 3512 3513 3514 0
3510 -3511 3512 -3513 3514 0
3510 -3511 -3512 3513 3514 0
3510 -3511 -3512 -3513 3514 0
-3510 3511 3512 3513 3514 0
-3510 3511 3512 -3513 3514 0
-3510 3511 -3512 3513 3514 0
-3510 3511 -3512 -3513 3514 0
-3510 -3511 3512 3513 3514 0
-3510 -3511 3512 -3513 3514 0
-3510 -3511 -3512 3513 3514 0
-3510 -3511 -3512 -3513 3514 0
3514 3515 0
-3514 -3515 0
3515 3197 3516 0
3515 -3197 -3516 0
-3515 3197 -3516 0
-3515 -3197 -3516 0
3509 3516 -3517 0
3509 -3516 3517 0
-3509 3516 3517 0
-3509 -3516 3517 0
3517 3518 0
-3517 -3518 0
3518 3519 0
-3518 -3519 0
3519 3520 0
-3519 -3520 0
3520 3521 0
-3520 -3521 0
3521 3522 0
-3521 -3522 0
3522 3523 0
-3522 -3523 0
3306 1393 3524 0
3306 -1393 -3524 0
-3306 1393 -3524 0
-3306 -1393 -3524 0
1201 3304 3525 0
1201 -3304 -3525 0
-1201 3304 -3525 0
-1201 -3304 -3525 0
3524 3525 -3526 0
3524 -3525 3526 0
-3524 3525 3526 0
-3524 -3525 3526 0
422 3527 0
-422 -3527 0
3527 3528 0
-3527 -3528 0
3528 3300 3529 0
3528 -3300 -3529 0
-3528 3300 -3529 0
-3528 -3300 -3529 0
3526 3529 3530 0
3526 -3529 -3530 0
-3526 3529 -3530 0
-3526 -3529 -3530 0
3313 3530 3531 0
3313 -3530 -3531 0
-3313 3530 -3531 0
-3313 -3530 -3531 0
3281 533 3532 0
3281 -533 -3532 0
-3281 533 -3532 0
-3281 -533 -3532 0
2556 3292 3533 0
2556 -3292 -3533 0
-2556 3292 -3533 0
-2556 -3292 -3533 0
1009 3285 3534 0
1009 -3285 -3534 0
-1009 3285 -3534 0
-1009 -3285 -3534 0
3288 1585 3535 0
3288 -1585 -3535 0
-3288 1585 -3535 0
-3288 -1585 -3535 0
3532 3533 3534 3535 -3536 0
3532 3533 3534 -3535 3536 0
3532 3533 -3534 3535 3536 0
3532 3533 -3534 -3535 3536 0
3532 -3533 3534 3535 3536 0
3532 -3533 3534 -3535 3536 0
3532 -3533 -3534 3535 3536 0
3532 -3533 -3534 -3535 3536 0
-3532 3533 3534 3535 3536 0
-3532 3533 3534 -3535 3536 0
-3532 3533 -3534 3535 3536 0
-3532 3533 -3534 -3535 3536 0
-3532 -3533 3534 3535 3536 0
-3532 -3533 3534 -3535 3536 0
-3532 -3533 -3534 3535 3536 0
-3532 -3533 -3534 -3535 3536 0
3536 3537 0
-3536 -3537 0
3537 3275 3538 0
3537 -3275 -3538 0
-3537 3275 -3538 0
-3537 -3275 -3538 0
3531 3538 -3539 0
3531 -3538 3539 0
-3531 3538 3539 0
-3531 -3538 3539 0
3539 3540 0
-3539 -3540 0
3540 3541 0
-3540 -3541 0
3541 3542 0
-3541 -3542 0
3542 3543 0
-3542 -3543 0
3543 3544 0
-3543 -3544 0
3544 3545 0
-3544 -3545 0
3523 3545 -3546 0
3523 -3545 3546 0
-3523 3545 3546 0
-3523 -3545 -3546 0
1304 3228 3547 0
1304 -3228 -3547 0
-1304 3228 -3547 0
-1304 -3228 -3547 0
3226 1107 3548 0
3226 -1107 -3548 0
-3226 1107 -3548 0
-3226 -1107 -3548 0
3547 3548 -3549 0
3547 -3548 3549 0
-3547 3548 3549 0
-3547 -3548 3549 0
424 3550 0
-424 -3550 0
3550 3551 0
-3550 -3551 0
3222 3551 3552 0
3222 -3551 -3552 0
-3222 3551 -3552 0
-3222 -3551 -3552 0
3549 3552 3553 0
3549 -3552 -3553 0
-3549 3552 -3553 0
-3549 -3552 -3553 0
3235 3553 3554 0
3235 -3553 -3554 0
-3235 3553 -3554 0
-3235 -3553 -3554 0
1491 3210 3555 0
1491 -3210 -3555 0
-1491 3210 -3555 0
-1491 -3210 -3555 0
3203 439 3556 0
3203 -439 -3556 0
-3203 439 -3556 0
-3203 -439 -3556 0
2186 3214 3557 0
2186 -3214 -3557 0
-2186 3214 -3557 0
-2186 -3214 -3557 0
920 3207 3558 0
920 -3207 -3558 0
-920 3207 -3558 0
-920 -3207 -3558 0
3555 3556 3557 3558 -3559 0
3555 3556 3557 -3558 3559 0
3555 3556 -3557 3558 3559 0
3555 3556 -3557 -3558 3559 0
3555 -3556 3557 3558 3559 0
3555 -3556 3557 -3558 3559 0
3555 -3556 -3557 3558 3559 0
3555 -3556 -3557 -3558 3559 0
-3555 3556 3557 3558 3559 0
-3555 3556 3557 -3558 3559 0
-3555 3556 -3557 3558 3559 0
-3555 3556 -3557 -3558 3559 0
-3555 -3556 3557 3558 3559 0
-3555 -3556 3557 -3558 3559 0
-3555 -3556 -3557 3558 3559 0
-3555 -3556 -3557 -3558 3559 0
3559 3560 0
-3559 -3560 0
3560 3197 3561 0
3560 -3197 -3561 0
-3560 3197 -3561 0
-3560 -3197 -3561 0
3554 3561 -3562 0
3554 -3561 3562 0
-3554 3561 3562 0
-3554 -3561 3562 0
3562 3563 0
-3562 -3563 0
3563 3564 0
-3563 -3564 0
3564 3565 0
-3564 -3565 0
3565 3566 0
-3565 -3566 0
3566 3567 0
-3566 -3567 0
3567 3568 0
-3567 -3568 0
1397 3306 3569 0
1397 -3306 -3569 0
-1397 3306 -3569 0
-1397 -3306 -3569 0
3304 1205 3570 0
3304 -1205 -3570 0
-3304 1205 -3570 0
-3304 -1205 -3570 0
3569 3570 -3571 0
3569 -3570 3571 0
-3569 3570 3571 0
-3569 -3570 3571 0
424 3572 0
-424 -3572 0
3572 3573 0
-3572 -3573 0
3300 3573 3574 0
3300 -3573 -3574 0
-3300 3573 -3574 0
-3300 -3573 -3574 0
3571 3574 3575 0
3571 -3574 -3575 0
-3571 3574 -3575 0
-3571 -3574 -3575 0
3313 3575 3576 0
3313 -3575 -3576 0
-3313 3575 -3576 0
-3313 -3575 -3576 0
1589 3288 3577 0
1589 -3288 -3577 0
-1589 3288 -3577 0
-1589 -3288 -3577 0
3281 537 3578 0
3281 -537 -3578 0
-3281 537 -3578 0
-3281 -537 -3578 0
2550 3292 3579 0
2550 -3292 -3579 0
-2550 3292 -3579 0
-2550 -3292 -3579 0
1013 3285 3580 0
1013 -3285 -3580 0
-1013 3285 -3580 0
-1013 -3285 -3580 0
3577 3578 3579 3580 -3581 0
3577 3578 3579 -3580 3581 0
3577 3578 -3579 3580 3581 0
3577 3578 -3579 -3580 3581 0
3577 -3578 3579 3580 3581 0
3577 -3578 3579 -3580 3581 0
3577 -3578 -3579 3580 3581 0
3577 -3578 -3579 -3580 3581 0
-3577 3578 3579 3580 3581 0
-3577 3578 3579 -3580 3581 0
-3577 3578 -3579 3580 3581 0
-3577 3578 -3579 -3580 3581 0
-3577 -3578 3579 3580 3581 0
-3577 -3578 3579 -3580 3581 0
-3577 -3578 -3579 3580 3581 0
-3577 -3578 -3579 -3580 3581 0
3581 3582 0
-3581 -3582 0
3582 3275 3583 0
3582 -3275 -3583 0
-3582 3275 -3583 0
-3582 -3275 -3583 0
3576 3583 -3584 0
3576 -3583 3584 0
-3576 3583 3584 0
-3576 -3583 3584 0
3584 3585 0
-3584 -3585 0
3585 3586 0
-3585 -3586 0
3586 3587 0
-3586 -3587 0
3587 3588 0
-3587 -3588 0
3588 3589 0
-3588 -3589 0
3589 3590 0
-3589 -3590 0
3568 3590 -3591 0
3568 -3590 3591 0
-3568 3590 3591 0
-3568 -3590 -3591 0
1483 3210 3592 0
1483 -3210 -3592 0
-1483 3210 -3592 0
-1483 -3210 -3592 0
431 3203 3593 0
431 -3203 -3593 0
-431 3203 -3593 0
-431 -3203 -3593 0
3214 2178 3594 0
3214 -2178 -3594 0
-3214 2178 -3594 0
-3214 -2178 -3594 0
3207 912 3595 0
3207 -912 -3595 0
-3207 912 -3595 0
-3207 -912 -3595 0
3592 3593 3594 3595 -3596 0
3592 3593 3594 -3595 3596 0
3592 3593 -3594 3595 3596 0
3592 3593 -3594 -3595 3596 0
3592 -3593 3594 3595 3596 0
3592 -3593 3594 -3595 3596 0
3592 -3593 -3594 3595 3596 0
3592 -3593 -3594 -3595 3596 0
-3592 3593 3594 3595 3596 0
-3592 3593 3594 -3595 3596 0
-3592 3593 -3594 3595 3596 0
-3592 3593 -3594 -3595 3596 0
-3592 -3593 3594 3595 3596 0
-3592 -3593 3594 -3595 3596 0
-3592 -3593 -3594 3595 3596 0
-3592 -3593 -3594 -3595 3596 0
3596 3597 0
-3596 -3597 0
3597 3197 3598 0
3597 -3197 -3598 0
-3597 3197 -3598 0
-3597 -3197 -3598 0
427 3599 0
-427 -3599 0
3599 3600 0
-3599 -3600 0
3222 3600 3601 0
3222 -3600 -3601 0
-3222 3600 -3601 0
-3222 -3600 -3601 0
3226 1099 3602 0
3226 -1099 -3602 0
-3226 1099 -3602 0
-3226 -1099 -3602 0
1296 3228 3603 0
1296 -3228 -3603 0
-1296 3228 -3603 0
-1296 -3228 -3603 0
3602 3603 -3604 0
3602 -3603 3604 0
-3602 3603 3604 0
-3602 -3603 3604 0
3601 3604 3605 0
3601 -3604 -3605 0
-3601 3604 -3605 0
-3601 -3604 -3605 0
3605 3235 3606 0
3605 -3235 -3606 0
-3605 3235 -3606 0
-3605 -3235 -3606 0
3598 3606 -3607 0
3598 -3606 3607 0
-3598 3606 3607 0
-3598 -3606 3607 0
3607 3608 0
-3607 -3608 0
3608 3609 0
-3608 -3609 0
3609 3610 0
-3609 -3610 0
3610 3611 0
-3610 -3611 0
3611 3612 0
-3611 -3612 0
3612 3613 0
-3612 -3613 0
1581 3288 3614 0
1581 -3288 -3614 0
-1581 3288 -3614 0
-1581 -3288 -3614 0
529 3281 3615 0
529 -3281 -3615 0
-529 3281 -3615 0
-529 -3281 -3615 0
3292 2542 3616 0
3292 -2542 -3616 0
-3292 2542 -3616 0
-3292 -2542 -3616 0
3285 1005 3617 0
3285 -1005 -3617 0
-3285 1005 -3617 0
-3285 -1005 -3617 0
3614 3615 3616 3617 -3618 0
3614 3615 3616 -3617 3618 0
3614 3615 -3616 3617 3618 0
3614 3615 -3616 -3617 3618 0
3614 -3615 3616 3617 3618 0
3614 -3615 3616 -3617 3618 0
3614 -3615 -3616 3617 3618 0
3614 -3615 -3616 -3617 3618 0
-3614 3615 3616 3617 3618 0
-3614 3615 3616 -3617 3618 0
-3614 3615 -3616 3617 3618 0
-3614 3615 -3616 -3617 3618 0
-3614 -3615 3616 3617 3618 0
-3614 -3615 3616 -3617 3618 0
-3614 -3615 -3616 3617 3618 0
-3614 -3615 -3616 -3617 3618 0
3618 3619 0
-3618 -3619 0
3619 3275 3620 0
3619 -3275 -3620 0
-3619 3275 -3620 0
-3619 -3275 -3620 0
427 3621 0
-427 -3621 0
3621 3622 0
-3621 -3622 0
3300 3622 3623 0
3300 -3622 -3623 0
-3300 3622 -3623 0
-3300 -3622 -3623 0
3304 1197 3624 0
3304 -1197 -3624 0
-3304 1197 -3624 0
-3304 -1197 -3624 0
1389 3306 3625 0
1389 -3306 -3625 0
-1389 3306 -3625 0
-1389 -3306 -3625 0
3624 3625 -3626 0
3624 -3625 3626 0
-3624 3625 3626 0
-3624 -3625 3626 0
3623 3626 3627 0
3623 -3626 -3627 0
-3623 3626 -3627 0
-3623 -3626 -3627 0
3627 3313 3628 0
3627 -3313 -3628 0
-3627 3313 -3628 0
-3627 -3313 -3628 0
3620 3628 -3629 0
3620 -3628 3629 0
-3620 3628 3629 0
-3620 -3628 3629 0
3629 3630 0
-3629 -3630 0
3630 3631 0
-3630 -3631 0
3631 3632 0
-3631 -3632 0
3632 3633 0
-3632 -3633 0
3633 3634 0
-3633 -3634 0
3634 3635 0
-3634 -3635 0
3613 3635 -3636 0
3613 -3635 3636 0
-3613 3635 3636 0
-3613 -3635 -3636 0
237 3637 0
-237 -3637 0
3218 3637 3638 0
3218 -3637 -3638 0
-3218 3637 -3638 0
-3218 -3637 -3638 0
3198 3212 3205 3639 0
3198 3212 -3205 -3639 0
3198 -3212 3205 -3639 0
3198 -3212 -3205 -3639 0
-3198 3212 3205 -3639 0
-3198 3212 -3205 -3639 0
-3198 -3212 3205 -3639 0
-3198 -3212 -3205 -3639 0
3639 3640 0
-3639 -3640 0
3640 3641 0
-3640 -3641 0
3638 3641 -3642 0
3638 -3641 3642 0
-3638 3641 3642 0
-3638 -3641 3642 0
945 3207 3643 0
945 -3207 -3643 0
-945 3207 -3643 0
-945 -3207 -3643 0
464 3203 3644 0
464 -3203 -3644 0
-464 3203 -3644 0
-464 -3203 -3644 0
1516 3210 3645 0
1516 -3210 -3645 0
-1516 3210 -3645 0
-1516 -3210 -3645 0
2135 3214 3646 0
2135 -3214 -3646 0
-2135 3214 -3646 0
-2135 -3214 -3646 0
3643 3644 3645 3646 -3647 0
3643 3644 3645 -3646 3647 0
3643 3644 -3645 3646 3647 0
3643 3644 -3645 -3646 3647 0
3643 -3644 3645 3646 3647 0
3643 -3644 3645 -3646 3647 0
3643 -3644 -3645 3646 3647 0
3643 -3644 -3645 -3646 3647 0
-3643 3644 3645 3646 3647 0
-3643 3644 3645 -3646 3647 0
-3643 3644 -3645 3646 3647 0
-3643 3644 -3645 -3646 3647 0
-3643 -3644 3645 3646 3647 0
-3643 -3644 3645 -3646 3647 0
-3643 -3644 -3645 3646 3647 0
-3643 -3644 -3645 -3646 3647 0
3642 3647 3648 0
3642 -3647 -3648 0
-3642 3647 -3648 0
-3642 -3647 -3648 0
3648 3197 3649 0
3648 -3197 -3649 0
-3648 3197 -3649 0
-3648 -3197 -3649 0
3600 3650 0
-3600 -3650 0
3650 3651 0
-3650 -3651 0
3506 3652 0
-3506 -3652 0
3652 3653 0
-3652 -3653 0
3551 3654 0
-3551 -3654 0
3654 3655 0
-3654 -3655 0
3651 3653 3655 3656 0
3651 3653 -3655 -3656 0
3651 -3653 3655 -3656 0
3651 -3653 -3655 -3656 0
-3651 3653 3655 -3656 0
-3651 3653 -3655 -3656 0
-3651 -3653 3655 -3656 0
-3651 -3653 -3655 -3656 0
422 3657 0
-422 -3657 0
3657 3658 0
-3657 -3658 0
3658 3659 0
-3658 -3659 0
424 3660 0
-424 -3660 0
3660 3661 0
-3660 -3661 0
3661 3662 0
-3661 -3662 0
3651 3659 3662 3663 0
3651 3659 -3662 -3663 0
3651 -3659 3662 -3663 0
3651 -3659 -3662 -3663 0
-3651 3659 3662 -3663 0
-3651 3659 -3662 -3663 0
-3651 -3659 3662 -3663 0
-3651 -3659 -3662 -3663 0
427 3664 0
-427 -3664 0
3664 3665 0
-3664 -3665 0
3665 3666 0
-3665 -3666 0
3666 3653 3662 3667 0
3666 3653 -3662 -3667 0
3666 -3653 3662 -3667 0
3666 -3653 -3662 -3667 0
-3666 3653 3662 -3667 0
-3666 3653 -3662 -3667 0
-3666 -3653 3662 -3667 0
-3666 -3653 -3662 -3667 0
3666 3659 3655 3668 0
3666 3659 -3655 -3668 0
3666 -3659 3655 -3668 0
3666 -3659 -3655 -3668 0
-3666 3659 3655 -3668 0
-3666 3659 -3655 -3668 0
-3666 -3659 3655 -3668 0
-3666 -3659 -3655 -3668 0
3656 3663 3667 3668 -3669 0
3656 3663 3667 -3668 3669 0
3656 3663 -3667 3668 3669 0
3656 3663 -3667 -3668 3669 0
3656 -3663 3667 3668 3669 0
3656 -3663 3667 -3668 3669 0
3656 -3663 -3667 3668 3669 0
3656 -3663 -3667 -3668 3669 0
-3656 3663 3667 3668 3669 0
-3656 3663 3667 -3668 3669 0
-3656 3663 -3667 3668 3669 0
-3656 3663 -3667 -3668 3669 0
-3656 -3663 3667 3668 3669 0
-3656 -3663 3667 -3668 3669 0
-3656 -3663 -3667 3668 3669 0
-3656 -3663 -3667 -3668 3669 0
3669 3670 0
-3669 -3670 0
3670 3671 0
-3670 -3671 0
3671 3672 0
-3671 -3672 0
416 3673 0
-416 -3673 0
3673 3224 3674 0
3673 -3224 -3674 0
-3673 3224 -3674 0
-3673 -3224 -3674 0
418 3675 0
-418 -3675 0
3334 3675 3676 0
3334 -3675 -3676 0
-3334 3675 -3676 0
-3334 -3675 -3676 0
3674 3676 -3677 0
3674 -3676 3677 0
-3674 3676 3677 0
-3674 -3676 3677 0
3677 3678 0
-3677 -3678 0
3678 3679 0
-3678 -3679 0
3468 3680 0
-3468 -3680 0
3680 3681 0
-3680 -3681 0
3368 3682 0
-3368 -3682 0
3682 3683 0
-3682 -3683 0
3416 3684 0
-3416 -3684 0
3684 3685 0
-3684 -3685 0
3681 3683 3685 3686 0
3681 3683 -3685 -3686 0
3681 -3683 3685 -3686 0
3681 -3683 -3685 -3686 0
-3681 3683 3685 -3686 0
-3681 3683 -3685 -3686 0
-3681 -3683 3685 -3686 0
-3681 -3683 -3685 -3686 0
421 3687 0
-421 -3687 0
3687 3688 0
-3687 -3688 0
3688 3689 0
-3688 -3689 0
426 3690 0
-426 -3690 0
3690 3691 0
-3690 -3691 0
3691 3692 0
-3691 -3692 0
3681 3689 3692 3693 0
3681 3689 -3692 -3693 0
3681 -3689 3692 -3693 0
3681 -3689 -3692 -3693 0
-3681 3689 3692 -3693 0
-3681 3689 -3692 -3693 0
-3681 -3689 3692 -3693 0
-3681 -3689 -3692 -3693 0
216 3694 0
-216 -3694 0
3694 3695 0
-3694 -3695 0
3695 3696 0
-3695 -3696 0
3696 3683 3692 3697 0
3696 3683 -3692 -3697 0
3696 -3683 3692 -3697 0
3696 -3683 -3692 -3697 0
-3696 3683 3692 -3697 0
-3696 3683 -3692 -3697 0
-3696 -3683 3692 -3697 0
-3696 -3683 -3692 -3697 0
3696 3689 3685 3698 0
3696 3689 -3685 -3698 0
3696 -3689 3685 -3698 0
3696 -3689 -3685 -3698 0
-3696 3689 3685 -3698 0
-3696 3689 -3685 -3698 0
-3696 -3689 3685 -3698 0
-3696 -3689 -3685 -3698 0
3686 3693 3697 3698 -3699 0
3686 3693 3697 -3698 3699 0
3686 3693 -3697 3698 3699 0
3686 3693 -3697 -3698 3699 0
3686 -3693 3697 3698 3699 0
3686 -3693 3697 -3698 3699 0
3686 -3693 -3697 3698 3699 0
3686 -3693 -3697 -3698 3699 0
-3686 3693 3697 3698 3699 0
-3686 3693 3697 -3698 3699 0
-3686 3693 -3697 3698 3699 0
-3686 3693 -3697 -3698 3699 0
-3686 -3693 3697 3698 3699 0
-3686 -3693 3697 -3698 3699 0
-3686 -3693 -3697 3698 3699 0
-3686 -3693 -3697 -3698 3699 0
3699 3700 0
-3699 -3700 0
3700 3701 0
-3700 -3701 0
3701 3702 0
-3701 -3702 0
3672 3679 3702 3703 0
3672 3679 -3702 -3703 0
3672 -3679 3702 -3703 0
3672 -3679 -3702 -3703 0
-3672 3679 3702 -3703 0
-3672 3679 -3702 -3703 0
-3672 -3679 3702 -3703 0
-3672 -3679 -3702 -3703 0
3677 3704 0
-3677 -3704 0
3704 3705 0
-3704 -3705 0
3705 3706 0
-3705 -3706 0
3699 3707 0
-3699 -3707 0
3707 3708 0
-3707 -3708 0
3672 3706 3708 3709 0
3672 3706 -3708 -3709 0
3672 -3706 3708 -3709 0
3672 -3706 -3708 -3709 0
-3672 3706 3708 -3709 0
-3672 3706 -3708 -3709 0
-3672 -3706 3708 -3709 0
-3672 -3706 -3708 -3709 0
3669 3710 0
-3669 -3710 0
3710 3711 0
-3710 -3711 0
3711 3679 3708 3712 0
3711 3679 -3708 -3712 0
3711 -3679 3708 -3712 0
3711 -3679 -3708 -3712 0
-3711 3679 3708 -3712 0
-3711 3679 -3708 -3712 0
-3711 -3679 3708 -3712 0
-3711 -3679 -3708 -3712 0
3711 3706 3702 3713 0
3711 3706 -3702 -3713 0
3711 -3706 3702 -3713 0
3711 -3706 -3702 -3713 0
-3711 3706 3702 -3713 0
-3711 3706 -3702 -3713 0
-3711 -3706 3702 -3713 0
-3711 -3706 -3702 -3713 0
3703 3709 3712 3713 -3714 0
3703 3709 3712 -3713 3714 0
3703 3709 -3712 3713 3714 0
3703 3709 -3712 -3713 3714 0
3703 -3709 3712 3713 3714 0
3703 -3709 3712 -3713 3714 0
3703 -3709 -3712 3713 3714 0
3703 -3709 -3712 -3713 3714 0
-3703 3709 3712 3713 3714 0
-3703 3709 3712 -3713 3714 0
-3703 3709 -3712 3713 3714 0
-3703 3709 -3712 -3713 3714 0
-3703 -3709 3712 3713 3714 0
-3703 -3709 3712 -3713 3714 0
-3703 -3709 -3712 3713 3714 0
-3703 -3709 -3712 -3713 3714 0
3714 3715 0
-3714 -3715 0
3222 3715 3716 0
3222 -3715 -3716 0
-3222 3715 -3716 0
-3222 -3715 -3716 0
1326 3228 3717 0
1326 -3228 -3717 0
-1326 3228 -3717 0
-1326 -3228 -3717 0
3226 1132 3718 0
3226 -1132 -3718 0
-3226 1132 -3718 0
-3226 -1132 -3718 0
3717 3718 -3719 0
3717 -3718 3719 0
-3717 3718 3719 0
-3717 -3718 3719 0
3716 3719 3720 0
3716 -3719 -3720 0
-3716 3719 -3720 0
-3716 -3719 -3720 0
3235 3720 3721 0
3235 -3720 -3721 0
-3235 3720 -3721 0
-3235 -3720 -3721 0
3649 3721 -3722 0
3649 -3721 3722 0
-3649 3721 3722 0
-3649 -3721 3722 0
3722 3723 0
-3722 -3723 0
3723 3724 0
-3723 -3724 0
3724 3725 0
-3724 -3725 0
3725 3726 0
-3725 -3726 0
3726 3727 0
-3726 -3727 0
3727 3728 0
-3727 -3728 0
237 3729 0
-237 -3729 0
3296 3729 3730 0
3296 -3729 -3730 0
-3296 3729 -3730 0
-3296 -3729 -3730 0
3276 3290 3283 3731 0
3276 3290 -3283 -3731 0
3276 -3290 3283 -3731 0
3276 -3290 -3283 -3731 0
-3276 3290 3283 -3731 0
-3276 3290 -3283 -3731 0
-3276 -3290 3283 -3731 0
-3276 -3290 -3283 -3731 0
3731 3732 0
-3731 -3732 0
3732 3733 0
-3732 -3733 0
3730 3733 -3734 0
3730 -3733 3734 0
-3730 3733 3734 0
-3730 -3733 3734 0
1038 3285 3735 0
1038 -3285 -3735 0
-1038 3285 -3735 0
-1038 -3285 -3735 0
562 3281 3736 0
562 -3281 -3736 0
-562 3281 -3736 0
-562 -3281 -3736 0
1614 3288 3737 0
1614 -3288 -3737 0
-1614 3288 -3737 0
-1614 -3288 -3737 0
2499 3292 3738 0
2499 -3292 -3738 0
-2499 3292 -3738 0
-2499 -3292 -3738 0
3735 3736 3737 3738 -3739 0
3735 3736 3737 -3738 3739 0
3735 3736 -3737 3738 3739 0
3735 3736 -3737 -3738 3739 0
3735 -3736 3737 3738 3739 0
3735 -3736 3737 -3738 3739 0
3735 -3736 -3737 3738 3739 0
3735 -3736 -3737 -3738 3739 0
-3735 3736 3737 3738 3739 0
-3735 3736 3737 -3738 3739 0
-3735 3736 -3737 3738 3739 0
-3735 3736 -3737 -3738 3739 0
-3735 -3736 3737 3738 3739 0
-3735 -3736 3737 -3738 3739 0
-3735 -3736 -3737 3738 3739 0
-3735 -3736 -3737 -3738 3739 0
3734 3739 3740 0
3734 -3739 -3740 0
-3734 3739 -3740 0
-3734 -3739 -3740 0
3740 3275 3741 0
3740 -3275 -3741 0
-3740 3275 -3741 0
-3740 -3275 -3741 0
3622 3742 0
-3622 -3742 0
3742 3743 0
-3742 -3743 0
3528 3744 0
-3528 -3744 0
3744 3745 0
-3744 -3745 0
3573 3746 0
-3573 -3746 0
3746 3747 0
-3746 -3747 0
3743 3745 3747 3748 0
3743 3745 -3747 -3748 0
3743 -3745 3747 -3748 0
3743 -3745 -3747 -3748 0
-3743 3745 3747 -3748 0
-3743 3745 -3747 -3748 0
-3743 -3745 3747 -3748 0
-3743 -3745 -3747 -3748 0
422 3749 0
-422 -3749 0
3749 3750 0
-3749 -3750 0
3750 3751 0
-3750 -3751 0
424 3752 0
-424 -3752 0
3752 3753 0
-3752 -3753 0
3753 3754 0
-3753 -3754 0
3743 3751 3754 3755 0
3743 3751 -3754 -3755 0
3743 -3751 3754 -3755 0
3743 -3751 -3754 -3755 0
-3743 3751 3754 -3755 0
-3743 3751 -3754 -3755 0
-3743 -3751 3754 -3755 0
-3743 -3751 -3754 -3755 0
427 3756 0
-427 -3756 0
3756 3757 0
-3756 -3757 0
3757 3758 0
-3757 -3758 0
3758 3745 3754 3759 0
3758 3745 -3754 -3759 0
3758 -3745 3754 -3759 0
3758 -3745 -3754 -3759 0
-3758 3745 3754 -3759 0
-3758 3745 -3754 -3759 0
-3758 -3745 3754 -3759 0
-3758 -3745 -3754 -3759 0
3758 3751 3747 3760 0
3758 3751 -3747 -3760 0
3758 -3751 3747 -3760 0
3758 -3751 -3747 -3760 0
-3758 3751 3747 -3760 0
-3758 3751 -3747 -3760 0
-3758 -3751 3747 -3760 0
-3758 -3751 -3747 -3760 0
3748 3755 3759 3760 -3761 0
3748 3755 3759 -3760 3761 0
3748 3755 -3759 3760 3761 0
3748 3755 -3759 -3760 3761 0
3748 -3755 3759 3760 3761 0
3748 -3755 3759 -3760 3761 0
3748 -3755 -3759 3760 3761 0
3748 -3755 -3759 -3760 3761 0
-3748 3755 3759 3760 3761 0
-3748 3755 3759 -3760 3761 0
-3748 3755 -3759 3760 3761 0
-3748 3755 -3759 -3760 3761 0
-3748 -3755 3759 3760 3761 0
-3748 -3755 3759 -3760 3761 0
-3748 -3755 -3759 3760 3761 0
-3748 -3755 -3759 -3760 3761 0
3761 3762 0
-3761 -3762 0
3762 3763 0
-3762 -3763 0
3763 3764 0
-3763 -3764 0
416 3765 0
-416 -3765 0
3765 3302 3766 0
3765 -3302 -3766 0
-3765 3302 -3766 0
-3765 -3302 -3766 0
418 3767 0
-418 -3767 0
3355 3767 3768 0
3355 -3767 -3768 0
-3355 3767 -3768 0
-3355 -3767 -3768 0
3766 3768 -3769 0
3766 -3768 3769 0
-3766 3768 3769 0
-3766 -3768 3769 0
3769 3770 0
-3769 -3770 0
3770 3771 0
-3770 -3771 0
3490 3772 0
-3490 -3772 0
3772 3773 0
-3772 -3773 0
3390 3774 0
-3390 -3774 0
3774 3775 0
-3774 -3775 0
3438 3776 0
-3438 -3776 0
3776 3777 0
-3776 -3777 0
3773 3775 3777 3778 0
3773 3775 -3777 -3778 0
3773 -3775 3777 -3778 0
3773 -3775 -3777 -3778 0
-3773 3775 3777 -3778 0
-3773 3775 -3777 -3778 0
-3773 -3775 3777 -3778 0
-3773 -3775 -3777 -3778 0
421 3779 0
-421 -3779 0
3779 3780 0
-3779 -3780 0
3780 3781 0
-3780 -3781 0
426 3782 0
-426 -3782 0
3782 3783 0
-3782 -3783 0
3783 3784 0
-3783 -3784 0
3773 3781 3784 3785 0
3773 3781 -3784 -3785 0
3773 -3781 3784 -3785 0
3773 -3781 -3784 -3785 0
-3773 3781 3784 -3785 0
-3773 3781 -3784 -3785 0
-3773 -3781 3784 -3785 0
-3773 -3781 -3784 -3785 0
216 3786 0
-216 -3786 0
3786 3787 0
-3786 -3787 0
3787 3788 0
-3787 -3788 0
3788 3775 3784 3789 0
3788 3775 -3784 -3789 0
3788 -3775 3784 -3789 0
3788 -3775 -3784 -3789 0
-3788 3775 3784 -3789 0
-3788 3775 -3784 -3789 0
-3788 -3775 3784 -3789 0
-3788 -3775 -3784 -3789 0
3788 3781 3777 3790 0
3788 3781 -3777 -3790 0
3788 -3781 3777 -3790 0
3788 -3781 -3777 -3790 0
-3788 3781 3777 -3790 0
-3788 3781 -3777 -3790 0
-3788 -3781 3777 -3790 0
-3788 -3781 -3777 -3790 0
3778 3785 3789 3790 -3791 0
3778 3785 3789 -3790 3791 0
3778 3785 -3789 3790 3791 0
3778 3785 -3789 -3790 3791 0
3778 -3785 3789 3790 3791 0
3778 -3785 3789 -3790 3791 0
3778 -3785 -3789 3790 3791 0
3778 -3785 -3789 -3790 3791 0
-3778 3785 3789 3790 3791 0
-3778 3785 3789 -3790 3791 0
-3778 3785 -3789 3790 3791 0
-3778 3785 -3789 -3790 3791 0
-3778 -3785 3789 3790 3791 0
-3778 -3785 3789 -3790 3791 0
-3778 -3785 -3789 3790 3791 0
-3778 -3785 -3789 -3790 3791 0
3791 3792 0
-3791 -3792 0
3792 3793 0
-3792 -3793 0
3793 3794 0
-3793 -3794 0
3764 3771 3794 3795 0
3764 3771 -3794 -3795 0
3764 -3771 3794 -3795 0
3764 -3771 -3794 -3795 0
-3764 3771 3794 -3795 0
-3764 3771 -3794 -3795 0
-3764 -3771 3794 -3795 0
-3764 -3771 -3794 -3795 0
3769 3796 0
-3769 -3796 0
3796 3797 0
-3796 -3797 0
3797 3798 0
-3797 -3798 0
3791 3799 0
-3791 -3799 0
3799 3800 0
-3799 -3800 0
3764 3798 3800 3801 0
3764 3798 -3800 -3801 0
3764 -3798 3800 -3801 0
3764 -3798 -3800 -3801 0
-3764 3798 3800 -3801 0
-3764 3798 -3800 -3801 0
-3764 -3798 3800 -3801 0
-3764 -3798 -3800 -3801 0
3761 3802 0
-3761 -3802 0
3802 3803 0
-3802 -3803 0
3803 3771 3800 3804 0
3803 3771 -3800 -3804 0
3803 -3771 3800 -3804 0
3803 -3771 -3800 -3804 0
-3803 3771 3800 -3804 0
-3803 3771 -3800 -3804 0
-3803 -3771 3800 -3804 0
-3803 -3771 -3800 -3804 0
3803 3798 3794 3805 0
3803 3798 -3794 -3805 0
3803 -3798 3794 -3805 0
3803 -3798 -3794 -3805 0
-3803 3798 3794 -3805 0
-3803 3798 -3794 -3805 0
-3803 -3798 3794 -3805 0
-3803 -3798 -3794 -3805 0
3795 3801 3804 3805 -3806 0
3795 3801 3804 -3805 3806 0
3795 3801 -3804 3805 3806 0
3795 3801 -3804 -3805 3806 0
3795 -3801 3804 3805 3806 0
3795 -3801 3804 -3805 3806 0
3795 -3801 -3804 3805 3806 0
3795 -3801 -3804 -3805 3806 0
-3795 3801 3804 3805 3806 0
-3795 3801 3804 -3805 3806 0
-3795 3801 -3804 3805 3806 0
-3795 3801 -3804 -3805 3806 0
-3795 -3801 3804 3805 3806 0
-3795 -3801 3804 -3805 3806 0
-3795 -3801 -3804 3805 3806 0
-3795 -3801 -3804 -3805 3806 0
3806 3807 0
-3806 -3807 0
3300 3807 3808 0
3300 -3807 -3808 0
-3300 3807 -3808 0
-3300 -3807 -3808 0
1419 3306 3809 0
1419 -3306 -3809 0
-1419 3306 -3809 0
-1419 -3306 -3809 0
3304 1230 3810 0
3304 -1230 -3810 0
-3304 1230 -3810 0
-3304 -1230 -3810 0
3809 3810 -3811 0
3809 -3810 3811 0
-3809 3810 3811 0
-3809 -3810 3811 0
3808 3811 3812 0
3808 -3811 -3812 0
-3808 3811 -3812 0
-3808 -3811 -3812 0
3313 3812 3813 0
3313 -3812 -3813 0
-3313 3812 -3813 0
-3313 -3812 -3813 0
3741 3813 -3814 0
3741 -3813 3814 0
-3741 3813 3814 0
-3741 -3813 3814 0
3814 3815 0
-3814 -3815 0
3815 3816 0
-3815 -3816 0
3816 3817 0
-3816 -3817 0
3817 3818 0
-3817 -3818 0
3818 3819 0
-3818 -3819 0
3819 3820 0
-3819 -3820 0
3728 3820 -3821 0
3728 -3820 3821 0
-3728 3820 3821 0
-3728 -3820 -3821 0
338 3822 0
-338 -3822 0
3822 3823 0
-3822 -3823 0
3823 3824 0
-3823 -3824 0
3824 3825 0
-3824 -3825 0
3825 3826 0
-3825 -3826 0
3826 3827 0
-3826 -3827 0
3827 3828 0
-3827 -3828 0
3828 3829 0
-3828 -3829 0
3829 3830 0
-3829 -3830 0
338 3831 0
-338 -3831 0
3831 3832 0
-3831 -3832 0
3832 3833 0
-3832 -3833 0
3833 3834 0
-3833 -3834 0
3834 3835 0
-3834 -3835 0
3835 3836 0
-3835 -3836 0
3836 3837 0
-3836 -3837 0
3837 3838 0
-3837 -3838 0
3838 3839 0
-3838 -3839 0
3830 3839 -3840 0
3830 -3839 3840 0
-3830 3839 3840 0
-3830 -3839 -3840 0
344 3841 0
-344 -3841 0
3841 3842 0
-3841 -3842 0
3842 3843 0
-3842 -3843 0
3843 3844 0
-3843 -3844 0
3844 3845 0
-3844 -3845 0
3845 3846 0
-3845 -3846 0
3846 3847 0
-3846 -3847 0
3847 3848 0
-3847 -3848 0
3848 3849 0
-3848 -3849 0
344 3850 0
-344 -3850 0
3850 3851 0
-3850 -3851 0
3851 3852 0
-3851 -3852 0
3852 3853 0
-3852 -3853 0
3853 3854 0
-3853 -3854 0
3854 3855 0
-3854 -3855 0
3855 3856 0
-3855 -3856 0
3856 3857 0
-3856 -3857 0
3857 3858 0
-3857 -3858 0
3849 3858 -3859 0
3849 -3858 3859 0
-3849 3858 3859 0
-3849 -3858 -3859 0
341 3860 0
-341 -3860 0
3860 3861 0
-3860 -3861 0
3861 3862 0
-3861 -3862 0
3862 3863 0
-3862 -3863 0
3863 3864 0
-3863 -3864 0
3864 3865 0
-3864 -3865 0
3865 3866 0
-3865 -3866 0
3866 3867 0
-3866 -3867 0
3867 3868 0
-3867 -3868 0
341 3869 0
-341 -3869 0
3869 3870 0
-3869 -3870 0
3870 3871 0
-3870 -3871 0
3871 3872 0
-3871 -3872 0
3872 3873 0
-3872 -3873 0
3873 3874 0
-3873 -3874 0
3874 3875 0
-3874 -3875 0
3875 3876 0
-3875 -3876 0
3876 3877 0
-3876 -3877 0
3868 3877 -3878 0
3868 -3877 3878 0
-3868 3877 3878 0
-3868 -3877 -3878 0
3234 3879 0
-3234 -3879 0
3648 3879 3880 0
3648 -3879 -3880 0
-3648 3879 -3880 0
-3648 -3879 -3880 0
323 3881 0
-323 -3881 0
338 3882 0
-338 -3882 0
3881 3882 3883 0
3881 -3882 -3883 0
-3881 3882 -3883 0
-3881 -3882 -3883 0
323 3884 0
-323 -3884 0
3884 3885 0
-3884 -3885 0
3823 3885 3886 0
3823 -3885 -3886 0
-3823 3885 -3886 0
-3823 -3885 -3886 0
3883 3886 -3887 0
3883 -3886 3887 0
-3883 3886 3887 0
-3883 -3886 3887 0
3887 3888 0
-3887 -3888 0
3888 3889 0
-3888 -3889 0
344 3890 0
-344 -3890 0
3890 3861 3891 0
3890 -3861 -3891 0
-3890 3861 -3891 0
-3890 -3861 -3891 0
341 3892 0
-341 -3892 0
3892 3842 3893 0
3892 -3842 -3893 0
-3892 3842 -3893 0
-3892 -3842 -3893 0
3891 3893 -3894 0
3891 -3893 3894 0
-3891 3893 3894 0
-3891 -3893 3894 0
3894 3895 0
-3894 -3895 0
3895 3896 0
-3895 -3896 0
3889 3896 3897 0
3889 -3896 -3897 0
-3889 3896 -3897 0
-3889 -3896 -3897 0
3889 3897 3898 0
3889 -3897 -3898 0
-3889 3897 -3898 0
-3889 -3897 -3898 0
3897 3896 3899 0
3897 -3896 -3899 0
-3897 3896 -3899 0
-3897 -3896 -3899 0
3898 3899 -3900 0
3898 -3899 3900 0
-3898 3899 3900 0
-3898 -3899 3900 0
3900 3901 0
-3900 -3901 0
3880 3901 -3902 0
3880 -3901 3902 0
-3880 3901 3902 0
-3880 -3901 3902 0
3902 3903 0
-3902 -3903 0
3903 3904 0
-3903 -3904 0
3904 3905 0
-3904 -3905 0
3905 3906 0
-3905 -3906 0
3312 3907 0
-3312 -3907 0
3740 3907 3908 0
3740 -3907 -3908 0
-3740 3907 -3908 0
-3740 -3907 -3908 0
323 3909 0
-323 -3909 0
338 3910 0
-338 -3910 0
3909 3910 3911 0
3909 -3910 -3911 0
-3909 3910 -3911 0
-3909 -3910 -3911 0
323 3912 0
-323 -3912 0
3912 3913 0
-3912 -3913 0
3832 3913 3914 0
3832 -3913 -3914 0
-3832 3913 -3914 0
-3832 -3913 -3914 0
3911 3914 -3915 0
3911 -3914 3915 0
-3911 3914 3915 0
-3911 -3914 3915 0
3915 3916 0
-3915 -3916 0
3916 3917 0
-3916 -3917 0
344 3918 0
-344 -3918 0
3918 3870 3919 0
3918 -3870 -3919 0
-3918 3870 -3919 0
-3918 -3870 -3919 0
341 3920 0
-341 -3920 0
3920 3851 3921 0
3920 -3851 -3921 0
-3920 3851 -3921 0
-3920 -3851 -3921 0
3919 3921 -3922 0
3919 -3921 3922 0
-3919 3921 3922 0
-3919 -3921 3922 0
3922 3923 0
-3922 -3923 0
3923 3924 0
-3923 -3924 0
3917 3924 3925 0
3917 -3924 -3925 0
-3917 3924 -3925 0
-3917 -3924 -3925 0
3917 3925 3926 0
3917 -3925 -3926 0
-3917 3925 -3926 0
-3917 -3925 -3926 0
3925 3924 3927 0
3925 -3924 -3927 0
-3925 3924 -3927 0
-3925 -3924 -3927 0
3926 3927 -3928 0
3926 -3927 3928 0
-3926 3927 3928 0
-3926 -3927 3928 0
3928 3929 0
-3928 -3929 0
3908 3929 -3930 0
3908 -3929 3930 0
-3908 3929 3930 0
-3908 -3929 3930 0
3930 3931 0
-3930 -3931 0
3931 3932 0
-3931 -3932 0
3932 3933 0
-3932 -3933 0
3933 3934 0
-3933 -3934 0
3906 3934 -3935 0
3906 -3934 3935 0
-3906 3934 3935 0
-3906 -3934 -3935 0
3879 3220 3936 0
3879 -3220 -3936 0
-3879 3220 -3936 0
-3879 -3220 -3936 0
419 3937 0
-419 -3937 0
3715 3937 3938 0
3715 -3937 -3938 0
-3715 3937 -3938 0
-3715 -3937 -3938 0
419 3939 0
-419 -3939 0
3939 3940 0
-3939 -3940 0
3940 3714 3941 0
3940 -3714 -3941 0
-3940 3714 -3941 0
-3940 -3714 -3941 0
3938 3941 -3942 0
3938 -3941 3942 0
-3938 3941 3942 0
-3938 -3941 3942 0
3942 3943 0
-3942 -3943 0
3936 3943 -3944 0
3936 -3943 3944 0
-3936 3943 3944 0
-3936 -3943 3944 0
3944 3945 0
-3944 -3945 0
3945 3946 0
-3945 -3946 0
3946 3947 0
-3946 -3947 0
3947 3948 0
-3947 -3948 0
3907 3298 3949 0
3907 -3298 -3949 0
-3907 3298 -3949 0
-3907 -3298 -3949 0
419 3950 0
-419 -3950 0
3807 3950 3951 0
3807 -3950 -3951 0
-3807 3950 -3951 0
-3807 -3950 -3951 0
419 3952 0
-419 -3952 0
3952 3953 0
-3952 -3953 0
3953 3806 3954 0
3953 -3806 -3954 0
-3953 3806 -3954 0
-3953 -3806 -3954 0
3951 3954 -3955 0
3951 -3954 3955 0
-3951 3954 3955 0
-3951 -3954 3955 0
3955 3956 0
-3955 -3956 0
3949 3956 -3957 0
3949 -3956 3957 0
-3949 3956 3957 0
-3949 -3956 3957 0
3957 3958 0
-3957 -3958 0
3958 3959 0
-3958 -3959 0
3959 3960 0
-3959 -3960 0
3960 3961 0
-3960 -3961 0
3948 3961 -3962 0
3948 -3961 3962 0
-3948 3961 3962 0
-3948 -3961 -3962 0
3328 3879 3963 0
3328 -3879 -3963 0
-3328 3879 -3963 0
-3328 -3879 -3963 0
238 3964 0
-238 -3964 0
3964 3965 0
-3964 -3965 0
3965 2132 3966 0
3965 -2132 -3966 0
-3965 2132 -3966 0
-3965 -2132 -3966 0
238 3967 0
-238 -3967 0
3967 2135 3968 0
3967 -2135 -3968 0
-3967 2135 -3968 0
-3967 -2135 -3968 0
3966 3968 -3969 0
3966 -3968 3969 0
-3966 3968 3969 0
-3966 -3968 3969 0
3969 3970 0
-3969 -3970 0
3963 3970 -3971 0
3963 -3970 3971 0
-3963 3970 3971 0
-3963 -3970 3971 0
3971 3972 0
-3971 -3972 0
3972 3973 0
-3972 -3973 0
3973 3974 0
-3973 -3974 0
3974 3975 0
-3974 -3975 0
3349 3907 3976 0
3349 -3907 -3976 0
-3349 3907 -3976 0
-3349 -3907 -3976 0
238 3977 0
-238 -3977 0
3977 3978 0
-3977 -3978 0
3978 2496 3979 0
3978 -2496 -3979 0
-3978 2496 -3979 0
-3978 -2496 -3979 0
238 3980 0
-238 -3980 0
3980 2499 3981 0
3980 -2499 -3981 0
-3980 2499 -3981 0
-3980 -2499 -3981 0
3979 3981 -3982 0
3979 -3981 3982 0
-3979 3981 3982 0
-3979 -3981 3982 0
3982 3983 0
-3982 -3983 0
3976 3983 -3984 0
3976 -3983 3984 0
-3976 3983 3984 0
-3976 -3983 3984 0
3984 3985 0
-3984 -3985 0
3985 3986 0
-3985 -3986 0
3986 3987 0
-3986 -3987 0
3987 3988 0
-3987 -3988 0
3975 3988 -3989 0
3975 -3988 3989 0
-3975 3988 3989 0
-3975 -3988 -3989 0
3879 3380 3990 0
3879 -3380 -3990 0
-3879 3380 -3990 0
-3879 -3380 -3990 0
1387 3991 0
-1387 -3991 0
3990 3991 -3992 0
3990 -3991 3992 0
-3990 3991 3992 0
-3990 -3991 3992 0
3992 3993 0
-3992 -3993 0
3993 3994 0
-3993 -3994 0
3994 3995 0
-3994 -3995 0
3995 3996 0
-3995 -3996 0
3907 3402 3997 0
3907 -3402 -3997 0
-3907 3402 -3997 0
-3907 -3402 -3997 0
1480 3998 0
-1480 -3998 0
3997 3998 -3999 0
3997 -3998 3999 0
-3997 3998 3999 0
-3997 -3998 3999 0
3999 4000 0
-3999 -4000 0
4000 4001 0
-4000 -4001 0
4001 4002 0
-4001 -4002 0
4002 4003 0
-4002 -4003 0
3996 4003 -4004 0
3996 -4003 4004 0
-3996 4003 4004 0
-3996 -4003 -4004 0
3879 3425 4005 0
3879 -3425 -4005 0
-3879 3425 -4005 0
-3879 -3425 -4005 0
1003 4006 0
-1003 -4006 0
4005 4006 -4007 0
4005 -4006 4007 0
-4005 4006 4007 0
-4005 -4006 4007 0
4007 4008 0
-4007 -4008 0
4008 4009 0
-4008 -4009 0
4009 4010 0
-4009 -4010 0
4010 4011 0
-4010 -4011 0
3907 3447 4012 0
3907 -3447 -4012 0
-3907 3447 -4012 0
-3907 -3447 -4012 0
1096 4013 0
-1096 -4013 0
4012 4013 -4014 0
4012 -4013 4014 0
-4012 4013 4014 0
-4012 -4013 4014 0
4014 4015 0
-4014 -4015 0
4015 4016 0
-4015 -4016 0
4016 4017 0
-4016 -4017 0
4017 4018 0
-4017 -4018 0
4011 4018 -4019 0
4011 -4018 4019 0
-4011 4018 4019 0
-4011 -4018 -4019 0
3879 3462 4020 0
3879 -3462 -4020 0
-3879 3462 -4020 0
-3879 -3462 -4020 0
1195 4021 0
-1195 -4021 0
4020 4021 -4022 0
4020 -4021 4022 0
-4020 4021 4022 0
-4020 -4021 4022 0
4022 4023 0
-4022 -4023 0
4023 4024 0
-4023 -4024 0
4024 4025 0
-4024 -4025 0
4025 4026 0
-4025 -4026 0
3907 3484 4027 0
3907 -3484 -4027 0
-3907 3484 -4027 0
-3907 -3484 -4027 0
1293 4028 0
-1293 -4028 0
4027 4028 -4029 0
4027 -4028 4029 0
-4027 4028 4029 0
-4027 -4028 4029 0
4029 4030 0
-4029 -4030 0
4030 4031 0
-4030 -4031 0
4031 4032 0
-4031 -4032 0
4032 4033 0
-4032 -4033 0
4026 4033 -4034 0
4026 -4033 4034 0
-4026 4033 4034 0
-4026 -4033 -4034 0
3515 3879 4035 0
3515 -3879 -4035 0
-3515 3879 -4035 0
-3515 -3879 -4035 0
527 4036 0
-527 -4036 0
4035 4036 -4037 0
4035 -4036 4037 0
-4035 4036 4037 0
-4035 -4036 4037 0
4037 4038 0
-4037 -4038 0
4038 4039 0
-4038 -4039 0
4039 4040 0
-4039 -4040 0
4040 4041 0
-4040 -4041 0
3537 3907 4042 0
3537 -3907 -4042 0
-3537 3907 -4042 0
-3537 -3907 -4042 0
625 4043 0
-625 -4043 0
4042 4043 -4044 0
4042 -4043 4044 0
-4042 4043 4044 0
-4042 -4043 4044 0
4044 4045 0
-4044 -4045 0
4045 4046 0
-4045 -4046 0
4046 4047 0
-4046 -4047 0
4047 4048 0
-4047 -4048 0
4041 4048 -4049 0
4041 -4048 4049 0
-4041 4048 4049 0
-4041 -4048 -4049 0
3560 3879 4050 0
3560 -3879 -4050 0
-3560 3879 -4050 0
-3560 -3879 -4050 0
1579 4051 0
-1579 -4051 0
4050 4051 -4052 0
4050 -4051 4052 0
-4050 4051 4052 0
-4050 -4051 4052 0
4052 4053 0
-4052 -4053 0
4053 4054 0
-4053 -4054 0
4054 4055 0
-4054 -4055 0
4055 4056 0
-4055 -4056 0
3582 3907 4057 0
3582 -3907 -4057 0
-3582 3907 -4057 0
-3582 -3907 -4057 0
1677 4058 0
-1677 -4058 0
4057 4058 -4059 0
4057 -4058 4059 0
-4057 4058 4059 0
-4057 -4058 4059 0
4059 4060 0
-4059 -4060 0
4060 4061 0
-4060 -4061 0
4061 4062 0
-4061 -4062 0
4062 4063 0
-4062 -4063 0
4056 4063 -4064 0
4056 -4063 4064 0
-4056 4063 4064 0
-4056 -4063 -4064 0
3597 3879 4065 0
3597 -3879 -4065 0
-3597 3879 -4065 0
-3597 -3879 -4065 0
843 4066 0
-843 -4066 0
4065 4066 -4067 0
4065 -4066 4067 0
-4065 4066 4067 0
-4065 -4066 4067 0
4067 4068 0
-4067 -4068 0
4068 4069 0
-4068 -4069 0
4069 4070 0
-4069 -4070 0
4070 4071 0
-4070 -4071 0
3619 3907 4072 0
3619 -3907 -4072 0
-3619 3907 -4072 0
-3619 -3907 -4072 0
897 4073 0
-897 -4073 0
4072 4073 -4074 0
4072 -4073 4074 0
-4072 4073 4074 0
-4072 -4073 4074 0
4074 4075 0
-4074 -4075 0
4075 4076 0
-4075 -4076 0
4076 4077 0
-4076 -4077 0
4077 4078 0
-4077 -4078 0
4071 4078 -4079 0
4071 -4078 4079 0
-4071 4078 4079 0
-4071 -4078 -4079 0
3714 4080 0
-3714 -4080 0
4080 4081 0
-4080 -4081 0
4081 4082 0
-4081 -4082 0
4082 4083 0
-4082 -4083 0
4083 4084 0
-4083 -4084 0
4084 4085 0
-4084 -4085 0
3806 4086 0
-3806 -4086 0
4086 4087 0
-4086 -4087 0
4087 4088 0
-4087 -4088 0
4088 4089 0
-4088 -4089 0
4089 4090 0
-4089 -4090 0
4090 4091 0
-4090 -4091 0
4085 4091 -4092 0
4085 -4091 4092 0
-4085 4091 4092 0
-4085 -4091 -4092 0
3675 4093 0
-3675 -4093 0
4093 4094 0
-4093 -4094 0
346 4095 0
-346 -4095 0
4095 4096 0
-4095 -4096 0
4096 4097 0
-4096 -4097 0
4097 4098 0
-4097 -4098 0
4098 4099 0
-4098 -4099 0
346 4100 0
-346 -4100 0
4100 4101 0
-4100 -4101 0
4101 4102 0
-4101 -4102 0
4102 4103 0
-4102 -4103 0
4099 4103 -4104 0
4099 -4103 4104 0
-4099 4103 4104 0
-4099 -4103 4104 0
4104 4105 0
-4104 -4105 0
4105 4106 0
-4105 -4106 0
4094 4106 -4107 0
4094 -4106 4107 0
-4094 4106 4107 0
-4094 -4106 4107 0
4107 4108 0
-4107 -4108 0
4108 4109 0
-4108 -4109 0
4109 4110 0
-4109 -4110 0
4110 4111 0
-4110 -4111 0
3767 4112 0
-3767 -4112 0
4112 4113 0
-4112 -4113 0
346 4114 0
-346 -4114 0
4114 4115 0
-4114 -4115 0
4115 4116 0
-4115 -4116 0
4116 4117 0
-4116 -4117 0
4117 4118 0
-4117 -4118 0
346 4119 0
-346 -4119 0
4119 4120 0
-4119 -4120 0
4120 4121 0
-4120 -4121 0
4121 4122 0
-4121 -4122 0
4118 4122 -4123 0
4118 -4122 4123 0
-4118 4122 4123 0
-4118 -4122 4123 0
4123 4124 0
-4123 -4124 0
4124 4125 0
-4124 -4125 0
4113 4125 -4126 0
4113 -4125 4126 0
-4113 4125 4126 0
-4113 -4125 4126 0
4126 4127 0
-4126 -4127 0
4127 4128 0
-4127 -4128 0
4128 4129 0
-4128 -4129 0
4129 4130 0
-4129 -4130 0
4111 4130 -4131 0
4111 -4130 4131 0
-4111 4130 4131 0
-4111 -4130 -4131 0
3673 4132 0
-3673 -4132 0
4132 4133 0
-4132 -4133 0
349 4134 0
-349 -4134 0
4134 4135 0
-4134 -4135 0
4100 4135 4136 0
4100 -4135 -4136 0
-4100 4135 -4136 0
-4100 -4135 -4136 0
4135 4137 0
-4135 -4137 0
349 4138 0
-349 -4138 0
4096 4138 4139 0
4096 -4138 -4139 0
-4096 4138 -4139 0
-4096 -4138 -4139 0
4136 4137 4139 -4140 0
4136 4137 -4139 4140 0
4136 -4137 4139 4140 0
4136 -4137 -4139 4140 0
-4136 4137 4139 4140 0
-4136 4137 -4139 4140 0
-4136 -4137 4139 4140 0
-4136 -4137 -4139 4140 0
4140 4141 0
-4140 -4141 0
4141 4142 0
-4141 -4142 0
4133 4142 -4143 0
4133 -4142 4143 0
-4133 4142 4143 0
-4133 -4142 4143 0
4143 4144 0
-4143 -4144 0
4144 4145 0
-4144 -4145 0
4145 4146 0
-4145 -4146 0
4146 4147 0
-4146 -4147 0
3765 4148 0
-3765 -4148 0
4148 4149 0
-4148 -4149 0
349 4150 0
-349 -4150 0
4150 4151 0
-4150 -4151 0
4119 4151 4152 0
4119 -4151 -4152 0
-4119 4151 -4152 0
-4119 -4151 -4152 0
4151 4153 0
-4151 -4153 0
349 4154 0
-349 -4154 0
4115 4154 4155 0
4115 -4154 -4155 0
-4115 4154 -4155 0
-4115 -4154 -4155 0
4152 4153 4155 -4156 0
4152 4153 -4155 4156 0
4152 -4153 4155 4156 0
4152 -4153 -4155 4156 0
-4152 4153 4155 4156 0
-4152 4153 -4155 4156 0
-4152 -4153 4155 4156 0
-4152 -4153 -4155 4156 0
4156 4157 0
-4156 -4157 0
4157 4158 0
-4157 -4158 0
4149 4158 -4159 0
4149 -4158 4159 0
-4149 4158 4159 0
-4149 -4158 4159 0
4159 4160 0
-4159 -4160 0
4160 4161 0
-4160 -4161 0
4161 4162 0
-4161 -4162 0
4162 4163 0
-4162 -4163 0
4147 4163 -4164 0
4147 -4163 4164 0
-4147 4163 4164 0
-4147 -4163 -4164 0
3687 4165 0
-3687 -4165 0
4165 4166 0
-4165 -4166 0
357 4167 0
-357 -4167 0
4096 4135 4168 0
4096 -4135 -4168 0
-4096 4135 -4168 0
-4096 -4135 -4168 0
4168 4169 0
-4168 -4169 0
4167 4169 4170 0
4167 -4169 -4170 0
-4167 4169 -4170 0
-4167 -4169 -4170 0
357 4171 0
-357 -4171 0
4171 4172 0
-4171 -4172 0
4172 4168 4173 0
4172 -4168 -4173 0
-4172 4168 -4173 0
-4172 -4168 -4173 0
4170 4173 -4174 0
4170 -4173 4174 0
-4170 4173 4174 0
-4170 -4173 4174 0
4174 4175 0
-4174 -4175 0
4175 4176 0
-4175 -4176 0
4166 4176 -4177 0
4166 -4176 4177 0
-4166 4176 4177 0
-4166 -4176 4177 0
4177 4178 0
-4177 -4178 0
4178 4179 0
-4178 -4179 0
4179 4180 0
-4179 -4180 0
4180 4181 0
-4180 -4181 0
3779 4182 0
-3779 -4182 0
4182 4183 0
-4182 -4183 0
357 4184 0
-357 -4184 0
4115 4151 4185 0
4115 -4151 -4185 0
-4115 4151 -4185 0
-4115 -4151 -4185 0
4185 4186 0
-4185 -4186 0
4184 4186 4187 0
4184 -4186 -4187 0
-4184 4186 -4187 0
-4184 -4186 -4187 0
357 4188 0
-357 -4188 0
4188 4189 0
-4188 -4189 0
4189 4185 4190 0
4189 -4185 -4190 0
-4189 4185 -4190 0
-4189 -4185 -4190 0
4187 4190 -4191 0
4187 -4190 4191 0
-4187 4190 4191 0
-4187 -4190 4191 0
4191 4192 0
-4191 -4192 0
4192 4193 0
-4192 -4193 0
4183 4193 -4194 0
4183 -4193 4194 0
-4183 4193 4194 0
-4183 -4193 4194 0
4194 4195 0
-4194 -4195 0
4195 4196 0
-4195 -4196 0
4196 4197 0
-4196 -4197 0
4197 4198 0
-4197 -4198 0
4181 4198 -4199 0
4181 -4198 4199 0
-4181 4198 4199 0
-4181 -4198 -4199 0
3690 4200 0
-3690 -4200 0
4200 4201 0
-4200 -4201 0
333 4202 0
-333 -4202 0
4202 4203 0
-4202 -4203 0
4203 4204 0
-4203 -4204 0
4204 4205 0
-4204 -4205 0
333 4206 0
-333 -4206 0
4206 4207 0
-4206 -4207 0
4207 4208 0
-4207 -4208 0
4208 4209 0
-4208 -4209 0
4209 4210 0
-4209 -4210 0
4205 4210 -4211 0
4205 -4210 4211 0
-4205 4210 4211 0
-4205 -4210 4211 0
4211 4212 0
-4211 -4212 0
4212 4213 0
-4212 -4213 0
4201 4213 -4214 0
4201 -4213 4214 0
-4201 4213 4214 0
-4201 -4213 4214 0
4214 4215 0
-4214 -4215 0
4215 4216 0
-4215 -4216 0
4216 4217 0
-4216 -4217 0
4217 4218 0
-4217 -4218 0
3782 4219 0
-3782 -4219 0
4219 4220 0
-4219 -4220 0
333 4221 0
-333 -4221 0
4221 4222 0
-4221 -4222 0
4222 4223 0
-4222 -4223 0
4223 4224 0
-4223 -4224 0
333 4225 0
-333 -4225 0
4225 4226 0
-4225 -4226 0
4226 4227 0
-4226 -4227 0
4227 4228 0
-4227 -4228 0
4228 4229 0
-4228 -4229 0
4224 4229 -4230 0
4224 -4229 4230 0
-4224 4229 4230 0
-4224 -4229 4230 0
4230 4231 0
-4230 -4231 0
4231 4232 0
-4231 -4232 0
4220 4232 -4233 0
4220 -4232 4233 0
-4220 4232 4233 0
-4220 -4232 4233 0
4233 4234 0
-4233 -4234 0
4234 4235 0
-4234 -4235 0
4235 4236 0
-4235 -4236 0
4236 4237 0
-4236 -4237 0
4218 4237 -4238 0
4218 -4237 4238 0
-4218 4237 4238 0
-4218 -4237 -4238 0
3694 4239 0
-3694 -4239 0
4239 4240 0
-4239 -4240 0
337 4241 0
-337 -4241 0
4241 4242 0
-4241 -4242 0
4242 4202 4243 0
4242 -4202 -4243 0
-4242 4202 -4243 0
-4242 -4202 -4243 0
4242 4244 0
-4242 -4244 0
337 4245 0
-337 -4245 0
4245 4207 4246 0
4245 -4207 -4246 0
-4245 4207 -4246 0
-4245 -4207 -4246 0
4243 4244 4246 -4247 0
4243 4244 -4246 4247 0
4243 -4244 4246 4247 0
4243 -4244 -4246 4247 0
-4243 4244 4246 4247 0
-4243 4244 -4246 4247 0
-4243 -4244 4246 4247 0
-4243 -4244 -4246 4247 0
4247 4248 0
-4247 -4248 0
4248 4249 0
-4248 -4249 0
4240 4249 -4250 0
4240 -4249 4250 0
-4240 4249 4250 0
-4240 -4249 4250 0
4250 4251 0
-4250 -4251 0
4251 4252 0
-4251 -4252 0
4252 4253 0
-4252 -4253 0
4253 4254 0
-4253 -4254 0
3786 4255 0
-3786 -4255 0
4255 4256 0
-4255 -4256 0
337 4257 0
-337 -4257 0
4257 4258 0
-4257 -4258 0
4258 4221 4259 0
4258 -4221 -4259 0
-4258 4221 -4259 0
-4258 -4221 -4259 0
4258 4260 0
-4258 -4260 0
337 4261 0
-337 -4261 0
4261 4226 4262 0
4261 -4226 -4262 0
-4261 4226 -4262 0
-4261 -4226 -4262 0
4259 4260 4262 -4263 0
4259 4260 -4262 4263 0
4259 -4260 4262 4263 0
4259 -4260 -4262 4263 0
-4259 4260 4262 4263 0
-4259 4260 -4262 4263 0
-4259 -4260 4262 4263 0
-4259 -4260 -4262 4263 0
4263 4264 0
-4263 -4264 0
4264 4265 0
-4264 -4265 0
4256 4265 -4266 0
4256 -4265 4266 0
-4256 4265 4266 0
-4256 -4265 4266 0
4266 4267 0
-4266 -4267 0
4267 4268 0
-4267 -4268 0
4268 4269 0
-4268 -4269 0
4269 4270 0
-4269 -4270 0
4254 4270 -4271 0
4254 -4270 4271 0
-4254 4270 4271 0
-4254 -4270 -4271 0
3657 4272 0
-3657 -4272 0
4272 4273 0
-4272 -4273 0
4242 4207 4274 0
4242 -4207 -4274 0
-4242 4207 -4274 0
-4242 -4207 -4274 0
335 4275 0
-335 -4275 0
4275 4276 0
-4275 -4276 0
4274 4276 4277 0
4274 -4276 -4277 0
-4274 4276 -4277 0
-4274 -4276 -4277 0
335 4278 0
-335 -4278 0
4274 4279 0
-4274 -4279 0
4278 4279 4280 0
4278 -4279 -4280 0
-4278 4279 -4280 0
-4278 -4279 -4280 0
4277 4280 -4281 0
4277 -4280 4281 0
-4277 4280 4281 0
-4277 -4280 4281 0
4281 4282 0
-4281 -4282 0
4282 4283 0
-4282 -4283 0
4273 4283 -4284 0
4273 -4283 4284 0
-4273 4283 4284 0
-4273 -4283 4284 0
4284 4285 0
-4284 -4285 0
4285 4286 0
-4285 -4286 0
4286 4287 0
-4286 -4287 0
4287 4288 0
-4287 -4288 0
3749 4289 0
-3749 -4289 0
4289 4290 0
-4289 -4290 0
4258 4226 4291 0
4258 -4226 -4291 0
-4258 4226 -4291 0
-4258 -4226 -4291 0
335 4292 0
-335 -4292 0
4292 4293 0
-4292 -4293 0
4291 4293 4294 0
4291 -4293 -4294 0
-4291 4293 -4294 0
-4291 -4293 -4294 0
335 4295 0
-335 -4295 0
4291 4296 0
-4291 -4296 0
4295 4296 4297 0
4295 -4296 -4297 0
-4295 4296 -4297 0
-4295 -4296 -4297 0
4294 4297 -4298 0
4294 -4297 4298 0
-4294 4297 4298 0
-4294 -4297 4298 0
4298 4299 0
-4298 -4299 0
4299 4300 0
-4299 -4300 0
4290 4300 -4301 0
4290 -4300 4301 0
-4290 4300 4301 0
-4290 -4300 4301 0
4301 4302 0
-4301 -4302 0
4302 4303 0
-4302 -4303 0
4303 4304 0
-4303 -4304 0
4304 4305 0
-4304 -4305 0
4288 4305 -4306 0
4288 -4305 4306 0
-4288 4305 4306 0
-4288 -4305 -4306 0
3660 4307 0
-3660 -4307 0
4307 4308 0
-4307 -4308 0
339 4309 0
-339 -4309 0
4276 4279 4309 4310 0
4276 4279 -4309 -4310 0
4276 -4279 4309 -4310 0
4276 -4279 -4309 -4310 0
-4276 4279 4309 -4310 0
-4276 4279 -4309 -4310 0
-4276 -4279 4309 -4310 0
-4276 -4279 -4309 -4310 0
339 4311 0
-339 -4311 0
4311 4312 0
-4311 -4312 0
4278 4312 4313 0
4278 -4312 -4313 0
-4278 4312 -4313 0
-4278 -4312 -4313 0
4274 4312 4314 0
4274 -4312 -4314 0
-4274 4312 -4314 0
-4274 -4312 -4314 0
4310 4313 4314 -4315 0
4310 4313 -4314 4315 0
4310 -4313 4314 4315 0
4310 -4313 -4314 4315 0
-4310 4313 4314 4315 0
-4310 4313 -4314 4315 0
-4310 -4313 4314 4315 0
-4310 -4313 -4314 4315 0
4315 4316 0
-4315 -4316 0
4316 4317 0
-4316 -4317 0
4308 4317 -4318 0
4308 -4317 4318 0
-4308 4317 4318 0
-4308 -4317 4318 0
4318 4319 0
-4318 -4319 0
4319 4320 0
-4319 -4320 0
4320 4321 0
-4320 -4321 0
4321 4322 0
-4321 -4322 0
3752 4323 0
-3752 -4323 0
4323 4324 0
-4323 -4324 0
339 4325 0
-339 -4325 0
4293 4296 4325 4326 0
4293 4296 -4325 -4326 0
4293 -4296 4325 -4326 0
4293 -4296 -4325 -4326 0
-4293 4296 4325 -4326 0
-4293 4296 -4325 -4326 0
-4293 -4296 4325 -4326 0
-4293 -4296 -4325 -4326 0
339 4327 0
-339 -4327 0
4327 4328 0
-4327 -4328 0
4295 4328 4329 0
4295 -4328 -4329 0
-4295 4328 -4329 0
-4295 -4328 -4329 0
4291 4328 4330 0
4291 -4328 -4330 0
-4291 4328 -4330 0
-4291 -4328 -4330 0
4326 4329 4330 -4331 0
4326 4329 -4330 4331 0
4326 -4329 4330 4331 0
4326 -4329 -4330 4331 0
-4326 4329 4330 4331 0
-4326 4329 -4330 4331 0
-4326 -4329 4330 4331 0
-4326 -4329 -4330 4331 0
4331 4332 0
-4331 -4332 0
4332 4333 0
-4332 -4333 0
4324 4333 -4334 0
4324 -4333 4334 0
-4324 4333 4334 0
-4324 -4333 4334 0
4334 4335 0
-4334 -4335 0
4335 4336 0
-4335 -4336 0
4336 4337 0
-4336 -4337 0
4337 4338 0
-4337 -4338 0
4322 4338 -4339 0
4322 -4338 4339 0
-4322 4338 4339 0
-4322 -4338 -4339 0
3664 4340 0
-3664 -4340 0
4340 4341 0
-4340 -4341 0
334 4342 0
-334 -4342 0
4312 4279 4276 4343 0
4312 4279 -4276 -4343 0
4312 -4279 4276 -4343 0
4312 -4279 -4276 -4343 0
-4312 4279 4276 -4343 0
-4312 4279 -4276 -4343 0
-4312 -4279 4276 -4343 0
-4312 -4279 -4276 -4343 0
4343 4344 0
-4343 -4344 0
4342 4344 4345 0
4342 -4344 -4345 0
-4342 4344 -4345 0
-4342 -4344 -4345 0
334 4346 0
-334 -4346 0
4346 4347 0
-4346 -4347 0
4347 4343 4348 0
4347 -4343 -4348 0
-4347 4343 -4348 0
-4347 -4343 -4348 0
4345 4348 -4349 0
4345 -4348 4349 0
-4345 4348 4349 0
-4345 -4348 4349 0
4349 4350 0
-4349 -4350 0
4350 4351 0
-4350 -4351 0
4341 4351 -4352 0
4341 -4351 4352 0
-4341 4351 4352 0
-4341 -4351 4352 0
4352 4353 0
-4352 -4353 0
4353 4354 0
-4353 -4354 0
4354 4355 0
-4354 -4355 0
4355 4356 0
-4355 -4356 0
3756 4357 0
-3756 -4357 0
4357 4358 0
-4357 -4358 0
334 4359 0
-334 -4359 0
4328 4296 4293 4360 0
4328 4296 -4293 -4360 0
4328 -4296 4293 -4360 0
4328 -4296 -4293 -4360 0
-4328 4296 4293 -4360 0
-4328 4296 -4293 -4360 0
-4328 -4296 4293 -4360 0
-4328 -4296 -4293 -4360 0
4360 4361 0
-4360 -4361 0
4359 4361 4362 0
4359 -4361 -4362 0
-4359 4361 -4362 0
-4359 -4361 -4362 0
334 4363 0
-334 -4363 0
4363 4364 0
-4363 -4364 0
4364 4360 4365 0
4364 -4360 -4365 0
-4364 4360 -4365 0
-4364 -4360 -4365 0
4362 4365 -4366 0
4362 -4365 4366 0
-4362 4365 4366 0
-4362 -4365 4366 0
4366 4367 0
-4366 -4367 0
4367 4368 0
-4367 -4368 0
4358 4368 -4369 0
4358 -4368 4369 0
-4358 4368 4369 0
-4358 -4368 4369 0
4369 4370 0
-4369 -4370 0
4370 4371 0
-4370 -4371 0
4371 4372 0
-4371 -4372 0
4372 4373 0
-4372 -4373 0
4356 4373 -4374 0
4356 -4373 4374 0
-4356 4373 4374 0
-4356 -4373 -4374 0
1885 1884 4375 0
1885 -1884 -4375 0
-1885 1884 -4375 0
-1885 -1884 -4375 0
648 4375 4376 0
648 -4375 -4376 0
-648 4375 -4376 0
-648 -4375 -4376 0
4376 4377 0
-4376 -4377 0
4377 4378 0
-4377 -4378 0
4378 4379 0
-4378 -4379 0
4379 4380 0
-4379 -4380 0
4380 4381 0
-4380 -4381 0
4381 4382 0
-4381 -4382 0
1905 1904 4383 0
1905 -1904 -4383 0
-1905 1904 -4383 0
-1905 -1904 -4383 0
720 4383 4384 0
720 -4383 -4384 0
-720 4383 -4384 0
-720 -4383 -4384 0
4384 4385 0
-4384 -4385 0
4385 4386 0
-4385 -4386 0
4386 4387 0
-4386 -4387 0
4387 4388 0
-4387 -4388 0
4388 4389 0
-4388 -4389 0
4389 4390 0
-4389 -4390 0
4382 4390 -4391 0
4382 -4390 4391 0
-4382 4390 4391 0
-4382 -4390 -4391 0
378 4392 0
-378 -4392 0
4392 4393 0
-4392 -4393 0
4393 4394 0
-4393 -4394 0
4394 4395 0
-4394 -4395 0
4395 4396 0
-4395 -4396 0
4396 4397 0
-4396 -4397 0
4397 4398 0
-4397 -4398 0
4398 4399 0
-4398 -4399 0
4399 4400 0
-4399 -4400 0
378 4401 0
-378 -4401 0
4401 4402 0
-4401 -4402 0
4402 4403 0
-4402 -4403 0
4403 4404 0
-4403 -4404 0
4404 4405 0
-4404 -4405 0
4405 4406 0
-4405 -4406 0
4406 4407 0
-4406 -4407 0
4407 4408 0
-4407 -4408 0
4408 4409 0
-4408 -4409 0
4400 4409 -4410 0
4400 -4409 4410 0
-4400 4409 4410 0
-4400 -4409 -4410 0
1683 4411 0
-1683 -4411 0
676 4412 0
-676 -4412 0
4411 4412 4413 0
4411 -4412 -4413 0
-4411 4412 -4413 0
-4411 -4412 -4413 0
1684 4414 0
-1684 -4414 0
682 4415 0
-682 -4415 0
4414 4415 4416 0
4414 -4415 -4416 0
-4414 4415 -4416 0
-4414 -4415 -4416 0
355 4417 0
-355 -4417 0
4417 4418 0
-4417 -4418 0
4418 4419 0
-4418 -4419 0
1795 1789 4419 4420 0
1795 1789 -4419 -4420 0
1795 -1789 4419 -4420 0
1795 -1789 -4419 -4420 0
-1795 1789 4419 -4420 0
-1795 1789 -4419 -4420 0
-1795 -1789 4419 -4420 0
-1795 -1789 -4419 -4420 0
355 4421 0
-355 -4421 0
4421 4422 0
-4421 -4422 0
1790 4422 4423 0
1790 -4422 -4423 0
-1790 4422 -4423 0
-1790 -4422 -4423 0
4422 1794 4424 0
4422 -1794 -4424 0
-4422 1794 -4424 0
-4422 -1794 -4424 0
4420 4423 4424 -4425 0
4420 4423 -4424 4425 0
4420 -4423 4424 4425 0
4420 -4423 -4424 4425 0
-4420 4423 4424 4425 0
-4420 4423 -4424 4425 0
-4420 -4423 4424 4425 0
-4420 -4423 -4424 4425 0
4425 4426 0
-4425 -4426 0
4426 4427 0
-4426 -4427 0
4413 4416 4427 -4428 0
4413 4416 -4427 4428 0
4413 -4416 4427 4428 0
4413 -4416 -4427 4428 0
-4413 4416 4427 4428 0
-4413 4416 -4427 4428 0
-4413 -4416 4427 4428 0
-4413 -4416 -4427 4428 0
4428 4429 0
-4428 -4429 0
4429 4430 0
-4429 -4430 0
4430 4431 0
-4430 -4431 0
4431 4432 0
-4431 -4432 0
1710 4433 0
-1710 -4433 0
748 4434 0
-748 -4434 0
4433 4434 4435 0
4433 -4434 -4435 0
-4433 4434 -4435 0
-4433 -4434 -4435 0
1711 4436 0
-1711 -4436 0
754 4437 0
-754 -4437 0
4436 4437 4438 0
4436 -4437 -4438 0
-4436 4437 -4438 0
-4436 -4437 -4438 0
355 4439 0
-355 -4439 0
4439 4440 0
-4439 -4440 0
4440 4441 0
-4440 -4441 0
1815 1809 4441 4442 0
1815 1809 -4441 -4442 0
1815 -1809 4441 -4442 0
1815 -1809 -4441 -4442 0
-1815 1809 4441 -4442 0
-1815 1809 -4441 -4442 0
-1815 -1809 4441 -4442 0
-1815 -1809 -4441 -4442 0
355 4443 0
-355 -4443 0
4443 4444 0
-4443 -4444 0
1810 4444 4445 0
1810 -4444 -4445 0
-1810 4444 -4445 0
-1810 -4444 -4445 0
4444 1814 4446 0
4444 -1814 -4446 0
-4444 1814 -4446 0
-4444 -1814 -4446 0
4442 4445 4446 -4447 0
4442 4445 -4446 4447 0
4442 -4445 4446 4447 0
4442 -4445 -4446 4447 0
-4442 4445 4446 4447 0
-4442 4445 -4446 4447 0
-4442 -4445 4446 4447 0
-4442 -4445 -4446 4447 0
4447 4448 0
-4447 -4448 0
4448 4449 0
-4448 -4449 0
4435 4438 4449 -4450 0
4435 4438 -4449 4450 0
4435 -4438 4449 4450 0
4435 -4438 -4449 4450 0
-4435 4438 4449 4450 0
-4435 4438 -4449 4450 0
-4435 -4438 4449 4450 0
-4435 -4438 -4449 4450 0
4450 4451 0
-4450 -4451 0
4451 4452 0
-4451 -4452 0
4452 4453 0
-4452 -4453 0
4453 4454 0
-4453 -4454 0
4432 4454 -4455 0
4432 -4454 4455 0
-4432 4454 4455 0
-4432 -4454 -4455 0
1738 4456 0
-1738 -4456 0
4456 4412 4457 0
4456 -4412 -4457 0
-4456 4412 -4457 0
-4456 -4412 -4457 0
1734 4458 0
-1734 -4458 0
4415 4458 4459 0
4415 -4458 -4459 0
-4415 4458 -4459 0
-4415 -4458 -4459 0
379 4460 0
-379 -4460 0
4460 4461 0
-4460 -4461 0
4461 4462 0
-4461 -4462 0
4422 1789 1795 4463 0
4422 1789 -1795 -4463 0
4422 -1789 1795 -4463 0
4422 -1789 -1795 -4463 0
-4422 1789 1795 -4463 0
-4422 1789 -1795 -4463 0
-4422 -1789 1795 -4463 0
-4422 -1789 -1795 -4463 0
4463 4464 0
-4463 -4464 0
4462 4464 4465 0
4462 -4464 -4465 0
-4462 4464 -4465 0
-4462 -4464 -4465 0
379 4466 0
-379 -4466 0
4466 4467 0
-4466 -4467 0
4463 4467 4468 0
4463 -4467 -4468 0
-4463 4467 -4468 0
-4463 -4467 -4468 0
4465 4468 -4469 0
4465 -4468 4469 0
-4465 4468 4469 0
-4465 -4468 4469 0
4469 4470 0
-4469 -4470 0
4470 4471 0
-4470 -4471 0
4457 4459 4471 -4472 0
4457 4459 -4471 4472 0
4457 -4459 4471 4472 0
4457 -4459 -4471 4472 0
-4457 4459 4471 4472 0
-4457 4459 -4471 4472 0
-4457 -4459 4471 4472 0
-4457 -4459 -4471 4472 0
4472 4473 0
-4472 -4473 0
4473 4474 0
-4473 -4474 0
4474 4475 0
-4474 -4475 0
4475 4476 0
-4475 -4476 0
1763 4477 0
-1763 -4477 0
4477 4434 4478 0
4477 -4434 -4478 0
-4477 4434 -4478 0
-4477 -4434 -4478 0
1759 4479 0
-1759 -4479 0
4437 4479 4480 0
4437 -4479 -4480 0
-4437 4479 -4480 0
-4437 -4479 -4480 0
379 4481 0
-379 -4481 0
4481 4482 0
-4481 -4482 0
4482 4483 0
-4482 -4483 0
4444 1809 1815 4484 0
4444 1809 -1815 -4484 0
4444 -1809 1815 -4484 0
4444 -1809 -1815 -4484 0
-4444 1809 1815 -4484 0
-4444 1809 -1815 -4484 0
-4444 -1809 1815 -4484 0
-4444 -1809 -1815 -4484 0
4484 4485 0
-4484 -4485 0
4483 4485 4486 0
4483 -4485 -4486 0
-4483 4485 -4486 0
-4483 -4485 -4486 0
379 4487 0
-379 -4487 0
4487 4488 0
-4487 -4488 0
4484 4488 4489 0
4484 -4488 -4489 0
-4484 4488 -4489 0
-4484 -4488 -4489 0
4486 4489 -4490 0
4486 -4489 4490 0
-4486 4489 4490 0
-4486 -4489 4490 0
4490 4491 0
-4490 -4491 0
4491 4492 0
-4491 -4492 0
4478 4480 4492 -4493 0
4478 4480 -4492 4493 0
4478 -4480 4492 4493 0
4478 -4480 -4492 4493 0
-4478 4480 4492 4493 0
-4478 4480 -4492 4493 0
-4478 -4480 4492 4493 0
-4478 -4480 -4492 4493 0
4493 4494 0
-4493 -4494 0
4494 4495 0
-4494 -4495 0
4495 4496 0
-4495 -4496 0
4496 4497 0
-4496 -4497 0
4476 4497 -4498 0
4476 -4497 4498 0
-4476 4497 4498 0
-4476 -4497 -4498 0
699 705 702 4499 0
699 705 -702 -4499 0
699 -705 702 -4499 0
699 -705 -702 -4499 0
-699 705 702 -4499 0
-699 705 -702 -4499 0
-699 -705 702 -4499 0
-699 -705 -702 -4499 0
4499 4500 0
-4499 -4500 0
4500 4415 4501 0
4500 -4415 -4501 0
-4500 4415 -4501 0
-4500 -4415 -4501 0
703 645 4502 0
703 -645 -4502 0
-703 645 -4502 0
-703 -645 -4502 0
4502 4503 0
-4502 -4503 0
4503 665 1680 4504 0
4503 665 -1680 -4504 0
4503 -665 1680 -4504 0
4503 -665 -1680 -4504 0
-4503 665 1680 -4504 0
-4503 665 -1680 -4504 0
-4503 -665 1680 -4504 0
-4503 -665 -1680 -4504 0
4504 4505 0
-4504 -4505 0
4505 4412 4506 0
4505 -4412 -4506 0
-4505 4412 -4506 0
-4505 -4412 -4506 0
4501 4506 4507 0
4501 -4506 -4507 0
-4501 4506 -4507 0
-4501 -4506 -4507 0
4507 4508 0
-4507 -4508 0
313 4509 0
-313 -4509 0
4509 4510 0
-4509 -4510 0
402 4511 0
-402 -4511 0
398 4512 0
-398 -4512 0
4512 4513 0
-4512 -4513 0
1943 4514 0
-1943 -4514 0
397 4515 0
-397 -4515 0
4515 4516 0
-4515 -4516 0
4513 4514 4516 4517 0
4513 4514 -4516 -4517 0
4513 -4514 4516 -4517 0
4513 -4514 -4516 -4517 0
-4513 4514 4516 -4517 0
-4513 4514 -4516 -4517 0
-4513 -4514 4516 -4517 0
-4513 -4514 -4516 -4517 0
4517 4518 0
-4517 -4518 0
4510 4511 4518 4519 0
4510 4511 -4518 -4519 0
4510 -4511 4518 -4519 0
4510 -4511 -4518 -4519 0
-4510 4511 4518 -4519 0
-4510 4511 -4518 -4519 0
-4510 -4511 4518 -4519 0
-4510 -4511 -4518 -4519 0
402 4520 0
-402 -4520 0
4520 4521 0
-4520 -4521 0
313 4522 0
-313 -4522 0
4521 4522 4523 0
4521 -4522 -4523 0
-4521 4522 -4523 0
-4521 -4522 -4523 0
4517 4521 4524 0
4517 -4521 -4524 0
-4517 4521 -4524 0
-4517 -4521 -4524 0
4519 4523 4524 -4525 0
4519 4523 -4524 4525 0
4519 -4523 4524 4525 0
4519 -4523 -4524 4525 0
-4519 4523 4524 4525 0
-4519 4523 -4524 4525 0
-4519 -4523 4524 4525 0
-4519 -4523 -4524 4525 0
4525 4526 0
-4525 -4526 0
4508 4526 4527 0
4508 -4526 -4527 0
-4508 4526 -4527 0
-4508 -4526 -4527 0
298 4528 0
-298 -4528 0
4528 4529 0
-4528 -4529 0
4529 4530 0
-4529 -4530 0
4530 4507 4531 0
4530 -4507 -4531 0
-4530 4507 -4531 0
-4530 -4507 -4531 0
4527 4531 -4532 0
4527 -4531 4532 0
-4527 4531 4532 0
-4527 -4531 4532 0
4532 4533 0
-4532 -4533 0
4533 4534 0
-4533 -4534 0
771 777 774 4535 0
771 777 -774 -4535 0
771 -777 774 -4535 0
771 -777 -774 -4535 0
-771 777 774 -4535 0
-771 777 -774 -4535 0
-771 -777 774 -4535 0
-771 -777 -774 -4535 0
4535 4536 0
-4535 -4536 0
4536 4437 4537 0
4536 -4437 -4537 0
-4536 4437 -4537 0
-4536 -4437 -4537 0
775 717 4538 0
775 -717 -4538 0
-775 717 -4538 0
-775 -717 -4538 0
4538 4539 0
-4538 -4539 0
4539 737 1707 4540 0
4539 737 -1707 -4540 0
4539 -737 1707 -4540 0
4539 -737 -1707 -4540 0
-4539 737 1707 -4540 0
-4539 737 -1707 -4540 0
-4539 -737 1707 -4540 0
-4539 -737 -1707 -4540 0
4540 4541 0
-4540 -4541 0
4541 4434 4542 0
4541 -4434 -4542 0
-4541 4434 -4542 0
-4541 -4434 -4542 0
4537 4542 4543 0
4537 -4542 -4543 0
-4537 4542 -4543 0
-4537 -4542 -4543 0
4543 4544 0
-4543 -4544 0
313 4545 0
-313 -4545 0
4545 4546 0
-4545 -4546 0
402 4547 0
-402 -4547 0
398 4548 0
-398 -4548 0
4548 4549 0
-4548 -4549 0
1997 4550 0
-1997 -4550 0
397 4551 0
-397 -4551 0
4551 4552 0
-4551 -4552 0
4549 4550 4552 4553 0
4549 4550 -4552 -4553 0
4549 -4550 4552 -4553 0
4549 -4550 -4552 -4553 0
-4549 4550 4552 -4553 0
-4549 4550 -4552 -4553 0
-4549 -4550 4552 -4553 0
-4549 -4550 -4552 -4553 0
4553 4554 0
-4553 -4554 0
4546 4547 4554 4555 0
4546 4547 -4554 -4555 0
4546 -4547 4554 -4555 0
4546 -4547 -4554 -4555 0
-4546 4547 4554 -4555 0
-4546 4547 -4554 -4555 0
-4546 -4547 4554 -4555 0
-4546 -4547 -4554 -4555 0
402 4556 0
-402 -4556 0
4556 4557 0
-4556 -4557 0
313 4558 0
-313 -4558 0
4557 4558 4559 0
4557 -4558 -4559 0
-4557 4558 -4559 0
-4557 -4558 -4559 0
4553 4557 4560 0
4553 -4557 -4560 0
-4553 4557 -4560 0
-4553 -4557 -4560 0
4555 4559 4560 -4561 0
4555 4559 -4560 4561 0
4555 -4559 4560 4561 0
4555 -4559 -4560 4561 0
-4555 4559 4560 4561 0
-4555 4559 -4560 4561 0
-4555 -4559 4560 4561 0
-4555 -4559 -4560 4561 0
4561 4562 0
-4561 -4562 0
4544 4562 4563 0
4544 -4562 -4563 0
-4544 4562 -4563 0
-4544 -4562 -4563 0
298 4564 0
-298 -4564 0
4564 4565 0
-4564 -4565 0
4565 4566 0
-4565 -4566 0
4566 4543 4567 0
4566 -4543 -4567 0
-4566 4543 -4567 0
-4566 -4543 -4567 0
4563 4567 -4568 0
4563 -4567 4568 0
-4563 4567 4568 0
-4563 -4567 4568 0
4568 4569 0
-4568 -4569 0
4569 4570 0
-4569 -4570 0
4534 4570 -4571 0
4534 -4570 4571 0
-4534 4570 4571 0
-4534 -4570 -4571 0
4522 4518 4572 0
4522 -4518 -4572 0
-4522 4518 -4572 0
-4522 -4518 -4572 0
4510 4517 4573 0
4510 -4517 -4573 0
-4510 4517 -4573 0
-4510 -4517 -4573 0
4572 4573 -4574 0
4572 -4573 4574 0
-4572 4573 4574 0
-4572 -4573 4574 0
4574 4575 0
-4574 -4575 0
4575 4508 4576 0
4575 -4508 -4576 0
-4575 4508 -4576 0
-4575 -4508 -4576 0
297 4577 0
-297 -4577 0
4577 4578 0
-4577 -4578 0
4578 4579 0
-4578 -4579 0
4507 4579 4580 0
4507 -4579 -4580 0
-4507 4579 -4580 0
-4507 -4579 -4580 0
4576 4580 -4581 0
4576 -4580 4581 0
-4576 4580 4581 0
-4576 -4580 4581 0
4581 4582 0
-4581 -4582 0
4582 4583 0
-4582 -4583 0
4558 4554 4584 0
4558 -4554 -4584 0
-4558 4554 -4584 0
-4558 -4554 -4584 0
4546 4553 4585 0
4546 -4553 -4585 0
-4546 4553 -4585 0
-4546 -4553 -4585 0
4584 4585 -4586 0
4584 -4585 4586 0
-4584 4585 4586 0
-4584 -4585 4586 0
4586 4587 0
-4586 -4587 0
4587 4544 4588 0
4587 -4544 -4588 0
-4587 4544 -4588 0
-4587 -4544 -4588 0
297 4589 0
-297 -4589 0
4589 4590 0
-4589 -4590 0
4590 4591 0
-4590 -4591 0
4543 4591 4592 0
4543 -4591 -4592 0
-4543 4591 -4592 0
-4543 -4591 -4592 0
4588 4592 -4593 0
4588 -4592 4593 0
-4588 4592 4593 0
-4588 -4592 4593 0
4593 4594 0
-4593 -4594 0
4594 4595 0
-4594 -4595 0
4583 4595 -4596 0
4583 -4595 4596 0
-4583 4595 4596 0
-4583 -4595 -4596 0
4514 4513 4522 4597 0
4514 4513 -4522 -4597 0
4514 -4513 4522 -4597 0
4514 -4513 -4522 -4597 0
-4514 4513 4522 -4597 0
-4514 4513 -4522 -4597 0
-4514 -4513 4522 -4597 0
-4514 -4513 -4522 -4597 0
397 4598 0
-397 -4598 0
4514 4598 4599 0
4514 -4598 -4599 0
-4514 4598 -4599 0
-4514 -4598 -4599 0
4597 4599 -4600 0
4597 -4599 4600 0
-4597 4599 4600 0
-4597 -4599 4600 0
4600 4601 0
-4600 -4601 0
249 4602 0
-249 -4602 0
4601 4602 4603 0
4601 -4602 -4603 0
-4601 4602 -4603 0
-4601 -4602 -4603 0
249 4604 0
-249 -4604 0
4604 4605 0
-4604 -4605 0
4605 4600 4606 0
4605 -4600 -4606 0
-4605 4600 -4606 0
-4605 -4600 -4606 0
4603 4606 -4607 0
4603 -4606 4607 0
-4603 4606 4607 0
-4603 -4606 4607 0
4607 4608 0
-4607 -4608 0
4608 4508 4609 0
4608 -4508 -4609 0
-4608 4508 -4609 0
-4608 -4508 -4609 0
290 4610 0
-290 -4610 0
4610 4611 0
-4610 -4611 0
4611 4612 0
-4611 -4612 0
4507 4612 4613 0
4507 -4612 -4613 0
-4507 4612 -4613 0
-4507 -4612 -4613 0
4609 4613 -4614 0
4609 -4613 4614 0
-4609 4613 4614 0
-4609 -4613 4614 0
4614 4615 0
-4614 -4615 0
4615 4616 0
-4615 -4616 0
4550 4549 4558 4617 0
4550 4549 -4558 -4617 0
4550 -4549 4558 -4617 0
4550 -4549 -4558 -4617 0
-4550 4549 4558 -4617 0
-4550 4549 -4558 -4617 0
-4550 -4549 4558 -4617 0
-4550 -4549 -4558 -4617 0
397 4618 0
-397 -4618 0
4550 4618 4619 0
4550 -4618 -4619 0
-4550 4618 -4619 0
-4550 -4618 -4619 0
4617 4619 -4620 0
4617 -4619 4620 0
-4617 4619 4620 0
-4617 -4619 4620 0
4620 4621 0
-4620 -4621 0
249 4622 0
-249 -4622 0
4621 4622 4623 0
4621 -4622 -4623 0
-4621 4622 -4623 0
-4621 -4622 -4623 0
249 4624 0
-249 -4624 0
4624 4625 0
-4624 -4625 0
4625 4620 4626 0
4625 -4620 -4626 0
-4625 4620 -4626 0
-4625 -4620 -4626 0
4623 4626 -4627 0
4623 -4626 4627 0
-4623 4626 4627 0
-4623 -4626 4627 0
4627 4628 0
-4627 -4628 0
4628 4544 4629 0
4628 -4544 -4629 0
-4628 4544 -4629 0
-4628 -4544 -4629 0
290 4630 0
-290 -4630 0
4630 4631 0
-4630 -4631 0
4631 4632 0
-4631 -4632 0
4543 4632 4633 0
4543 -4632 -4633 0
-4543 4632 -4633 0
-4543 -4632 -4633 0
4629 4633 -4634 0
4629 -4633 4634 0
-4629 4633 4634 0
-4629 -4633 4634 0
4634 4635 0
-4634 -4635 0
4635 4636 0
-4635 -4636 0
4616 4636 -4637 0
4616 -4636 4637 0
-4616 4636 4637 0
-4616 -4636 -4637 0
4501 4638 0
-4501 -4638 0
285 4639 0
-285 -4639 0
4639 4640 0
-4639 -4640 0
4640 4641 0
-4640 -4641 0
4638 4641 4642 0
4638 -4641 -4642 0
-4638 4641 -4642 0
-4638 -4641 -4642 0
255 4643 0
-255 -4643 0
260 4644 0
-260 -4644 0
4644 4645 0
-4644 -4645 0
1948 4646 0
-1948 -4646 0
254 4647 0
-254 -4647 0
4647 4648 0
-4647 -4648 0
259 4649 0
-259 -4649 0
4649 4650 0
-4649 -4650 0
4646 4648 4650 4651 0
4646 4648 -4650 -4651 0
4646 -4648 4650 -4651 0
4646 -4648 -4650 -4651 0
-4646 4648 4650 -4651 0
-4646 4648 -4650 -4651 0
-4646 -4648 4650 -4651 0
-4646 -4648 -4650 -4651 0
4651 4652 0
-4651 -4652 0
4643 4645 4652 4653 0
4643 4645 -4652 -4653 0
4643 -4645 4652 -4653 0
4643 -4645 -4652 -4653 0
-4643 4645 4652 -4653 0
-4643 4645 -4652 -4653 0
-4643 -4645 4652 -4653 0
-4643 -4645 -4652 -4653 0
260 4654 0
-260 -4654 0
255 4655 0
-255 -4655 0
4655 4656 0
-4655 -4656 0
4654 4656 4657 0
4654 -4656 -4657 0
-4654 4656 -4657 0
-4654 -4656 -4657 0
4656 4651 4658 0
4656 -4651 -4658 0
-4656 4651 -4658 0
-4656 -4651 -4658 0
4653 4657 4658 -4659 0
4653 4657 -4658 4659 0
4653 -4657 4658 4659 0
4653 -4657 -4658 4659 0
-4653 4657 4658 4659 0
-4653 4657 -4658 4659 0
-4653 -4657 4658 4659 0
-4653 -4657 -4658 4659 0
4659 4660 0
-4659 -4660 0
647 1680 665 4661 0
647 1680 -665 -4661 0
647 -1680 665 -4661 0
647 -1680 -665 -4661 0
-647 1680 665 -4661 0
-647 1680 -665 -4661 0
-647 -1680 665 -4661 0
-647 -1680 -665 -4661 0
4661 4662 0
-4661 -4662 0
4412 4662 4663 0
4412 -4662 -4663 0
-4412 4662 -4663 0
-4412 -4662 -4663 0
4501 4663 4664 0
4501 -4663 -4664 0
-4501 4663 -4664 0
-4501 -4663 -4664 0
4664 4665 0
-4664 -4665 0
4660 4665 4666 0
4660 -4665 -4666 0
-4660 4665 -4666 0
-4660 -4665 -4666 0
4663 4667 0
-4663 -4667 0
294 4668 0
-294 -4668 0
4668 4669 0
-4668 -4669 0
4669 4670 0
-4669 -4670 0
4667 4670 4671 0
4667 -4670 -4671 0
-4667 4670 -4671 0
-4667 -4670 -4671 0
4642 4666 4671 -4672 0
4642 4666 -4671 4672 0
4642 -4666 4671 4672 0
4642 -4666 -4671 4672 0
-4642 4666 4671 4672 0
-4642 4666 -4671 4672 0
-4642 -4666 4671 4672 0
-4642 -4666 -4671 4672 0
4672 4673 0
-4672 -4673 0
4673 4674 0
-4673 -4674 0
4537 4675 0
-4537 -4675 0
285 4676 0
-285 -4676 0
4676 4677 0
-4676 -4677 0
4677 4678 0
-4677 -4678 0
4675 4678 4679 0
4675 -4678 -4679 0
-4675 4678 -4679 0
-4675 -4678 -4679 0
255 4680 0
-255 -4680 0
260 4681 0
-260 -4681 0
4681 4682 0
-4681 -4682 0
2002 4683 0
-2002 -4683 0
254 4684 0
-254 -4684 0
4684 4685 0
-4684 -4685 0
259 4686 0
-259 -4686 0
4686 4687 0
-4686 -4687 0
4683 4685 4687 4688 0
4683 4685 -4687 -4688 0
4683 -4685 4687 -4688 0
4683 -4685 -4687 -4688 0
-4683 4685 4687 -4688 0
-4683 4685 -4687 -4688 0
-4683 -4685 4687 -4688 0
-4683 -4685 -4687 -4688 0
4688 4689 0
-4688 -4689 0
4680 4682 4689 4690 0
4680 4682 -4689 -4690 0
4680 -4682 4689 -4690 0
4680 -4682 -4689 -4690 0
-4680 4682 4689 -4690 0
-4680 4682 -4689 -4690 0
-4680 -4682 4689 -4690 0
-4680 -4682 -4689 -4690 0
260 4691 0
-260 -4691 0
255 4692 0
-255 -4692 0
4692 4693 0
-4692 -4693 0
4691 4693 4694 0
4691 -4693 -4694 0
-4691 4693 -4694 0
-4691 -4693 -4694 0
4693 4688 4695 0
4693 -4688 -4695 0
-4693 4688 -4695 0
-4693 -4688 -4695 0
4690 4694 4695 -4696 0
4690 4694 -4695 4696 0
4690 -4694 4695 4696 0
4690 -4694 -4695 4696 0
-4690 4694 4695 4696 0
-4690 4694 -4695 4696 0
-4690 -4694 4695 4696 0
-4690 -4694 -4695 4696 0
4696 4697 0
-4696 -4697 0
719 1707 737 4698 0
719 1707 -737 -4698 0
719 -1707 737 -4698 0
719 -1707 -737 -4698 0
-719 1707 737 -4698 0
-719 1707 -737 -4698 0
-719 -1707 737 -4698 0
-719 -1707 -737 -4698 0
4698 4699 0
-4698 -4699 0
4434 4699 4700 0
4434 -4699 -4700 0
-4434 4699 -4700 0
-4434 -4699 -4700 0
4537 4700 4701 0
4537 -4700 -4701 0
-4537 4700 -4701 0
-4537 -4700 -4701 0
4701 4702 0
-4701 -4702 0
4697 4702 4703 0
4697 -4702 -4703 0
-4697 4702 -4703 0
-4697 -4702 -4703 0
4700 4704 0
-4700 -4704 0
294 4705 0
-294 -4705 0
4705 4706 0
-4705 -4706 0
4706 4707 0
-4706 -4707 0
4704 4707 4708 0
4704 -4707 -4708 0
-4704 4707 -4708 0
-4704 -4707 -4708 0
4679 4703 4708 -4709 0
4679 4703 -4708 4709 0
4679 -4703 4708 4709 0
4679 -4703 -4708 4709 0
-4679 4703 4708 4709 0
-4679 4703 -4708 4709 0
-4679 -4703 4708 4709 0
-4679 -4703 -4708 4709 0
4709 4710 0
-4709 -4710 0
4710 4711 0
-4710 -4711 0
4674 4711 -4712 0
4674 -4711 4712 0
-4674 4711 4712 0
-4674 -4711 -4712 0
284 4713 0
-284 -4713 0
4713 4714 0
-4713 -4714 0
4714 4715 0
-4714 -4715 0
4638 4715 4716 0
4638 -4715 -4716 0
-4638 4715 -4716 0
-4638 -4715 -4716 0
4652 4654 4717 0
4652 -4654 -4717 0
-4652 4654 -4717 0
-4652 -4654 -4717 0
4645 4651 4718 0
4645 -4651 -4718 0
-4645 4651 -4718 0
-4645 -4651 -4718 0
4717 4718 -4719 0
4717 -4718 4719 0
-4717 4718 4719 0
-4717 -4718 4719 0
4719 4720 0
-4719 -4720 0
4665 4720 4721 0
4665 -4720 -4721 0
-4665 4720 -4721 0
-4665 -4720 -4721 0
293 4722 0
-293 -4722 0
4722 4723 0
-4722 -4723 0
4723 4724 0
-4723 -4724 0
4724 4667 4725 0
4724 -4667 -4725 0
-4724 4667 -4725 0
-4724 -4667 -4725 0
4716 4721 4725 -4726 0
4716 4721 -4725 4726 0
4716 -4721 4725 4726 0
4716 -4721 -4725 4726 0
-4716 4721 4725 4726 0
-4716 4721 -4725 4726 0
-4716 -4721 4725 4726 0
-4716 -4721 -4725 4726 0
4726 4727 0
-4726 -4727 0
4727 4728 0
-4727 -4728 0
284 4729 0
-284 -4729 0
4729 4730 0
-4729 -4730 0
4730 4731 0
-4730 -4731 0
4675 4731 4732 0
4675 -4731 -4732 0
-4675 4731 -4732 0
-4675 -4731 -4732 0
4689 4691 4733 0
4689 -4691 -4733 0
-4689 4691 -4733 0
-4689 -4691 -4733 0
4682 4688 4734 0
4682 -4688 -4734 0
-4682 4688 -4734 0
-4682 -4688 -4734 0
4733 4734 -4735 0
4733 -4734 4735 0
-4733 4734 4735 0
-4733 -4734 4735 0
4735 4736 0
-4735 -4736 0
4702 4736 4737 0
4702 -4736 -4737 0
-4702 4736 -4737 0
-4702 -4736 -4737 0
293 4738 0
-293 -4738 0
4738 4739 0
-4738 -4739 0
4739 4740 0
-4739 -4740 0
4740 4704 4741 0
4740 -4704 -4741 0
-4740 4704 -4741 0
-4740 -4704 -4741 0
4732 4737 4741 -4742 0
4732 4737 -4741 4742 0
4732 -4737 4741 4742 0
4732 -4737 -4741 4742 0
-4732 4737 4741 4742 0
-4732 4737 -4741 4742 0
-4732 -4737 4741 4742 0
-4732 -4737 -4741 4742 0
4742 4743 0
-4742 -4743 0
4743 4744 0
-4743 -4744 0
4728 4744 -4745 0
4728 -4744 4745 0
-4728 4744 4745 0
-4728 -4744 -4745 0
281 4746 0
-281 -4746 0
4746 4747 0
-4746 -4747 0
4747 4748 0
-4747 -4748 0
4638 4748 4749 0
4638 -4748 -4749 0
-4638 4748 -4749 0
-4638 -4748 -4749 0
250 4750 0
-250 -4750 0
4750 4751 0
-4750 -4751 0
4650 4654 4646 4752 0
4650 4654 -4646 -4752 0
4650 -4654 4646 -4752 0
4650 -4654 -4646 -4752 0
-4650 4654 4646 -4752 0
-4650 4654 -4646 -4752 0
-4650 -4654 4646 -4752 0
-4650 -4654 -4646 -4752 0
254 4753 0
-254 -4753 0
4753 4646 4754 0
4753 -4646 -4754 0
-4753 4646 -4754 0
-4753 -4646 -4754 0
4752 4754 -4755 0
4752 -4754 4755 0
-4752 4754 4755 0
-4752 -4754 4755 0
4751 4755 4756 0
4751 -4755 -4756 0
-4751 4755 -4756 0
-4751 -4755 -4756 0
4755 4757 0
-4755 -4757 0
250 4758 0
-250 -4758 0
4757 4758 4759 0
4757 -4758 -4759 0
-4757 4758 -4759 0
-4757 -4758 -4759 0
4756 4759 -4760 0
4756 -4759 4760 0
-4756 4759 4760 0
-4756 -4759 4760 0
4760 4761 0
-4760 -4761 0
4665 4761 4762 0
4665 -4761 -4762 0
-4665 4761 -4762 0
-4665 -4761 -4762 0
4667 4612 4763 0
4667 -4612 -4763 0
-4667 4612 -4763 0
-4667 -4612 -4763 0
4749 4762 4763 -4764 0
4749 4762 -4763 4764 0
4749 -4762 4763 4764 0
4749 -4762 -4763 4764 0
-4749 4762 4763 4764 0
-4749 4762 -4763 4764 0
-4749 -4762 4763 4764 0
-4749 -4762 -4763 4764 0
4764 4765 0
-4764 -4765 0
4765 4766 0
-4765 -4766 0
281 4767 0
-281 -4767 0
4767 4768 0
-4767 -4768 0
4768 4769 0
-4768 -4769 0
4675 4769 4770 0
4675 -4769 -4770 0
-4675 4769 -4770 0
-4675 -4769 -4770 0
250 4771 0
-250 -4771 0
4771 4772 0
-4771 -4772 0
4687 4691 4683 4773 0
4687 4691 -4683 -4773 0
4687 -4691 4683 -4773 0
4687 -4691 -4683 -4773 0
-4687 4691 4683 -4773 0
-4687 4691 -4683 -4773 0
-4687 -4691 4683 -4773 0
-4687 -4691 -4683 -4773 0
254 4774 0
-254 -4774 0
4774 4683 4775 0
4774 -4683 -4775 0
-4774 4683 -4775 0
-4774 -4683 -4775 0
4773 4775 -4776 0
4773 -4775 4776 0
-4773 4775 4776 0
-4773 -4775 4776 0
4772 4776 4777 0
4772 -4776 -4777 0
-4772 4776 -4777 0
-4772 -4776 -4777 0
4776 4778 0
-4776 -4778 0
250 4779 0
-250 -4779 0
4778 4779 4780 0
4778 -4779 -4780 0
-4778 4779 -4780 0
-4778 -4779 -4780 0
4777 4780 -4781 0
4777 -4780 4781 0
-4777 4780 4781 0
-4777 -4780 4781 0
4781 4782 0
-4781 -4782 0
4702 4782 4783 0
4702 -4782 -4783 0
-4702 4782 -4783 0
-4702 -4782 -4783 0
4704 4632 4784 0
4704 -4632 -4784 0
-4704 4632 -4784 0
-4704 -4632 -4784 0
4770 4783 4784 -4785 0
4770 4783 -4784 4785 0
4770 -4783 4784 4785 0
4770 -4783 -4784 4785 0
-4770 4783 4784 4785 0
-4770 4783 -4784 4785 0
-4770 -4783 4784 4785 0
-4770 -4783 -4784 4785 0
4785 4786 0
-4785 -4786 0
4786 4787 0
-4786 -4787 0
4766 4787 -4788 0
4766 -4787 4788 0
-4766 4787 4788 0
-4766 -4787 -4788 0
282 4789 0
-282 -4789 0
4789 4790 0
-4789 -4790 0
4790 4791 0
-4790 -4791 0
4791 4638 4792 0
4791 -4638 -4792 0
-4791 4638 -4792 0
-4791 -4638 -4792 0
1948 4793 0
-1948 -4793 0
4793 4794 0
-4793 -4794 0
4794 4648 4795 0
4794 -4648 -4795 0
-4794 4648 -4795 0
-4794 -4648 -4795 0
4646 4753 4796 0
4646 -4753 -4796 0
-4646 4753 -4796 0
-4646 -4753 -4796 0
4795 4796 -4797 0
4795 -4796 4797 0
-4795 4796 4797 0
-4795 -4796 4797 0
4797 4798 0
-4797 -4798 0
4665 4798 4799 0
4665 -4798 -4799 0
-4665 4798 -4799 0
-4665 -4798 -4799 0
291 4800 0
-291 -4800 0
4800 4801 0
-4800 -4801 0
4801 4802 0
-4801 -4802 0
4802 4667 4803 0
4802 -4667 -4803 0
-4802 4667 -4803 0
-4802 -4667 -4803 0
4792 4799 4803 -4804 0
4792 4799 -4803 4804 0
4792 -4799 4803 4804 0
4792 -4799 -4803 4804 0
-4792 4799 4803 4804 0
-4792 4799 -4803 4804 0
-4792 -4799 4803 4804 0
-4792 -4799 -4803 4804 0
4804 4805 0
-4804 -4805 0
4805 4806 0
-4805 -4806 0
282 4807 0
-282 -4807 0
4807 4808 0
-4807 -4808 0
4808 4809 0
-4808 -4809 0
4809 4675 4810 0
4809 -4675 -4810 0
-4809 4675 -4810 0
-4809 -4675 -4810 0
2002 4811 0
-2002 -4811 0
4811 4812 0
-4811 -4812 0
4812 4685 4813 0
4812 -4685 -4813 0
-4812 4685 -4813 0
-4812 -4685 -4813 0
4683 4774 4814 0
4683 -4774 -4814 0
-4683 4774 -4814 0
-4683 -4774 -4814 0
4813 4814 -4815 0
4813 -4814 4815 0
-4813 4814 4815 0
-4813 -4814 4815 0
4815 4816 0
-4815 -4816 0
4702 4816 4817 0
4702 -4816 -4817 0
-4702 4816 -4817 0
-4702 -4816 -4817 0
291 4818 0
-291 -4818 0
4818 4819 0
-4818 -4819 0
4819 4820 0
-4819 -4820 0
4820 4704 4821 0
4820 -4704 -4821 0
-4820 4704 -4821 0
-4820 -4704 -4821 0
4810 4817 4821 -4822 0
4810 4817 -4821 4822 0
4810 -4817 4821 4822 0
4810 -4817 -4821 4822 0
-4810 4817 4821 4822 0
-4810 4817 -4821 4822 0
-4810 -4817 4821 4822 0
-4810 -4817 -4821 4822 0
4822 4823 0
-4822 -4823 0
4823 4824 0
-4823 -4824 0
4806 4824 -4825 0
4806 -4824 4825 0
-4806 4824 4825 0
-4806 -4824 -4825 0
292 4826 0
-292 -4826 0
4826 4827 0
-4826 -4827 0
4827 4828 0
-4827 -4828 0
4667 4828 4829 0
4667 -4828 -4829 0
-4667 4828 -4829 0
-4667 -4828 -4829 0
259 4830 0
-259 -4830 0
4830 4648 4646 4831 0
4830 4648 -4646 -4831 0
4830 -4648 4646 -4831 0
4830 -4648 -4646 -4831 0
-4830 4648 4646 -4831 0
-4830 4648 -4646 -4831 0
-4830 -4648 4646 -4831 0
-4830 -4648 -4646 -4831 0
4753 4650 4832 0
4753 -4650 -4832 0
-4753 4650 -4832 0
-4753 -4650 -4832 0
4650 4794 4833 0
4650 -4794 -4833 0
-4650 4794 -4833 0
-4650 -4794 -4833 0
4831 4832 4833 -4834 0
4831 4832 -4833 4834 0
4831 -4832 4833 4834 0
4831 -4832 -4833 4834 0
-4831 4832 4833 4834 0
-4831 4832 -4833 4834 0
-4831 -4832 4833 4834 0
-4831 -4832 -4833 4834 0
4834 4835 0
-4834 -4835 0
4665 4835 4836 0
4665 -4835 -4836 0
-4665 4835 -4836 0
-4665 -4835 -4836 0
283 4837 0
-283 -4837 0
4837 4838 0
-4837 -4838 0
4838 4839 0
-4838 -4839 0
4638 4839 4840 0
4638 -4839 -4840 0
-4638 4839 -4840 0
-4638 -4839 -4840 0
4829 4836 4840 -4841 0
4829 4836 -4840 4841 0
4829 -4836 4840 4841 0
4829 -4836 -4840 4841 0
-4829 4836 4840 4841 0
-4829 4836 -4840 4841 0
-4829 -4836 4840 4841 0
-4829 -4836 -4840 4841 0
4841 4842 0
-4841 -4842 0
4842 4843 0
-4842 -4843 0
292 4844 0
-292 -4844 0
4844 4845 0
-4844 -4845 0
4845 4846 0
-4845 -4846 0
4704 4846 4847 0
4704 -4846 -4847 0
-4704 4846 -4847 0
-4704 -4846 -4847 0
259 4848 0
-259 -4848 0
4848 4685 4683 4849 0
4848 4685 -4683 -4849 0
4848 -4685 4683 -4849 0
4848 -4685 -4683 -4849 0
-4848 4685 4683 -4849 0
-4848 4685 -4683 -4849 0
-4848 -4685 4683 -4849 0
-4848 -4685 -4683 -4849 0
4774 4687 4850 0
4774 -4687 -4850 0
-4774 4687 -4850 0
-4774 -4687 -4850 0
4687 4812 4851 0
4687 -4812 -4851 0
-4687 4812 -4851 0
-4687 -4812 -4851 0
4849 4850 4851 -4852 0
4849 4850 -4851 4852 0
4849 -4850 4851 4852 0
4849 -4850 -4851 4852 0
-4849 4850 4851 4852 0
-4849 4850 -4851 4852 0
-4849 -4850 4851 4852 0
-4849 -4850 -4851 4852 0
4852 4853 0
-4852 -4853 0
4702 4853 4854 0
4702 -4853 -4854 0
-4702 4853 -4854 0
-4702 -4853 -4854 0
283 4855 0
-283 -4855 0
4855 4856 0
-4855 -4856 0
4856 4857 0
-4856 -4857 0
4675 4857 4858 0
4675 -4857 -4858 0
-4675 4857 -4858 0
-4675 -4857 -4858 0
4847 4854 4858 -4859 0
4847 4854 -4858 4859 0
4847 -4854 4858 4859 0
4847 -4854 -4858 4859 0
-4847 4854 4858 4859 0
-4847 4854 -4858 4859 0
-4847 -4854 4858 4859 0
-4847 -4854 -4858 4859 0
4859 4860 0
-4859 -4860 0
4860 4861 0
-4860 -4861 0
4843 4861 -4862 0
4843 -4861 4862 0
-4843 4861 4862 0
-4843 -4861 -4862 0
1943 4863 0
-1943 -4863 0
4863 4864 0
-4863 -4864 0
4516 4864 4865 0
4516 -4864 -4865 0
-4516 4864 -4865 0
-4516 -4864 -4865 0
4598 4514 4866 0
4598 -4514 -4866 0
-4598 4514 -4866 0
-4598 -4514 -4866 0
4865 4866 -4867 0
4865 -4866 4867 0
-4865 4866 4867 0
-4865 -4866 4867 0
4867 4868 0
-4867 -4868 0
4508 4868 4869 0
4508 -4868 -4869 0
-4508 4868 -4869 0
-4508 -4868 -4869 0
295 4870 0
-295 -4870 0
4870 4871 0
-4870 -4871 0
4871 4872 0
-4871 -4872 0
4507 4872 4873 0
4507 -4872 -4873 0
-4507 4872 -4873 0
-4507 -4872 -4873 0
4869 4873 -4874 0
4869 -4873 4874 0
-4869 4873 4874 0
-4869 -4873 4874 0
4874 4875 0
-4874 -4875 0
4875 4876 0
-4875 -4876 0
1997 4877 0
-1997 -4877 0
4877 4878 0
-4877 -4878 0
4552 4878 4879 0
4552 -4878 -4879 0
-4552 4878 -4879 0
-4552 -4878 -4879 0
4618 4550 4880 0
4618 -4550 -4880 0
-4618 4550 -4880 0
-4618 -4550 -4880 0
4879 4880 -4881 0
4879 -4880 4881 0
-4879 4880 4881 0
-4879 -4880 4881 0
4881 4882 0
-4881 -4882 0
4544 4882 4883 0
4544 -4882 -4883 0
-4544 4882 -4883 0
-4544 -4882 -4883 0
295 4884 0
-295 -4884 0
4884 4885 0
-4884 -4885 0
4885 4886 0
-4885 -4886 0
4543 4886 4887 0
4543 -4886 -4887 0
-4543 4886 -4887 0
-4543 -4886 -4887 0
4883 4887 -4888 0
4883 -4887 4888 0
-4883 4887 4888 0
-4883 -4887 4888 0
4888 4889 0
-4888 -4889 0
4889 4890 0
-4889 -4890 0
4876 4890 -4891 0
4876 -4890 4891 0
-4876 4890 4891 0
-4876 -4890 -4891 0
296 4892 0
-296 -4892 0
4892 4893 0
-4892 -4893 0
4893 4894 0
-4893 -4894 0
4894 4507 4895 0
4894 -4507 -4895 0
-4894 4507 -4895 0
-4894 -4507 -4895 0
398 4896 0
-398 -4896 0
4516 4514 4896 4897 0
4516 4514 -4896 -4897 0
4516 -4514 4896 -4897 0
4516 -4514 -4896 -4897 0
-4516 4514 4896 -4897 0
-4516 4514 -4896 -4897 0
-4516 -4514 4896 -4897 0
-4516 -4514 -4896 -4897 0
4513 4864 4898 0
4513 -4864 -4898 0
-4513 4864 -4898 0
-4513 -4864 -4898 0
4513 4598 4899 0
4513 -4598 -4899 0
-4513 4598 -4899 0
-4513 -4598 -4899 0
4897 4898 4899 -4900 0
4897 4898 -4899 4900 0
4897 -4898 4899 4900 0
4897 -4898 -4899 4900 0
-4897 4898 4899 4900 0
-4897 4898 -4899 4900 0
-4897 -4898 4899 4900 0
-4897 -4898 -4899 4900 0
4900 4901 0
-4900 -4901 0
4508 4901 4902 0
4508 -4901 -4902 0
-4508 4901 -4902 0
-4508 -4901 -4902 0
4895 4902 -4903 0
4895 -4902 4903 0
-4895 4902 4903 0
-4895 -4902 4903 0
4903 4904 0
-4903 -4904 0
4904 4905 0
-4904 -4905 0
296 4906 0
-296 -4906 0
4906 4907 0
-4906 -4907 0
4907 4908 0
-4907 -4908 0
4908 4543 4909 0
4908 -4543 -4909 0
-4908 4543 -4909 0
-4908 -4543 -4909 0
398 4910 0
-398 -4910 0
4552 4550 4910 4911 0
4552 4550 -4910 -4911 0
4552 -4550 4910 -4911 0
4552 -4550 -4910 -4911 0
-4552 4550 4910 -4911 0
-4552 4550 -4910 -4911 0
-4552 -4550 4910 -4911 0
-4552 -4550 -4910 -4911 0
4549 4878 4912 0
4549 -4878 -4912 0
-4549 4878 -4912 0
-4549 -4878 -4912 0
4549 4618 4913 0
4549 -4618 -4913 0
-4549 4618 -4913 0
-4549 -4618 -4913 0
4911 4912 4913 -4914 0
4911 4912 -4913 4914 0
4911 -4912 4913 4914 0
4911 -4912 -4913 4914 0
-4911 4912 4913 4914 0
-4911 4912 -4913 4914 0
-4911 -4912 4913 4914 0
-4911 -4912 -4913 4914 0
4914 4915 0
-4914 -4915 0
4544 4915 4916 0
4544 -4915 -4916 0
-4544 4915 -4916 0
-4544 -4915 -4916 0
4909 4916 -4917 0
4909 -4916 4917 0
-4909 4916 4917 0
-4909 -4916 4917 0
4917 4918 0
-4917 -4918 0
4918 4919 0
-4918 -4919 0
4905 4919 -4920 0
4905 -4919 4920 0
-4905 4919 4920 0
-4905 -4919 -4920 0
304 4921 0
-304 -4921 0
4921 4922 0
-4921 -4922 0
4202 4923 0
-4202 -4923 0
4242 4278 4924 0
4242 -4278 -4924 0
-4242 4278 -4924 0
-4242 -4278 -4924 0
4923 4924 -4925 0
4923 -4924 4925 0
-4923 4924 4925 0
-4923 -4924 4925 0
4925 4343 4926 0
4925 -4343 -4926 0
-4925 4343 -4926 0
-4925 -4343 -4926 0
4926 4927 0
-4926 -4927 0
4922 4927 4928 0
4922 -4927 -4928 0
-4922 4927 -4928 0
-4922 -4927 -4928 0
304 4929 0
-304 -4929 0
4926 4929 4930 0
4926 -4929 -4930 0
-4926 4929 -4930 0
-4926 -4929 -4930 0
4928 4930 -4931 0
4928 -4930 4931 0
-4928 4930 4931 0
-4928 -4930 4931 0
4342 4932 0
-4342 -4932 0
4309 4933 0
-4309 -4933 0
4245 4934 0
-4245 -4934 0
4207 4935 0
-4207 -4935 0
4276 4936 0
-4276 -4936 0
4934 4935 4936 4937 0
4934 4935 -4936 -4937 0
4934 -4935 4936 -4937 0
4934 -4935 -4936 -4937 0
-4934 4935 4936 -4937 0
-4934 4935 -4936 -4937 0
-4934 -4935 4936 -4937 0
-4934 -4935 -4936 -4937 0
4937 4938 0
-4937 -4938 0
4932 4933 4938 4939 0
4932 4933 -4938 -4939 0
4932 -4933 4938 -4939 0
4932 -4933 -4938 -4939 0
-4932 4933 4938 -4939 0
-4932 4933 -4938 -4939 0
-4932 -4933 4938 -4939 0
-4932 -4933 -4938 -4939 0
4939 4940 0
-4939 -4940 0
2336 4940 4941 0
2336 -4940 -4941 0
-2336 4940 -4941 0
-2336 -4940 -4941 0
4202 4942 0
-4202 -4942 0
4242 4943 0
-4242 -4943 0
4942 4943 4936 4944 0
4942 4943 -4936 -4944 0
4942 -4943 4936 -4944 0
4942 -4943 -4936 -4944 0
-4942 4943 4936 -4944 0
-4942 4943 -4936 -4944 0
-4942 -4943 4936 -4944 0
-4942 -4943 -4936 -4944 0
4944 4945 0
-4944 -4945 0
4945 4932 4933 4946 0
4945 4932 -4933 -4946 0
4945 -4932 4933 -4946 0
4945 -4932 -4933 -4946 0
-4945 4932 4933 -4946 0
-4945 4932 -4933 -4946 0
-4945 -4932 4933 -4946 0
-4945 -4932 -4933 -4946 0
4946 4947 0
-4946 -4947 0
2337 4947 4948 0
2337 -4947 -4948 0
-2337 4947 -4948 0
-2337 -4947 -4948 0
4941 4948 -4949 0
4941 -4948 4949 0
-4941 4948 4949 0
-4941 -4948 4949 0
363 4950 0
-363 -4950 0
2993 4950 4951 0
2993 -4950 -4951 0
-2993 4950 -4951 0
-2993 -4950 -4951 0
264 4952 0
-264 -4952 0
4952 4953 0
-4952 -4953 0
4953 4954 0
-4953 -4954 0
4954 4955 0
-4954 -4955 0
312 4956 0
-312 -4956 0
320 4957 0
-320 -4957 0
303 4958 0
-303 -4958 0
322 4959 0
-322 -4959 0
321 4960 0
-321 -4960 0
4957 4958 4959 4960 4961 0
4957 4958 4959 -4960 -4961 0
4957 4958 -4959 4960 -4961 0
4957 4958 -4959 -4960 -4961 0
4957 -4958 4959 4960 -4961 0
4957 -4958 4959 -4960 -4961 0
4957 -4958 -4959 4960 -4961 0
4957 -4958 -4959 -4960 -4961 0
-4957 4958 4959 4960 -4961 0
-4957 4958 4959 -4960 -4961 0
-4957 4958 -4959 4960 -4961 0
-4957 4958 -4959 -4960 -4961 0
-4957 -4958 4959 4960 -4961 0
-4957 -4958 4959 -4960 -4961 0
-4957 -4958 -4959 4960 -4961 0
-4957 -4958 -4959 -4960 -4961 0
4961 4962 0
-4961 -4962 0
343 4963 0
-343 -4963 0
4956 4962 4963 4964 0
4956 4962 -4963 -4964 0
4956 -4962 4963 -4964 0
4956 -4962 -4963 -4964 0
-4956 4962 4963 -4964 0
-4956 4962 -4963 -4964 0
-4956 -4962 4963 -4964 0
-4956 -4962 -4963 -4964 0
4964 4965 0
-4964 -4965 0
4965 4966 0
-4965 -4966 0
4955 4966 4967 0
4955 -4966 -4967 0
-4955 4966 -4967 0
-4955 -4966 -4967 0
1891 1890 4951 4967 4968 0
1891 1890 4951 -4967 -4968 0
1891 1890 -4951 4967 -4968 0
1891 1890 -4951 -4967 -4968 0
1891 -1890 4951 4967 -4968 0
1891 -1890 4951 -4967 -4968 0
1891 -1890 -4951 4967 -4968 0
1891 -1890 -4951 -4967 -4968 0
-1891 1890 4951 4967 -4968 0
-1891 1890 4951 -4967 -4968 0
-1891 1890 -4951 4967 -4968 0
-1891 1890 -4951 -4967 -4968 0
-1891 -1890 4951 4967 -4968 0
-1891 -1890 4951 -4967 -4968 0
-1891 -1890 -4951 4967 -4968 0
-1891 -1890 -4951 -4967 -4968 0
4968 4969 0
-4968 -4969 0
4949 4969 4970 0
4949 -4969 -4970 0
-4949 4969 -4970 0
-4949 -4969 -4970 0
4970 4971 0
-4970 -4971 0
4931 4971 4972 0
4931 -4971 -4972 0
-4931 4971 -4972 0
-4931 -4971 -4972 0
4972 4973 0
-4972 -4973 0
4973 4974 0
-4973 -4974 0
4974 4975 0
-4974 -4975 0
304 4976 0
-304 -4976 0
4976 4977 0
-4976 -4977 0
4221 4978 0
-4221 -4978 0
4258 4295 4979 0
4258 -4295 -4979 0
-4258 4295 -4979 0
-4258 -4295 -4979 0
4978 4979 -4980 0
4978 -4979 4980 0
-4978 4979 4980 0
-4978 -4979 4980 0
4980 4360 4981 0
4980 -4360 -4981 0
-4980 4360 -4981 0
-4980 -4360 -4981 0
4981 4982 0
-4981 -4982 0
4977 4982 4983 0
4977 -4982 -4983 0
-4977 4982 -4983 0
-4977 -4982 -4983 0
304 4984 0
-304 -4984 0
4981 4984 4985 0
4981 -4984 -4985 0
-4981 4984 -4985 0
-4981 -4984 -4985 0
4983 4985 -4986 0
4983 -4985 4986 0
-4983 4985 4986 0
-4983 -4985 4986 0
4359 4987 0
-4359 -4987 0
4325 4988 0
-4325 -4988 0
4261 4989 0
-4261 -4989 0
4226 4990 0
-4226 -4990 0
4293 4991 0
-4293 -4991 0
4989 4990 4991 4992 0
4989 4990 -4991 -4992 0
4989 -4990 4991 -4992 0
4989 -4990 -4991 -4992 0
-4989 4990 4991 -4992 0
-4989 4990 -4991 -4992 0
-4989 -4990 4991 -4992 0
-4989 -4990 -4991 -4992 0
4992 4993 0
-4992 -4993 0
4987 4988 4993 4994 0
4987 4988 -4993 -4994 0
4987 -4988 4993 -4994 0
4987 -4988 -4993 -4994 0
-4987 4988 4993 -4994 0
-4987 4988 -4993 -4994 0
-4987 -4988 4993 -4994 0
-4987 -4988 -4993 -4994 0
4994 4995 0
-4994 -4995 0
2700 4995 4996 0
2700 -4995 -4996 0
-2700 4995 -4996 0
-2700 -4995 -4996 0
4221 4997 0
-4221 -4997 0
4258 4998 0
-4258 -4998 0
4997 4998 4991 4999 0
4997 4998 -4991 -4999 0
4997 -4998 4991 -4999 0
4997 -4998 -4991 -4999 0
-4997 4998 4991 -4999 0
-4997 4998 -4991 -4999 0
-4997 -4998 4991 -4999 0
-4997 -4998 -4991 -4999 0
4999 5000 0
-4999 -5000 0
5000 4987 4988 5001 0
5000 4987 -4988 -5001 0
5000 -4987 4988 -5001 0
5000 -4987 -4988 -5001 0
-5000 4987 4988 -5001 0
-5000 4987 -4988 -5001 0
-5000 -4987 4988 -5001 0
-5000 -4987 -4988 -5001 0
5001 5002 0
-5001 -5002 0
2701 5002 5003 0
2701 -5002 -5003 0
-2701 5002 -5003 0
-2701 -5002 -5003 0
4996 5003 -5004 0
4996 -5003 5004 0
-4996 5003 5004 0
-4996 -5003 5004 0
363 5005 0
-363 -5005 0
3056 5005 5006 0
3056 -5005 -5006 0
-3056 5005 -5006 0
-3056 -5005 -5006 0
264 5007 0
-264 -5007 0
5007 5008 0
-5007 -5008 0
5008 5009 0
-5008 -5009 0
5009 5010 0
-5009 -5010 0
312 5011 0
-312 -5011 0
320 5012 0
-320 -5012 0
303 5013 0
-303 -5013 0
322 5014 0
-322 -5014 0
321 5015 0
-321 -5015 0
5012 5013 5014 5015 5016 0
5012 5013 5014 -5015 -5016 0
5012 5013 -5014 5015 -5016 0
5012 5013 -5014 -5015 -5016 0
5012 -5013 5014 5015 -5016 0
5012 -5013 5014 -5015 -5016 0
5012 -5013 -5014 5015 -5016 0
5012 -5013 -5014 -5015 -5016 0
-5012 5013 5014 5015 -5016 0
-5012 5013 5014 -5015 -5016 0
-5012 5013 -5014 5015 -5016 0
-5012 5013 -5014 -5015 -5016 0
-5012 -5013 5014 5015 -5016 0
-5012 -5013 5014 -5015 -5016 0
-5012 -5013 -5014 5015 -5016 0
-5012 -5013 -5014 -5015 -5016 0
5016 5017 0
-5016 -5017 0
343 5018 0
-343 -5018 0
5011 5017 5018 5019 0
5011 5017 -5018 -5019 0
5011 -5017 5018 -5019 0
5011 -5017 -5018 -5019 0
-5011 5017 5018 -5019 0
-5011 5017 -5018 -5019 0
-5011 -5017 5018 -5019 0
-5011 -5017 -5018 -5019 0
5019 5020 0
-5019 -5020 0
5020 5021 0
-5020 -5021 0
5010 5021 5022 0
5010 -5021 -5022 0
-5010 5021 -5022 0
-5010 -5021 -5022 0
1911 1910 5006 5022 5023 0
1911 1910 5006 -5022 -5023 0
1911 1910 -5006 5022 -5023 0
1911 1910 -5006 -5022 -5023 0
1911 -1910 5006 5022 -5023 0
1911 -1910 5006 -5022 -5023 0
1911 -1910 -5006 5022 -5023 0
1911 -1910 -5006 -5022 -5023 0
-1911 1910 5006 5022 -5023 0
-1911 1910 5006 -5022 -5023 0
-1911 1910 -5006 5022 -5023 0
-1911 1910 -5006 -5022 -5023 0
-1911 -1910 5006 5022 -5023 0
-1911 -1910 5006 -5022 -5023 0
-1911 -1910 -5006 5022 -5023 0
-1911 -1910 -5006 -5022 -5023 0
5023 5024 0
-5023 -5024 0
5004 5024 5025 0
5004 -5024 -5025 0
-5004 5024 -5025 0
-5004 -5024 -5025 0
5025 5026 0
-5025 -5026 0
4986 5026 5027 0
4986 -5026 -5027 0
-4986 5026 -5027 0
-4986 -5026 -5027 0
5027 5028 0
-5027 -5028 0
5028 5029 0
-5028 -5029 0
5029 5030 0
-5029 -5030 0
4975 5030 -5031 0
4975 -5030 5031 0
-4975 5030 5031 0
-4975 -5030 -5031 0
375 5032 0
-375 -5032 0
5032 5033 0
-5032 -5033 0
1742 1794 5034 0
1742 -1794 -5034 0
-1742 1794 -5034 0
-1742 -1794 -5034 0
1689 5035 0
-1689 -5035 0
5034 5035 -5036 0
5034 -5035 5036 0
-5034 5035 5036 0
-5034 -5035 5036 0
5036 4463 5037 0
5036 -4463 -5037 0
-5036 4463 -5037 0
-5036 -4463 -5037 0
5037 5038 0
-5037 -5038 0
5033 5038 5039 0
5033 -5038 -5039 0
-5033 5038 -5039 0
-5033 -5038 -5039 0
375 5040 0
-375 -5040 0
5037 5040 5041 0
5037 -5040 -5041 0
-5037 5040 -5041 0
-5037 -5040 -5041 0
5039 5041 -5042 0
5039 -5041 5042 0
-5039 5041 5042 0
-5039 -5041 5042 0
401 5043 0
-401 -5043 0
5043 5044 0
-5043 -5044 0
365 5045 0
-365 -5045 0
5045 5046 0
-5045 -5046 0
2337 5044 5046 5047 0
2337 5044 -5046 -5047 0
2337 -5044 5046 -5047 0
2337 -5044 -5046 -5047 0
-2337 5044 5046 -5047 0
-2337 5044 -5046 -5047 0
-2337 -5044 5046 -5047 0
-2337 -5044 -5046 -5047 0
390 5048 0
-390 -5048 0
5048 2336 5049 0
5048 -2336 -5049 0
-5048 2336 -5049 0
-5048 -2336 -5049 0
390 5050 0
-390 -5050 0
5050 5051 0
-5050 -5051 0
5051 2336 5052 0
5051 -2336 -5052 0
-5051 2336 -5052 0
-5051 -2336 -5052 0
5047 5049 5052 5053 0
5047 5049 -5052 -5053 0
5047 -5049 5052 -5053 0
5047 -5049 -5052 -5053 0
-5047 5049 5052 -5053 0
-5047 5049 -5052 -5053 0
-5047 -5049 5052 -5053 0
-5047 -5049 -5052 -5053 0
5053 5054 0
-5053 -5054 0
1788 5055 0
-1788 -5055 0
4461 5056 0
-4461 -5056 0
4418 5057 0
-4418 -5057 0
1693 5058 0
-1693 -5058 0
1741 5059 0
-1741 -5059 0
5057 5058 5059 -5060 0
5057 5058 -5059 5060 0
5057 -5058 5059 5060 0
5057 -5058 -5059 5060 0
-5057 5058 5059 5060 0
-5057 5058 -5059 5060 0
-5057 -5058 5059 5060 0
-5057 -5058 -5059 5060 0
5055 5056 5060 -5061 0
5055 5056 -5060 5061 0
5055 -5056 5060 5061 0
5055 -5056 -5060 5061 0
-5055 5056 5060 5061 0
-5055 5056 -5060 5061 0
-5055 -5056 5060 5061 0
-5055 -5056 -5060 5061 0
5061 5062 0
-5061 -5062 0
5062 5063 0
-5062 -5063 0
5054 5063 5064 0
5054 -5063 -5064 0
-5054 5063 -5064 0
-5054 -5063 -5064 0
5049 5065 0
-5049 -5065 0
4421 5066 0
-4421 -5066 0
5056 5055 5059 -5067 0
5056 5055 -5059 5067 0
5056 -5055 5059 5067 0
5056 -5055 -5059 5067 0
-5056 5055 5059 5067 0
-5056 5055 -5059 5067 0
-5056 -5055 5059 5067 0
-5056 -5055 -5059 5067 0
5058 5066 5067 -5068 0
5058 5066 -5067 5068 0
5058 -5066 5067 5068 0
5058 -5066 -5067 5068 0
-5058 5066 5067 5068 0
-5058 5066 -5067 5068 0
-5058 -5066 5067 5068 0
-5058 -5066 -5067 5068 0
5068 5069 0
-5068 -5069 0
5069 5070 0
-5069 -5070 0
5065 5070 5071 0
5065 -5070 -5071 0
-5065 5070 -5071 0
-5065 -5070 -5071 0
4466 5072 0
-4466 -5072 0
1793 5073 0
-1793 -5073 0
1748 5074 0
-1748 -5074 0
5057 5073 5074 -5075 0
5057 5073 -5074 5075 0
5057 -5073 5074 5075 0
5057 -5073 -5074 5075 0
-5057 5073 5074 5075 0
-5057 5073 -5074 5075 0
-5057 -5073 5074 5075 0
-5057 -5073 -5074 5075 0
5058 5072 5075 -5076 0
5058 5072 -5075 5076 0
5058 -5072 5075 5076 0
5058 -5072 -5075 5076 0
-5058 5072 5075 5076 0
-5058 5072 -5075 5076 0
-5058 -5072 5075 5076 0
-5058 -5072 -5075 5076 0
5076 5077 0
-5076 -5077 0
5077 5078 0
-5077 -5078 0
5052 5079 0
-5052 -5079 0
5078 5079 5080 0
5078 -5079 -5080 0
-5078 5079 -5080 0
-5078 -5079 -5080 0
5056 5074 5057 -5081 0
5056 5074 -5057 5081 0
5056 -5074 5057 5081 0
5056 -5074 -5057 5081 0
-5056 5074 5057 5081 0
-5056 5074 -5057 5081 0
-5056 -5074 5057 5081 0
-5056 -5074 -5057 5081 0
5055 5058 5081 -5082 0
5055 5058 -5081 5082 0
5055 -5058 5081 5082 0
5055 -5058 -5081 5082 0
-5055 5058 5081 5082 0
-5055 5058 -5081 5082 0
-5055 -5058 5081 5082 0
-5055 -5058 -5081 5082 0
5082 5083 0
-5082 -5083 0
5083 5084 0
-5083 -5084 0
5047 5085 0
-5047 -5085 0
5084 5085 5086 0
5084 -5085 -5086 0
-5084 5085 -5086 0
-5084 -5085 -5086 0
5064 5071 5080 5086 5087 0
5064 5071 5080 -5086 -5087 0
5064 5071 -5080 5086 -5087 0
5064 5071 -5080 -5086 -5087 0
5064 -5071 5080 5086 -5087 0
5064 -5071 5080 -5086 -5087 0
5064 -5071 -5080 5086 -5087 0
5064 -5071 -5080 -5086 -5087 0
-5064 5071 5080 5086 -5087 0
-5064 5071 5080 -5086 -5087 0
-5064 5071 -5080 5086 -5087 0
-5064 5071 -5080 -5086 -5087 0
-5064 -5071 5080 5086 -5087 0
-5064 -5071 5080 -5086 -5087 0
-5064 -5071 -5080 5086 -5087 0
-5064 -5071 -5080 -5086 -5087 0
5087 5088 0
-5087 -5088 0
5088 4969 5089 0
5088 -4969 -5089 0
-5088 4969 -5089 0
-5088 -4969 -5089 0
5089 5090 0
-5089 -5090 0
5042 5090 5091 0
5042 -5090 -5091 0
-5042 5090 -5091 0
-5042 -5090 -5091 0
5091 5092 0
-5091 -5092 0
5092 5093 0
-5092 -5093 0
5093 5094 0
-5093 -5094 0
375 5095 0
-375 -5095 0
5095 5096 0
-5095 -5096 0
1767 1814 5097 0
1767 -1814 -5097 0
-1767 1814 -5097 0
-1767 -1814 -5097 0
1716 5098 0
-1716 -5098 0
5097 5098 -5099 0
5097 -5098 5099 0
-5097 5098 5099 0
-5097 -5098 5099 0
5099 4484 5100 0
5099 -4484 -5100 0
-5099 4484 -5100 0
-5099 -4484 -5100 0
5100 5101 0
-5100 -5101 0
5096 5101 5102 0
5096 -5101 -5102 0
-5096 5101 -5102 0
-5096 -5101 -5102 0
375 5103 0
-375 -5103 0
5100 5103 5104 0
5100 -5103 -5104 0
-5100 5103 -5104 0
-5100 -5103 -5104 0
5102 5104 -5105 0
5102 -5104 5105 0
-5102 5104 5105 0
-5102 -5104 5105 0
401 5106 0
-401 -5106 0
5106 5107 0
-5106 -5107 0
365 5108 0
-365 -5108 0
5108 5109 0
-5108 -5109 0
2701 5107 5109 5110 0
2701 5107 -5109 -5110 0
2701 -5107 5109 -5110 0
2701 -5107 -5109 -5110 0
-2701 5107 5109 -5110 0
-2701 5107 -5109 -5110 0
-2701 -5107 5109 -5110 0
-2701 -5107 -5109 -5110 0
390 5111 0
-390 -5111 0
5111 2700 5112 0
5111 -2700 -5112 0
-5111 2700 -5112 0
-5111 -2700 -5112 0
390 5113 0
-390 -5113 0
5113 5114 0
-5113 -5114 0
5114 2700 5115 0
5114 -2700 -5115 0
-5114 2700 -5115 0
-5114 -2700 -5115 0
5110 5112 5115 5116 0
5110 5112 -5115 -5116 0
5110 -5112 5115 -5116 0
5110 -5112 -5115 -5116 0
-5110 5112 5115 -5116 0
-5110 5112 -5115 -5116 0
-5110 -5112 5115 -5116 0
-5110 -5112 -5115 -5116 0
5116 5117 0
-5116 -5117 0
1808 5118 0
-1808 -5118 0
4482 5119 0
-4482 -5119 0
4440 5120 0
-4440 -5120 0
1720 5121 0
-1720 -5121 0
1766 5122 0
-1766 -5122 0
5120 5121 5122 -5123 0
5120 5121 -5122 5123 0
5120 -5121 5122 5123 0
5120 -5121 -5122 5123 0
-5120 5121 5122 5123 0
-5120 5121 -5122 5123 0
-5120 -5121 5122 5123 0
-5120 -5121 -5122 5123 0
5118 5119 5123 -5124 0
5118 5119 -5123 5124 0
5118 -5119 5123 5124 0
5118 -5119 -5123 5124 0
-5118 5119 5123 5124 0
-5118 5119 -5123 5124 0
-5118 -5119 5123 5124 0
-5118 -5119 -5123 5124 0
5124 5125 0
-5124 -5125 0
5125 5126 0
-5125 -5126 0
5117 5126 5127 0
5117 -5126 -5127 0
-5117 5126 -5127 0
-5117 -5126 -5127 0
5112 5128 0
-5112 -5128 0
4443 5129 0
-4443 -5129 0
5119 5118 5122 -5130 0
5119 5118 -5122 5130 0
5119 -5118 5122 5130 0
5119 -5118 -5122 5130 0
-5119 5118 5122 5130 0
-5119 5118 -5122 5130 0
-5119 -5118 5122 5130 0
-5119 -5118 -5122 5130 0
5121 5129 5130 -5131 0
5121 5129 -5130 5131 0
5121 -5129 5130 5131 0
5121 -5129 -5130 5131 0
-5121 5129 5130 5131 0
-5121 5129 -5130 5131 0
-5121 -5129 5130 5131 0
-5121 -5129 -5130 5131 0
5131 5132 0
-5131 -5132 0
5132 5133 0
-5132 -5133 0
5128 5133 5134 0
5128 -5133 -5134 0
-5128 5133 -5134 0
-5128 -5133 -5134 0
4487 5135 0
-4487 -5135 0
1813 5136 0
-1813 -5136 0
1773 5137 0
-1773 -5137 0
5120 5136 5137 -5138 0
5120 5136 -5137 5138 0
5120 -5136 5137 5138 0
5120 -5136 -5137 5138 0
-5120 5136 5137 5138 0
-5120 5136 -5137 5138 0
-5120 -5136 5137 5138 0
-5120 -5136 -5137 5138 0
5121 5135 5138 -5139 0
5121 5135 -5138 5139 0
5121 -5135 5138 5139 0
5121 -5135 -5138 5139 0
-5121 5135 5138 5139 0
-5121 5135 -5138 5139 0
-5121 -5135 5138 5139 0
-5121 -5135 -5138 5139 0
5139 5140 0
-5139 -5140 0
5140 5141 0
-5140 -5141 0
5115 5142 0
-5115 -5142 0
5141 5142 5143 0
5141 -5142 -5143 0
-5141 5142 -5143 0
-5141 -5142 -5143 0
5119 5137 5120 -5144 0
5119 5137 -5120 5144 0
5119 -5137 5120 5144 0
5119 -5137 -5120 5144 0
-5119 5137 5120 5144 0
-5119 5137 -5120 5144 0
-5119 -5137 5120 5144 0
-5119 -5137 -5120 5144 0
5118 5121 5144 -5145 0
5118 5121 -5144 5145 0
5118 -5121 5144 5145 0
5118 -5121 -5144 5145 0
-5118 5121 5144 5145 0
-5118 5121 -5144 5145 0
-5118 -5121 5144 5145 0
-5118 -5121 -5144 5145 0
5145 5146 0
-5145 -5146 0
5146 5147 0
-5146 -5147 0
5110 5148 0
-5110 -5148 0
5147 5148 5149 0
5147 -5148 -5149 0
-5147 5148 -5149 0
-5147 -5148 -5149 0
5127 5134 5143 5149 5150 0
5127 5134 5143 -5149 -5150 0
5127 5134 -5143 5149 -5150 0
5127 5134 -5143 -5149 -5150 0
5127 -5134 5143 5149 -5150 0
5127 -5134 5143 -5149 -5150 0
5127 -5134 -5143 5149 -5150 0
5127 -5134 -5143 -5149 -5150 0
-5127 5134 5143 5149 -5150 0
-5127 5134 5143 -5149 -5150 0
-5127 5134 -5143 5149 -5150 0
-5127 5134 -5143 -5149 -5150 0
-5127 -5134 5143 5149 -5150 0
-5127 -5134 5143 -5149 -5150 0
-5127 -5134 -5143 5149 -5150 0
-5127 -5134 -5143 -5149 -5150 0
5150 5151 0
-5150 -5151 0
5151 5024 5152 0
5151 -5024 -5152 0
-5151 5024 -5152 0
-5151 -5024 -5152 0
5152 5153 0
-5152 -5153 0
5105 5153 5154 0
5105 -5153 -5154 0
-5105 5153 -5154 0
-5105 -5153 -5154 0
5154 5155 0
-5154 -5155 0
5155 5156 0
-5155 -5156 0
5156 5157 0
-5156 -5157 0
5094 5157 -5158 0
5094 -5157 5158 0
-5094 5157 5158 0
-5094 -5157 -5158 0
358 5159 0
-358 -5159 0
5159 5160 0
-5159 -5160 0
360 5161 0
-360 -5161 0
1849 1864 5162 0
1849 -1864 -5162 0
-1849 1864 -5162 0
-1849 -1864 -5162 0
5162 5163 0
-5162 -5163 0
5163 5164 0
-5163 -5164 0
4955 5164 5165 0
4955 -5164 -5165 0
-4955 5164 -5165 0
-4955 -5164 -5165 0
5160 5161 5165 5166 0
5160 5161 -5165 -5166 0
5160 -5161 5165 -5166 0
5160 -5161 -5165 -5166 0
-5160 5161 5165 -5166 0
-5160 5161 -5165 -5166 0
-5160 -5161 5165 -5166 0
-5160 -5161 -5165 -5166 0
5166 5167 0
-5166 -5167 0
5167 5168 0
-5167 -5168 0
358 5169 0
-358 -5169 0
5169 5170 0
-5169 -5170 0
360 5171 0
-360 -5171 0
1856 1873 5172 0
1856 -1873 -5172 0
-1856 1873 -5172 0
-1856 -1873 -5172 0
5172 5173 0
-5172 -5173 0
5173 5174 0
-5173 -5174 0
5010 5174 5175 0
5010 -5174 -5175 0
-5010 5174 -5175 0
-5010 -5174 -5175 0
5170 5171 5175 5176 0
5170 5171 -5175 -5176 0
5170 -5171 5175 -5176 0
5170 -5171 -5175 -5176 0
-5170 5171 5175 -5176 0
-5170 5171 -5175 -5176 0
-5170 -5171 5175 -5176 0
-5170 -5171 -5175 -5176 0
5176 5177 0
-5176 -5177 0
5177 5178 0
-5177 -5178 0
5168 5178 -5179 0
5168 -5178 5179 0
-5168 5178 5179 0
-5168 -5178 -5179 0
4971 4316 5180 0
4971 -4316 -5180 0
-4971 4316 -5180 0
-4971 -4316 -5180 0
5180 5181 0
-5180 -5181 0
5181 5182 0
-5181 -5182 0
5026 4332 5183 0
5026 -4332 -5183 0
-5026 4332 -5183 0
-5026 -4332 -5183 0
5183 5184 0
-5183 -5184 0
5184 5185 0
-5184 -5185 0
5182 5185 -5186 0
5182 -5185 5186 0
-5182 5185 5186 0
-5182 -5185 -5186 0
4971 4350 5187 0
4971 -4350 -5187 0
-4971 4350 -5187 0
-4971 -4350 -5187 0
5187 5188 0
-5187 -5188 0
5188 5189 0
-5188 -5189 0
5026 4367 5190 0
5026 -4367 -5190 0
-5026 4367 -5190 0
-5026 -4367 -5190 0
5190 5191 0
-5190 -5191 0
5191 5192 0
-5191 -5192 0
5189 5192 -5193 0
5189 -5192 5193 0
-5189 5192 5193 0
-5189 -5192 -5193 0
4971 4248 5194 0
4971 -4248 -5194 0
-4971 4248 -5194 0
-4971 -4248 -5194 0
5194 5195 0
-5194 -5195 0
5195 5196 0
-5195 -5196 0
5026 4264 5197 0
5026 -4264 -5197 0
-5026 4264 -5197 0
-5026 -4264 -5197 0
5197 5198 0
-5197 -5198 0
5198 5199 0
-5198 -5199 0
5196 5199 -5200 0
5196 -5199 5200 0
-5196 5199 5200 0
-5196 -5199 -5200 0
4971 4282 5201 0
4971 -4282 -5201 0
-4971 4282 -5201 0
-4971 -4282 -5201 0
5201 5202 0
-5201 -5202 0
5202 5203 0
-5202 -5203 0
5026 4299 5204 0
5026 -4299 -5204 0
-5026 4299 -5204 0
-5026 -4299 -5204 0
5204 5205 0
-5204 -5205 0
5205 5206 0
-5205 -5206 0
5203 5206 -5207 0
5203 -5206 5207 0
-5203 5206 5207 0
-5203 -5206 -5207 0
4971 4212 5208 0
4971 -4212 -5208 0
-4971 4212 -5208 0
-4971 -4212 -5208 0
5208 5209 0
-5208 -5209 0
5209 5210 0
-5209 -5210 0
5026 4231 5211 0
5026 -4231 -5211 0
-5026 4231 -5211 0
-5026 -4231 -5211 0
5211 5212 0
-5211 -5212 0
5212 5213 0
-5212 -5213 0
5210 5213 -5214 0
5210 -5213 5214 0
-5210 5213 5214 0
-5210 -5213 -5214 0
5090 1752 5215 0
5090 -1752 -5215 0
-5090 1752 -5215 0
-5090 -1752 -5215 0
5215 5216 0
-5215 -5216 0
5216 5217 0
-5216 -5217 0
5153 1777 5218 0
5153 -1777 -5218 0
-5153 1777 -5218 0
-5153 -1777 -5218 0
5218 5219 0
-5218 -5219 0
5219 5220 0
-5219 -5220 0
5217 5220 -5221 0
5217 -5220 5221 0
-5217 5220 5221 0
-5217 -5220 -5221 0
1798 5090 5222 0
1798 -5090 -5222 0
-1798 5090 -5222 0
-1798 -5090 -5222 0
5222 5223 0
-5222 -5223 0
5223 5224 0
-5223 -5224 0
1818 5153 5225 0
1818 -5153 -5225 0
-1818 5153 -5225 0
-1818 -5153 -5225 0
5225 5226 0
-5225 -5226 0
5226 5227 0
-5226 -5227 0
5224 5227 -5228 0
5224 -5227 5228 0
-5224 5227 5228 0
-5224 -5227 -5228 0
5090 4426 5229 0
5090 -4426 -5229 0
-5090 4426 -5229 0
-5090 -4426 -5229 0
5229 5230 0
-5229 -5230 0
5230 5231 0
-5230 -5231 0
5153 4448 5232 0
5153 -4448 -5232 0
-5153 4448 -5232 0
-5153 -4448 -5232 0
5232 5233 0
-5232 -5233 0
5233 5234 0
-5233 -5234 0
5231 5234 -5235 0
5231 -5234 5235 0
-5231 5234 5235 0
-5231 -5234 -5235 0
1699 5090 5236 0
1699 -5090 -5236 0
-1699 5090 -5236 0
-1699 -5090 -5236 0
5236 5237 0
-5236 -5237 0
5237 5238 0
-5237 -5238 0
1726 5153 5239 0
1726 -5153 -5239 0
-1726 5153 -5239 0
-1726 -5153 -5239 0
5239 5240 0
-5239 -5240 0
5240 5241 0
-5240 -5241 0
5238 5241 -5242 0
5238 -5241 5242 0
-5238 5241 5242 0
-5238 -5241 -5242 0
4470 5090 5243 0
4470 -5090 -5243 0
-4470 5090 -5243 0
-4470 -5090 -5243 0
5243 5244 0
-5243 -5244 0
5244 5245 0
-5244 -5245 0
4491 5153 5246 0
4491 -5153 -5246 0
-4491 5153 -5246 0
-4491 -5153 -5246 0
5246 5247 0
-5246 -5247 0
5247 5248 0
-5247 -5248 0
5245 5248 -5249 0
5245 -5248 5249 0
-5245 5248 5249 0
-5245 -5248 -5249 0
4135 5250 0
-4135 -5250 0
4100 5251 0
-4100 -5251 0
5250 5251 -5252 0
5250 -5251 5252 0
-5250 5251 5252 0
-5250 -5251 5252 0
5252 5253 0
-5252 -5253 0
345 5254 0
-345 -5254 0
5253 5254 5255 0
5253 -5254 -5255 0
-5253 5254 -5255 0
-5253 -5254 -5255 0
345 5256 0
-345 -5256 0
5256 5257 0
-5256 -5257 0
5257 5252 5258 0
5257 -5252 -5258 0
-5257 5252 -5258 0
-5257 -5252 -5258 0
5255 5258 -5259 0
5255 -5258 5259 0
-5255 5258 5259 0
-5255 -5258 5259 0
4969 5259 5260 0
4969 -5259 -5260 0
-4969 5259 -5260 0
-4969 -5259 -5260 0
5260 5261 0
-5260 -5261 0
5261 5262 0
-5261 -5262 0
5262 5263 0
-5262 -5263 0
4151 5264 0
-4151 -5264 0
4119 5265 0
-4119 -5265 0
5264 5265 -5266 0
5264 -5265 5266 0
-5264 5265 5266 0
-5264 -5265 5266 0
5266 5267 0
-5266 -5267 0
345 5268 0
-345 -5268 0
5267 5268 5269 0
5267 -5268 -5269 0
-5267 5268 -5269 0
-5267 -5268 -5269 0
345 5270 0
-345 -5270 0
5270 5271 0
-5270 -5271 0
5271 5266 5272 0
5271 -5266 -5272 0
-5271 5266 -5272 0
-5271 -5266 -5272 0
5269 5272 -5273 0
5269 -5272 5273 0
-5269 5272 5273 0
-5269 -5272 5273 0
5024 5273 5274 0
5024 -5273 -5274 0
-5024 5273 -5274 0
-5024 -5273 -5274 0
5274 5275 0
-5274 -5275 0
5275 5276 0
-5275 -5276 0
5276 5277 0
-5276 -5277 0
5263 5277 -5278 0
5263 -5277 5278 0
-5263 5277 5278 0
-5263 -5277 -5278 0
4175 4969 5279 0
4175 -4969 -5279 0
-4175 4969 -5279 0
-4175 -4969 -5279 0
5279 5280 0
-5279 -5280 0
5280 5281 0
-5280 -5281 0
4192 5024 5282 0
4192 -5024 -5282 0
-4192 5024 -5282 0
-4192 -5024 -5282 0
5282 5283 0
-5282 -5283 0
5283 5284 0
-5283 -5284 0
5281 5284 -5285 0
5281 -5284 5285 0
-5281 5284 5285 0
-5281 -5284 -5285 0
4105 4969 5286 0
4105 -4969 -5286 0
-4105 4969 -5286 0
-4105 -4969 -5286 0
5286 5287 0
-5286 -5287 0
5287 5288 0
-5287 -5288 0
4124 5024 5289 0
4124 -5024 -5289 0
-4124 5024 -5289 0
-4124 -5024 -5289 0
5289 5290 0
-5289 -5290 0
5290 5291 0
-5290 -5291 0
5288 5291 -5292 0
5288 -5291 5292 0
-5288 5291 5292 0
-5288 -5291 -5292 0
4141 4969 5293 0
4141 -4969 -5293 0
-4141 4969 -5293 0
-4141 -4969 -5293 0
5293 5294 0
-5293 -5294 0
5294 5295 0
-5294 -5295 0
4157 5024 5296 0
4157 -5024 -5296 0
-4157 5024 -5296 0
-4157 -5024 -5296 0
5296 5297 0
-5296 -5297 0
5297 5298 0
-5297 -5298 0
5295 5298 -5299 0
5295 -5298 5299 0
-5295 5298 5299 0
-5295 -5298 -5299 0
327 5300 0
-327 -5300 0
328 5301 0
-328 -5301 0
325 5302 0
-325 -5302 0
316 5303 0
-316 -5303 0
273 5304 0
-273 -5304 0
5304 5305 0
-5304 -5305 0
5305 5306 0
-5305 -5306 0
5306 5307 0
-5306 -5307 0
5302 5303 5307 -5308 0
5302 5303 -5307 5308 0
5302 -5303 5307 5308 0
5302 -5303 -5307 5308 0
-5302 5303 5307 5308 0
-5302 5303 -5307 5308 0
-5302 -5303 5307 5308 0
-5302 -5303 -5307 5308 0
5300 5301 5308 -5309 0
5300 5301 -5308 5309 0
5300 -5301 5308 5309 0
5300 -5301 -5308 5309 0
-5300 5301 5308 5309 0
-5300 5301 -5308 5309 0
-5300 -5301 5308 5309 0
-5300 -5301 -5308 5309 0
5309 5310 0
-5309 -5310 0
5310 5311 0
-5310 -5311 0
318 5312 0
-318 -5312 0
5312 5313 0
-5312 -5313 0
5313 5314 0
-5313 -5314 0
317 5315 0
-317 -5315 0
310 5316 0
-310 -5316 0
5314 5315 5316 5317 0
5314 5315 -5316 -5317 0
5314 -5315 5316 -5317 0
5314 -5315 -5316 -5317 0
-5314 5315 5316 -5317 0
-5314 5315 -5316 -5317 0
-5314 -5315 5316 -5317 0
-5314 -5315 -5316 -5317 0
5317 5318 0
-5317 -5318 0
5311 5318 -5319 0
5311 -5318 5319 0
-5311 5318 5319 0
-5311 -5318 5319 0
327 5320 0
-327 -5320 0
328 5321 0
-328 -5321 0
325 5322 0
-325 -5322 0
316 5323 0
-316 -5323 0
273 5324 0
-273 -5324 0
5324 5325 0
-5324 -5325 0
5325 5326 0
-5325 -5326 0
5326 5327 0
-5326 -5327 0
5322 5323 5327 -5328 0
5322 5323 -5327 5328 0
5322 -5323 5327 5328 0
5322 -5323 -5327 5328 0
-5322 5323 5327 5328 0
-5322 5323 -5327 5328 0
-5322 -5323 5327 5328 0
-5322 -5323 -5327 5328 0
5320 5321 5328 -5329 0
5320 5321 -5328 5329 0
5320 -5321 5328 5329 0
5320 -5321 -5328 5329 0
-5320 5321 5328 5329 0
-5320 5321 -5328 5329 0
-5320 -5321 5328 5329 0
-5320 -5321 -5328 5329 0
5329 5330 0
-5329 -5330 0
5330 5331 0
-5330 -5331 0
318 5332 0
-318 -5332 0
5332 5333 0
-5332 -5333 0
5333 5334 0
-5333 -5334 0
317 5335 0
-317 -5335 0
310 5336 0
-310 -5336 0
5334 5335 5336 5337 0
5334 5335 -5336 -5337 0
5334 -5335 5336 -5337 0
5334 -5335 -5336 -5337 0
-5334 5335 5336 -5337 0
-5334 5335 -5336 -5337 0
-5334 -5335 5336 -5337 0
-5334 -5335 -5336 -5337 0
5337 5338 0
-5337 -5338 0
5331 5338 -5339 0
5331 -5338 5339 0
-5331 5338 5339 0
-5331 -5338 5339 0
5319 5339 -5340 0
5319 -5339 5340 0
-5319 5339 5340 0
-5319 -5339 -5340 0
3969 3982 -5341 0
3969 -3982 5341 0
-3969 3982 5341 0
-3969 -3982 -5341 0
2344 5342 0
-2344 -5342 0
2344 5343 0
-2344 -5343 0
5343 5344 0
-5343 -5344 0
5342 5344 -5345 0
5342 -5344 5345 0
-5342 5344 5345 0
-5342 -5344 5345 0
2708 5346 0
-2708 -5346 0
2708 5347 0
-2708 -5347 0
5347 5348 0
-5347 -5348 0
5346 5348 -5349 0
5346 -5348 5349 0
-5346 5348 5349 0
-5346 -5348 5349 0
5345 5349 -5350 0
5345 -5349 5350 0
-5345 5349 5350 0
-5345 -5349 -5350 0
351 5351 0
-351 -5351 0
5351 5352 0
-5351 -5352 0
4949 5353 0
-4949 -5353 0
4135 4172 4096 5354 0
4135 4172 -4096 -5354 0
4135 -4172 4096 -5354 0
4135 -4172 -4096 -5354 0
-4135 4172 4096 -5354 0
-4135 4172 -4096 -5354 0
-4135 -4172 4096 -5354 0
-4135 -4172 -4096 -5354 0
5354 5355 0
-5354 -5355 0
5087 5352 5353 5355 5356 0
5087 5352 5353 -5355 -5356 0
5087 5352 -5353 5355 -5356 0
5087 5352 -5353 -5355 -5356 0
5087 -5352 5353 5355 -5356 0
5087 -5352 5353 -5355 -5356 0
5087 -5352 -5353 5355 -5356 0
5087 -5352 -5353 -5355 -5356 0
-5087 5352 5353 5355 -5356 0
-5087 5352 5353 -5355 -5356 0
-5087 5352 -5353 5355 -5356 0
-5087 5352 -5353 -5355 -5356 0
-5087 -5352 5353 5355 -5356 0
-5087 -5352 5353 -5355 -5356 0
-5087 -5352 -5353 5355 -5356 0
-5087 -5352 -5353 -5355 -5356 0
350 5357 0
-350 -5357 0
5357 5358 0
-5357 -5358 0
5087 5353 5358 5359 0
5087 5353 -5358 -5359 0
5087 -5353 5358 -5359 0
5087 -5353 -5358 -5359 0
-5087 5353 5358 -5359 0
-5087 5353 -5358 -5359 0
-5087 -5353 5358 -5359 0
-5087 -5353 -5358 -5359 0
5356 5359 -5360 0
5356 -5359 5360 0
-5356 5359 5360 0
-5356 -5359 5360 0
351 5361 0
-351 -5361 0
5361 5362 0
-5361 -5362 0
5004 5363 0
-5004 -5363 0
4151 4189 4115 5364 0
4151 4189 -4115 -5364 0
4151 -4189 4115 -5364 0
4151 -4189 -4115 -5364 0
-4151 4189 4115 -5364 0
-4151 4189 -4115 -5364 0
-4151 -4189 4115 -5364 0
-4151 -4189 -4115 -5364 0
5364 5365 0
-5364 -5365 0
5150 5362 5363 5365 5366 0
5150 5362 5363 -5365 -5366 0
5150 5362 -5363 5365 -5366 0
5150 5362 -5363 -5365 -5366 0
5150 -5362 5363 5365 -5366 0
5150 -5362 5363 -5365 -5366 0
5150 -5362 -5363 5365 -5366 0
5150 -5362 -5363 -5365 -5366 0
-5150 5362 5363 5365 -5366 0
-5150 5362 5363 -5365 -5366 0
-5150 5362 -5363 5365 -5366 0
-5150 5362 -5363 -5365 -5366 0
-5150 -5362 5363 5365 -5366 0
-5150 -5362 5363 -5365 -5366 0
-5150 -5362 -5363 5365 -5366 0
-5150 -5362 -5363 -5365 -5366 0
350 5367 0
-350 -5367 0
5367 5368 0
-5367 -5368 0
5150 5363 5368 5369 0
5150 5363 -5368 -5369 0
5150 -5363 5368 -5369 0
5150 -5363 -5368 -5369 0
-5150 5363 5368 -5369 0
-5150 5363 -5368 -5369 0
-5150 -5363 5368 -5369 0
-5150 -5363 -5368 -5369 0
5366 5369 -5370 0
5366 -5369 5370 0
-5366 5369 5370 0
-5366 -5369 5370 0
5360 5370 -5371 0
5360 -5370 5371 0
-5360 5370 5371 0
-5360 -5370 -5371 0
3942 3955 -5372 0
3942 -3955 5372 0
-3942 3955 5372 0
-3942 -3955 -5372 0
700 704 702 5373 0
700 704 -702 -5373 0
700 -704 702 -5373 0
700 -704 -702 -5373 0
-700 704 702 -5373 0
-700 704 -702 -5373 0
-700 -704 702 -5373 0
-700 -704 -702 -5373 0
5373 5374 0
-5373 -5374 0
5374 685 5375 0
5374 -685 -5375 0
-5374 685 -5375 0
-5374 -685 -5375 0
1682 665 673 5376 0
1682 665 -673 -5376 0
1682 -665 673 -5376 0
1682 -665 -673 -5376 0
-1682 665 673 -5376 0
-1682 665 -673 -5376 0
-1682 -665 673 -5376 0
-1682 -665 -673 -5376 0
5376 5377 0
-5376 -5377 0
679 5377 5378 0
679 -5377 -5378 0
-679 5377 -5378 0
-679 -5377 -5378 0
5375 5378 5379 0
5375 -5378 -5379 0
-5375 5378 -5379 0
-5375 -5378 -5379 0
5379 4894 5380 0
5379 -4894 -5380 0
-5379 4894 -5380 0
-5379 -4894 -5380 0
2777 2782 2788 5381 0
2777 2782 -2788 -5381 0
2777 -2782 2788 -5381 0
2777 -2782 -2788 -5381 0
-2777 2782 2788 -5381 0
-2777 2782 -2788 -5381 0
-2777 -2782 2788 -5381 0
-2777 -2782 -2788 -5381 0
5381 5382 0
-5381 -5382 0
2813 5383 0
-2813 -5383 0
5382 3132 5383 5384 0
5382 3132 -5383 -5384 0
5382 -3132 5383 -5384 0
5382 -3132 -5383 -5384 0
-5382 3132 5383 -5384 0
-5382 3132 -5383 -5384 0
-5382 -3132 5383 -5384 0
-5382 -3132 -5383 -5384 0
5384 5385 0
-5384 -5385 0
354 5386 0
-354 -5386 0
5386 5387 0
-5386 -5387 0
5385 5387 5388 0
5385 -5387 -5388 0
-5385 5387 -5388 0
-5385 -5387 -5388 0
2772 2768 2788 5389 0
2772 2768 -2788 -5389 0
2772 -2768 2788 -5389 0
2772 -2768 -2788 -5389 0
-2772 2768 2788 -5389 0
-2772 2768 -2788 -5389 0
-2772 -2768 2788 -5389 0
-2772 -2768 -2788 -5389 0
5389 5390 0
-5389 -5390 0
5390 3131 3132 5391 0
5390 3131 -3132 -5391 0
5390 -3131 3132 -5391 0
5390 -3131 -3132 -5391 0
-5390 3131 3132 -5391 0
-5390 3131 -3132 -5391 0
-5390 -3131 3132 -5391 0
-5390 -3131 -3132 -5391 0
5391 5392 0
-5391 -5392 0
354 5393 0
-354 -5393 0
5392 5393 5394 0
5392 -5393 -5394 0
-5392 5393 -5394 0
-5392 -5393 -5394 0
5388 5394 5395 0
5388 -5394 -5395 0
-5388 5394 -5395 0
-5388 -5394 -5395 0
3138 5395 3028 -5396 0
3138 5395 -3028 5396 0
3138 -5395 3028 5396 0
3138 -5395 -3028 5396 0
-3138 5395 3028 5396 0
-3138 5395 -3028 5396 0
-3138 -5395 3028 5396 0
-3138 -5395 -3028 5396 0
2910 2047 5396 -5397 0
2910 2047 -5396 5397 0
2910 -2047 5396 5397 0
2910 -2047 -5396 5397 0
-2910 2047 5396 5397 0
-2910 2047 -5396 5397 0
-2910 -2047 5396 5397 0
-2910 -2047 -5396 5397 0
5397 5398 0
-5397 -5398 0
5398 5399 0
-5398 -5399 0
5399 5400 0
-5399 -5400 0
5380 5400 -5401 0
5380 -5400 5401 0
-5380 5400 5401 0
-5380 -5400 5401 0
772 776 774 5402 0
772 776 -774 -5402 0
772 -776 774 -5402 0
772 -776 -774 -5402 0
-772 776 774 -5402 0
-772 776 -774 -5402 0
-772 -776 774 -5402 0
-772 -776 -774 -5402 0
5402 5403 0
-5402 -5403 0
5403 757 5404 0
5403 -757 -5404 0
-5403 757 -5404 0
-5403 -757 -5404 0
1709 737 745 5405 0
1709 737 -745 -5405 0
1709 -737 745 -5405 0
1709 -737 -745 -5405 0
-1709 737 745 -5405 0
-1709 737 -745 -5405 0
-1709 -737 745 -5405 0
-1709 -737 -745 -5405 0
5405 5406 0
-5405 -5406 0
751 5406 5407 0
751 -5406 -5407 0
-751 5406 -5407 0
-751 -5406 -5407 0
5404 5407 5408 0
5404 -5407 -5408 0
-5404 5407 -5408 0
-5404 -5407 -5408 0
5408 4908 5409 0
5408 -4908 -5409 0
-5408 4908 -5409 0
-5408 -4908 -5409 0
2850 2855 2861 5410 0
2850 2855 -2861 -5410 0
2850 -2855 2861 -5410 0
2850 -2855 -2861 -5410 0
-2850 2855 2861 -5410 0
-2850 2855 -2861 -5410 0
-2850 -2855 2861 -5410 0
-2850 -2855 -2861 -5410 0
5410 5411 0
-5410 -5411 0
2886 5412 0
-2886 -5412 0
5411 3150 5412 5413 0
5411 3150 -5412 -5413 0
5411 -3150 5412 -5413 0
5411 -3150 -5412 -5413 0
-5411 3150 5412 -5413 0
-5411 3150 -5412 -5413 0
-5411 -3150 5412 -5413 0
-5411 -3150 -5412 -5413 0
5413 5414 0
-5413 -5414 0
354 5415 0
-354 -5415 0
5415 5416 0
-5415 -5416 0
5414 5416 5417 0
5414 -5416 -5417 0
-5414 5416 -5417 0
-5414 -5416 -5417 0
2845 2841 2861 5418 0
2845 2841 -2861 -5418 0
2845 -2841 2861 -5418 0
2845 -2841 -2861 -5418 0
-2845 2841 2861 -5418 0
-2845 2841 -2861 -5418 0
-2845 -2841 2861 -5418 0
-2845 -2841 -2861 -5418 0
5418 5419 0
-5418 -5419 0
5419 3149 3150 5420 0
5419 3149 -3150 -5420 0
5419 -3149 3150 -5420 0
5419 -3149 -3150 -5420 0
-5419 3149 3150 -5420 0
-5419 3149 -3150 -5420 0
-5419 -3149 3150 -5420 0
-5419 -3149 -3150 -5420 0
5420 5421 0
-5420 -5421 0
354 5422 0
-354 -5422 0
5421 5422 5423 0
5421 -5422 -5423 0
-5421 5422 -5423 0
-5421 -5422 -5423 0
5417 5423 5424 0
5417 -5423 -5424 0
-5417 5423 -5424 0
-5417 -5423 -5424 0
3156 5424 3091 -5425 0
3156 5424 -3091 5425 0
3156 -5424 3091 5425 0
3156 -5424 -3091 5425 0
-3156 5424 3091 5425 0
-3156 5424 -3091 5425 0
-3156 -5424 3091 5425 0
-3156 -5424 -3091 5425 0
2943 2411 5425 -5426 0
2943 2411 -5425 5426 0
2943 -2411 5425 5426 0
2943 -2411 -5425 5426 0
-2943 2411 5425 5426 0
-2943 2411 -5425 5426 0
-2943 -2411 5425 5426 0
-2943 -2411 -5425 5426 0
5426 5427 0
-5426 -5427 0
5427 5428 0
-5427 -5428 0
5428 5429 0
-5428 -5429 0
5409 5429 -5430 0
5409 -5429 5430 0
-5409 5429 5430 0
-5409 -5429 5430 0
5401 5430 -5431 0
5401 -5430 5431 0
-5401 5430 5431 0
-5401 -5430 -5431 0
689 5432 0
-689 -5432 0
287 5433 0
-287 -5433 0
5433 5434 0
-5433 -5434 0
5434 5435 0
-5434 -5435 0
5432 5435 5436 0
5432 -5435 -5436 0
-5432 5435 -5436 0
-5432 -5435 -5436 0
662 5437 0
-662 -5437 0
4894 5437 5438 0
4894 -5437 -5438 0
-4894 5437 -5438 0
-4894 -5437 -5438 0
5436 5438 -5439 0
5436 -5438 5439 0
-5436 5438 5439 0
-5436 -5438 5439 0
761 5440 0
-761 -5440 0
287 5441 0
-287 -5441 0
5441 5442 0
-5441 -5442 0
5442 5443 0
-5442 -5443 0
5440 5443 5444 0
5440 -5443 -5444 0
-5440 5443 -5444 0
-5440 -5443 -5444 0
734 5445 0
-734 -5445 0
4908 5445 5446 0
4908 -5445 -5446 0
-4908 5445 -5446 0
-4908 -5445 -5446 0
5444 5446 -5447 0
5444 -5446 5447 0
-5444 5446 5447 0
-5444 -5446 5447 0
5439 5447 -5448 0
5439 -5447 5448 0
-5439 5447 5448 0
-5439 -5447 -5448 0
288 5449 0
-288 -5449 0
5449 5450 0
-5449 -5450 0
5450 5451 0
-5450 -5451 0
5432 5451 5452 0
5432 -5451 -5452 0
-5432 5451 -5452 0
-5432 -5451 -5452 0
5437 4579 5453 0
5437 -4579 -5453 0
-5437 4579 -5453 0
-5437 -4579 -5453 0
5452 5453 -5454 0
5452 -5453 5454 0
-5452 5453 5454 0
-5452 -5453 5454 0
288 5455 0
-288 -5455 0
5455 5456 0
-5455 -5456 0
5456 5457 0
-5456 -5457 0
5440 5457 5458 0
5440 -5457 -5458 0
-5440 5457 -5458 0
-5440 -5457 -5458 0
5445 4591 5459 0
5445 -4591 -5459 0
-5445 4591 -5459 0
-5445 -4591 -5459 0
5458 5459 -5460 0
5458 -5459 5460 0
-5458 5459 5460 0
-5458 -5459 5460 0
5454 5460 -5461 0
5454 -5460 5461 0
-5454 5460 5461 0
-5454 -5460 -5461 0
5437 4612 5462 0
5437 -4612 -5462 0
-5437 4612 -5462 0
-5437 -4612 -5462 0
4748 5432 5463 0
4748 -5432 -5463 0
-4748 5432 -5463 0
-4748 -5432 -5463 0
5462 5463 -5464 0
5462 -5463 5464 0
-5462 5463 5464 0
-5462 -5463 5464 0
5445 4632 5465 0
5445 -4632 -5465 0
-5445 4632 -5465 0
-5445 -4632 -5465 0
4769 5440 5466 0
4769 -5440 -5466 0
-4769 5440 -5466 0
-4769 -5440 -5466 0
5465 5466 -5467 0
5465 -5466 5467 0
-5465 5466 5467 0
-5465 -5466 5467 0
5464 5467 -5468 0
5464 -5467 5468 0
-5464 5467 5468 0
-5464 -5467 -5468 0
4724 5437 5469 0
4724 -5437 -5469 0
-4724 5437 -5469 0
-4724 -5437 -5469 0
5432 4715 5470 0
5432 -4715 -5470 0
-5432 4715 -5470 0
-5432 -4715 -5470 0
5469 5470 -5471 0
5469 -5470 5471 0
-5469 5470 5471 0
-5469 -5470 5471 0
4740 5445 5472 0
4740 -5445 -5472 0
-4740 5445 -5472 0
-4740 -5445 -5472 0
5440 4731 5473 0
5440 -4731 -5473 0
-5440 4731 -5473 0
-5440 -4731 -5473 0
5472 5473 -5474 0
5472 -5473 5474 0
-5472 5473 5474 0
-5472 -5473 5474 0
5471 5474 -5475 0
5471 -5474 5475 0
-5471 5474 5475 0
-5471 -5474 -5475 0
4667 4894 5476 0
4667 -4894 -5476 0
-4667 4894 -5476 0
-4667 -4894 -5476 0
5435 4638 5477 0
5435 -4638 -5477 0
-5435 4638 -5477 0
-5435 -4638 -5477 0
5476 5477 -5478 0
5476 -5477 5478 0
-5476 5477 5478 0
-5476 -5477 5478 0
4704 4908 5479 0
4704 -4908 -5479 0
-4704 4908 -5479 0
-4704 -4908 -5479 0
5443 4675 5480 0
5443 -4675 -5480 0
-5443 4675 -5480 0
-5443 -4675 -5480 0
5479 5480 -5481 0
5479 -5480 5481 0
-5479 5480 5481 0
-5479 -5480 5481 0
5478 5481 -5482 0
5478 -5481 5482 0
-5478 5481 5482 0
-5478 -5481 -5482 0
5379 4579 5483 0
5379 -4579 -5483 0
-5379 4579 -5483 0
-5379 -4579 -5483 0
5399 5484 0
-5399 -5484 0
5483 5484 -5485 0
5483 -5484 5485 0
-5483 5484 5485 0
-5483 -5484 5485 0
5408 4591 5486 0
5408 -4591 -5486 0
-5408 4591 -5486 0
-5408 -4591 -5486 0
5428 5487 0
-5428 -5487 0
5486 5487 -5488 0
5486 -5487 5488 0
-5486 5487 5488 0
-5486 -5487 5488 0
5485 5488 -5489 0
5485 -5488 5489 0
-5485 5488 5489 0
-5485 -5488 -5489 0
5379 4530 5490 0
5379 -4530 -5490 0
-5379 4530 -5490 0
-5379 -4530 -5490 0
5399 5491 0
-5399 -5491 0
5490 5491 -5492 0
5490 -5491 5492 0
-5490 5491 5492 0
-5490 -5491 5492 0
5408 4566 5493 0
5408 -4566 -5493 0
-5408 4566 -5493 0
-5408 -4566 -5493 0
5428 5494 0
-5428 -5494 0
5493 5494 -5495 0
5493 -5494 5495 0
-5493 5494 5495 0
-5493 -5494 5495 0
5492 5495 -5496 0
5492 -5495 5496 0
-5492 5495 5496 0
-5492 -5495 -5496 0
690 5398 5497 0
690 -5398 -5497 0
-690 5398 -5497 0
-690 -5398 -5497 0
5497 5498 0
-5497 -5498 0
5451 5498 5499 0
5451 -5498 -5499 0
-5451 5498 -5499 0
-5451 -5498 -5499 0
5398 663 5500 0
5398 -663 -5500 0
-5398 663 -5500 0
-5398 -663 -5500 0
5500 5501 0
-5500 -5501 0
4579 5501 5502 0
4579 -5501 -5502 0
-4579 5501 -5502 0
-4579 -5501 -5502 0
5398 5503 0
-5398 -5503 0
5503 5504 0
-5503 -5504 0
5499 5502 5504 -5505 0
5499 5502 -5504 5505 0
5499 -5502 5504 5505 0
5499 -5502 -5504 5505 0
-5499 5502 5504 5505 0
-5499 5502 -5504 5505 0
-5499 -5502 5504 5505 0
-5499 -5502 -5504 5505 0
762 5427 5506 0
762 -5427 -5506 0
-762 5427 -5506 0
-762 -5427 -5506 0
5506 5507 0
-5506 -5507 0
5457 5507 5508 0
5457 -5507 -5508 0
-5457 5507 -5508 0
-5457 -5507 -5508 0
5427 735 5509 0
5427 -735 -5509 0
-5427 735 -5509 0
-5427 -735 -5509 0
5509 5510 0
-5509 -5510 0
4591 5510 5511 0
4591 -5510 -5511 0
-4591 5510 -5511 0
-4591 -5510 -5511 0
5427 5512 0
-5427 -5512 0
5512 5513 0
-5512 -5513 0
5508 5511 5513 -5514 0
5508 5511 -5513 5514 0
5508 -5511 5513 5514 0
5508 -5511 -5513 5514 0
-5508 5511 5513 5514 0
-5508 5511 -5513 5514 0
-5508 -5511 5513 5514 0
-5508 -5511 -5513 5514 0
5505 5514 -5515 0
5505 -5514 5515 0
-5505 5514 5515 0
-5505 -5514 -5515 0
5437 4530 5516 0
5437 -4530 -5516 0
-5437 4530 -5516 0
-5437 -4530 -5516 0
289 5517 0
-289 -5517 0
5517 5518 0
-5517 -5518 0
5518 5519 0
-5518 -5519 0
5432 5519 5520 0
5432 -5519 -5520 0
-5432 5519 -5520 0
-5432 -5519 -5520 0
5516 5520 -5521 0
5516 -5520 5521 0
-5516 5520 5521 0
-5516 -5520 5521 0
5445 4566 5522 0
5445 -4566 -5522 0
-5445 4566 -5522 0
-5445 -4566 -5522 0
289 5523 0
-289 -5523 0
5523 5524 0
-5523 -5524 0
5524 5525 0
-5524 -5525 0
5440 5525 5526 0
5440 -5525 -5526 0
-5440 5525 -5526 0
-5440 -5525 -5526 0
5522 5526 -5527 0
5522 -5526 5527 0
-5522 5526 5527 0
-5522 -5526 5527 0
5521 5527 -5528 0
5521 -5527 5528 0
-5521 5527 5528 0
-5521 -5527 -5528 0
4667 4530 5529 0
4667 -4530 -5529 0
-4667 4530 -5529 0
-4667 -4530 -5529 0
5519 4638 5530 0
5519 -4638 -5530 0
-5519 4638 -5530 0
-5519 -4638 -5530 0
5529 5530 -5531 0
5529 -5530 5531 0
-5529 5530 5531 0
-5529 -5530 5531 0
4704 4566 5532 0
4704 -4566 -5532 0
-4704 4566 -5532 0
-4704 -4566 -5532 0
5525 4675 5533 0
5525 -4675 -5533 0
-5525 4675 -5533 0
-5525 -4675 -5533 0
5532 5533 -5534 0
5532 -5533 5534 0
-5532 5533 5534 0
-5532 -5533 5534 0
5531 5534 -5535 0
5531 -5534 5535 0
-5531 5534 5535 0
-5531 -5534 -5535 0
5399 5536 0
-5399 -5536 0
4724 5379 5537 0
4724 -5379 -5537 0
-4724 5379 -5537 0
-4724 -5379 -5537 0
5536 5537 -5538 0
5536 -5537 5538 0
-5536 5537 5538 0
-5536 -5537 5538 0
5428 5539 0
-5428 -5539 0
4740 5408 5540 0
4740 -5408 -5540 0
-4740 5408 -5540 0
-4740 -5408 -5540 0
5539 5540 -5541 0
5539 -5540 5541 0
-5539 5540 5541 0
-5539 -5540 5541 0
5538 5541 -5542 0
5538 -5541 5542 0
-5538 5541 5542 0
-5538 -5541 -5542 0
5399 5543 0
-5399 -5543 0
5379 4872 5544 0
5379 -4872 -5544 0
-5379 4872 -5544 0
-5379 -4872 -5544 0
5543 5544 -5545 0
5543 -5544 5545 0
-5543 5544 5545 0
-5543 -5544 5545 0
5428 5546 0
-5428 -5546 0
5408 4886 5547 0
5408 -4886 -5547 0
-5408 4886 -5547 0
-5408 -4886 -5547 0
5546 5547 -5548 0
5546 -5547 5548 0
-5546 5547 5548 0
-5546 -5547 5548 0
5545 5548 -5549 0
5545 -5548 5549 0
-5545 5548 5549 0
-5545 -5548 -5549 0
4828 5379 5550 0
4828 -5379 -5550 0
-4828 5379 -5550 0
-4828 -5379 -5550 0
5399 5551 0
-5399 -5551 0
5550 5551 -5552 0
5550 -5551 5552 0
-5550 5551 5552 0
-5550 -5551 5552 0
4846 5408 5553 0
4846 -5408 -5553 0
-4846 5408 -5553 0
-4846 -5408 -5553 0
5428 5554 0
-5428 -5554 0
5553 5554 -5555 0
5553 -5554 5555 0
-5553 5554 5555 0
-5553 -5554 5555 0
5552 5555 -5556 0
5552 -5555 5556 0
-5552 5555 5556 0
-5552 -5555 -5556 0
4670 5379 5557 0
4670 -5379 -5557 0
-4670 5379 -5557 0
-4670 -5379 -5557 0
5399 5558 0
-5399 -5558 0
5557 5558 -5559 0
5557 -5558 5559 0
-5557 5558 5559 0
-5557 -5558 5559 0
4707 5408 5560 0
4707 -5408 -5560 0
-4707 5408 -5560 0
-4707 -5408 -5560 0
5428 5561 0
-5428 -5561 0
5560 5561 -5562 0
5560 -5561 5562 0
-5560 5561 5562 0
-5560 -5561 5562 0
5559 5562 -5563 0
5559 -5562 5563 0
-5559 5562 5563 0
-5559 -5562 -5563 0
4612 5379 5564 0
4612 -5379 -5564 0
-4612 5379 -5564 0
-4612 -5379 -5564 0
5399 5565 0
-5399 -5565 0
5564 5565 -5566 0
5564 -5565 5566 0
-5564 5565 5566 0
-5564 -5565 5566 0
4632 5408 5567 0
4632 -5408 -5567 0
-4632 5408 -5567 0
-4632 -5408 -5567 0
5428 5568 0
-5428 -5568 0
5567 5568 -5569 0
5567 -5568 5569 0
-5567 5568 5569 0
-5567 -5568 5569 0
5566 5569 -5570 0
5566 -5569 5570 0
-5566 5569 5570 0
-5566 -5569 -5570 0
5379 4802 5571 0
5379 -4802 -5571 0
-5379 4802 -5571 0
-5379 -4802 -5571 0
5399 5572 0
-5399 -5572 0
5571 5572 -5573 0
5571 -5572 5573 0
-5571 5572 5573 0
-5571 -5572 5573 0
5408 4820 5574 0
5408 -4820 -5574 0
-5408 4820 -5574 0
-5408 -4820 -5574 0
5428 5575 0
-5428 -5575 0
5574 5575 -5576 0
5574 -5575 5576 0
-5574 5575 5576 0
-5574 -5575 5576 0
5573 5576 -5577 0
5573 -5576 5577 0
-5573 5576 5577 0
-5573 -5576 -5577 0
4638 5451 5578 0
4638 -5451 -5578 0
-4638 5451 -5578 0
-4638 -5451 -5578 0
4667 4579 5579 0
4667 -4579 -5579 0
-4667 4579 -5579 0
-4667 -4579 -5579 0
5578 5579 -5580 0
5578 -5579 5580 0
-5578 5579 5580 0
-5578 -5579 5580 0
4675 5457 5581 0
4675 -5457 -5581 0
-4675 5457 -5581 0
-4675 -5457 -5581 0
4704 4591 5582 0
4704 -4591 -5582 0
-4704 4591 -5582 0
-4704 -4591 -5582 0
5581 5582 -5583 0
5581 -5582 5583 0
-5581 5582 5583 0
-5581 -5582 5583 0
5580 5583 -5584 0
5580 -5583 5584 0
-5580 5583 5584 0
-5580 -5583 -5584 0
4748 5498 5585 0
4748 -5498 -5585 0
-4748 5498 -5585 0
-4748 -5498 -5585 0
5503 5586 0
-5503 -5586 0
4612 5501 5587 0
4612 -5501 -5587 0
-4612 5501 -5587 0
-4612 -5501 -5587 0
5585 5586 5587 -5588 0
5585 5586 -5587 5588 0
5585 -5586 5587 5588 0
5585 -5586 -5587 5588 0
-5585 5586 5587 5588 0
-5585 5586 -5587 5588 0
-5585 -5586 5587 5588 0
-5585 -5586 -5587 5588 0
4769 5507 5589 0
4769 -5507 -5589 0
-4769 5507 -5589 0
-4769 -5507 -5589 0
5512 5590 0
-5512 -5590 0
4632 5510 5591 0
4632 -5510 -5591 0
-4632 5510 -5591 0
-4632 -5510 -5591 0
5589 5590 5591 -5592 0
5589 5590 -5591 5592 0
5589 -5590 5591 5592 0
5589 -5590 -5591 5592 0
-5589 5590 5591 5592 0
-5589 5590 -5591 5592 0
-5589 -5590 5591 5592 0
-5589 -5590 -5591 5592 0
5588 5592 -5593 0
5588 -5592 5593 0
-5588 5592 5593 0
-5588 -5592 -5593 0
5501 4894 5594 0
5501 -4894 -5594 0
-5501 4894 -5594 0
-5501 -4894 -5594 0
5498 5435 5595 0
5498 -5435 -5595 0
-5498 5435 -5595 0
-5498 -5435 -5595 0
5503 5596 0
-5503 -5596 0
5594 5595 5596 -5597 0
5594 5595 -5596 5597 0
5594 -5595 5596 5597 0
5594 -5595 -5596 5597 0
-5594 5595 5596 5597 0
-5594 5595 -5596 5597 0
-5594 -5595 5596 5597 0
-5594 -5595 -5596 5597 0
5510 4908 5598 0
5510 -4908 -5598 0
-5510 4908 -5598 0
-5510 -4908 -5598 0
5507 5443 5599 0
5507 -5443 -5599 0
-5507 5443 -5599 0
-5507 -5443 -5599 0
5512 5600 0
-5512 -5600 0
5598 5599 5600 -5601 0
5598 5599 -5600 5601 0
5598 -5599 5600 5601 0
5598 -5599 -5600 5601 0
-5598 5599 5600 5601 0
-5598 5599 -5600 5601 0
-5598 -5599 5600 5601 0
-5598 -5599 -5600 5601 0
5597 5601 -5602 0
5597 -5601 5602 0
-5597 5601 5602 0
-5597 -5601 -5602 0
5503 5603 0
-5503 -5603 0
5501 4828 5604 0
5501 -4828 -5604 0
-5501 4828 -5604 0
-5501 -4828 -5604 0
5498 4839 5605 0
5498 -4839 -5605 0
-5498 4839 -5605 0
-5498 -4839 -5605 0
5603 5604 5605 -5606 0
5603 5604 -5605 5606 0
5603 -5604 5605 5606 0
5603 -5604 -5605 5606 0
-5603 5604 5605 5606 0
-5603 5604 -5605 5606 0
-5603 -5604 5605 5606 0
-5603 -5604 -5605 5606 0
5512 5607 0
-5512 -5607 0
5510 4846 5608 0
5510 -4846 -5608 0
-5510 4846 -5608 0
-5510 -4846 -5608 0
5507 4857 5609 0
5507 -4857 -5609 0
-5507 4857 -5609 0
-5507 -4857 -5609 0
5607 5608 5609 -5610 0
5607 5608 -5609 5610 0
5607 -5608 5609 5610 0
5607 -5608 -5609 5610 0
-5607 5608 5609 5610 0
-5607 5608 -5609 5610 0
-5607 -5608 5609 5610 0
-5607 -5608 -5609 5610 0
5606 5610 -5611 0
5606 -5610 5611 0
-5606 5610 5611 0
-5606 -5610 -5611 0
286 5612 0
-286 -5612 0
5612 5613 0
-5612 -5613 0
5613 5614 0
-5613 -5614 0
5614 4638 5615 0
5614 -4638 -5615 0
-5614 4638 -5615 0
-5614 -4638 -5615 0
4872 4667 5616 0
4872 -4667 -5616 0
-4872 4667 -5616 0
-4872 -4667 -5616 0
5615 5616 -5617 0
5615 -5616 5617 0
-5615 5616 5617 0
-5615 -5616 5617 0
286 5618 0
-286 -5618 0
5618 5619 0
-5618 -5619 0
5619 5620 0
-5619 -5620 0
5620 4675 5621 0
5620 -4675 -5621 0
-5620 4675 -5621 0
-5620 -4675 -5621 0
4886 4704 5622 0
4886 -4704 -5622 0
-4886 4704 -5622 0
-4886 -4704 -5622 0
5621 5622 -5623 0
5621 -5622 5623 0
-5621 5622 5623 0
-5621 -5622 5623 0
5617 5623 -5624 0
5617 -5623 5624 0
-5617 5623 5624 0
-5617 -5623 -5624 0
5437 4802 5625 0
5437 -4802 -5625 0
-5437 4802 -5625 0
-5437 -4802 -5625 0
4791 5432 5626 0
4791 -5432 -5626 0
-4791 5432 -5626 0
-4791 -5432 -5626 0
5625 5626 -5627 0
5625 -5626 5627 0
-5625 5626 5627 0
-5625 -5626 5627 0
5445 4820 5628 0
5445 -4820 -5628 0
-5445 4820 -5628 0
-5445 -4820 -5628 0
4809 5440 5629 0
4809 -5440 -5629 0
-4809 5440 -5629 0
-4809 -5440 -5629 0
5628 5629 -5630 0
5628 -5629 5630 0
-5628 5629 5630 0
-5628 -5629 5630 0
5627 5630 -5631 0
5627 -5630 5631 0
-5627 5630 5631 0
-5627 -5630 -5631 0
4828 5437 5632 0
4828 -5437 -5632 0
-4828 5437 -5632 0
-4828 -5437 -5632 0
5432 4839 5633 0
5432 -4839 -5633 0
-5432 4839 -5633 0
-5432 -4839 -5633 0
5632 5633 -5634 0
5632 -5633 5634 0
-5632 5633 5634 0
-5632 -5633 5634 0
4846 5445 5635 0
4846 -5445 -5635 0
-4846 5445 -5635 0
-4846 -5445 -5635 0
5440 4857 5636 0
5440 -4857 -5636 0
-5440 4857 -5636 0
-5440 -4857 -5636 0
5635 5636 -5637 0
5635 -5636 5637 0
-5635 5636 5637 0
-5635 -5636 5637 0
5634 5637 -5638 0
5634 -5637 5638 0
-5634 5637 5638 0
-5634 -5637 -5638 0
5437 4670 5639 0
5437 -4670 -5639 0
-5437 4670 -5639 0
-5437 -4670 -5639 0
5432 4641 5640 0
5432 -4641 -5640 0
-5432 4641 -5640 0
-5432 -4641 -5640 0
5639 5640 -5641 0
5639 -5640 5641 0
-5639 5640 5641 0
-5639 -5640 5641 0
5445 4707 5642 0
5445 -4707 -5642 0
-5445 4707 -5642 0
-5445 -4707 -5642 0
5440 4678 5643 0
5440 -4678 -5643 0
-5440 4678 -5643 0
-5440 -4678 -5643 0
5642 5643 -5644 0
5642 -5643 5644 0
-5642 5643 5644 0
-5642 -5643 5644 0
5641 5644 -5645 0
5641 -5644 5645 0
-5641 5644 5645 0
-5641 -5644 -5645 0
4872 5437 5646 0
4872 -5437 -5646 0
-4872 5437 -5646 0
-4872 -5437 -5646 0
5432 5614 5647 0
5432 -5614 -5647 0
-5432 5614 -5647 0
-5432 -5614 -5647 0
5646 5647 -5648 0
5646 -5647 5648 0
-5646 5647 5648 0
-5646 -5647 5648 0
4886 5445 5649 0
4886 -5445 -5649 0
-4886 5445 -5649 0
-4886 -5445 -5649 0
5440 5620 5650 0
5440 -5620 -5650 0
-5440 5620 -5650 0
-5440 -5620 -5650 0
5649 5650 -5651 0
5649 -5650 5651 0
-5649 5650 5651 0
-5649 -5650 5651 0
5648 5651 -5652 0
5648 -5651 5652 0
-5648 5651 5652 0
-5648 -5651 -5652 0
4530 5501 5653 0
4530 -5501 -5653 0
-4530 5501 -5653 0
-4530 -5501 -5653 0
5498 5519 5654 0
5498 -5519 -5654 0
-5498 5519 -5654 0
-5498 -5519 -5654 0
5503 5655 0
-5503 -5655 0
5653 5654 5655 -5656 0
5653 5654 -5655 5656 0
5653 -5654 5655 5656 0
5653 -5654 -5655 5656 0
-5653 5654 5655 5656 0
-5653 5654 -5655 5656 0
-5653 -5654 5655 5656 0
-5653 -5654 -5655 5656 0
4566 5510 5657 0
4566 -5510 -5657 0
-4566 5510 -5657 0
-4566 -5510 -5657 0
5507 5525 5658 0
5507 -5525 -5658 0
-5507 5525 -5658 0
-5507 -5525 -5658 0
5512 5659 0
-5512 -5659 0
5657 5658 5659 -5660 0
5657 5658 -5659 5660 0
5657 -5658 5659 5660 0
5657 -5658 -5659 5660 0
-5657 5658 5659 5660 0
-5657 5658 -5659 5660 0
-5657 -5658 5659 5660 0
-5657 -5658 -5659 5660 0
5656 5660 -5661 0
5656 -5660 5661 0
-5656 5660 5661 0
-5656 -5660 -5661 0
5498 4791 5662 0
5498 -4791 -5662 0
-5498 4791 -5662 0
-5498 -4791 -5662 0
4802 5501 5663 0
4802 -5501 -5663 0
-4802 5501 -5663 0
-4802 -5501 -5663 0
5503 5664 0
-5503 -5664 0
5662 5663 5664 -5665 0
5662 5663 -5664 5665 0
5662 -5663 5664 5665 0
5662 -5663 -5664 5665 0
-5662 5663 5664 5665 0
-5662 5663 -5664 5665 0
-5662 -5663 5664 5665 0
-5662 -5663 -5664 5665 0
5507 4809 5666 0
5507 -4809 -5666 0
-5507 4809 -5666 0
-5507 -4809 -5666 0
4820 5510 5667 0
4820 -5510 -5667 0
-4820 5510 -5667 0
-4820 -5510 -5667 0
5512 5668 0
-5512 -5668 0
5666 5667 5668 -5669 0
5666 5667 -5668 5669 0
5666 -5667 5668 5669 0
5666 -5667 -5668 5669 0
-5666 5667 5668 5669 0
-5666 5667 -5668 5669 0
-5666 -5667 5668 5669 0
-5666 -5667 -5668 5669 0
5665 5669 -5670 0
5665 -5669 5670 0
-5665 5669 5670 0
-5665 -5669 -5670 0
5503 5671 0
-5503 -5671 0
4872 5501 5672 0
4872 -5501 -5672 0
-4872 5501 -5672 0
-4872 -5501 -5672 0
5614 5498 5673 0
5614 -5498 -5673 0
-5614 5498 -5673 0
-5614 -5498 -5673 0
5671 5672 5673 -5674 0
5671 5672 -5673 5674 0
5671 -5672 5673 5674 0
5671 -5672 -5673 5674 0
-5671 5672 5673 5674 0
-5671 5672 -5673 5674 0
-5671 -5672 5673 5674 0
-5671 -5672 -5673 5674 0
5512 5675 0
-5512 -5675 0
4886 5510 5676 0
4886 -5510 -5676 0
-4886 5510 -5676 0
-4886 -5510 -5676 0
5620 5507 5677 0
5620 -5507 -5677 0
-5620 5507 -5677 0
-5620 -5507 -5677 0
5675 5676 5677 -5678 0
5675 5676 -5677 5678 0
5675 -5676 5677 5678 0
5675 -5676 -5677 5678 0
-5675 5676 5677 5678 0
-5675 5676 -5677 5678 0
-5675 -5676 5677 5678 0
-5675 -5676 -5677 5678 0
5674 5678 -5679 0
5674 -5678 5679 0
-5674 5678 5679 0
-5674 -5678 -5679 0
5498 4715 5680 0
5498 -4715 -5680 0
-5498 4715 -5680 0
-5498 -4715 -5680 0
5501 4724 5681 0
5501 -4724 -5681 0
-5501 4724 -5681 0
-5501 -4724 -5681 0
5503 5682 0
-5503 -5682 0
5680 5681 5682 -5683 0
5680 5681 -5682 5683 0
5680 -5681 5682 5683 0
5680 -5681 -5682 5683 0
-5680 5681 5682 5683 0
-5680 5681 -5682 5683 0
-5680 -5681 5682 5683 0
-5680 -5681 -5682 5683 0
5507 4731 5684 0
5507 -4731 -5684 0
-5507 4731 -5684 0
-5507 -4731 -5684 0
5510 4740 5685 0
5510 -4740 -5685 0
-5510 4740 -5685 0
-5510 -4740 -5685 0
5512 5686 0
-5512 -5686 0
5684 5685 5686 -5687 0
5684 5685 -5686 5687 0
5684 -5685 5686 5687 0
5684 -5685 -5686 5687 0
-5684 5685 5686 5687 0
-5684 5685 -5686 5687 0
-5684 -5685 5686 5687 0
-5684 -5685 -5686 5687 0
5683 5687 -5688 0
5683 -5687 5688 0
-5683 5687 5688 0
-5683 -5687 -5688 0
4641 5498 5689 0
4641 -5498 -5689 0
-4641 5498 -5689 0
-4641 -5498 -5689 0
5501 4670 5690 0
5501 -4670 -5690 0
-5501 4670 -5690 0
-5501 -4670 -5690 0
5503 5691 0
-5503 -5691 0
5689 5690 5691 -5692 0
5689 5690 -5691 5692 0
5689 -5690 5691 5692 0
5689 -5690 -5691 5692 0
-5689 5690 5691 5692 0
-5689 5690 -5691 5692 0
-5689 -5690 5691 5692 0
-5689 -5690 -5691 5692 0
4678 5507 5693 0
4678 -5507 -5693 0
-4678 5507 -5693 0
-4678 -5507 -5693 0
5510 4707 5694 0
5510 -4707 -5694 0
-5510 4707 -5694 0
-5510 -4707 -5694 0
5512 5695 0
-5512 -5695 0
5693 5694 5695 -5696 0
5693 5694 -5695 5696 0
5693 -5694 5695 5696 0
5693 -5694 -5695 5696 0
-5693 5694 5695 5696 0
-5693 5694 -5695 5696 0
-5693 -5694 5695 5696 0
-5693 -5694 -5695 5696 0
5692 5696 -5697 0
5692 -5696 5697 0
-5692 5696 5697 0
-5692 -5696 -5697 0
4827 5698 0
-4827 -5698 0
5698 5699 0
-5698 -5699 0
4845 5700 0
-4845 -5700 0
5700 5701 0
-5700 -5701 0
5699 5701 -5702 0
5699 -5701 5702 0
-5699 5701 5702 0
-5699 -5701 -5702 0
4723 5703 0
-4723 -5703 0
5703 5704 0
-5703 -5704 0
4739 5705 0
-4739 -5705 0
5705 5706 0
-5705 -5706 0
5704 5706 -5707 0
5704 -5706 5707 0
-5704 5706 5707 0
-5704 -5706 -5707 0
4669 5708 0
-4669 -5708 0
5708 5709 0
-5708 -5709 0
4706 5710 0
-4706 -5710 0
5710 5711 0
-5710 -5711 0
5709 5711 -5712 0
5709 -5711 5712 0
-5709 5711 5712 0
-5709 -5711 -5712 0
4871 5713 0
-4871 -5713 0
5713 5714 0
-5713 -5714 0
4885 5715 0
-4885 -5715 0
5715 5716 0
-5715 -5716 0
5714 5716 -5717 0
5714 -5716 5717 0
-5714 5716 5717 0
-5714 -5716 -5717 0
4893 5718 0
-4893 -5718 0
5718 5719 0
-5718 -5719 0
4907 5720 0
-4907 -5720 0
5720 5721 0
-5720 -5721 0
5719 5721 -5722 0
5719 -5721 5722 0
-5719 5721 5722 0
-5719 -5721 -5722 0
4578 5723 0
-4578 -5723 0
5723 5724 0
-5723 -5724 0
4590 5725 0
-4590 -5725 0
5725 5726 0
-5725 -5726 0
5724 5726 -5727 0
5724 -5726 5727 0
-5724 5726 5727 0
-5724 -5726 -5727 0
4529 5728 0
-4529 -5728 0
5728 5729 0
-5728 -5729 0
4565 5730 0
-4565 -5730 0
5730 5731 0
-5730 -5731 0
5729 5731 -5732 0
5729 -5731 5732 0
-5729 5731 5732 0
-5729 -5731 -5732 0
4611 5733 0
-4611 -5733 0
5733 5734 0
-5733 -5734 0
4631 5735 0
-4631 -5735 0
5735 5736 0
-5735 -5736 0
5734 5736 -5737 0
5734 -5736 5737 0
-5734 5736 5737 0
-5734 -5736 -5737 0
4801 5738 0
-4801 -5738 0
5738 5739 0
-5738 -5739 0
4819 5740 0
-4819 -5740 0
5740 5741 0
-5740 -5741 0
5739 5741 -5742 0
5739 -5741 5742 0
-5739 5741 5742 0
-5739 -5741 -5742 0
4962 4956 5743 0
4962 -4956 -5743 0
-4962 4956 -5743 0
-4962 -4956 -5743 0
5743 5744 0
-5743 -5744 0
5017 5011 5745 0
5017 -5011 -5745 0
-5017 5011 -5745 0
-5017 -5011 -5745 0
5745 5746 0
-5745 -5746 0
5744 5746 -5747 0
5744 -5746 5747 0
-5744 5746 5747 0
-5744 -5746 -5747 0
3900 3928 -5748 0
3900 -3928 5748 0
-3900 3928 5748 0
-3900 -3928 -5748 0
2348 2712 -5749 0
2348 -2712 5749 0
-2348 2712 5749 0
-2348 -2712 -5749 0
2810 2883 -5750 0
2810 -2883 5750 0
-2810 2883 5750 0
-2810 -2883 -5750 0
2817 2890 -5751 0
2817 -2890 5751 0
-2817 2890 5751 0
-2817 -2890 -5751 0
2828 2901 -5752 0
2828 -2901 5752 0
-2828 2901 5752 0
-2828 -2901 -5752 0
311 5753 0
-311 -5753 0
311 5754 0
-311 -5754 0
5753 5754 -5755 0
5753 -5754 5755 0
-5753 5754 5755 0
-5753 -5754 -5755 0
2390 2754 -5756 0
2390 -2754 5756 0
-2390 2754 5756 0
-2390 -2754 -5756 0
2147 2511 -5757 0
2147 -2511 5757 0
-2147 2511 5757 0
-2147 -2511 -5757 0
2789 2862 -5758 0
2789 -2862 5758 0
-2789 2862 5758 0
-2789 -2862 -5758 0
2813 2886 -5759 0
2813 -2886 5759 0
-2813 2886 5759 0
-2813 -2886 -5759 0
2769 2842 -5760 0
2769 -2842 5760 0
-2769 2842 5760 0
-2769 -2842 -5760 0
3881 3909 -5761 0
3881 -3909 5761 0
-3881 3909 5761 0
-3881 -3909 -5761 0
2783 2856 -5762 0
2783 -2856 5762 0
-2783 2856 5762 0
-2783 -2856 -5762 0
326 5763 0
-326 -5763 0
326 5764 0
-326 -5764 0
5763 5764 -5765 0
5763 -5764 5765 0
-5763 5764 5765 0
-5763 -5764 -5765 0
329 5766 0
-329 -5766 0
329 5767 0
-329 -5767 0
5766 5767 -5768 0
5766 -5767 5768 0
-5766 5767 5768 0
-5766 -5767 -5768 0
2145 2509 -5769 0
2145 -2509 5769 0
-2145 2509 5769 0
-2145 -2509 -5769 0
3882 3910 -5770 0
3882 -3910 5770 0
-3882 3910 5770 0
-3882 -3910 -5770 0
2149 2513 -5771 0
2149 -2513 5771 0
-2149 2513 5771 0
-2149 -2513 -5771 0
3892 3920 -5772 0
3892 -3920 5772 0
-3892 3920 5772 0
-3892 -3920 -5772 0
4963 5018 -5773 0
4963 -5018 5773 0
-4963 5018 5773 0
-4963 -5018 -5773 0
3890 3918 -5774 0
3890 -3918 5774 0
-3890 3918 5774 0
-3890 -3918 -5774 0
2046 2410 -5775 0
2046 -2410 5775 0
-2046 2410 5775 0
-2046 -2410 -5775 0
2044 2408 -5776 0
2044 -2408 5776 0
-2044 2408 5776 0
-2044 -2408 -5776 0
1894 1914 -5777 0
1894 -1914 5777 0
-1894 1914 5777 0
-1894 -1914 -5777 0
5078 2336 2211 5778 0
5078 2336 -2211 -5778 0
5078 -2336 2211 -5778 0
5078 -2336 -2211 -5778 0
-5078 2336 2211 -5778 0
-5078 2336 -2211 -5778 0
-5078 -2336 2211 -5778 0
-5078 -2336 -2211 -5778 0
2211 2337 5063 5779 0
2211 2337 -5063 -5779 0
2211 -2337 5063 -5779 0
2211 -2337 -5063 -5779 0
-2211 2337 5063 -5779 0
-2211 2337 -5063 -5779 0
-2211 -2337 5063 -5779 0
-2211 -2337 -5063 -5779 0
5778 5779 -5780 0
5778 -5779 5780 0
-5778 5779 5780 0
-5778 -5779 5780 0
5780 5781 0
-5780 -5781 0
1171 1128 5782 0
1171 -1128 -5782 0
-1171 1128 -5782 0
-1171 -1128 -5782 0
1136 1171 5783 0
1136 -1171 -5783 0
-1136 1171 -5783 0
-1136 -1171 -5783 0
5783 5784 0
-5783 -5784 0
1171 1160 5785 0
1171 -1160 -5785 0
-1171 1160 -5785 0
-1171 -1160 -5785 0
5782 5784 5785 5786 0
5782 5784 -5785 -5786 0
5782 -5784 5785 -5786 0
5782 -5784 -5785 -5786 0
-5782 5784 5785 -5786 0
-5782 5784 -5785 -5786 0
-5782 -5784 5785 -5786 0
-5782 -5784 -5785 -5786 0
5786 5787 0
-5786 -5787 0
4942 4943 5788 0
4942 -4943 -5788 0
-4942 4943 -5788 0
-4942 -4943 -5788 0
5788 5789 0
-5788 -5789 0
4312 5790 0
-4312 -5790 0
4936 5790 5791 0
4936 -5790 -5791 0
-4936 5790 -5791 0
-4936 -5790 -5791 0
5791 5792 0
-5791 -5792 0
4347 5793 0
-4347 -5793 0
5793 5794 0
-5793 -5794 0
5789 5792 5794 5795 0
5789 5792 -5794 -5795 0
5789 -5792 5794 -5795 0
5789 -5792 -5794 -5795 0
-5789 5792 5794 -5795 0
-5789 5792 -5794 -5795 0
-5789 -5792 5794 -5795 0
-5789 -5792 -5794 -5795 0
5795 5796 0
-5795 -5796 0
5781 5787 5796 5797 0
5781 5787 -5796 -5797 0
5781 -5787 5796 -5797 0
5781 -5787 -5796 -5797 0
-5781 5787 5796 -5797 0
-5781 5787 -5796 -5797 0
-5781 -5787 5796 -5797 0
-5781 -5787 -5796 -5797 0
4935 4934 5798 0
4935 -4934 -5798 0
-4935 4934 -5798 0
-4935 -4934 -5798 0
5798 5799 0
-5798 -5799 0
5792 5799 5794 5800 0
5792 5799 -5794 -5800 0
5792 -5799 5794 -5800 0
5792 -5799 -5794 -5800 0
-5792 5799 5794 -5800 0
-5792 5799 -5794 -5800 0
-5792 -5799 5794 -5800 0
-5792 -5799 -5794 -5800 0
5800 5801 0
-5800 -5801 0
5782 5802 0
-5782 -5802 0
5783 5802 5785 5803 0
5783 5802 -5785 -5803 0
5783 -5802 5785 -5803 0
5783 -5802 -5785 -5803 0
-5783 5802 5785 -5803 0
-5783 5802 -5785 -5803 0
-5783 -5802 5785 -5803 0
-5783 -5802 -5785 -5803 0
5803 5804 0
-5803 -5804 0
5801 5781 5804 5805 0
5801 5781 -5804 -5805 0
5801 -5781 5804 -5805 0
5801 -5781 -5804 -5805 0
-5801 5781 5804 -5805 0
-5801 5781 -5804 -5805 0
-5801 -5781 5804 -5805 0
-5801 -5781 -5804 -5805 0
4943 4935 5806 0
4943 -4935 -5806 0
-4943 4935 -5806 0
-4943 -4935 -5806 0
5806 5807 0
-5806 -5807 0
5792 5794 5807 5808 0
5792 5794 -5807 -5808 0
5792 -5794 5807 -5808 0
5792 -5794 -5807 -5808 0
-5792 5794 5807 -5808 0
-5792 5794 -5807 -5808 0
-5792 -5794 5807 -5808 0
-5792 -5794 -5807 -5808 0
5808 5809 0
-5808 -5809 0
5782 5783 5785 1171 5810 0
5782 5783 5785 -1171 -5810 0
5782 5783 -5785 1171 -5810 0
5782 5783 -5785 -1171 -5810 0
5782 -5783 5785 1171 -5810 0
5782 -5783 5785 -1171 -5810 0
5782 -5783 -5785 1171 -5810 0
5782 -5783 -5785 -1171 -5810 0
-5782 5783 5785 1171 -5810 0
-5782 5783 5785 -1171 -5810 0
-5782 5783 -5785 1171 -5810 0
-5782 5783 -5785 -1171 -5810 0
-5782 -5783 5785 1171 -5810 0
-5782 -5783 5785 -1171 -5810 0
-5782 -5783 -5785 1171 -5810 0
-5782 -5783 -5785 -1171 -5810 0
5810 5811 0
-5810 -5811 0
5809 5781 5811 5812 0
5809 5781 -5811 -5812 0
5809 -5781 5811 -5812 0
5809 -5781 -5811 -5812 0
-5809 5781 5811 -5812 0
-5809 5781 -5811 -5812 0
-5809 -5781 5811 -5812 0
-5809 -5781 -5811 -5812 0
5797 5805 5812 -5813 0
5797 5805 -5812 5813 0
5797 -5805 5812 5813 0
5797 -5805 -5812 5813 0
-5797 5805 5812 5813 0
-5797 5805 -5812 5813 0
-5797 -5805 5812 5813 0
-5797 -5805 -5812 5813 0
4934 4942 5814 0
4934 -4942 -5814 0
-4934 4942 -5814 0
-4934 -4942 -5814 0
5814 5815 0
-5814 -5815 0
5815 5792 5794 5816 0
5815 5792 -5794 -5816 0
5815 -5792 5794 -5816 0
5815 -5792 -5794 -5816 0
-5815 5792 5794 -5816 0
-5815 5792 -5794 -5816 0
-5815 -5792 5794 -5816 0
-5815 -5792 -5794 -5816 0
5816 5817 0
-5816 -5817 0
5785 5802 5784 5818 0
5785 5802 -5784 -5818 0
5785 -5802 5784 -5818 0
5785 -5802 -5784 -5818 0
-5785 5802 5784 -5818 0
-5785 5802 -5784 -5818 0
-5785 -5802 5784 -5818 0
-5785 -5802 -5784 -5818 0
5818 5819 0
-5818 -5819 0
5817 5781 5819 5820 0
5817 5781 -5819 -5820 0
5817 -5781 5819 -5820 0
5817 -5781 -5819 -5820 0
-5817 5781 5819 -5820 0
-5817 5781 -5819 -5820 0
-5817 -5781 5819 -5820 0
-5817 -5781 -5819 -5820 0
5785 5821 0
-5785 -5821 0
5784 5821 5782 5822 0
5784 5821 -5782 -5822 0
5784 -5821 5782 -5822 0
5784 -5821 -5782 -5822 0
-5784 5821 5782 -5822 0
-5784 5821 -5782 -5822 0
-5784 -5821 5782 -5822 0
-5784 -5821 -5782 -5822 0
5822 5823 0
-5822 -5823 0
4278 5824 0
-4278 -5824 0
5790 5824 5825 0
5790 -5824 -5825 0
-5790 5824 -5825 0
-5790 -5824 -5825 0
5825 5826 0
-5825 -5826 0
5794 5789 5826 5827 0
5794 5789 -5826 -5827 0
5794 -5789 5826 -5827 0
5794 -5789 -5826 -5827 0
-5794 5789 5826 -5827 0
-5794 5789 -5826 -5827 0
-5794 -5789 5826 -5827 0
-5794 -5789 -5826 -5827 0
5827 5828 0
-5827 -5828 0
5823 5781 5828 5829 0
5823 5781 -5828 -5829 0
5823 -5781 5828 -5829 0
5823 -5781 -5828 -5829 0
-5823 5781 5828 -5829 0
-5823 5781 -5828 -5829 0
-5823 -5781 5828 -5829 0
-5823 -5781 -5828 -5829 0
5807 5794 5826 5830 0
5807 5794 -5826 -5830 0
5807 -5794 5826 -5830 0
5807 -5794 -5826 -5830 0
-5807 5794 5826 -5830 0
-5807 5794 -5826 -5830 0
-5807 -5794 5826 -5830 0
-5807 -5794 -5826 -5830 0
5830 5831 0
-5830 -5831 0
5782 5821 5783 5832 0
5782 5821 -5783 -5832 0
5782 -5821 5783 -5832 0
5782 -5821 -5783 -5832 0
-5782 5821 5783 -5832 0
-5782 5821 -5783 -5832 0
-5782 -5821 5783 -5832 0
-5782 -5821 -5783 -5832 0
5832 5833 0
-5832 -5833 0
5831 5833 5781 5834 0
5831 5833 -5781 -5834 0
5831 -5833 5781 -5834 0
5831 -5833 -5781 -5834 0
-5831 5833 5781 -5834 0
-5831 5833 -5781 -5834 0
-5831 -5833 5781 -5834 0
-5831 -5833 -5781 -5834 0
5820 5829 5834 -5835 0
5820 5829 -5834 5835 0
5820 -5829 5834 5835 0
5820 -5829 -5834 5835 0
-5820 5829 5834 5835 0
-5820 5829 -5834 5835 0
-5820 -5829 5834 5835 0
-5820 -5829 -5834 5835 0
4933 4936 5836 0
4933 -4936 -5836 0
-4933 4936 -5836 0
-4933 -4936 -5836 0
5836 5837 0
-5836 -5837 0
5793 5838 0
-5793 -5838 0
5837 5838 5807 5839 0
5837 5838 -5807 -5839 0
5837 -5838 5807 -5839 0
5837 -5838 -5807 -5839 0
-5837 5838 5807 -5839 0
-5837 5838 -5807 -5839 0
-5837 -5838 5807 -5839 0
-5837 -5838 -5807 -5839 0
5839 5840 0
-5839 -5840 0
5840 5781 5841 0
5840 -5781 -5841 0
-5840 5781 -5841 0
-5840 -5781 -5841 0
5802 5783 5821 5842 0
5802 5783 -5821 -5842 0
5802 -5783 5821 -5842 0
5802 -5783 -5821 -5842 0
-5802 5783 5821 -5842 0
-5802 5783 -5821 -5842 0
-5802 -5783 5821 -5842 0
-5802 -5783 -5821 -5842 0
5842 5843 0
-5842 -5843 0
5799 5826 5794 5844 0
5799 5826 -5794 -5844 0
5799 -5826 5794 -5844 0
5799 -5826 -5794 -5844 0
-5799 5826 5794 -5844 0
-5799 5826 -5794 -5844 0
-5799 -5826 5794 -5844 0
-5799 -5826 -5794 -5844 0
5844 5845 0
-5844 -5845 0
5843 5845 5781 5846 0
5843 5845 -5781 -5846 0
5843 -5845 5781 -5846 0
5843 -5845 -5781 -5846 0
-5843 5845 5781 -5846 0
-5843 5845 -5781 -5846 0
-5843 -5845 5781 -5846 0
-5843 -5845 -5781 -5846 0
5821 5784 5802 5847 0
5821 5784 -5802 -5847 0
5821 -5784 5802 -5847 0
5821 -5784 -5802 -5847 0
-5821 5784 5802 -5847 0
-5821 5784 -5802 -5847 0
-5821 -5784 5802 -5847 0
-5821 -5784 -5802 -5847 0
5847 5848 0
-5847 -5848 0
5794 5826 5815 5849 0
5794 5826 -5815 -5849 0
5794 -5826 5815 -5849 0
5794 -5826 -5815 -5849 0
-5794 5826 5815 -5849 0
-5794 5826 -5815 -5849 0
-5794 -5826 5815 -5849 0
-5794 -5826 -5815 -5849 0
5849 5850 0
-5849 -5850 0
5848 5850 5781 5851 0
5848 5850 -5781 -5851 0
5848 -5850 5781 -5851 0
5848 -5850 -5781 -5851 0
-5848 5850 5781 -5851 0
-5848 5850 -5781 -5851 0
-5848 -5850 5781 -5851 0
-5848 -5850 -5781 -5851 0
5841 5846 5851 -5852 0
5841 5846 -5851 5852 0
5841 -5846 5851 5852 0
5841 -5846 -5851 5852 0
-5841 5846 5851 5852 0
-5841 5846 -5851 5852 0
-5841 -5846 5851 5852 0
-5841 -5846 -5851 5852 0
5813 5835 5852 5853 0
5813 5835 -5852 -5853 0
5813 -5835 5852 -5853 0
5813 -5835 -5852 -5853 0
-5813 5835 5852 -5853 0
-5813 5835 -5852 -5853 0
-5813 -5835 5852 -5853 0
-5813 -5835 -5852 -5853 0
5853 5854 0
-5853 -5854 0
413 5855 0
-413 -5855 0
353 5856 0
-353 -5856 0
5856 5857 0
-5856 -5857 0
5854 5855 4967 5857 5858 0
5854 5855 4967 -5857 -5858 0
5854 5855 -4967 5857 -5858 0
5854 5855 -4967 -5857 -5858 0
5854 -5855 4967 5857 -5858 0
5854 -5855 4967 -5857 -5858 0
5854 -5855 -4967 5857 -5858 0
5854 -5855 -4967 -5857 -5858 0
-5854 5855 4967 5857 -5858 0
-5854 5855 4967 -5857 -5858 0
-5854 5855 -4967 5857 -5858 0
-5854 5855 -4967 -5857 -5858 0
-5854 -5855 4967 5857 -5858 0
-5854 -5855 4967 -5857 -5858 0
-5854 -5855 -4967 5857 -5858 0
-5854 -5855 -4967 -5857 -5858 0
5141 2700 2575 5859 0
5141 2700 -2575 -5859 0
5141 -2700 2575 -5859 0
5141 -2700 -2575 -5859 0
-5141 2700 2575 -5859 0
-5141 2700 -2575 -5859 0
-5141 -2700 2575 -5859 0
-5141 -2700 -2575 -5859 0
2575 2701 5126 5860 0
2575 2701 -5126 -5860 0
2575 -2701 5126 -5860 0
2575 -2701 -5126 -5860 0
-2575 2701 5126 -5860 0
-2575 2701 -5126 -5860 0
-2575 -2701 5126 -5860 0
-2575 -2701 -5126 -5860 0
5859 5860 -5861 0
5859 -5860 5861 0
-5859 5860 5861 0
-5859 -5860 5861 0
5861 5862 0
-5861 -5862 0
1269 1226 5863 0
1269 -1226 -5863 0
-1269 1226 -5863 0
-1269 -1226 -5863 0
1234 1269 5864 0
1234 -1269 -5864 0
-1234 1269 -5864 0
-1234 -1269 -5864 0
5864 5865 0
-5864 -5865 0
1269 1258 5866 0
1269 -1258 -5866 0
-1269 1258 -5866 0
-1269 -1258 -5866 0
5863 5865 5866 5867 0
5863 5865 -5866 -5867 0
5863 -5865 5866 -5867 0
5863 -5865 -5866 -5867 0
-5863 5865 5866 -5867 0
-5863 5865 -5866 -5867 0
-5863 -5865 5866 -5867 0
-5863 -5865 -5866 -5867 0
5867 5868 0
-5867 -5868 0
4997 4998 5869 0
4997 -4998 -5869 0
-4997 4998 -5869 0
-4997 -4998 -5869 0
5869 5870 0
-5869 -5870 0
4328 5871 0
-4328 -5871 0
4991 5871 5872 0
4991 -5871 -5872 0
-4991 5871 -5872 0
-4991 -5871 -5872 0
5872 5873 0
-5872 -5873 0
4364 5874 0
-4364 -5874 0
5874 5875 0
-5874 -5875 0
5870 5873 5875 5876 0
5870 5873 -5875 -5876 0
5870 -5873 5875 -5876 0
5870 -5873 -5875 -5876 0
-5870 5873 5875 -5876 0
-5870 5873 -5875 -5876 0
-5870 -5873 5875 -5876 0
-5870 -5873 -5875 -5876 0
5876 5877 0
-5876 -5877 0
5862 5868 5877 5878 0
5862 5868 -5877 -5878 0
5862 -5868 5877 -5878 0
5862 -5868 -5877 -5878 0
-5862 5868 5877 -5878 0
-5862 5868 -5877 -5878 0
-5862 -5868 5877 -5878 0
-5862 -5868 -5877 -5878 0
4990 4989 5879 0
4990 -4989 -5879 0
-4990 4989 -5879 0
-4990 -4989 -5879 0
5879 5880 0
-5879 -5880 0
5873 5880 5875 5881 0
5873 5880 -5875 -5881 0
5873 -5880 5875 -5881 0
5873 -5880 -5875 -5881 0
-5873 5880 5875 -5881 0
-5873 5880 -5875 -5881 0
-5873 -5880 5875 -5881 0
-5873 -5880 -5875 -5881 0
5881 5882 0
-5881 -5882 0
5863 5883 0
-5863 -5883 0
5864 5883 5866 5884 0
5864 5883 -5866 -5884 0
5864 -5883 5866 -5884 0
5864 -5883 -5866 -5884 0
-5864 5883 5866 -5884 0
-5864 5883 -5866 -5884 0
-5864 -5883 5866 -5884 0
-5864 -5883 -5866 -5884 0
5884 5885 0
-5884 -5885 0
5882 5862 5885 5886 0
5882 5862 -5885 -5886 0
5882 -5862 5885 -5886 0
5882 -5862 -5885 -5886 0
-5882 5862 5885 -5886 0
-5882 5862 -5885 -5886 0
-5882 -5862 5885 -5886 0
-5882 -5862 -5885 -5886 0
4998 4990 5887 0
4998 -4990 -5887 0
-4998 4990 -5887 0
-4998 -4990 -5887 0
5887 5888 0
-5887 -5888 0
5873 5875 5888 5889 0
5873 5875 -5888 -5889 0
5873 -5875 5888 -5889 0
5873 -5875 -5888 -5889 0
-5873 5875 5888 -5889 0
-5873 5875 -5888 -5889 0
-5873 -5875 5888 -5889 0
-5873 -5875 -5888 -5889 0
5889 5890 0
-5889 -5890 0
5863 5864 5866 1269 5891 0
5863 5864 5866 -1269 -5891 0
5863 5864 -5866 1269 -5891 0
5863 5864 -5866 -1269 -5891 0
5863 -5864 5866 1269 -5891 0
5863 -5864 5866 -1269 -5891 0
5863 -5864 -5866 1269 -5891 0
5863 -5864 -5866 -1269 -5891 0
-5863 5864 5866 1269 -5891 0
-5863 5864 5866 -1269 -5891 0
-5863 5864 -5866 1269 -5891 0
-5863 5864 -5866 -1269 -5891 0
-5863 -5864 5866 1269 -5891 0
-5863 -5864 5866 -1269 -5891 0
-5863 -5864 -5866 1269 -5891 0
-5863 -5864 -5866 -1269 -5891 0
5891 5892 0
-5891 -5892 0
5890 5862 5892 5893 0
5890 5862 -5892 -5893 0
5890 -5862 5892 -5893 0
5890 -5862 -5892 -5893 0
-5890 5862 5892 -5893 0
-5890 5862 -5892 -5893 0
-5890 -5862 5892 -5893 0
-5890 -5862 -5892 -5893 0
5878 5886 5893 -5894 0
5878 5886 -5893 5894 0
5878 -5886 5893 5894 0
5878 -5886 -5893 5894 0
-5878 5886 5893 5894 0
-5878 5886 -5893 5894 0
-5878 -5886 5893 5894 0
-5878 -5886 -5893 5894 0
4989 4997 5895 0
4989 -4997 -5895 0
-4989 4997 -5895 0
-4989 -4997 -5895 0
5895 5896 0
-5895 -5896 0
5896 5873 5875 5897 0
5896 5873 -5875 -5897 0
5896 -5873 5875 -5897 0
5896 -5873 -5875 -5897 0
-5896 5873 5875 -5897 0
-5896 5873 -5875 -5897 0
-5896 -5873 5875 -5897 0
-5896 -5873 -5875 -5897 0
5897 5898 0
-5897 -5898 0
5866 5883 5865 5899 0
5866 5883 -5865 -5899 0
5866 -5883 5865 -5899 0
5866 -5883 -5865 -5899 0
-5866 5883 5865 -5899 0
-5866 5883 -5865 -5899 0
-5866 -5883 5865 -5899 0
-5866 -5883 -5865 -5899 0
5899 5900 0
-5899 -5900 0
5898 5862 5900 5901 0
5898 5862 -5900 -5901 0
5898 -5862 5900 -5901 0
5898 -5862 -5900 -5901 0
-5898 5862 5900 -5901 0
-5898 5862 -5900 -5901 0
-5898 -5862 5900 -5901 0
-5898 -5862 -5900 -5901 0
5866 5902 0
-5866 -5902 0
5865 5902 5863 5903 0
5865 5902 -5863 -5903 0
5865 -5902 5863 -5903 0
5865 -5902 -5863 -5903 0
-5865 5902 5863 -5903 0
-5865 5902 -5863 -5903 0
-5865 -5902 5863 -5903 0
-5865 -5902 -5863 -5903 0
5903 5904 0
-5903 -5904 0
4295 5905 0
-4295 -5905 0
5871 5905 5906 0
5871 -5905 -5906 0
-5871 5905 -5906 0
-5871 -5905 -5906 0
5906 5907 0
-5906 -5907 0
5875 5870 5907 5908 0
5875 5870 -5907 -5908 0
5875 -5870 5907 -5908 0
5875 -5870 -5907 -5908 0
-5875 5870 5907 -5908 0
-5875 5870 -5907 -5908 0
-5875 -5870 5907 -5908 0
-5875 -5870 -5907 -5908 0
5908 5909 0
-5908 -5909 0
5904 5862 5909 5910 0
5904 5862 -5909 -5910 0
5904 -5862 5909 -5910 0
5904 -5862 -5909 -5910 0
-5904 5862 5909 -5910 0
-5904 5862 -5909 -5910 0
-5904 -5862 5909 -5910 0
-5904 -5862 -5909 -5910 0
5888 5875 5907 5911 0
5888 5875 -5907 -5911 0
5888 -5875 5907 -5911 0
5888 -5875 -5907 -5911 0
-5888 5875 5907 -5911 0
-5888 5875 -5907 -5911 0
-5888 -5875 5907 -5911 0
-5888 -5875 -5907 -5911 0
5911 5912 0
-5911 -5912 0
5863 5902 5864 5913 0
5863 5902 -5864 -5913 0
5863 -5902 5864 -5913 0
5863 -5902 -5864 -5913 0
-5863 5902 5864 -5913 0
-5863 5902 -5864 -5913 0
-5863 -5902 5864 -5913 0
-5863 -5902 -5864 -5913 0
5913 5914 0
-5913 -5914 0
5912 5914 5862 5915 0
5912 5914 -5862 -5915 0
5912 -5914 5862 -5915 0
5912 -5914 -5862 -5915 0
-5912 5914 5862 -5915 0
-5912 5914 -5862 -5915 0
-5912 -5914 5862 -5915 0
-5912 -5914 -5862 -5915 0
5901 5910 5915 -5916 0
5901 5910 -5915 5916 0
5901 -5910 5915 5916 0
5901 -5910 -5915 5916 0
-5901 5910 5915 5916 0
-5901 5910 -5915 5916 0
-5901 -5910 5915 5916 0
-5901 -5910 -5915 5916 0
4988 4991 5917 0
4988 -4991 -5917 0
-4988 4991 -5917 0
-4988 -4991 -5917 0
5917 5918 0
-5917 -5918 0
5874 5919 0
-5874 -5919 0
5918 5919 5888 5920 0
5918 5919 -5888 -5920 0
5918 -5919 5888 -5920 0
5918 -5919 -5888 -5920 0
-5918 5919 5888 -5920 0
-5918 5919 -5888 -5920 0
-5918 -5919 5888 -5920 0
-5918 -5919 -5888 -5920 0
5920 5921 0
-5920 -5921 0
5921 5862 5922 0
5921 -5862 -5922 0
-5921 5862 -5922 0
-5921 -5862 -5922 0
5883 5864 5902 5923 0
5883 5864 -5902 -5923 0
5883 -5864 5902 -5923 0
5883 -5864 -5902 -5923 0
-5883 5864 5902 -5923 0
-5883 5864 -5902 -5923 0
-5883 -5864 5902 -5923 0
-5883 -5864 -5902 -5923 0
5923 5924 0
-5923 -5924 0
5880 5907 5875 5925 0
5880 5907 -5875 -5925 0
5880 -5907 5875 -5925 0
5880 -5907 -5875 -5925 0
-5880 5907 5875 -5925 0
-5880 5907 -5875 -5925 0
-5880 -5907 5875 -5925 0
-5880 -5907 -5875 -5925 0
5925 5926 0
-5925 -5926 0
5924 5926 5862 5927 0
5924 5926 -5862 -5927 0
5924 -5926 5862 -5927 0
5924 -5926 -5862 -5927 0
-5924 5926 5862 -5927 0
-5924 5926 -5862 -5927 0
-5924 -5926 5862 -5927 0
-5924 -5926 -5862 -5927 0
5902 5865 5883 5928 0
5902 5865 -5883 -5928 0
5902 -5865 5883 -5928 0
5902 -5865 -5883 -5928 0
-5902 5865 5883 -5928 0
-5902 5865 -5883 -5928 0
-5902 -5865 5883 -5928 0
-5902 -5865 -5883 -5928 0
5928 5929 0
-5928 -5929 0
5875 5907 5896 5930 0
5875 5907 -5896 -5930 0
5875 -5907 5896 -5930 0
5875 -5907 -5896 -5930 0
-5875 5907 5896 -5930 0
-5875 5907 -5896 -5930 0
-5875 -5907 5896 -5930 0
-5875 -5907 -5896 -5930 0
5930 5931 0
-5930 -5931 0
5929 5931 5862 5932 0
5929 5931 -5862 -5932 0
5929 -5931 5862 -5932 0
5929 -5931 -5862 -5932 0
-5929 5931 5862 -5932 0
-5929 5931 -5862 -5932 0
-5929 -5931 5862 -5932 0
-5929 -5931 -5862 -5932 0
5922 5927 5932 -5933 0
5922 5927 -5932 5933 0
5922 -5927 5932 5933 0
5922 -5927 -5932 5933 0
-5922 5927 5932 5933 0
-5922 5927 -5932 5933 0
-5922 -5927 5932 5933 0
-5922 -5927 -5932 5933 0
5894 5916 5933 5934 0
5894 5916 -5933 -5934 0
5894 -5916 5933 -5934 0
5894 -5916 -5933 -5934 0
-5894 5916 5933 -5934 0
-5894 5916 -5933 -5934 0
-5894 -5916 5933 -5934 0
-5894 -5916 -5933 -5934 0
5934 5935 0
-5934 -5935 0
413 5936 0
-413 -5936 0
353 5937 0
-353 -5937 0
5937 5938 0
-5937 -5938 0
5935 5936 5022 5938 5939 0
5935 5936 5022 -5938 -5939 0
5935 5936 -5022 5938 -5939 0
5935 5936 -5022 -5938 -5939 0
5935 -5936 5022 5938 -5939 0
5935 -5936 5022 -5938 -5939 0
5935 -5936 -5022 5938 -5939 0
5935 -5936 -5022 -5938 -5939 0
-5935 5936 5022 5938 -5939 0
-5935 5936 5022 -5938 -5939 0
-5935 5936 -5022 5938 -5939 0
-5935 5936 -5022 -5938 -5939 0
-5935 -5936 5022 5938 -5939 0
-5935 -5936 5022 -5938 -5939 0
-5935 -5936 -5022 5938 -5939 0
-5935 -5936 -5022 -5938 -5939 0
5858 5939 -5940 0
5858 -5939 5940 0
-5858 5939 5940 0
-5858 -5939 -5940 0
358 5941 0
-358 -5941 0
358 5942 0
-358 -5942 0
5941 5942 -5943 0
5941 -5942 5943 0
-5941 5942 5943 0
-5941 -5942 -5943 0
359 5944 0
-359 -5944 0
359 5945 0
-359 -5945 0
5944 5945 -5946 0
5944 -5945 5946 0
-5944 5945 5946 0
-5944 -5945 -5946 0
1889 1909 -5947 0
1889 -1909 5947 0
-1889 1909 5947 0
-1889 -1909 -5947 0
1890 1910 -5948 0
1890 -1910 5948 0
-1890 1910 5948 0
-1890 -1910 -5948 0
368 5949 0
-368 -5949 0
368 5950 0
-368 -5950 0
5949 5950 -5951 0
5949 -5950 5951 0
-5949 5950 5951 0
-5949 -5950 -5951 0
1891 1911 -5952 0
1891 -1911 5952 0
-1891 1911 5952 0
-1891 -1911 -5952 0
1893 1913 -5953 0
1893 -1913 5953 0
-1893 1913 5953 0
-1893 -1913 -5953 0
372 5954 0
-372 -5954 0
372 5955 0
-372 -5955 0
5954 5955 -5956 0
5954 -5955 5956 0
-5954 5955 5956 0
-5954 -5955 -5956 0
373 5957 0
-373 -5957 0
373 5958 0
-373 -5958 0
5957 5958 -5959 0
5957 -5958 5959 0
-5957 5958 5959 0
-5957 -5958 -5959 0
5854 2993 5960 0
5854 -2993 -5960 0
-5854 2993 -5960 0
-5854 -2993 -5960 0
5935 3056 5961 0
5935 -3056 -5961 0
-5935 3056 -5961 0
-5935 -3056 -5961 0
5960 5961 -5962 0
5960 -5961 5962 0
-5960 5961 5962 0
-5960 -5961 -5962 0
369 5963 0
-369 -5963 0
5963 5964 0
-5963 -5964 0
412 5965 0
-412 -5965 0
5965 5966 0
-5965 -5966 0
5964 2990 5966 5967 0
5964 2990 -5966 -5967 0
5964 -2990 5966 -5967 0
5964 -2990 -5966 -5967 0
-5964 2990 5966 -5967 0
-5964 2990 -5966 -5967 0
-5964 -2990 5966 -5967 0
-5964 -2990 -5966 -5967 0
369 5968 0
-369 -5968 0
5968 5969 0
-5968 -5969 0
412 5970 0
-412 -5970 0
5970 5971 0
-5970 -5971 0
5969 3053 5971 5972 0
5969 3053 -5971 -5972 0
5969 -3053 5971 -5972 0
5969 -3053 -5971 -5972 0
-5969 3053 5971 -5972 0
-5969 3053 -5971 -5972 0
-5969 -3053 5971 -5972 0
-5969 -3053 -5971 -5972 0
5967 5972 -5973 0
5967 -5972 5973 0
-5967 5972 5973 0
-5967 -5972 -5973 0
413 5974 0
-413 -5974 0
5974 5975 0
-5974 -5975 0
5975 1885 5976 0
5975 -1885 -5976 0
-5975 1885 -5976 0
-5975 -1885 -5976 0
5976 5854 5977 0
5976 -5854 -5977 0
-5976 5854 -5977 0
-5976 -5854 -5977 0
5977 5978 0
-5977 -5978 0
2993 4967 5978 5979 0
2993 4967 -5978 -5979 0
2993 -4967 5978 -5979 0
2993 -4967 -5978 -5979 0
-2993 4967 5978 -5979 0
-2993 4967 -5978 -5979 0
-2993 -4967 5978 -5979 0
-2993 -4967 -5978 -5979 0
413 5980 0
-413 -5980 0
5980 5981 0
-5980 -5981 0
5981 1905 5982 0
5981 -1905 -5982 0
-5981 1905 -5982 0
-5981 -1905 -5982 0
5982 5935 5983 0
5982 -5935 -5983 0
-5982 5935 -5983 0
-5982 -5935 -5983 0
5983 5984 0
-5983 -5984 0
3056 5022 5984 5985 0
3056 5022 -5984 -5985 0
3056 -5022 5984 -5985 0
3056 -5022 -5984 -5985 0
-3056 5022 5984 -5985 0
-3056 5022 -5984 -5985 0
-3056 -5022 5984 -5985 0
-3056 -5022 -5984 -5985 0
5979 5985 -5986 0
5979 -5985 5986 0
-5979 5985 5986 0
-5979 -5985 -5986 0
3135 5987 0
-3135 -5987 0
3153 5988 0
-3153 -5988 0
5987 5988 -5989 0
5987 -5988 5989 0
-5987 5988 5989 0
-5987 -5988 -5989 0
5854 5063 5990 0
5854 -5063 -5990 0
-5854 5063 -5990 0
-5854 -5063 -5990 0
5935 5126 5991 0
5935 -5126 -5991 0
-5935 5126 -5991 0
-5935 -5126 -5991 0
5990 5991 -5992 0
5990 -5991 5992 0
-5990 5991 5992 0
-5990 -5991 -5992 0
4943 4942 5824 5993 0
4943 4942 -5824 -5993 0
4943 -4942 5824 -5993 0
4943 -4942 -5824 -5993 0
-4943 4942 5824 -5993 0
-4943 4942 -5824 -5993 0
-4943 -4942 5824 -5993 0
-4943 -4942 -5824 -5993 0
5993 5994 0
-5993 -5994 0
4933 5793 5994 5995 0
4933 5793 -5994 -5995 0
4933 -5793 5994 -5995 0
4933 -5793 -5994 -5995 0
-4933 5793 5994 -5995 0
-4933 5793 -5994 -5995 0
-4933 -5793 5994 -5995 0
-4933 -5793 -5994 -5995 0
5995 5996 0
-5995 -5996 0
5070 5996 5997 0
5070 -5996 -5997 0
-5070 5996 -5997 0
-5070 -5996 -5997 0
4998 4997 5905 5998 0
4998 4997 -5905 -5998 0
4998 -4997 5905 -5998 0
4998 -4997 -5905 -5998 0
-4998 4997 5905 -5998 0
-4998 4997 -5905 -5998 0
-4998 -4997 5905 -5998 0
-4998 -4997 -5905 -5998 0
5998 5999 0
-5998 -5999 0
4988 5874 5999 6000 0
4988 5874 -5999 -6000 0
4988 -5874 5999 -6000 0
4988 -5874 -5999 -6000 0
-4988 5874 5999 -6000 0
-4988 5874 -5999 -6000 0
-4988 -5874 5999 -6000 0
-4988 -5874 -5999 -6000 0
6000 6001 0
-6000 -6001 0
5133 6001 6002 0
5133 -6001 -6002 0
-5133 6001 -6002 0
-5133 -6001 -6002 0
5997 6002 -6003 0
5997 -6002 6003 0
-5997 6002 6003 0
-5997 -6002 -6003 0
2337 2701 -6004 0
2337 -2701 6004 0
-2337 2701 6004 0
-2337 -2701 -6004 0
1933 1969 1964 1957 6005 0
1933 1969 1964 -1957 -6005 0
1933 1969 -1964 1957 -6005 0
1933 1969 -1964 -1957 -6005 0
1933 -1969 1964 1957 -6005 0
1933 -1969 1964 -1957 -6005 0
1933 -1969 -1964 1957 -6005 0
1933 -1969 -1964 -1957 -6005 0
-1933 1969 1964 1957 -6005 0
-1933 1969 1964 -1957 -6005 0
-1933 1969 -1964 1957 -6005 0
-1933 1969 -1964 -1957 -6005 0
-1933 -1969 1964 1957 -6005 0
-1933 -1969 1964 -1957 -6005 0
-1933 -1969 -1964 1957 -6005 0
-1933 -1969 -1964 -1957 -6005 0
6005 6006 0
-6005 -6006 0
1987 2023 2018 2011 6007 0
1987 2023 2018 -2011 -6007 0
1987 2023 -2018 2011 -6007 0
1987 2023 -2018 -2011 -6007 0
1987 -2023 2018 2011 -6007 0
1987 -2023 2018 -2011 -6007 0
1987 -2023 -2018 2011 -6007 0
1987 -2023 -2018 -2011 -6007 0
-1987 2023 2018 2011 -6007 0
-1987 2023 2018 -2011 -6007 0
-1987 2023 -2018 2011 -6007 0
-1987 2023 -2018 -2011 -6007 0
-1987 -2023 2018 2011 -6007 0
-1987 -2023 2018 -2011 -6007 0
-1987 -2023 -2018 2011 -6007 0
-1987 -2023 -2018 -2011 -6007 0
6007 6008 0
-6007 -6008 0
6006 6008 -6009 0
6006 -6008 6009 0
-6006 6008 6009 0
-6006 -6008 -6009 0
265 6010 0
-265 -6010 0
6010 6011 0
-6010 -6011 0
6011 6012 0
-6011 -6012 0
6012 6013 0
-6012 -6013 0
342 6014 0
-342 -6014 0
6013 6014 6015 0
6013 -6014 -6015 0
-6013 6014 -6015 0
-6013 -6014 -6015 0
265 6016 0
-265 -6016 0
6016 6017 0
-6016 -6017 0
6017 6018 0
-6017 -6018 0
6018 6019 0
-6018 -6019 0
342 6020 0
-342 -6020 0
6019 6020 6021 0
6019 -6020 -6021 0
-6019 6020 -6021 0
-6019 -6020 -6021 0
6015 6021 -6022 0
6015 -6021 6022 0
-6015 6021 6022 0
-6015 -6021 -6022 0
3004 3067 -6023 0
3004 -3067 6023 0
-3004 3067 6023 0
-3004 -3067 -6023 0
5063 5996 6024 0
5063 -5996 -6024 0
-5063 5996 -6024 0
-5063 -5996 -6024 0
5126 6001 6025 0
5126 -6001 -6025 0
-5126 6001 -6025 0
-5126 -6001 -6025 0
6024 6025 -6026 0
6024 -6025 6026 0
-6024 6025 6026 0
-6024 -6025 -6026 0
2336 5078 6027 0
2336 -5078 -6027 0
-2336 5078 -6027 0
-2336 -5078 -6027 0
2337 5063 6028 0
2337 -5063 -6028 0
-2337 5063 -6028 0
-2337 -5063 -6028 0
6027 6028 6029 0
6027 -6028 -6029 0
-6027 6028 -6029 0
-6027 -6028 -6029 0
5824 4934 4935 6030 0
5824 4934 -4935 -6030 0
5824 -4934 4935 -6030 0
5824 -4934 -4935 -6030 0
-5824 4934 4935 -6030 0
-5824 4934 -4935 -6030 0
-5824 -4934 4935 -6030 0
-5824 -4934 -4935 -6030 0
6030 6031 0
-6030 -6031 0
6031 5793 4933 6032 0
6031 5793 -4933 -6032 0
6031 -5793 4933 -6032 0
6031 -5793 -4933 -6032 0
-6031 5793 4933 -6032 0
-6031 5793 -4933 -6032 0
-6031 -5793 4933 -6032 0
-6031 -5793 -4933 -6032 0
6032 6033 0
-6032 -6033 0
6029 6033 6034 0
6029 -6033 -6034 0
-6029 6033 -6034 0
-6029 -6033 -6034 0
2700 5141 6035 0
2700 -5141 -6035 0
-2700 5141 -6035 0
-2700 -5141 -6035 0
2701 5126 6036 0
2701 -5126 -6036 0
-2701 5126 -6036 0
-2701 -5126 -6036 0
6035 6036 6037 0
6035 -6036 -6037 0
-6035 6036 -6037 0
-6035 -6036 -6037 0
5905 4989 4990 6038 0
5905 4989 -4990 -6038 0
5905 -4989 4990 -6038 0
5905 -4989 -4990 -6038 0
-5905 4989 4990 -6038 0
-5905 4989 -4990 -6038 0
-5905 -4989 4990 -6038 0
-5905 -4989 -4990 -6038 0
6038 6039 0
-6038 -6039 0
6039 5874 4988 6040 0
6039 5874 -4988 -6040 0
6039 -5874 4988 -6040 0
6039 -5874 -4988 -6040 0
-6039 5874 4988 -6040 0
-6039 5874 -4988 -6040 0
-6039 -5874 4988 -6040 0
-6039 -5874 -4988 -6040 0
6040 6041 0
-6040 -6041 0
6037 6041 6042 0
6037 -6041 -6042 0
-6037 6041 -6042 0
-6037 -6041 -6042 0
6034 6042 -6043 0
6034 -6042 6043 0
-6034 6042 6043 0
-6034 -6042 -6043 0
1972 6044 0
-1972 -6044 0
1786 6045 0
-1786 -6045 0
6045 6046 0
-6045 -6046 0
1938 1961 6047 0
1938 -1961 -6047 0
-1938 1961 -6047 0
-1938 -1961 -6047 0
6047 6048 0
-6047 -6048 0
6046 6048 6049 0
6046 -6048 -6049 0
-6046 6048 -6049 0
-6046 -6048 -6049 0
1938 1950 6050 0
1938 -1950 -6050 0
-1938 1950 -6050 0
-1938 -1950 -6050 0
6050 6051 0
-6050 -6051 0
1786 6052 0
-1786 -6052 0
6052 6053 0
-6052 -6053 0
6051 6053 6054 0
6051 -6053 -6054 0
-6051 6053 -6054 0
-6051 -6053 -6054 0
6044 6049 6054 6055 0
6044 6049 -6054 -6055 0
6044 -6049 6054 -6055 0
6044 -6049 -6054 -6055 0
-6044 6049 6054 -6055 0
-6044 6049 -6054 -6055 0
-6044 -6049 6054 -6055 0
-6044 -6049 -6054 -6055 0
6055 6056 0
-6055 -6056 0
2026 6057 0
-2026 -6057 0
1806 6058 0
-1806 -6058 0
6058 6059 0
-6058 -6059 0
1992 2015 6060 0
1992 -2015 -6060 0
-1992 2015 -6060 0
-1992 -2015 -6060 0
6060 6061 0
-6060 -6061 0
6059 6061 6062 0
6059 -6061 -6062 0
-6059 6061 -6062 0
-6059 -6061 -6062 0
1992 2004 6063 0
1992 -2004 -6063 0
-1992 2004 -6063 0
-1992 -2004 -6063 0
6063 6064 0
-6063 -6064 0
1806 6065 0
-1806 -6065 0
6065 6066 0
-6065 -6066 0
6064 6066 6067 0
6064 -6066 -6067 0
-6064 6066 -6067 0
-6064 -6066 -6067 0
6057 6062 6067 6068 0
6057 6062 -6067 -6068 0
6057 -6062 6067 -6068 0
6057 -6062 -6067 -6068 0
-6057 6062 6067 -6068 0
-6057 6062 -6067 -6068 0
-6057 -6062 6067 -6068 0
-6057 -6062 -6067 -6068 0
6068 6069 0
-6068 -6069 0
6056 6069 -6070 0
6056 -6069 6070 0
-6056 6069 6070 0
-6056 -6069 -6070 0
6044 6057 -6071 0
6044 -6057 6071 0
-6044 6057 6071 0
-6044 -6057 -6071 0
1885 1905 -6072 0
1885 -1905 6072 0
-1885 1905 6072 0
-1885 -1905 -6072 0
5069 5132 -6073 0
5069 -5132 6073 0
-5069 5132 6073 0
-5069 -5132 -6073 0
5083 5146 -6074 0
5083 -5146 6074 0
-5083 5146 6074 0
-5083 -5146 -6074 0
1688 6075 0
-1688 -6075 0
6075 5055 5057 -6076 0
6075 5055 -5057 6076 0
6075 -5055 5057 6076 0
6075 -5055 -5057 6076 0
-6075 5055 5057 6076 0
-6075 5055 -5057 6076 0
-6075 -5055 5057 6076 0
-6075 -5055 -5057 6076 0
5074 5056 6076 -6077 0
5074 5056 -6076 6077 0
5074 -5056 6076 6077 0
5074 -5056 -6076 6077 0
-5074 5056 6076 6077 0
-5074 5056 -6076 6077 0
-5074 -5056 6076 6077 0
-5074 -5056 -6076 6077 0
6077 6078 0
-6077 -6078 0
1715 6079 0
-1715 -6079 0
6079 5118 5120 -6080 0
6079 5118 -5120 6080 0
6079 -5118 5120 6080 0
6079 -5118 -5120 6080 0
-6079 5118 5120 6080 0
-6079 5118 -5120 6080 0
-6079 -5118 5120 6080 0
-6079 -5118 -5120 6080 0
5137 5119 6080 -6081 0
5137 5119 -6080 6081 0
5137 -5119 6080 6081 0
5137 -5119 -6080 6081 0
-5137 5119 6080 6081 0
-5137 5119 -6080 6081 0
-5137 -5119 6080 6081 0
-5137 -5119 -6080 6081 0
6081 6082 0
-6081 -6082 0
6078 6082 -6083 0
6078 -6082 6083 0
-6078 6082 6083 0
-6078 -6082 -6083 0
6054 6084 0
-6054 -6084 0
5763 3007 5165 6085 0
5763 3007 -5165 -6085 0
5763 -3007 5165 -6085 0
5763 -3007 -5165 -6085 0
-5763 3007 5165 -6085 0
-5763 3007 -5165 -6085 0
-5763 -3007 5165 -6085 0
-5763 -3007 -5165 -6085 0
6085 6086 0
-6085 -6086 0
6084 6086 6087 0
6084 -6086 -6087 0
-6084 6086 -6087 0
-6084 -6086 -6087 0
6067 6088 0
-6067 -6088 0
5764 3070 5175 6089 0
5764 3070 -5175 -6089 0
5764 -3070 5175 -6089 0
5764 -3070 -5175 -6089 0
-5764 3070 5175 -6089 0
-5764 3070 -5175 -6089 0
-5764 -3070 5175 -6089 0
-5764 -3070 -5175 -6089 0
6089 6090 0
-6089 -6090 0
6088 6090 6091 0
6088 -6090 -6091 0
-6088 6090 -6091 0
-6088 -6090 -6091 0
6087 6091 -6092 0
6087 -6091 6092 0
-6087 6091 6092 0
-6087 -6091 -6092 0
2930 2963 -6093 0
2930 -2963 6093 0
-2930 2963 6093 0
-2930 -2963 -6093 0
5074 5058 5056 -6094 0
5074 5058 -5056 6094 0
5074 -5058 5056 6094 0
5074 -5058 -5056 6094 0
-5074 5058 5056 6094 0
-5074 5058 -5056 6094 0
-5074 -5058 5056 6094 0
-5074 -5058 -5056 6094 0
5073 5066 6094 -6095 0
5073 5066 -6094 6095 0
5073 -5066 6094 6095 0
5073 -5066 -6094 6095 0
-5073 5066 6094 6095 0
-5073 5066 -6094 6095 0
-5073 -5066 6094 6095 0
-5073 -5066 -6094 6095 0
6095 6096 0
-6095 -6096 0
6096 6097 0
-6096 -6097 0
2330 6097 6098 0
2330 -6097 -6098 0
-2330 6097 -6098 0
-2330 -6097 -6098 0
5137 5121 5119 -6099 0
5137 5121 -5119 6099 0
5137 -5121 5119 6099 0
5137 -5121 -5119 6099 0
-5137 5121 5119 6099 0
-5137 5121 -5119 6099 0
-5137 -5121 5119 6099 0
-5137 -5121 -5119 6099 0
5136 5129 6099 -6100 0
5136 5129 -6099 6100 0
5136 -5129 6099 6100 0
5136 -5129 -6099 6100 0
-5136 5129 6099 6100 0
-5136 5129 -6099 6100 0
-5136 -5129 6099 6100 0
-5136 -5129 -6099 6100 0
6100 6101 0
-6100 -6101 0
6101 6102 0
-6101 -6102 0
2694 6102 6103 0
2694 -6102 -6103 0
-2694 6102 -6103 0
-2694 -6102 -6103 0
6098 6103 -6104 0
6098 -6103 6104 0
-6098 6103 6104 0
-6098 -6103 -6104 0
5059 6075 5073 -6105 0
5059 6075 -5073 6105 0
5059 -6075 5073 6105 0
5059 -6075 -5073 6105 0
-5059 6075 5073 6105 0
-5059 6075 -5073 6105 0
-5059 -6075 5073 6105 0
-5059 -6075 -5073 6105 0
5057 5056 6105 -6106 0
5057 5056 -6105 6106 0
5057 -5056 6105 6106 0
5057 -5056 -6105 6106 0
-5057 5056 6105 6106 0
-5057 5056 -6105 6106 0
-5057 -5056 6105 6106 0
-5057 -5056 -6105 6106 0
6106 6107 0
-6106 -6107 0
5122 6079 5136 -6108 0
5122 6079 -5136 6108 0
5122 -6079 5136 6108 0
5122 -6079 -5136 6108 0
-5122 6079 5136 6108 0
-5122 6079 -5136 6108 0
-5122 -6079 5136 6108 0
-5122 -6079 -5136 6108 0
5120 5119 6108 -6109 0
5120 5119 -6108 6109 0
5120 -5119 6108 6109 0
5120 -5119 -6108 6109 0
-5120 5119 6108 6109 0
-5120 5119 -6108 6109 0
-5120 -5119 6108 6109 0
-5120 -5119 -6108 6109 0
6109 6110 0
-6109 -6110 0
6107 6110 -6111 0
6107 -6110 6111 0
-6107 6110 6111 0
-6107 -6110 -6111 0
6054 6067 -6112 0
6054 -6067 6112 0
-6054 6067 6112 0
-6054 -6067 -6112 0
6049 6062 -6113 0
6049 -6062 6113 0
-6049 6062 6113 0
-6049 -6062 -6113 0
1926 1952 6114 0
1926 -1952 -6114 0
-1926 1952 -6114 0
-1926 -1952 -6114 0
1980 2006 6115 0
1980 -2006 -6115 0
-1980 2006 -6115 0
-1980 -2006 -6115 0
6114 6115 -6116 0
6114 -6115 6116 0
-6114 6115 6116 0
-6114 -6115 -6116 0
6049 6117 0
-6049 -6117 0
6117 6086 6118 0
6117 -6086 -6118 0
-6117 6086 -6118 0
-6117 -6086 -6118 0
6062 6119 0
-6062 -6119 0
6119 6090 6120 0
6119 -6090 -6120 0
-6119 6090 -6120 0
-6119 -6090 -6120 0
6118 6120 -6121 0
6118 -6120 6121 0
-6118 6120 6121 0
-6118 -6120 -6121 0
1786 6122 0
-1786 -6122 0
6122 6123 0
-6122 -6123 0
6123 1483 6124 0
6123 -1483 -6124 0
-6123 1483 -6124 0
-6123 -1483 -6124 0
6124 6125 0
-6124 -6125 0
6086 6125 6126 0
6086 -6125 -6126 0
-6086 6125 -6126 0
-6086 -6125 -6126 0
1806 6127 0
-1806 -6127 0
6127 6128 0
-6127 -6128 0
6128 1581 6129 0
6128 -1581 -6129 0
-6128 1581 -6129 0
-6128 -1581 -6129 0
6129 6130 0
-6129 -6130 0
6090 6130 6131 0
6090 -6130 -6131 0
-6090 6130 -6131 0
-6090 -6130 -6131 0
6126 6131 -6132 0
6126 -6131 6132 0
-6126 6131 6132 0
-6126 -6131 -6132 0
6124 6129 -6133 0
6124 -6129 6133 0
-6124 6129 6133 0
-6124 -6129 -6133 0
2251 2615 -6134 0
2251 -2615 6134 0
-2251 2615 6134 0
-2251 -2615 -6134 0
5074 5073 5057 -6135 0
5074 5073 -5057 6135 0
5074 -5073 5057 6135 0
5074 -5073 -5057 6135 0
-5074 5073 5057 6135 0
-5074 5073 -5057 6135 0
-5074 -5073 5057 6135 0
-5074 -5073 -5057 6135 0
5058 5056 6135 -6136 0
5058 5056 -6135 6136 0
5058 -5056 6135 6136 0
5058 -5056 -6135 6136 0
-5058 5056 6135 6136 0
-5058 5056 -6135 6136 0
-5058 -5056 6135 6136 0
-5058 -5056 -6135 6136 0
6136 6137 0
-6136 -6137 0
6137 6138 0
-6137 -6138 0
6138 5855 6139 0
6138 -5855 -6139 0
-6138 5855 -6139 0
-6138 -5855 -6139 0
5137 5136 5120 -6140 0
5137 5136 -5120 6140 0
5137 -5136 5120 6140 0
5137 -5136 -5120 6140 0
-5137 5136 5120 6140 0
-5137 5136 -5120 6140 0
-5137 -5136 5120 6140 0
-5137 -5136 -5120 6140 0
5121 5119 6140 -6141 0
5121 5119 -6140 6141 0
5121 -5119 6140 6141 0
5121 -5119 -6140 6141 0
-5121 5119 6140 6141 0
-5121 5119 -6140 6141 0
-5121 -5119 6140 6141 0
-5121 -5119 -6140 6141 0
6141 6142 0
-6141 -6142 0
6142 6143 0
-6142 -6143 0
6143 5936 6144 0
6143 -5936 -6144 0
-6143 5936 -6144 0
-6143 -5936 -6144 0
6139 6144 -6145 0
6139 -6144 6145 0
-6139 6144 6145 0
-6139 -6144 -6145 0
6078 6146 0
-6078 -6146 0
6146 6033 6147 0
6146 -6033 -6147 0
-6146 6033 -6147 0
-6146 -6033 -6147 0
6082 6148 0
-6082 -6148 0
6148 6041 6149 0
6148 -6041 -6149 0
-6148 6041 -6149 0
-6148 -6041 -6149 0
6147 6149 -6150 0
6147 -6149 6150 0
-6147 6149 6150 0
-6147 -6149 -6150 0
5056 5059 5058 -6151 0
5056 5059 -5058 6151 0
5056 -5059 5058 6151 0
5056 -5059 -5058 6151 0
-5056 5059 5058 6151 0
-5056 5059 -5058 6151 0
-5056 -5059 5058 6151 0
-5056 -5059 -5058 6151 0
5057 5073 6151 -6152 0
5057 5073 -6151 6152 0
5057 -5073 6151 6152 0
5057 -5073 -6151 6152 0
-5057 5073 6151 6152 0
-5057 5073 -6151 6152 0
-5057 -5073 6151 6152 0
-5057 -5073 -6151 6152 0
6152 6153 0
-6152 -6153 0
6153 6154 0
-6153 -6154 0
6033 6154 6155 0
6033 -6154 -6155 0
-6033 6154 -6155 0
-6033 -6154 -6155 0
5119 5122 5121 -6156 0
5119 5122 -5121 6156 0
5119 -5122 5121 6156 0
5119 -5122 -5121 6156 0
-5119 5122 5121 6156 0
-5119 5122 -5121 6156 0
-5119 -5122 5121 6156 0
-5119 -5122 -5121 6156 0
5120 5136 6156 -6157 0
5120 5136 -6156 6157 0
5120 -5136 6156 6157 0
5120 -5136 -6156 6157 0
-5120 5136 6156 6157 0
-5120 5136 -6156 6157 0
-5120 -5136 6156 6157 0
-5120 -5136 -6156 6157 0
6157 6158 0
-6157 -6158 0
6158 6159 0
-6158 -6159 0
6041 6159 6160 0
6041 -6159 -6160 0
-6041 6159 -6160 0
-6041 -6159 -6160 0
6155 6160 -6161 0
6155 -6160 6161 0
-6155 6160 6161 0
-6155 -6160 -6161 0
2330 5078 5854 4939 6162 0
2330 5078 5854 -4939 -6162 0
2330 5078 -5854 4939 -6162 0
2330 5078 -5854 -4939 -6162 0
2330 -5078 5854 4939 -6162 0
2330 -5078 5854 -4939 -6162 0
2330 -5078 -5854 4939 -6162 0
2330 -5078 -5854 -4939 -6162 0
-2330 5078 5854 4939 -6162 0
-2330 5078 5854 -4939 -6162 0
-2330 5078 -5854 4939 -6162 0
-2330 5078 -5854 -4939 -6162 0
-2330 -5078 5854 4939 -6162 0
-2330 -5078 5854 -4939 -6162 0
-2330 -5078 -5854 4939 -6162 0
-2330 -5078 -5854 -4939 -6162 0
2694 5141 5935 4994 6163 0
2694 5141 5935 -4994 -6163 0
2694 5141 -5935 4994 -6163 0
2694 5141 -5935 -4994 -6163 0
2694 -5141 5935 4994 -6163 0
2694 -5141 5935 -4994 -6163 0
2694 -5141 -5935 4994 -6163 0
2694 -5141 -5935 -4994 -6163 0
-2694 5141 5935 4994 -6163 0
-2694 5141 5935 -4994 -6163 0
-2694 5141 -5935 4994 -6163 0
-2694 5141 -5935 -4994 -6163 0
-2694 -5141 5935 4994 -6163 0
-2694 -5141 5935 -4994 -6163 0
-2694 -5141 -5935 4994 -6163 0
-2694 -5141 -5935 -4994 -6163 0
6162 6163 -6164 0
6162 -6163 6164 0
-6162 6163 6164 0
-6162 -6163 -6164 0
4935 4936 4943 6165 0
4935 4936 -4943 -6165 0
4935 -4936 4943 -6165 0
4935 -4936 -4943 -6165 0
-4935 4936 4943 -6165 0
-4935 4936 -4943 -6165 0
-4935 -4936 4943 -6165 0
-4935 -4936 -4943 -6165 0
6165 6166 0
-6165 -6166 0
5790 4932 6166 6167 0
5790 4932 -6166 -6167 0
5790 -4932 6166 -6167 0
5790 -4932 -6166 -6167 0
-5790 4932 6166 -6167 0
-5790 4932 -6166 -6167 0
-5790 -4932 6166 -6167 0
-5790 -4932 -6166 -6167 0
6167 6168 0
-6167 -6168 0
6138 6168 6169 0
6138 -6168 -6169 0
-6138 6168 -6169 0
-6138 -6168 -6169 0
4990 4991 4998 6170 0
4990 4991 -4998 -6170 0
4990 -4991 4998 -6170 0
4990 -4991 -4998 -6170 0
-4990 4991 4998 -6170 0
-4990 4991 -4998 -6170 0
-4990 -4991 4998 -6170 0
-4990 -4991 -4998 -6170 0
6170 6171 0
-6170 -6171 0
5871 4987 6171 6172 0
5871 4987 -6171 -6172 0
5871 -4987 6171 -6172 0
5871 -4987 -6171 -6172 0
-5871 4987 6171 -6172 0
-5871 4987 -6171 -6172 0
-5871 -4987 6171 -6172 0
-5871 -4987 -6171 -6172 0
6172 6173 0
-6172 -6173 0
6143 6173 6174 0
6143 -6173 -6174 0
-6143 6173 -6174 0
-6143 -6173 -6174 0
6169 6174 -6175 0
6169 -6174 6175 0
-6169 6174 6175 0
-6169 -6174 -6175 0
405 6176 0
-405 -6176 0
405 6177 0
-405 -6177 0
6176 6177 -6178 0
6176 -6177 6178 0
-6176 6177 6178 0
-6176 -6177 -6178 0
3031 3094 -6179 0
3031 -3094 6179 0
-3031 3094 6179 0
-3031 -3094 -6179 0
2041 2142 2047 -6180 0
2041 2142 -2047 6180 0
2041 -2142 2047 6180 0
2041 -2142 -2047 6180 0
-2041 2142 2047 6180 0
-2041 2142 -2047 6180 0
-2041 -2142 2047 6180 0
-2041 -2142 -2047 6180 0
2035 2038 6180 -6181 0
2035 2038 -6180 6181 0
2035 -2038 6180 6181 0
2035 -2038 -6180 6181 0
-2035 2038 6180 6181 0
-2035 2038 -6180 6181 0
-2035 -2038 6180 6181 0
-2035 -2038 -6180 6181 0
6181 6182 0
-6181 -6182 0
6182 6183 0
-6182 -6183 0
6183 3134 6184 0
6183 -3134 -6184 0
-6183 3134 -6184 0
-6183 -3134 -6184 0
2405 2506 2411 -6185 0
2405 2506 -2411 6185 0
2405 -2506 2411 6185 0
2405 -2506 -2411 6185 0
-2405 2506 2411 6185 0
-2405 2506 -2411 6185 0
-2405 -2506 2411 6185 0
-2405 -2506 -2411 6185 0
2399 2402 6185 -6186 0
2399 2402 -6185 6186 0
2399 -2402 6185 6186 0
2399 -2402 -6185 6186 0
-2399 2402 6185 6186 0
-2399 2402 -6185 6186 0
-2399 -2402 6185 6186 0
-2399 -2402 -6185 6186 0
6186 6187 0
-6186 -6187 0
6187 6188 0
-6187 -6188 0
6188 3152 6189 0
6188 -3152 -6189 0
-6188 3152 -6189 0
-6188 -3152 -6189 0
6184 6189 -6190 0
6184 -6189 6190 0
-6184 6189 6190 0
-6184 -6189 -6190 0
408 6191 0
-408 -6191 0
408 6192 0
-408 -6192 0
6191 6192 -6193 0
6191 -6192 6193 0
-6191 6192 6193 0
-6191 -6192 -6193 0
411 6194 0
-411 -6194 0
411 6195 0
-411 -6195 0
6194 6195 -6196 0
6194 -6195 6196 0
-6194 6195 6196 0
-6194 -6195 -6196 0
412 6197 0
-412 -6197 0
412 6198 0
-412 -6198 0
6197 6198 -6199 0
6197 -6198 6199 0
-6197 6198 6199 0
-6197 -6198 -6199 0
-626 6200 0
-629 6200 0
-632 6200 0
-635 6200 0
-638 6200 0
-783 6200 0
-786 6200 0
-789 6200 0
-898 6200 0
-901 6200 0
-904 6200 0
-907 6200 0
-910 6200 0
-1097 6200 0
-1294 6200 0
-1481 6200 0
-1678 6200 0
-1733 6200 0
-1784 6200 0
-1825 6200 0
-1848 6200 0
-1863 6200 0
-1882 6200 0
-1923 6200 0
-2032 6200 0
-2761 6200 0
-2908 6200 0
-2975 6200 0
-2988 6200 0
-3115 6200 0
-3128 6200 0
-3165 6200 0
-3322 6200 0
-3366 6200 0
-3411 6200 0
-3456 6200 0
-3501 6200 0
-3546 6200 0
-3591 6200 0
-3636 6200 0
-3821 6200 0
-3840 6200 0
-3859 6200 0
-3878 6200 0
-3935 6200 0
-3962 6200 0
-3989 6200 0
-4004 6200 0
-4019 6200 0
-4034 6200 0
-4049 6200 0
-4064 6200 0
-4079 6200 0
-4092 6200 0
-4131 6200 0
-4164 6200 0
-4199 6200 0
-4238 6200 0
-4271 6200 0
-4306 6200 0
-4339 6200 0
-4374 6200 0
-4391 6200 0
-4410 6200 0
-4455 6200 0
-4498 6200 0
-4571 6200 0
-4596 6200 0
-4637 6200 0
-4712 6200 0
-4745 6200 0
-4788 6200 0
-4825 6200 0
-4862 6200 0
-4891 6200 0
-4920 6200 0
-5031 6200 0
-5158 6200 0
-5179 6200 0
-5186 6200 0
-5193 6200 0
-5200 6200 0
-5207 6200 0
-5214 6200 0
-5221 6200 0
-5228 6200 0
-5235 6200 0
-5242 6200 0
-5249 6200 0
-5278 6200 0
-5285 6200 0
-5292 6200 0
-5299 6200 0
-5340 6200 0
-5341 6200 0
-5350 6200 0
-5371 6200 0
-5372 6200 0
-5431 6200 0
-5448 6200 0
-5461 6200 0
-5468 6200 0
-5475 6200 0
-5482 6200 0
-5489 6200 0
-5496 6200 0
-5515 6200 0
-5528 6200 0
-5535 6200 0
-5542 6200 0
-5549 6200 0
-5556 6200 0
-5563 6200 0
-5570 6200 0
-5577 6200 0
-5584 6200 0
-5593 6200 0
-5602 6200 0
-5611 6200 0
-5624 6200 0
-5631 6200 0
-5638 6200 0
-5645 6200 0
-5652 6200 0
-5661 6200 0
-5670 6200 0
-5679 6200 0
-5688 6200 0
-5697 6200 0
-5702 6200 0
-5707 6200 0
-5712 6200 0
-5717 6200 0
-5722 6200 0
-5727 6200 0
-5732 6200 0
-5737 6200 0
-5742 6200 0
-5747 6200 0
-5748 6200 0
-5749 6200 0
-5750 6200 0
-5751 6200 0
-5752 6200 0
-5755 6200 0
-5756 6200 0
-5757 6200 0
-5758 6200 0
-5759 6200 0
-5760 6200 0
-5761 6200 0
-5762 6200 0
-5765 6200 0
-5768 6200 0
-5769 6200 0
-5770 6200 0
-5771 6200 0
-5772 6200 0
-5773 6200 0
-5774 6200 0
-5775 6200 0
-5776 6200 0
-5777 6200 0
-5940 6200 0
-5943 6200 0
-5946 6200 0
-5947 6200 0
-5948 6200 0
-5951 6200 0
-5952 6200 0
-5953 6200 0
-5956 6200 0
-5959 6200 0
-5962 6200 0
-5973 6200 0
-5986 6200 0
-5989 6200 0
-5992 6200 0
-6003 6200 0
-6004 6200 0
-6009 6200 0
-6022 6200 0
-6023 6200 0
-6026 6200 0
-6043 6200 0
-6070 6200 0
-6071 6200 0
-6072 6200 0
-6073 6200 0
-6074 6200 0
-6083 6200 0
-6092 6200 0
-6093 6200 0
-6104 6200 0
-6111 6200 0
-6112 6200 0
-6113 6200 0
-6116 6200 0
-6121 6200 0
-6132 6200 0
-6133 6200 0
-6134 6200 0
-6145 6200 0
-6150 6200 0
-6161 6200 0
-6164 6200 0
-6175 6200 0
-6178 6200 0
-6179 6200 0
-6190 6200 0
-6193 6200 0
-6196 6200 0
-6199 6200 0
-6200 626 629 632 635 638 783 786 789 898 901 904 907 910 1097 1294 1481 1678 1733 1784 1825 1848 1863 1882 1923 2032 2761 2908 2975 2988 3115 3128 3165 3322 3366 3411 3456 3501 3546 3591 3636 3821 3840 3859 3878 3935 3962 3989 4004 4019 4034 4049 4064 4079 4092 4131 4164 4199 4238 4271 4306 4339 4374 4391 4410 4455 4498 4571 4596 4637 4712 4745 4788 4825 4862 4891 4920 5031 5158 5179 5186 5193 5200 5207 5214 5221 5228 5235 5242 5249 5278 5285 5292 5299 5340 5341 5350 5371 5372 5431 5448 5461 5468 5475 5482 5489 5496 5515 5528 5535 5542 5549 5556 5563 5570 5577 5584 5593 5602 5611 5624 5631 5638 5645 5652 5661 5670 5679 5688 5697 5702 5707 5712 5717 5722 5727 5732 5737 5742 5747 5748 5749 5750 5751 5752 5755 5756 5757 5758 5759 5760 5761 5762 5765 5768 5769 5770 5771 5772 5773 5774 5775 5776 5777 5940 5943 5946 5947 5948 5951 5952 5953 5956 5959 5962 5973 5986 5989 5992 6003 6004 6009 6022 6023 6026 6043 6070 6071 6072 6073 6074 6083 6092 6093 6104 6111 6112 6113 6116 6121 6132 6133 6134 6145 6150 6161 6164 6175 6178 6179 6190 6193 6196 6199 0
-1 215 0
1 -215 0
-2 216 0
2 -216 0
-3 217 0
3 -217 0
-4 218 0
4 -218 0
-5 219 0
5 -219 0
-6 220 0
6 -220 0
-7 221 0
7 -221 0
-8 222 0
8 -222 0
-9 223 0
9 -223 0
-10 224 0
10 -224 0
-11 225 0
11 -225 0
-12 226 0
12 -226 0
-13 227 0
13 -227 0
-14 228 0
14 -228 0
-15 229 0
15 -229 0
-16 230 0
16 -230 0
-17 231 0
17 -231 0
-18 232 0
18 -232 0
-19 233 0
19 -233 0
-20 234 0
20 -234 0
-21 235 0
21 -235 0
-22 236 0
22 -236 0
-23 237 0
23 -237 0
-24 238 0
24 -238 0
-25 239 0
25 -239 0
-26 240 0
26 -240 0
-27 241 0
27 -241 0
-28 242 0
28 -242 0
-29 243 0
29 -243 0
-30 244 0
30 -244 0
-31 245 0
31 -245 0
-32 246 0
32 -246 0
-33 247 0
33 -247 0
-34 248 0
34 -248 0
-35 249 0
35 -249 0
-36 250 0
36 -250 0
-37 251 0
37 -251 0
-38 252 0
38 -252 0
-39 253 0
39 -253 0
-40 254 0
40 -254 0
-41 255 0
41 -255 0
-42 256 0
42 -256 0
-43 257 0
43 -257 0
-44 258 0
44 -258 0
-45 259 0
45 -259 0
-46 260 0
46 -260 0
-47 261 0
47 -261 0
-48 262 0
48 -262 0
-49 263 0
49 -263 0
-50 264 0
50 -264 0
-51 265 0
51 -265 0
-52 266 0
52 -266 0
-53 267 0
53 -267 0
-54 268 0
54 -268 0
-55 269 0
55 -269 0
-56 270 0
56 -270 0
-57 271 0
57 -271 0
-58 272 0
58 -272 0
-59 273 0
59 -273 0
-60 274 0
60 -274 0
-61 275 0
61 -275 0
-62 276 0
62 -276 0
-63 277 0
63 -277 0
-64 278 0
64 -278 0
-65 279 0
65 -279 0
-66 280 0
66 -280 0
-67 281 0
67 -281 0
-68 282 0
68 -282 0
-69 283 0
69 -283 0
-70 284 0
70 -284 0
-71 285 0
71 -285 0
-72 286 0
72 -286 0
-73 287 0
73 -287 0
-74 288 0
74 -288 0
-75 289 0
75 -289 0
-76 290 0
76 -290 0
-77 291 0
77 -291 0
-78 292 0
78 -292 0
-79 293 0
79 -293 0
-80 294 0
80 -294 0
-81 295 0
81 -295 0
-82 296 0
82 -296 0
-83 297 0
83 -297 0
-84 298 0
84 -298 0
-85 299 0
85 -299 0
-86 300 0
86 -300 0
-87 301 0
87 -301 0
-88 302 0
88 -302 0
-89 303 0
89 -303 0
-90 304 0
90 -304 0
-91 305 0
91 -305 0
-92 306 0
92 -306 0
-93 307 0
93 -307 0
-94 308 0
94 -308 0
-95 309 0
95 -309 0
-96 310 0
96 -310 0
-97 311 0
97 -311 0
-98 312 0
98 -312 0
-99 313 0
99 -313 0
-100 314 0
100 -314 0
-101 315 0
101 -315 0
-102 316 0
102 -316 0
-103 317 0
103 -317 0
-104 318 0
104 -318 0
-105 319 0
105 -319 0
-106 320 0
106 -320 0
-107 321 0
107 -321 0
-108 322 0
108 -322 0
-109 323 0
109 -323 0
-110 324 0
110 -324 0
-111 325 0
111 -325 0
-112 326 0
112 -326 0
-113 327 0
113 -327 0
-114 328 0
114 -328 0
-115 329 0
115 -329 0
-116 330 0
116 -330 0
-117 331 0
117 -331 0
-118 332 0
118 -332 0
-119 333 0
119 -333 0
-120 334 0
120 -334 0
-121 335 0
121 -335 0
-122 336 0
122 -336 0
-123 337 0
123 -337 0
-124 338 0
124 -338 0
-125 339 0
125 -339 0
-126 340 0
126 -340 0
-127 341 0
127 -341 0
-128 342 0
128 -342 0
-129 343 0
129 -343 0
-130 344 0
130 -344 0
-131 345 0
131 -345 0
-132 346 0
132 -346 0
-133 347 0
133 -347 0
-134 348 0
134 -348 0
-135 349 0
135 -349 0
-136 350 0
136 -350 0
-137 351 0
137 -351 0
-138 352 0
138 -352 0
-139 353 0
139 -353 0
-140 354 0
140 -354 0
-141 355 0
141 -355 0
-142 356 0
142 -356 0
-143 357 0
143 -357 0
-144 358 0
144 -358 0
-145 359 0
145 -359 0
-146 360 0
146 -360 0
-147 361 0
147 -361 0
-148 362 0
148 -362 0
-149 363 0
149 -363 0
-150 364 0
150 -364 0
-151 365 0
151 -365 0
-152 366 0
152 -366 0
-153 367 0
153 -367 0
-154 368 0
154 -368 0
-155 369 0
155 -369 0
-156 370 0
156 -370 0
-157 371 0
157 -371 0
-158 372 0
158 -372 0
-159 373 0
159 -373 0
-160 374 0
160 -374 0
-161 375 0
161 -375 0
-162 376 0
162 -376 0
-163 377 0
163 -377 0
-164 378 0
164 -378 0
-165 379 0
165 -379 0
-166 380 0
166 -380 0
-167 381 0
167 -381 0
-168 382 0
168 -382 0
-169 383 0
169 -383 0
-170 384 0
170 -384 0
-171 385 0
171 -385 0
-172 386 0
172 -386 0
-173 387 0
173 -387 0
-174 388 0
174 -388 0
-175 389 0
175 -389 0
-176 390 0
176 -390 0
-177 391 0
177 -391 0
-178 392 0
178 -392 0
-179 393 0
179 -393 0
-180 394 0
180 -394 0
-181 395 0
181 -395 0
-182 396 0
182 -396 0
-183 397 0
183 -397 0
-184 398 0
184 -398 0
-185 399 0
185 -399 0
-186 400 0
186 -400 0
-187 401 0
187 -401 0
-188 402 0
188 -402 0
-189 403 0
189 -403 0
-190 404 0
190 -404 0
-191 405 0
191 -405 0
-192 406 0
192 -406 0
-193 407 0
193 -407 0
-194 408 0
194 -408 0
-195 409 0
195 -409 0
-196 410 0
196 -410 0
-197 411 0
197 -411 0
-198 412 0
198 -412 0
-199 413 0
199 -413 0
-200 414 0
200 -414 0
-201 415 0
201 -415 0
-202 416 0
202 -416 0
-203 417 0
203 -417 0
-204 418 0
204 -418 0
-205 419 0
205 -419 0
-206 420 0
206 -420 0
-207 421 0
207 -421 0
-208 422 0
208 -422 0
-209 423 0
209 -423 0
-210 424 0
210 -424 0
-211 425 0
211 -425 0
-212 426 0
212 -426 0
-213 427 0
213 -427 0
-214 428 0
214 -428 0
-6201 -12 0
-6201 -54 0
-6201 56 0
-6201 62 0
-6201 -63 0
-6201 64 0
6201 12 54 -56 -62 63 -64 0
-6202 -12 0
-6202 54 0
-6202 -56 0
-6202 61 0
-6202 -62 0
-6202 63 0
6202 12 -54 56 -61 62 -63 0
-6203 -12 0
-6203 54 0
-6203 56 0
-6203 61 0
-6203 -62 0
-6203 -63 0
-6203 64 0
6203 12 -54 -56 -61 62 63 -64 0
-6204 -6201 0
-6204 -6202 0
-6204 -6203 0
6204 6201 6202 6203 0
-6205 -54 0
-6205 -56 0
6205 54 56 0
-6206 -62 0
6206 62 0
-6207 -54 0
-6207 -63 0
6207 54 63 0
-6208 201 0
6208 -201 0
-6209 -54 0
-6209 64 0
6209 54 -64 0
-6210 -56 0
-6210 -61 0
6210 56 61 0
-6211 54 0
-6211 63 0
6211 -54 -63 0
-6212 56 0
-6212 64 0
6212 -56 -64 0
-6213 -6205 0
-6213 -6206 0
-6213 -6207 0
-6213 -6208 0
-6213 -6209 0
-6213 -6210 0
-6213 -6211 0
-6213 -6212 0
6213 6205 6206 6207 6208 6209 6210 6211 6212 0
-6214 -54 0
-6214 -56 0
6214 54 56 0
-6215 -54 0
-6215 -62 0
6215 54 62 0
-6216 -54 0
-6216 -63 0
6216 54 63 0
-6217 -54 0
-6217 -64 0
6217 54 64 0
-6218 -56 0
-6218 -61 0
6218 56 61 0
-6219 -56 0
-6219 -62 0
6219 56 62 0
-6220 -56 0
-6220 -63 0
6220 56 63 0
-6221 -61 0
-6221 -62 0
6221 61 62 0
-6222 -63 0
-6222 -64 0
6222 63 64 0
-6223 -62 0
-6223 -63 0
6223 62 63 0
-6224 16 0
6224 -16 0
-6225 -6214 0
-6225 -6215 0
-6225 -6216 0
-6225 -6217 0
-6225 -6218 0
-6225 -6219 0
-6225 -6220 0
-6225 -6221 0
-6225 -6222 0
-6225 -6223 0
-6225 -6224 0
6225 6214 6215 6216 6217 6218 6219 6220 6221 6222 6223 6224 0
-6226 -54 0
-6226 -56 0
6226 54 56 0
-6227 -63 0
6227 63 0
-6228 -54 0
-6228 -64 0
6228 54 64 0
-6229 -54 0
-6229 62 0
6229 54 -62 0
-6230 -56 0
-6230 -62 0
6230 56 62 0
-6231 54 0
-6231 61 0
6231 -54 -61 0
-6232 56 0
-6232 62 0
6232 -56 -62 0
-6233 32 0
6233 -32 0
-6234 -6226 0
-6234 -6227 0
-6234 -6228 0
-6234 -6229 0
-6234 -6230 0
-6234 -6231 0
-6234 -6232 0
-6234 -6233 0
6234 6226 6227 6228 6229 6230 6231 6232 6233 0
-6235 56 0
-6235 -61 0
-6235 64 0
-6235 -65 0
-6235 -66 0
6235 -56 61 -64 65 66 0
-6236 -54 0
-6236 56 0
-6236 -61 0
-6236 63 0
-6236 -65 0
-6236 -66 0
6236 54 -56 61 -63 65 66 0
-6237 15 0
-6237 24 0
-6237 25 0
-6237 32 0
-6237 33 0
-6237 42 0
-6237 47 0
-6237 48 0
-6237 49 0
-6237 54 0
-6237 62 0
-6237 -64 0
-6237 -65 0
-6237 -66 0
6237 -15 -24 -25 -32 -33 -42 -47 -48 -49 -54 -62 64 65 66 0
-6238 -15 0
-6238 -24 0
-6238 -25 0
-6238 32 0
-6238 -33 0
-6238 -42 0
-6238 -47 0
-6238 -48 0
-6238 -49 0
-6238 56 0
-6238 -61 0
-6238 63 0
-6238 -65 0
-6238 -66 0
6238 15 24 25 -32 33 42 47 48 49 -56 61 -63 65 66 0
-6239 56 0
-6239 -61 0
-6239 62 0
-6239 63 0
-6239 -65 0
-6239 -66 0
6239 -56 61 -62 -63 65 66 0
-6240 54 0
-6240 61 0
-6240 62 0
-6240 63 0
-6240 -64 0
-6240 -65 0
-6240 -66 0
6240 -54 -61 -62 -63 64 65 66 0
-6241 56 0
-6241 -61 0
-6241 63 0
-6241 -65 0
-6241 -66 0
-6241 202 0
6241 -56 61 -63 65 66 -202 0
-6242 15 0
-6242 -24 0
-6242 -25 0
-6242 32 0
-6242 33 0
-6242 -42 0
-6242 -47 0
-6242 -48 0
-6242 -49 0
-6242 56 0
-6242 -61 0
-6242 63 0
-6242 -65 0
-6242 -66 0
6242 -15 24 25 -32 -33 42 47 48 49 -56 61 -63 65 66 0
-6243 -15 0
-6243 24 0
-6243 -25 0
-6243 32 0
-6243 33 0
-6243 -42 0
-6243 -47 0
-6243 -48 0
-6243 -49 0
-6243 56 0
-6243 -61 0
-6243 63 0
-6243 -65 0
-6243 -66 0
6243 15 -24 25 -32 -33 42 47 48 49 -56 61 -63 65 66 0
-6244 15 0
-6244 24 0
-6244 25 0
-6244 32 0
-6244 33 0
-6244 -42 0
-6244 -47 0
-6244 -48 0
-6244 -49 0
-6244 56 0
-6244 -61 0
-6244 63 0
-6244 -65 0
-6244 -66 0
6244 -15 -24 -25 -32 -33 42 47 48 49 -56 61 -63 65 66 0
-6245 -15 0
-6245 -24 0
-6245 25 0
-6245 32 0
-6245 33 0
-6245 -42 0
-6245 -47 0
-6245 -48 0
-6245 -49 0
-6245 56 0
-6245 -61 0
-6245 63 0
-6245 -65 0
-6245 -66 0
6245 15 24 -25 -32 -33 42 47 48 49 -56 61 -63 65 66 0
-6246 15 0
-6246 -24 0
-6246 25 0
-6246 32 0
-6246 -33 0
-6246 -42 0
-6246 -47 0
-6246 -48 0
-6246 -49 0
-6246 56 0
-6246 -61 0
-6246 63 0
-6246 -65 0
-6246 -66 0
6246 -15 24 -25 -32 33 42 47 48 49 -56 61 -63 65 66 0
-6247 -15 0
-6247 24 0
-6247 25 0
-6247 32 0
-6247 -33 0
-6247 -42 0
-6247 -47 0
-6247 -48 0
-6247 -49 0
-6247 56 0
-6247 -61 0
-6247 63 0
-6247 -65 0
-6247 -66 0
6247 15 -24 -25 -32 33 42 47 48 49 -56 61 -63 65 66 0
-6248 15 0
-6248 24 0
-6248 -25 0
-6248 32 0
-6248 -33 0
-6248 -42 0
-6248 -47 0
-6248 -48 0
-6248 -49 0
-6248 56 0
-6248 -61 0
-6248 63 0
-6248 -65 0
-6248 -66 0
6248 -15 -24 25 -32 33 42 47 48 49 -56 61 -63 65 66 0
-6249 15 0
-6249 -24 0
-6249 -25 0
-6249 32 0
-6249 -33 0
-6249 -42 0
-6249 47 0
-6249 -48 0
-6249 -49 0
-6249 56 0
-6249 -61 0
-6249 63 0
-6249 -65 0
-6249 -66 0
6249 -15 24 25 -32 33 42 -47 48 49 -56 61 -63 65 66 0
-6250 15 0
-6250 -24 0
-6250 -25 0
-6250 32 0
-6250 -33 0
-6250 -42 0
-6250 -47 0
-6250 48 0
-6250 -49 0
-6250 56 0
-6250 -61 0
-6250 63 0
-6250 -65 0
-6250 -66 0
6250 -15 24 25 -32 33 42 47 -48 49 -56 61 -63 65 66 0
-6251 -15 0
-6251 -24 0
-6251 -25 0
-6251 32 0
-6251 -33 0
-6251 -42 0
-6251 47 0
-6251 48 0
-6251 -49 0
-6251 56 0
-6251 -61 0
-6251 63 0
-6251 -65 0
-6251 -66 0
6251 15 24 25 -32 33 42 -47 -48 49 -56 61 -63 65 66 0
-6252 -15 0
-6252 -24 0
-6252 -25 0
-6252 32 0
-6252 -33 0
-6252 -42 0
-6252 47 0
-6252 -48 0
-6252 49 0
-6252 56 0
-6252 -61 0
-6252 63 0
-6252 -65 0
-6252 -66 0
6252 15 24 25 -32 33 42 -47 48 -49 -56 61 -63 65 66 0
-6253 15 0
-6253 -24 0
-6253 -25 0
-6253 32 0
-6253 -33 0
-6253 -42 0
-6253 -47 0
-6253 -48 0
-6253 49 0
-6253 56 0
-6253 -61 0
-6253 63 0
-6253 -65 0
-6253 -66 0
6253 -15 24 25 -32 33 42 47 48 -49 -56 61 -63 65 66 0
-6254 15 0
-6254 -24 0
-6254 -25 0
-6254 32 0
-6254 -33 0
-6254 -42 0
-6254 47 0
-6254 48 0
-6254 49 0
-6254 56 0
-6254 -61 0
-6254 63 0
-6254 -65 0
-6254 -66 0
6254 -15 24 25 -32 33 42 -47 -48 -49 -56 61 -63 65 66 0
-6255 -15 0
-6255 -24 0
-6255 -25 0
-6255 32 0
-6255 -33 0
-6255 -42 0
-6255 -47 0
-6255 48 0
-6255 49 0
-6255 56 0
-6255 -61 0
-6255 63 0
-6255 -65 0
-6255 -66 0
6255 15 24 25 -32 33 42 47 -48 -49 -56 61 -63 65 66 0
-6256 -15 0
-6256 24 0
-6256 -25 0
-6256 32 0
-6256 -33 0
-6256 -42 0
-6256 47 0
-6256 48 0
-6256 49 0
-6256 56 0
-6256 -61 0
-6256 63 0
-6256 -65 0
-6256 -66 0
6256 15 -24 25 -32 33 42 -47 -48 -49 -56 61 -63 65 66 0
-6257 15 0
-6257 24 0
-6257 -25 0
-6257 32 0
-6257 -33 0
-6257 -42 0
-6257 -47 0
-6257 48 0
-6257 49 0
-6257 56 0
-6257 -61 0
-6257 63 0
-6257 -65 0
-6257 -66 0
6257 -15 -24 25 -32 33 42 47 -48 -49 -56 61 -63 65 66 0
-6258 15 0
-6258 24 0
-6258 -25 0
-6258 32 0
-6258 -33 0
-6258 -42 0
-6258 47 0
-6258 -48 0
-6258 49 0
-6258 56 0
-6258 -61 0
-6258 63 0
-6258 -65 0
-6258 -66 0
6258 -15 -24 25 -32 33 42 -47 48 -49 -56 61 -63 65 66 0
-6259 -15 0
-6259 24 0
-6259 -25 0
-6259 32 0
-6259 -33 0
-6259 -42 0
-6259 -47 0
-6259 -48 0
-6259 49 0
-6259 56 0
-6259 -61 0
-6259 63 0
-6259 -65 0
-6259 -66 0
6259 15 -24 25 -32 33 42 47 48 -49 -56 61 -63 65 66 0
-6260 -15 0
-6260 24 0
-6260 -25 0
-6260 32 0
-6260 -33 0
-6260 -42 0
-6260 47 0
-6260 -48 0
-6260 -49 0
-6260 56 0
-6260 -61 0
-6260 63 0
-6260 -65 0
-6260 -66 0
6260 15 -24 25 -32 33 42 -47 48 49 -56 61 -63 65 66 0
-6261 15 0
-6261 24 0
-6261 -25 0
-6261 32 0
-6261 -33 0
-6261 -42 0
-6261 47 0
-6261 48 0
-6261 -49 0
-6261 56 0
-6261 -61 0
-6261 63 0
-6261 -65 0
-6261 -66 0
6261 -15 -24 25 -32 33 42 -47 -48 49 -56 61 -63 65 66 0
-6262 -15 0
-6262 24 0
-6262 -25 0
-6262 32 0
-6262 -33 0
-6262 -42 0
-6262 -47 0
-6262 48 0
-6262 -49 0
-6262 56 0
-6262 -61 0
-6262 63 0
-6262 -65 0
-6262 -66 0
6262 15 -24 25 -32 33 42 47 -48 49 -56 61 -63 65 66 0
-6263 -15 0
-6263 24 0
-6263 25 0
-6263 32 0
-6263 -33 0
-6263 -42 0
-6263 47 0
-6263 48 0
-6263 -49 0
-6263 56 0
-6263 -61 0
-6263 63 0
-6263 -65 0
-6263 -66 0
6263 15 -24 -25 -32 33 42 -47 -48 49 -56 61 -63 65 66 0
-6264 15 0
-6264 24 0
-6264 25 0
-6264 32 0
-6264 -33 0
-6264 -42 0
-6264 -47 0
-6264 48 0
-6264 -49 0
-6264 56 0
-6264 -61 0
-6264 63 0
-6264 -65 0
-6264 -66 0
6264 -15 -24 -25 -32 33 42 47 -48 49 -56 61 -63 65 66 0
-6265 15 0
-6265 24 0
-6265 25 0
-6265 32 0
-6265 -33 0
-6265 -42 0
-6265 47 0
-6265 -48 0
-6265 -49 0
-6265 56 0
-6265 -61 0
-6265 63 0
-6265 -65 0
-6265 -66 0
6265 -15 -24 -25 -32 33 42 -47 48 49 -56 61 -63 65 66 0
-6266 -15 0
-6266 24 0
-6266 25 0
-6266 32 0
-6266 -33 0
-6266 -42 0
-6266 47 0
-6266 -48 0
-6266 49 0
-6266 56 0
-6266 -61 0
-6266 63 0
-6266 -65 0
-6266 -66 0
6266 15 -24 -25 -32 33 42 -47 48 -49 -56 61 -63 65 66 0
-6267 15 0
-6267 24 0
-6267 25 0
-6267 32 0
-6267 -33 0
-6267 -42 0
-6267 -47 0
-6267 -48 0
-6267 49 0
-6267 56 0
-6267 -61 0
-6267 63 0
-6267 -65 0
-6267 -66 0
6267 -15 -24 -25 -32 33 42 47 48 -49 -56 61 -63 65 66 0
-6268 15 0
-6268 24 0
-6268 25 0
-6268 32 0
-6268 -33 0
-6268 -42 0
-6268 47 0
-6268 48 0
-6268 49 0
-6268 56 0
-6268 -61 0
-6268 63 0
-6268 -65 0
-6268 -66 0
6268 -15 -24 -25 -32 33 42 -47 -48 -49 -56 61 -63 65 66 0
-6269 -15 0
-6269 24 0
-6269 25 0
-6269 32 0
-6269 -33 0
-6269 -42 0
-6269 -47 0
-6269 48 0
-6269 49 0
-6269 56 0
-6269 -61 0
-6269 63 0
-6269 -65 0
-6269 -66 0
6269 15 -24 -25 -32 33 42 47 -48 -49 -56 61 -63 65 66 0
-6270 -15 0
-6270 -24 0
-6270 25 0
-6270 32 0
-6270 -33 0
-6270 -42 0
-6270 47 0
-6270 48 0
-6270 49 0
-6270 56 0
-6270 -61 0
-6270 63 0
-6270 -65 0
-6270 -66 0
6270 15 24 -25 -32 33 42 -47 -48 -49 -56 61 -63 65 66 0
-6271 15 0
-6271 -24 0
-6271 25 0
-6271 32 0
-6271 -33 0
-6271 -42 0
-6271 -47 0
-6271 48 0
-6271 49 0
-6271 56 0
-6271 -61 0
-6271 63 0
-6271 -65 0
-6271 -66 0
6271 -15 24 -25 -32 33 42 47 -48 -49 -56 61 -63 65 66 0
-6272 15 0
-6272 -24 0
-6272 25 0
-6272 32 0
-6272 -33 0
-6272 -42 0
-6272 47 0
-6272 -48 0
-6272 49 0
-6272 56 0
-6272 -61 0
-6272 63 0
-6272 -65 0
-6272 -66 0
6272 -15 24 -25 -32 33 42 -47 48 -49 -56 61 -63 65 66 0
-6273 -15 0
-6273 -24 0
-6273 25 0
-6273 32 0
-6273 -33 0
-6273 -42 0
-6273 -47 0
-6273 -48 0
-6273 49 0
-6273 56 0
-6273 -61 0
-6273 63 0
-6273 -65 0
-6273 -66 0
6273 15 24 -25 -32 33 42 47 48 -49 -56 61 -63 65 66 0
-6274 -15 0
-6274 -24 0
-6274 25 0
-6274 32 0
-6274 -33 0
-6274 -42 0
-6274 47 0
-6274 -48 0
-6274 -49 0
-6274 56 0
-6274 -61 0
-6274 63 0
-6274 -65 0
-6274 -66 0
6274 15 24 -25 -32 33 42 -47 48 49 -56 61 -63 65 66 0
-6275 15 0
-6275 -24 0
-6275 25 0
-6275 32 0
-6275 -33 0
-6275 -42 0
-6275 47 0
-6275 48 0
-6275 -49 0
-6275 56 0
-6275 -61 0
-6275 63 0
-6275 -65 0
-6275 -66 0
6275 -15 24 -25 -32 33 42 -47 -48 49 -56 61 -63 65 66 0
-6276 -15 0
-6276 -24 0
-6276 25 0
-6276 32 0
-6276 -33 0
-6276 -42 0
-6276 -47 0
-6276 48 0
-6276 -49 0
-6276 56 0
-6276 -61 0
-6276 63 0
-6276 -65 0
-6276 -66 0
6276 15 24 -25 -32 33 42 47 -48 49 -56 61 -63 65 66 0
-6277 -15 0
-6277 -24 0
-6277 25 0
-6277 32 0
-6277 33 0
-6277 -42 0
-6277 47 0
-6277 48 0
-6277 -49 0
-6277 56 0
-6277 -61 0
-6277 63 0
-6277 -65 0
-6277 -66 0
6277 15 24 -25 -32 -33 42 -47 -48 49 -56 61 -63 65 66 0
-6278 15 0
-6278 -24 0
-6278 25 0
-6278 32 0
-6278 33 0
-6278 -42 0
-6278 -47 0
-6278 48 0
-6278 -49 0
-6278 56 0
-6278 -61 0
-6278 63 0
-6278 -65 0
-6278 -66 0
6278 -15 24 -25 -32 -33 42 47 -48 49 -56 61 -63 65 66 0
-6279 15 0
-6279 -24 0
-6279 25 0
-6279 32 0
-6279 33 0
-6279 -42 0
-6279 47 0
-6279 -48 0
-6279 -49 0
-6279 56 0
-6279 -61 0
-6279 63 0
-6279 -65 0
-6279 -66 0
6279 -15 24 -25 -32 -33 42 -47 48 49 -56 61 -63 65 66 0
-6280 -15 0
-6280 -24 0
-6280 25 0
-6280 32 0
-6280 33 0
-6280 -42 0
-6280 47 0
-6280 -48 0
-6280 49 0
-6280 56 0
-6280 -61 0
-6280 63 0
-6280 -65 0
-6280 -66 0
6280 15 24 -25 -32 -33 42 -47 48 -49 -56 61 -63 65 66 0
-6281 15 0
-6281 -24 0
-6281 25 0
-6281 32 0
-6281 33 0
-6281 -42 0
-6281 -47 0
-6281 -48 0
-6281 49 0
-6281 56 0
-6281 -61 0
-6281 63 0
-6281 -65 0
-6281 -66 0
6281 -15 24 -25 -32 -33 42 47 48 -49 -56 61 -63 65 66 0
-6282 15 0
-6282 -24 0
-6282 25 0
-6282 32 0
-6282 33 0
-6282 -42 0
-6282 47 0
-6282 48 0
-6282 49 0
-6282 56 0
-6282 -61 0
-6282 63 0
-6282 -65 0
-6282 -66 0
6282 -15 24 -25 -32 -33 42 -47 -48 -49 -56 61 -63 65 66 0
-6283 -15 0
-6283 -24 0
-6283 25 0
-6283 32 0
-6283 33 0
-6283 -42 0
-6283 -47 0
-6283 48 0
-6283 49 0
-6283 56 0
-6283 -61 0
-6283 63 0
-6283 -65 0
-6283 -66 0
6283 15 24 -25 -32 -33 42 47 -48 -49 -56 61 -63 65 66 0
-6284 -15 0
-6284 24 0
-6284 25 0
-6284 32 0
-6284 33 0
-6284 -42 0
-6284 47 0
-6284 48 0
-6284 49 0
-6284 56 0
-6284 -61 0
-6284 63 0
-6284 -65 0
-6284 -66 0
6284 15 -24 -25 -32 -33 42 -47 -48 -49 -56 61 -63 65 66 0
-6285 15 0
-6285 24 0
-6285 25 0
-6285 32 0
-6285 33 0
-6285 -42 0
-6285 -47 0
-6285 48 0
-6285 49 0
-6285 56 0
-6285 -61 0
-6285 63 0
-6285 -65 0
-6285 -66 0
6285 -15 -24 -25 -32 -33 42 47 -48 -49 -56 61 -63 65 66 0
-6286 15 0
-6286 24 0
-6286 25 0
-6286 32 0
-6286 33 0
-6286 -42 0
-6286 47 0
-6286 -48 0
-6286 49 0
-6286 56 0
-6286 -61 0
-6286 63 0
-6286 -65 0
-6286 -66 0
6286 -15 -24 -25 -32 -33 42 -47 48 -49 -56 61 -63 65 66 0
-6287 -15 0
-6287 24 0
-6287 25 0
-6287 32 0
-6287 33 0
-6287 -42 0
-6287 -47 0
-6287 -48 0
-6287 49 0
-6287 56 0
-6287 -61 0
-6287 63 0
-6287 -65 0
-6287 -66 0
6287 15 -24 -25 -32 -33 42 47 48 -49 -56 61 -63 65 66 0
-6288 -15 0
-6288 24 0
-6288 25 0
-6288 32 0
-6288 33 0
-6288 -42 0
-6288 47 0
-6288 -48 0
-6288 -49 0
-6288 56 0
-6288 -61 0
-6288 63 0
-6288 -65 0
-6288 -66 0
6288 15 -24 -25 -32 -33 42 -47 48 49 -56 61 -63 65 66 0
-6289 15 0
-6289 24 0
-6289 25 0
-6289 32 0
-6289 33 0
-6289 -42 0
-6289 47 0
-6289 48 0
-6289 -49 0
-6289 56 0
-6289 -61 0
-6289 63 0
-6289 -65 0
-6289 -66 0
6289 -15 -24 -25 -32 -33 42 -47 -48 49 -56 61 -63 65 66 0
-6290 -15 0
-6290 24 0
-6290 25 0
-6290 32 0
-6290 33 0
-6290 -42 0
-6290 -47 0
-6290 48 0
-6290 -49 0
-6290 56 0
-6290 -61 0
-6290 63 0
-6290 -65 0
-6290 -66 0
6290 15 -24 -25 -32 -33 42 47 -48 49 -56 61 -63 65 66 0
-6291 -15 0
-6291 24 0
-6291 -25 0
-6291 32 0
-6291 33 0
-6291 -42 0
-6291 47 0
-6291 48 0
-6291 -49 0
-6291 56 0
-6291 -61 0
-6291 63 0
-6291 -65 0
-6291 -66 0
6291 15 -24 25 -32 -33 42 -47 -48 49 -56 61 -63 65 66 0
-6292 15 0
-6292 24 0
-6292 -25 0
-6292 32 0
-6292 33 0
-6292 -42 0
-6292 -47 0
-6292 48 0
-6292 -49 0
-6292 56 0
-6292 -61 0
-6292 63 0
-6292 -65 0
-6292 -66 0
6292 -15 -24 25 -32 -33 42 47 -48 49 -56 61 -63 65 66 0
-6293 15 0
-6293 24 0
-6293 -25 0
-6293 32 0
-6293 33 0
-6293 -42 0
-6293 47 0
-6293 -48 0
-6293 -49 0
-6293 56 0
-6293 -61 0
-6293 63 0
-6293 -65 0
-6293 -66 0
6293 -15 -24 25 -32 -33 42 -47 48 49 -56 61 -63 65 66 0
-6294 -15 0
-6294 24 0
-6294 -25 0
-6294 32 0
-6294 33 0
-6294 -42 0
-6294 47 0
-6294 -48 0
-6294 49 0
-6294 56 0
-6294 -61 0
-6294 63 0
-6294 -65 0
-6294 -66 0
6294 15 -24 25 -32 -33 42 -47 48 -49 -56 61 -63 65 66 0
-6295 15 0
-6295 24 0
-6295 -25 0
-6295 32 0
-6295 33 0
-6295 -42 0
-6295 -47 0
-6295 -48 0
-6295 49 0
-6295 56 0
-6295 -61 0
-6295 63 0
-6295 -65 0
-6295 -66 0
6295 -15 -24 25 -32 -33 42 47 48 -49 -56 61 -63 65 66 0
-6296 15 0
-6296 24 0
-6296 -25 0
-6296 32 0
-6296 33 0
-6296 -42 0
-6296 47 0
-6296 48 0
-6296 49 0
-6296 56 0
-6296 -61 0
-6296 63 0
-6296 -65 0
-6296 -66 0
6296 -15 -24 25 -32 -33 42 -47 -48 -49 -56 61 -63 65 66 0
-6297 -15 0
-6297 24 0
-6297 -25 0
-6297 32 0
-6297 33 0
-6297 -42 0
-6297 -47 0
-6297 48 0
-6297 49 0
-6297 56 0
-6297 -61 0
-6297 63 0
-6297 -65 0
-6297 -66 0
6297 15 -24 25 -32 -33 42 47 -48 -49 -56 61 -63 65 66 0
-6298 -15 0
-6298 -24 0
-6298 -25 0
-6298 32 0
-6298 33 0
-6298 -42 0
-6298 47 0
-6298 48 0
-6298 49 0
-6298 56 0
-6298 -61 0
-6298 63 0
-6298 -65 0
-6298 -66 0
6298 15 24 25 -32 -33 42 -47 -48 -49 -56 61 -63 65 66 0
-6299 15 0
-6299 -24 0
-6299 -25 0
-6299 32 0
-6299 33 0
-6299 -42 0
-6299 -47 0
-6299 48 0
-6299 49 0
-6299 56 0
-6299 -61 0
-6299 63 0
-6299 -65 0
-6299 -66 0
6299 -15 24 25 -32 -33 42 47 -48 -49 -56 61 -63 65 66 0
-6300 15 0
-6300 -24 0
-6300 -25 0
-6300 32 0
-6300 33 0
-6300 -42 0
-6300 47 0
-6300 -48 0
-6300 49 0
-6300 56 0
-6300 -61 0
-6300 63 0
-6300 -65 0
-6300 -66 0
6300 -15 24 25 -32 -33 42 -47 48 -49 -56 61 -63 65 66 0
-6301 -15 0
-6301 -24 0
-6301 -25 0
-6301 32 0
-6301 33 0
-6301 -42 0
-6301 -47 0
-6301 -48 0
-6301 49 0
-6301 56 0
-6301 -61 0
-6301 63 0
-6301 -65 0
-6301 -66 0
6301 15 24 25 -32 -33 42 47 48 -49 -56 61 -63 65 66 0
-6302 -15 0
-6302 -24 0
-6302 -25 0
-6302 32 0
-6302 33 0
-6302 -42 0
-6302 47 0
-6302 -48 0
-6302 -49 0
-6302 56 0
-6302 -61 0
-6302 63 0
-6302 -65 0
-6302 -66 0
6302 15 24 25 -32 -33 42 -47 48 49 -56 61 -63 65 66 0
-6303 15 0
-6303 -24 0
-6303 -25 0
-6303 32 0
-6303 33 0
-6303 -42 0
-6303 47 0
-6303 48 0
-6303 -49 0
-6303 56 0
-6303 -61 0
-6303 63 0
-6303 -65 0
-6303 -66 0
6303 -15 24 25 -32 -33 42 -47 -48 49 -56 61 -63 65 66 0
-6304 -15 0
-6304 -24 0
-6304 -25 0
-6304 32 0
-6304 33 0
-6304 -42 0
-6304 -47 0
-6304 48 0
-6304 -49 0
-6304 56 0
-6304 -61 0
-6304 63 0
-6304 -65 0
-6304 -66 0
6304 15 24 25 -32 -33 42 47 -48 49 -56 61 -63 65 66 0
-6305 -15 0
-6305 -24 0
-6305 -25 0
-6305 32 0
-6305 33 0
-6305 -42 0
-6305 -47 0
-6305 48 0
-6305 -49 0
-6305 54 0
-6305 62 0
-6305 -64 0
-6305 -65 0
-6305 -66 0
6305 15 24 25 -32 -33 42 47 -48 49 -54 -62 64 65 66 0
-6306 -15 0
-6306 -24 0
-6306 -25 0
-6306 32 0
-6306 33 0
-6306 -42 0
-6306 -47 0
-6306 48 0
-6306 -49 0
-6306 54 0
-6306 63 0
-6306 -64 0
-6306 -65 0
-6306 -66 0
6306 15 24 25 -32 -33 42 47 -48 49 -54 -63 64 65 66 0
-6307 15 0
-6307 -24 0
-6307 -25 0
-6307 32 0
-6307 33 0
-6307 -42 0
-6307 47 0
-6307 48 0
-6307 -49 0
-6307 54 0
-6307 63 0
-6307 -64 0
-6307 -65 0
-6307 -66 0
6307 -15 24 25 -32 -33 42 -47 -48 49 -54 -63 64 65 66 0
-6308 15 0
-6308 -24 0
-6308 -25 0
-6308 -32 0
-6308 33 0
-6308 42 0
-6308 47 0
-6308 48 0
-6308 -49 0
-6308 56 0
-6308 -61 0
-6308 63 0
-6308 -65 0
-6308 -66 0
6308 -15 24 25 32 -33 -42 -47 -48 49 -56 61 -63 65 66 0
-6309 -15 0
-6309 -24 0
-6309 -25 0
-6309 -32 0
-6309 -33 0
-6309 -42 0
-6309 -47 0
-6309 -48 0
-6309 49 0
-6309 54 0
-6309 63 0
-6309 -64 0
-6309 -65 0
-6309 -66 0
6309 15 24 25 32 33 42 47 48 -49 -54 -63 64 65 66 0
-6310 -15 0
-6310 -24 0
-6310 -25 0
-6310 -32 0
-6310 -33 0
-6310 -42 0
-6310 -47 0
-6310 -48 0
-6310 49 0
-6310 54 0
-6310 62 0
-6310 -64 0
-6310 -65 0
-6310 -66 0
6310 15 24 25 32 33 42 47 48 -49 -54 -62 64 65 66 0
-6311 -15 0
-6311 -24 0
-6311 -25 0
-6311 32 0
-6311 -33 0
-6311 -42 0
-6311 -47 0
-6311 -48 0
-6311 -49 0
-6311 54 0
-6311 63 0
-6311 -64 0
-6311 -65 0
-6311 -66 0
6311 15 24 25 -32 33 42 47 48 49 -54 -63 64 65 66 0
-6312 15 0
-6312 -24 0
-6312 -25 0
-6312 32 0
-6312 33 0
-6312 -42 0
-6312 -47 0
-6312 -48 0
-6312 -49 0
-6312 54 0
-6312 63 0
-6312 -64 0
-6312 -65 0
-6312 -66 0
6312 -15 24 25 -32 -33 42 47 48 49 -54 -63 64 65 66 0
-6313 15 0
-6313 24 0
-6313 25 0
-6313 -32 0
-6313 33 0
-6313 42 0
-6313 47 0
-6313 48 0
-6313 -49 0
-6313 54 0
-6313 63 0
-6313 -64 0
-6313 -65 0
-6313 -66 0
6313 -15 -24 -25 32 -33 -42 -47 -48 49 -54 -63 64 65 66 0
-6314 -15 0
-6314 24 0
-6314 -25 0
-6314 -32 0
-6314 33 0
-6314 42 0
-6314 47 0
-6314 48 0
-6314 -49 0
-6314 54 0
-6314 63 0
-6314 -64 0
-6314 -65 0
-6314 -66 0
6314 15 -24 25 32 -33 -42 -47 -48 49 -54 -63 64 65 66 0
-6315 15 0
-6315 -24 0
-6315 -25 0
-6315 32 0
-6315 33 0
-6315 42 0
-6315 -47 0
-6315 48 0
-6315 -49 0
-6315 56 0
-6315 -61 0
-6315 63 0
-6315 -65 0
-6315 -66 0
6315 -15 24 25 -32 -33 -42 47 -48 49 -56 61 -63 65 66 0
-6316 15 0
-6316 -24 0
-6316 -25 0
-6316 -32 0
-6316 33 0
-6316 -42 0
-6316 -47 0
-6316 48 0
-6316 -49 0
-6316 56 0
-6316 -61 0
-6316 63 0
-6316 -65 0
-6316 -66 0
6316 -15 24 25 32 -33 42 47 -48 49 -56 61 -63 65 66 0
-6317 -15 0
-6317 -24 0
-6317 -25 0
-6317 -32 0
-6317 33 0
-6317 42 0
-6317 -47 0
-6317 48 0
-6317 -49 0
-6317 56 0
-6317 -61 0
-6317 63 0
-6317 -65 0
-6317 -66 0
6317 15 24 25 32 -33 -42 47 -48 49 -56 61 -63 65 66 0
-6318 -15 0
-6318 -24 0
-6318 -25 0
-6318 32 0
-6318 33 0
-6318 42 0
-6318 47 0
-6318 48 0
-6318 -49 0
-6318 56 0
-6318 -61 0
-6318 63 0
-6318 -65 0
-6318 -66 0
6318 15 24 25 -32 -33 -42 -47 -48 49 -56 61 -63 65 66 0
-6319 -15 0
-6319 -24 0
-6319 -25 0
-6319 -32 0
-6319 33 0
-6319 -42 0
-6319 47 0
-6319 48 0
-6319 -49 0
-6319 56 0
-6319 -61 0
-6319 63 0
-6319 -65 0
-6319 -66 0
6319 15 24 25 32 -33 42 -47 -48 49 -56 61 -63 65 66 0
-6320 -15 0
-6320 -24 0
-6320 -25 0
-6320 -32 0
-6320 33 0
-6320 42 0
-6320 47 0
-6320 -48 0
-6320 -49 0
-6320 56 0
-6320 -61 0
-6320 63 0
-6320 -65 0
-6320 -66 0
6320 15 24 25 32 -33 -42 -47 48 49 -56 61 -63 65 66 0
-6321 -15 0
-6321 -24 0
-6321 -25 0
-6321 32 0
-6321 33 0
-6321 42 0
-6321 -47 0
-6321 -48 0
-6321 -49 0
-6321 56 0
-6321 -61 0
-6321 63 0
-6321 -65 0
-6321 -66 0
6321 15 24 25 -32 -33 -42 47 48 49 -56 61 -63 65 66 0
-6322 -15 0
-6322 -24 0
-6322 -25 0
-6322 -32 0
-6322 33 0
-6322 -42 0
-6322 -47 0
-6322 -48 0
-6322 -49 0
-6322 56 0
-6322 -61 0
-6322 63 0
-6322 -65 0
-6322 -66 0
6322 15 24 25 32 -33 42 47 48 49 -56 61 -63 65 66 0
-6323 15 0
-6323 -24 0
-6323 -25 0
-6323 -32 0
-6323 33 0
-6323 42 0
-6323 -47 0
-6323 -48 0
-6323 -49 0
-6323 56 0
-6323 -61 0
-6323 63 0
-6323 -65 0
-6323 -66 0
6323 -15 24 25 32 -33 -42 47 48 49 -56 61 -63 65 66 0
-6324 15 0
-6324 -24 0
-6324 -25 0
-6324 32 0
-6324 33 0
-6324 42 0
-6324 47 0
-6324 -48 0
-6324 -49 0
-6324 56 0
-6324 -61 0
-6324 63 0
-6324 -65 0
-6324 -66 0
6324 -15 24 25 -32 -33 -42 -47 48 49 -56 61 -63 65 66 0
-6325 15 0
-6325 -24 0
-6325 -25 0
-6325 -32 0
-6325 33 0
-6325 -42 0
-6325 47 0
-6325 -48 0
-6325 -49 0
-6325 56 0
-6325 -61 0
-6325 63 0
-6325 -65 0
-6325 -66 0
6325 -15 24 25 32 -33 42 -47 48 49 -56 61 -63 65 66 0
-6326 15 0
-6326 -24 0
-6326 -25 0
-6326 -32 0
-6326 33 0
-6326 42 0
-6326 47 0
-6326 -48 0
-6326 49 0
-6326 56 0
-6326 -61 0
-6326 63 0
-6326 -65 0
-6326 -66 0
6326 -15 24 25 32 -33 -42 -47 48 -49 -56 61 -63 65 66 0
-6327 15 0
-6327 -24 0
-6327 -25 0
-6327 32 0
-6327 33 0
-6327 42 0
-6327 -47 0
-6327 -48 0
-6327 49 0
-6327 56 0
-6327 -61 0
-6327 63 0
-6327 -65 0
-6327 -66 0
6327 -15 24 25 -32 -33 -42 47 48 -49 -56 61 -63 65 66 0
-6328 15 0
-6328 -24 0
-6328 -25 0
-6328 -32 0
-6328 33 0
-6328 -42 0
-6328 -47 0
-6328 -48 0
-6328 49 0
-6328 56 0
-6328 -61 0
-6328 63 0
-6328 -65 0
-6328 -66 0
6328 -15 24 25 32 -33 42 47 48 -49 -56 61 -63 65 66 0
-6329 -15 0
-6329 -24 0
-6329 -25 0
-6329 -32 0
-6329 33 0
-6329 42 0
-6329 -47 0
-6329 -48 0
-6329 49 0
-6329 56 0
-6329 -61 0
-6329 63 0
-6329 -65 0
-6329 -66 0
6329 15 24 25 32 -33 -42 47 48 -49 -56 61 -63 65 66 0
-6330 -15 0
-6330 -24 0
-6330 -25 0
-6330 32 0
-6330 33 0
-6330 42 0
-6330 47 0
-6330 -48 0
-6330 49 0
-6330 56 0
-6330 -61 0
-6330 63 0
-6330 -65 0
-6330 -66 0
6330 15 24 25 -32 -33 -42 -47 48 -49 -56 61 -63 65 66 0
-6331 -15 0
-6331 -24 0
-6331 -25 0
-6331 -32 0
-6331 33 0
-6331 -42 0
-6331 47 0
-6331 -48 0
-6331 49 0
-6331 56 0
-6331 -61 0
-6331 63 0
-6331 -65 0
-6331 -66 0
6331 15 24 25 32 -33 42 -47 48 -49 -56 61 -63 65 66 0
-6332 -15 0
-6332 -24 0
-6332 -25 0
-6332 -32 0
-6332 33 0
-6332 42 0
-6332 47 0
-6332 48 0
-6332 49 0
-6332 56 0
-6332 -61 0
-6332 63 0
-6332 -65 0
-6332 -66 0
6332 15 24 25 32 -33 -42 -47 -48 -49 -56 61 -63 65 66 0
-6333 -15 0
-6333 -24 0
-6333 -25 0
-6333 32 0
-6333 33 0
-6333 42 0
-6333 -47 0
-6333 48 0
-6333 49 0
-6333 56 0
-6333 -61 0
-6333 63 0
-6333 -65 0
-6333 -66 0
6333 15 24 25 -32 -33 -42 47 -48 -49 -56 61 -63 65 66 0
-6334 -15 0
-6334 -24 0
-6334 -25 0
-6334 -32 0
-6334 33 0
-6334 -42 0
-6334 -47 0
-6334 48 0
-6334 49 0
-6334 56 0
-6334 -61 0
-6334 63 0
-6334 -65 0
-6334 -66 0
6334 15 24 25 32 -33 42 47 -48 -49 -56 61 -63 65 66 0
-6335 15 0
-6335 -24 0
-6335 -25 0
-6335 -32 0
-6335 33 0
-6335 42 0
-6335 -47 0
-6335 48 0
-6335 49 0
-6335 56 0
-6335 -61 0
-6335 63 0
-6335 -65 0
-6335 -66 0
6335 -15 24 25 32 -33 -42 47 -48 -49 -56 61 -63 65 66 0
-6336 15 0
-6336 -24 0
-6336 -25 0
-6336 32 0
-6336 33 0
-6336 42 0
-6336 47 0
-6336 48 0
-6336 49 0
-6336 56 0
-6336 -61 0
-6336 63 0
-6336 -65 0
-6336 -66 0
6336 -15 24 25 -32 -33 -42 -47 -48 -49 -56 61 -63 65 66 0
-6337 15 0
-6337 -24 0
-6337 -25 0
-6337 -32 0
-6337 33 0
-6337 -42 0
-6337 47 0
-6337 48 0
-6337 49 0
-6337 56 0
-6337 -61 0
-6337 63 0
-6337 -65 0
-6337 -66 0
6337 -15 24 25 32 -33 42 -47 -48 -49 -56 61 -63 65 66 0
-6338 15 0
-6338 24 0
-6338 -25 0
-6338 -32 0
-6338 33 0
-6338 42 0
-6338 47 0
-6338 48 0
-6338 49 0
-6338 56 0
-6338 -61 0
-6338 63 0
-6338 -65 0
-6338 -66 0
6338 -15 -24 25 32 -33 -42 -47 -48 -49 -56 61 -63 65 66 0
-6339 15 0
-6339 24 0
-6339 -25 0
-6339 32 0
-6339 33 0
-6339 42 0
-6339 -47 0
-6339 48 0
-6339 49 0
-6339 56 0
-6339 -61 0
-6339 63 0
-6339 -65 0
-6339 -66 0
6339 -15 -24 25 -32 -33 -42 47 -48 -49 -56 61 -63 65 66 0
-6340 15 0
-6340 24 0
-6340 -25 0
-6340 -32 0
-6340 33 0
-6340 -42 0
-6340 -47 0
-6340 48 0
-6340 49 0
-6340 56 0
-6340 -61 0
-6340 63 0
-6340 -65 0
-6340 -66 0
6340 -15 -24 25 32 -33 42 47 -48 -49 -56 61 -63 65 66 0
-6341 -15 0
-6341 24 0
-6341 -25 0
-6341 -32 0
-6341 33 0
-6341 42 0
-6341 -47 0
-6341 48 0
-6341 49 0
-6341 56 0
-6341 -61 0
-6341 63 0
-6341 -65 0
-6341 -66 0
6341 15 -24 25 32 -33 -42 47 -48 -49 -56 61 -63 65 66 0
-6342 -15 0
-6342 24 0
-6342 -25 0
-6342 32 0
-6342 33 0
-6342 42 0
-6342 47 0
-6342 48 0
-6342 49 0
-6342 56 0
-6342 -61 0
-6342 63 0
-6342 -65 0
-6342 -66 0
6342 15 -24 25 -32 -33 -42 -47 -48 -49 -56 61 -63 65 66 0
-6343 -15 0
-6343 24 0
-6343 -25 0
-6343 -32 0
-6343 33 0
-6343 -42 0
-6343 47 0
-6343 48 0
-6343 49 0
-6343 56 0
-6343 -61 0
-6343 63 0
-6343 -65 0
-6343 -66 0
6343 15 -24 25 32 -33 42 -47 -48 -49 -56 61 -63 65 66 0
-6344 -15 0
-6344 24 0
-6344 -25 0
-6344 -32 0
-6344 33 0
-6344 42 0
-6344 47 0
-6344 -48 0
-6344 49 0
-6344 56 0
-6344 -61 0
-6344 63 0
-6344 -65 0
-6344 -66 0
6344 15 -24 25 32 -33 -42 -47 48 -49 -56 61 -63 65 66 0
-6345 -15 0
-6345 24 0
-6345 -25 0
-6345 32 0
-6345 33 0
-6345 42 0
-6345 -47 0
-6345 -48 0
-6345 49 0
-6345 56 0
-6345 -61 0
-6345 63 0
-6345 -65 0
-6345 -66 0
6345 15 -24 25 -32 -33 -42 47 48 -49 -56 61 -63 65 66 0
-6346 -15 0
-6346 24 0
-6346 -25 0
-6346 -32 0
-6346 33 0
-6346 -42 0
-6346 -47 0
-6346 -48 0
-6346 49 0
-6346 56 0
-6346 -61 0
-6346 63 0
-6346 -65 0
-6346 -66 0
6346 15 -24 25 32 -33 42 47 48 -49 -56 61 -63 65 66 0
-6347 15 0
-6347 24 0
-6347 -25 0
-6347 -32 0
-6347 33 0
-6347 42 0
-6347 -47 0
-6347 -48 0
-6347 49 0
-6347 56 0
-6347 -61 0
-6347 63 0
-6347 -65 0
-6347 -66 0
6347 -15 -24 25 32 -33 -42 47 48 -49 -56 61 -63 65 66 0
-6348 15 0
-6348 24 0
-6348 -25 0
-6348 32 0
-6348 33 0
-6348 42 0
-6348 47 0
-6348 -48 0
-6348 49 0
-6348 56 0
-6348 -61 0
-6348 63 0
-6348 -65 0
-6348 -66 0
6348 -15 -24 25 -32 -33 -42 -47 48 -49 -56 61 -63 65 66 0
-6349 15 0
-6349 24 0
-6349 -25 0
-6349 -32 0
-6349 33 0
-6349 -42 0
-6349 47 0
-6349 -48 0
-6349 49 0
-6349 56 0
-6349 -61 0
-6349 63 0
-6349 -65 0
-6349 -66 0
6349 -15 -24 25 32 -33 42 -47 48 -49 -56 61 -63 65 66 0
-6350 15 0
-6350 24 0
-6350 -25 0
-6350 -32 0
-6350 33 0
-6350 42 0
-6350 47 0
-6350 -48 0
-6350 -49 0
-6350 56 0
-6350 -61 0
-6350 63 0
-6350 -65 0
-6350 -66 0
6350 -15 -24 25 32 -33 -42 -47 48 49 -56 61 -63 65 66 0
-6351 15 0
-6351 24 0
-6351 -25 0
-6351 32 0
-6351 33 0
-6351 42 0
-6351 -47 0
-6351 -48 0
-6351 -49 0
-6351 56 0
-6351 -61 0
-6351 63 0
-6351 -65 0
-6351 -66 0
6351 -15 -24 25 -32 -33 -42 47 48 49 -56 61 -63 65 66 0
-6352 15 0
-6352 24 0
-6352 -25 0
-6352 -32 0
-6352 33 0
-6352 -42 0
-6352 -47 0
-6352 -48 0
-6352 -49 0
-6352 56 0
-6352 -61 0
-6352 63 0
-6352 -65 0
-6352 -66 0
6352 -15 -24 25 32 -33 42 47 48 49 -56 61 -63 65 66 0
-6353 -15 0
-6353 24 0
-6353 -25 0
-6353 -32 0
-6353 33 0
-6353 42 0
-6353 -47 0
-6353 -48 0
-6353 -49 0
-6353 56 0
-6353 -61 0
-6353 63 0
-6353 -65 0
-6353 -66 0
6353 15 -24 25 32 -33 -42 47 48 49 -56 61 -63 65 66 0
-6354 -15 0
-6354 24 0
-6354 -25 0
-6354 32 0
-6354 33 0
-6354 42 0
-6354 47 0
-6354 -48 0
-6354 -49 0
-6354 56 0
-6354 -61 0
-6354 63 0
-6354 -65 0
-6354 -66 0
6354 15 -24 25 -32 -33 -42 -47 48 49 -56 61 -63 65 66 0
-6355 -15 0
-6355 24 0
-6355 -25 0
-6355 -32 0
-6355 33 0
-6355 -42 0
-6355 47 0
-6355 -48 0
-6355 -49 0
-6355 56 0
-6355 -61 0
-6355 63 0
-6355 -65 0
-6355 -66 0
6355 15 -24 25 32 -33 42 -47 48 49 -56 61 -63 65 66 0
-6356 -15 0
-6356 24 0
-6356 -25 0
-6356 32 0
-6356 33 0
-6356 42 0
-6356 -47 0
-6356 48 0
-6356 -49 0
-6356 56 0
-6356 -61 0
-6356 63 0
-6356 -65 0
-6356 -66 0
6356 15 -24 25 -32 -33 -42 47 -48 49 -56 61 -63 65 66 0
-6357 -15 0
-6357 24 0
-6357 -25 0
-6357 32 0
-6357 33 0
-6357 42 0
-6357 -47 0
-6357 48 0
-6357 -49 0
-6357 54 0
-6357 63 0
-6357 -64 0
-6357 -65 0
-6357 -66 0
6357 15 -24 25 -32 -33 -42 47 -48 49 -54 -63 64 65 66 0
-6358 -15 0
-6358 24 0
-6358 -25 0
-6358 -32 0
-6358 33 0
-6358 -42 0
-6358 -47 0
-6358 48 0
-6358 -49 0
-6358 54 0
-6358 63 0
-6358 -64 0
-6358 -65 0
-6358 -66 0
6358 15 -24 25 32 -33 42 47 -48 49 -54 -63 64 65 66 0
-6359 -15 0
-6359 24 0
-6359 -25 0
-6359 32 0
-6359 33 0
-6359 -42 0
-6359 47 0
-6359 48 0
-6359 -49 0
-6359 54 0
-6359 63 0
-6359 -64 0
-6359 -65 0
-6359 -66 0
6359 15 -24 25 -32 -33 42 -47 -48 49 -54 -63 64 65 66 0
-6360 15 0
-6360 24 0
-6360 -25 0
-6360 -32 0
-6360 33 0
-6360 -42 0
-6360 47 0
-6360 48 0
-6360 -49 0
-6360 54 0
-6360 63 0
-6360 -64 0
-6360 -65 0
-6360 -66 0
6360 -15 -24 25 32 -33 42 -47 -48 49 -54 -63 64 65 66 0
-6361 15 0
-6361 24 0
-6361 -25 0
-6361 32 0
-6361 33 0
-6361 42 0
-6361 47 0
-6361 48 0
-6361 -49 0
-6361 54 0
-6361 63 0
-6361 -64 0
-6361 -65 0
-6361 -66 0
6361 -15 -24 25 -32 -33 -42 -47 -48 49 -54 -63 64 65 66 0
-6362 15 0
-6362 24 0
-6362 -25 0
-6362 -32 0
-6362 33 0
-6362 42 0
-6362 -47 0
-6362 48 0
-6362 -49 0
-6362 54 0
-6362 63 0
-6362 -64 0
-6362 -65 0
-6362 -66 0
6362 -15 -24 25 32 -33 -42 47 -48 49 -54 -63 64 65 66 0
-6363 -15 0
-6363 24 0
-6363 25 0
-6363 -32 0
-6363 -33 0
-6363 42 0
-6363 47 0
-6363 48 0
-6363 -49 0
-6363 54 0
-6363 63 0
-6363 -64 0
-6363 -65 0
-6363 -66 0
6363 15 -24 -25 32 33 -42 -47 -48 49 -54 -63 64 65 66 0
-6364 15 0
-6364 24 0
-6364 -25 0
-6364 -32 0
-6364 -33 0
-6364 42 0
-6364 47 0
-6364 48 0
-6364 -49 0
-6364 54 0
-6364 63 0
-6364 -64 0
-6364 -65 0
-6364 -66 0
6364 -15 -24 25 32 33 -42 -47 -48 49 -54 -63 64 65 66 0
-6365 15 0
-6365 24 0
-6365 -25 0
-6365 32 0
-6365 33 0
-6365 -42 0
-6365 -47 0
-6365 48 0
-6365 -49 0
-6365 54 0
-6365 63 0
-6365 -64 0
-6365 -65 0
-6365 -66 0
6365 -15 -24 25 -32 -33 42 47 -48 49 -54 -63 64 65 66 0
-6366 15 0
-6366 24 0
-6366 -25 0
-6366 -32 0
-6366 33 0
-6366 -42 0
-6366 -47 0
-6366 -48 0
-6366 -49 0
-6366 54 0
-6366 63 0
-6366 -64 0
-6366 -65 0
-6366 -66 0
6366 -15 -24 25 32 -33 42 47 48 49 -54 -63 64 65 66 0
-6367 15 0
-6367 24 0
-6367 -25 0
-6367 32 0
-6367 33 0
-6367 42 0
-6367 -47 0
-6367 -48 0
-6367 -49 0
-6367 54 0
-6367 63 0
-6367 -64 0
-6367 -65 0
-6367 -66 0
6367 -15 -24 25 -32 -33 -42 47 48 49 -54 -63 64 65 66 0
-6368 15 0
-6368 24 0
-6368 -25 0
-6368 -32 0
-6368 33 0
-6368 42 0
-6368 47 0
-6368 -48 0
-6368 -49 0
-6368 54 0
-6368 63 0
-6368 -64 0
-6368 -65 0
-6368 -66 0
6368 -15 -24 25 32 -33 -42 -47 48 49 -54 -63 64 65 66 0
-6369 15 0
-6369 24 0
-6369 -25 0
-6369 32 0
-6369 33 0
-6369 -42 0
-6369 47 0
-6369 -48 0
-6369 -49 0
-6369 54 0
-6369 63 0
-6369 -64 0
-6369 -65 0
-6369 -66 0
6369 -15 -24 25 -32 -33 42 -47 48 49 -54 -63 64 65 66 0
-6370 -15 0
-6370 24 0
-6370 -25 0
-6370 -32 0
-6370 33 0
-6370 -42 0
-6370 47 0
-6370 -48 0
-6370 -49 0
-6370 54 0
-6370 63 0
-6370 -64 0
-6370 -65 0
-6370 -66 0
6370 15 -24 25 32 -33 42 -47 48 49 -54 -63 64 65 66 0
-6371 -15 0
-6371 24 0
-6371 -25 0
-6371 32 0
-6371 33 0
-6371 42 0
-6371 47 0
-6371 -48 0
-6371 -49 0
-6371 54 0
-6371 63 0
-6371 -64 0
-6371 -65 0
-6371 -66 0
6371 15 -24 25 -32 -33 -42 -47 48 49 -54 -63 64 65 66 0
-6372 -15 0
-6372 24 0
-6372 -25 0
-6372 -32 0
-6372 33 0
-6372 42 0
-6372 -47 0
-6372 -48 0
-6372 -49 0
-6372 54 0
-6372 63 0
-6372 -64 0
-6372 -65 0
-6372 -66 0
6372 15 -24 25 32 -33 -42 47 48 49 -54 -63 64 65 66 0
-6373 -15 0
-6373 24 0
-6373 -25 0
-6373 32 0
-6373 33 0
-6373 -42 0
-6373 -47 0
-6373 -48 0
-6373 -49 0
-6373 54 0
-6373 63 0
-6373 -64 0
-6373 -65 0
-6373 -66 0
6373 15 -24 25 -32 -33 42 47 48 49 -54 -63 64 65 66 0
-6374 -15 0
-6374 24 0
-6374 -25 0
-6374 -32 0
-6374 33 0
-6374 -42 0
-6374 -47 0
-6374 -48 0
-6374 49 0
-6374 54 0
-6374 63 0
-6374 -64 0
-6374 -65 0
-6374 -66 0
6374 15 -24 25 32 -33 42 47 48 -49 -54 -63 64 65 66 0
-6375 -15 0
-6375 24 0
-6375 -25 0
-6375 32 0
-6375 33 0
-6375 42 0
-6375 -47 0
-6375 -48 0
-6375 49 0
-6375 54 0
-6375 63 0
-6375 -64 0
-6375 -65 0
-6375 -66 0
6375 15 -24 25 -32 -33 -42 47 48 -49 -54 -63 64 65 66 0
-6376 -15 0
-6376 24 0
-6376 -25 0
-6376 -32 0
-6376 33 0
-6376 42 0
-6376 47 0
-6376 -48 0
-6376 49 0
-6376 54 0
-6376 63 0
-6376 -64 0
-6376 -65 0
-6376 -66 0
6376 15 -24 25 32 -33 -42 -47 48 -49 -54 -63 64 65 66 0
-6377 -15 0
-6377 24 0
-6377 -25 0
-6377 32 0
-6377 33 0
-6377 -42 0
-6377 47 0
-6377 -48 0
-6377 49 0
-6377 54 0
-6377 63 0
-6377 -64 0
-6377 -65 0
-6377 -66 0
6377 15 -24 25 -32 -33 42 -47 48 -49 -54 -63 64 65 66 0
-6378 15 0
-6378 24 0
-6378 -25 0
-6378 -32 0
-6378 33 0
-6378 -42 0
-6378 47 0
-6378 -48 0
-6378 49 0
-6378 54 0
-6378 63 0
-6378 -64 0
-6378 -65 0
-6378 -66 0
6378 -15 -24 25 32 -33 42 -47 48 -49 -54 -63 64 65 66 0
-6379 15 0
-6379 24 0
-6379 -25 0
-6379 32 0
-6379 33 0
-6379 42 0
-6379 47 0
-6379 -48 0
-6379 49 0
-6379 54 0
-6379 63 0
-6379 -64 0
-6379 -65 0
-6379 -66 0
6379 -15 -24 25 -32 -33 -42 -47 48 -49 -54 -63 64 65 66 0
-6380 15 0
-6380 24 0
-6380 -25 0
-6380 -32 0
-6380 33 0
-6380 42 0
-6380 -47 0
-6380 -48 0
-6380 49 0
-6380 54 0
-6380 63 0
-6380 -64 0
-6380 -65 0
-6380 -66 0
6380 -15 -24 25 32 -33 -42 47 48 -49 -54 -63 64 65 66 0
-6381 15 0
-6381 24 0
-6381 -25 0
-6381 32 0
-6381 33 0
-6381 -42 0
-6381 -47 0
-6381 -48 0
-6381 49 0
-6381 54 0
-6381 63 0
-6381 -64 0
-6381 -65 0
-6381 -66 0
6381 -15 -24 25 -32 -33 42 47 48 -49 -54 -63 64 65 66 0
-6382 15 0
-6382 24 0
-6382 -25 0
-6382 -32 0
-6382 33 0
-6382 -42 0
-6382 -47 0
-6382 48 0
-6382 49 0
-6382 54 0
-6382 63 0
-6382 -64 0
-6382 -65 0
-6382 -66 0
6382 -15 -24 25 32 -33 42 47 -48 -49 -54 -63 64 65 66 0
-6383 15 0
-6383 24 0
-6383 -25 0
-6383 32 0
-6383 33 0
-6383 42 0
-6383 -47 0
-6383 48 0
-6383 49 0
-6383 54 0
-6383 63 0
-6383 -64 0
-6383 -65 0
-6383 -66 0
6383 -15 -24 25 -32 -33 -42 47 -48 -49 -54 -63 64 65 66 0
-6384 15 0
-6384 24 0
-6384 -25 0
-6384 -32 0
-6384 33 0
-6384 42 0
-6384 47 0
-6384 48 0
-6384 49 0
-6384 54 0
-6384 63 0
-6384 -64 0
-6384 -65 0
-6384 -66 0
6384 -15 -24 25 32 -33 -42 -47 -48 -49 -54 -63 64 65 66 0
-6385 15 0
-6385 24 0
-6385 -25 0
-6385 32 0
-6385 33 0
-6385 -42 0
-6385 47 0
-6385 48 0
-6385 49 0
-6385 54 0
-6385 63 0
-6385 -64 0
-6385 -65 0
-6385 -66 0
6385 -15 -24 25 -32 -33 42 -47 -48 -49 -54 -63 64 65 66 0
-6386 -15 0
-6386 24 0
-6386 -25 0
-6386 -32 0
-6386 33 0
-6386 -42 0
-6386 47 0
-6386 48 0
-6386 49 0
-6386 54 0
-6386 63 0
-6386 -64 0
-6386 -65 0
-6386 -66 0
6386 15 -24 25 32 -33 42 -47 -48 -49 -54 -63 64 65 66 0
-6387 -15 0
-6387 24 0
-6387 -25 0
-6387 32 0
-6387 33 0
-6387 42 0
-6387 47 0
-6387 48 0
-6387 49 0
-6387 54 0
-6387 63 0
-6387 -64 0
-6387 -65 0
-6387 -66 0
6387 15 -24 25 -32 -33 -42 -47 -48 -49 -54 -63 64 65 66 0
-6388 -15 0
-6388 24 0
-6388 -25 0
-6388 -32 0
-6388 33 0
-6388 42 0
-6388 -47 0
-6388 48 0
-6388 49 0
-6388 54 0
-6388 63 0
-6388 -64 0
-6388 -65 0
-6388 -66 0
6388 15 -24 25 32 -33 -42 47 -48 -49 -54 -63 64 65 66 0
-6389 -15 0
-6389 24 0
-6389 -25 0
-6389 32 0
-6389 33 0
-6389 -42 0
-6389 -47 0
-6389 48 0
-6389 49 0
-6389 54 0
-6389 63 0
-6389 -64 0
-6389 -65 0
-6389 -66 0
6389 15 -24 25 -32 -33 42 47 -48 -49 -54 -63 64 65 66 0
-6390 -15 0
-6390 -24 0
-6390 -25 0
-6390 -32 0
-6390 33 0
-6390 -42 0
-6390 -47 0
-6390 48 0
-6390 49 0
-6390 54 0
-6390 63 0
-6390 -64 0
-6390 -65 0
-6390 -66 0
6390 15 24 25 32 -33 42 47 -48 -49 -54 -63 64 65 66 0
-6391 -15 0
-6391 -24 0
-6391 -25 0
-6391 32 0
-6391 33 0
-6391 42 0
-6391 -47 0
-6391 48 0
-6391 49 0
-6391 54 0
-6391 63 0
-6391 -64 0
-6391 -65 0
-6391 -66 0
6391 15 24 25 -32 -33 -42 47 -48 -49 -54 -63 64 65 66 0
-6392 -15 0
-6392 -24 0
-6392 -25 0
-6392 -32 0
-6392 33 0
-6392 42 0
-6392 47 0
-6392 48 0
-6392 49 0
-6392 54 0
-6392 63 0
-6392 -64 0
-6392 -65 0
-6392 -66 0
6392 15 24 25 32 -33 -42 -47 -48 -49 -54 -63 64 65 66 0
-6393 -15 0
-6393 -24 0
-6393 -25 0
-6393 32 0
-6393 33 0
-6393 -42 0
-6393 47 0
-6393 48 0
-6393 49 0
-6393 54 0
-6393 63 0
-6393 -64 0
-6393 -65 0
-6393 -66 0
6393 15 24 25 -32 -33 42 -47 -48 -49 -54 -63 64 65 66 0
-6394 15 0
-6394 -24 0
-6394 -25 0
-6394 -32 0
-6394 33 0
-6394 -42 0
-6394 47 0
-6394 48 0
-6394 49 0
-6394 54 0
-6394 63 0
-6394 -64 0
-6394 -65 0
-6394 -66 0
6394 -15 24 25 32 -33 42 -47 -48 -49 -54 -63 64 65 66 0
-6395 15 0
-6395 -24 0
-6395 -25 0
-6395 32 0
-6395 33 0
-6395 42 0
-6395 47 0
-6395 48 0
-6395 49 0
-6395 54 0
-6395 63 0
-6395 -64 0
-6395 -65 0
-6395 -66 0
6395 -15 24 25 -32 -33 -42 -47 -48 -49 -54 -63 64 65 66 0
-6396 15 0
-6396 -24 0
-6396 -25 0
-6396 -32 0
-6396 33 0
-6396 42 0
-6396 -47 0
-6396 48 0
-6396 49 0
-6396 54 0
-6396 63 0
-6396 -64 0
-6396 -65 0
-6396 -66 0
6396 -15 24 25 32 -33 -42 47 -48 -49 -54 -63 64 65 66 0
-6397 15 0
-6397 -24 0
-6397 -25 0
-6397 32 0
-6397 33 0
-6397 -42 0
-6397 -47 0
-6397 48 0
-6397 49 0
-6397 54 0
-6397 63 0
-6397 -64 0
-6397 -65 0
-6397 -66 0
6397 -15 24 25 -32 -33 42 47 -48 -49 -54 -63 64 65 66 0
-6398 15 0
-6398 -24 0
-6398 -25 0
-6398 -32 0
-6398 33 0
-6398 -42 0
-6398 -47 0
-6398 -48 0
-6398 49 0
-6398 54 0
-6398 63 0
-6398 -64 0
-6398 -65 0
-6398 -66 0
6398 -15 24 25 32 -33 42 47 48 -49 -54 -63 64 65 66 0
-6399 15 0
-6399 -24 0
-6399 -25 0
-6399 32 0
-6399 33 0
-6399 42 0
-6399 -47 0
-6399 -48 0
-6399 49 0
-6399 54 0
-6399 63 0
-6399 -64 0
-6399 -65 0
-6399 -66 0
6399 -15 24 25 -32 -33 -42 47 48 -49 -54 -63 64 65 66 0
-6400 15 0
-6400 -24 0
-6400 -25 0
-6400 -32 0
-6400 33 0
-6400 42 0
-6400 47 0
-6400 -48 0
-6400 49 0
-6400 54 0
-6400 63 0
-6400 -64 0
-6400 -65 0
-6400 -66 0
6400 -15 24 25 32 -33 -42 -47 48 -49 -54 -63 64 65 66 0
-6401 15 0
-6401 -24 0
-6401 -25 0
-6401 32 0
-6401 33 0
-6401 -42 0
-6401 47 0
-6401 -48 0
-6401 49 0
-6401 54 0
-6401 63 0
-6401 -64 0
-6401 -65 0
-6401 -66 0
6401 -15 24 25 -32 -33 42 -47 48 -49 -54 -63 64 65 66 0
-6402 -15 0
-6402 -24 0
-6402 -25 0
-6402 -32 0
-6402 33 0
-6402 -42 0
-6402 47 0
-6402 -48 0
-6402 49 0
-6402 54 0
-6402 63 0
-6402 -64 0
-6402 -65 0
-6402 -66 0
6402 15 24 25 32 -33 42 -47 48 -49 -54 -63 64 65 66 0
-6403 -15 0
-6403 -24 0
-6403 -25 0
-6403 32 0
-6403 33 0
-6403 42 0
-6403 47 0
-6403 -48 0
-6403 49 0
-6403 54 0
-6403 63 0
-6403 -64 0
-6403 -65 0
-6403 -66 0
6403 15 24 25 -32 -33 -42 -47 48 -49 -54 -63 64 65 66 0
-6404 -15 0
-6404 -24 0
-6404 -25 0
-6404 -32 0
-6404 33 0
-6404 42 0
-6404 -47 0
-6404 -48 0
-6404 49 0
-6404 54 0
-6404 63 0
-6404 -64 0
-6404 -65 0
-6404 -66 0
6404 15 24 25 32 -33 -42 47 48 -49 -54 -63 64 65 66 0
-6405 -15 0
-6405 -24 0
-6405 -25 0
-6405 32 0
-6405 33 0
-6405 -42 0
-6405 -47 0
-6405 -48 0
-6405 49 0
-6405 54 0
-6405 63 0
-6405 -64 0
-6405 -65 0
-6405 -66 0
6405 15 24 25 -32 -33 42 47 48 -49 -54 -63 64 65 66 0
-6406 -15 0
-6406 -24 0
-6406 -25 0
-6406 -32 0
-6406 33 0
-6406 -42 0
-6406 -47 0
-6406 -48 0
-6406 -49 0
-6406 54 0
-6406 63 0
-6406 -64 0
-6406 -65 0
-6406 -66 0
6406 15 24 25 32 -33 42 47 48 49 -54 -63 64 65 66 0
-6407 -15 0
-6407 -24 0
-6407 -25 0
-6407 32 0
-6407 33 0
-6407 42 0
-6407 -47 0
-6407 -48 0
-6407 -49 0
-6407 54 0
-6407 63 0
-6407 -64 0
-6407 -65 0
-6407 -66 0
6407 15 24 25 -32 -33 -42 47 48 49 -54 -63 64 65 66 0
-6408 -15 0
-6408 -24 0
-6408 -25 0
-6408 -32 0
-6408 33 0
-6408 42 0
-6408 47 0
-6408 -48 0
-6408 -49 0
-6408 54 0
-6408 63 0
-6408 -64 0
-6408 -65 0
-6408 -66 0
6408 15 24 25 32 -33 -42 -47 48 49 -54 -63 64 65 66 0
-6409 -15 0
-6409 -24 0
-6409 -25 0
-6409 32 0
-6409 33 0
-6409 -42 0
-6409 47 0
-6409 -48 0
-6409 -49 0
-6409 54 0
-6409 63 0
-6409 -64 0
-6409 -65 0
-6409 -66 0
6409 15 24 25 -32 -33 42 -47 48 49 -54 -63 64 65 66 0
-6410 15 0
-6410 -24 0
-6410 -25 0
-6410 -32 0
-6410 33 0
-6410 -42 0
-6410 47 0
-6410 -48 0
-6410 -49 0
-6410 54 0
-6410 63 0
-6410 -64 0
-6410 -65 0
-6410 -66 0
6410 -15 24 25 32 -33 42 -47 48 49 -54 -63 64 65 66 0
-6411 15 0
-6411 -24 0
-6411 -25 0
-6411 32 0
-6411 33 0
-6411 42 0
-6411 47 0
-6411 -48 0
-6411 -49 0
-6411 54 0
-6411 63 0
-6411 -64 0
-6411 -65 0
-6411 -66 0
6411 -15 24 25 -32 -33 -42 -47 48 49 -54 -63 64 65 66 0
-6412 15 0
-6412 -24 0
-6412 -25 0
-6412 -32 0
-6412 33 0
-6412 42 0
-6412 -47 0
-6412 -48 0
-6412 -49 0
-6412 54 0
-6412 63 0
-6412 -64 0
-6412 -65 0
-6412 -66 0
6412 -15 24 25 32 -33 -42 47 48 49 -54 -63 64 65 66 0
-6413 15 0
-6413 -24 0
-6413 -25 0
-6413 -32 0
-6413 33 0
-6413 -42 0
-6413 -47 0
-6413 48 0
-6413 -49 0
-6413 54 0
-6413 63 0
-6413 -64 0
-6413 -65 0
-6413 -66 0
6413 -15 24 25 32 -33 42 47 -48 49 -54 -63 64 65 66 0
-6414 15 0
-6414 -24 0
-6414 -25 0
-6414 32 0
-6414 33 0
-6414 42 0
-6414 -47 0
-6414 48 0
-6414 -49 0
-6414 54 0
-6414 63 0
-6414 -64 0
-6414 -65 0
-6414 -66 0
6414 -15 24 25 -32 -33 -42 47 -48 49 -54 -63 64 65 66 0
-6415 15 0
-6415 -24 0
-6415 -25 0
-6415 -32 0
-6415 33 0
-6415 42 0
-6415 47 0
-6415 48 0
-6415 -49 0
-6415 54 0
-6415 63 0
-6415 -64 0
-6415 -65 0
-6415 -66 0
6415 -15 24 25 32 -33 -42 -47 -48 49 -54 -63 64 65 66 0
-6416 -15 0
-6416 -24 0
-6416 -25 0
-6416 -32 0
-6416 33 0
-6416 -42 0
-6416 47 0
-6416 48 0
-6416 -49 0
-6416 54 0
-6416 63 0
-6416 -64 0
-6416 -65 0
-6416 -66 0
6416 15 24 25 32 -33 42 -47 -48 49 -54 -63 64 65 66 0
-6417 -15 0
-6417 -24 0
-6417 -25 0
-6417 32 0
-6417 33 0
-6417 42 0
-6417 47 0
-6417 48 0
-6417 -49 0
-6417 54 0
-6417 63 0
-6417 -64 0
-6417 -65 0
-6417 -66 0
6417 15 24 25 -32 -33 -42 -47 -48 49 -54 -63 64 65 66 0
-6418 -15 0
-6418 -24 0
-6418 -25 0
-6418 -32 0
-6418 33 0
-6418 42 0
-6418 -47 0
-6418 48 0
-6418 -49 0
-6418 54 0
-6418 63 0
-6418 -64 0
-6418 -65 0
-6418 -66 0
6418 15 24 25 32 -33 -42 47 -48 49 -54 -63 64 65 66 0
-6419 -15 0
-6419 -24 0
-6419 25 0
-6419 -32 0
-6419 33 0
-6419 -42 0
-6419 -47 0
-6419 48 0
-6419 -49 0
-6419 54 0
-6419 63 0
-6419 -64 0
-6419 -65 0
-6419 -66 0
6419 15 24 -25 32 -33 42 47 -48 49 -54 -63 64 65 66 0
-6420 -15 0
-6420 -24 0
-6420 25 0
-6420 32 0
-6420 33 0
-6420 42 0
-6420 -47 0
-6420 48 0
-6420 -49 0
-6420 54 0
-6420 63 0
-6420 -64 0
-6420 -65 0
-6420 -66 0
6420 15 24 -25 -32 -33 -42 47 -48 49 -54 -63 64 65 66 0
-6421 -15 0
-6421 -24 0
-6421 25 0
-6421 -32 0
-6421 33 0
-6421 42 0
-6421 47 0
-6421 48 0
-6421 -49 0
-6421 54 0
-6421 63 0
-6421 -64 0
-6421 -65 0
-6421 -66 0
6421 15 24 -25 32 -33 -42 -47 -48 49 -54 -63 64 65 66 0
-6422 -15 0
-6422 -24 0
-6422 25 0
-6422 32 0
-6422 33 0
-6422 -42 0
-6422 47 0
-6422 48 0
-6422 -49 0
-6422 54 0
-6422 63 0
-6422 -64 0
-6422 -65 0
-6422 -66 0
6422 15 24 -25 -32 -33 42 -47 -48 49 -54 -63 64 65 66 0
-6423 15 0
-6423 -24 0
-6423 25 0
-6423 -32 0
-6423 33 0
-6423 -42 0
-6423 47 0
-6423 48 0
-6423 -49 0
-6423 54 0
-6423 63 0
-6423 -64 0
-6423 -65 0
-6423 -66 0
6423 -15 24 -25 32 -33 42 -47 -48 49 -54 -63 64 65 66 0
-6424 15 0
-6424 -24 0
-6424 25 0
-6424 32 0
-6424 33 0
-6424 42 0
-6424 47 0
-6424 48 0
-6424 -49 0
-6424 54 0
-6424 63 0
-6424 -64 0
-6424 -65 0
-6424 -66 0
6424 -15 24 -25 -32 -33 -42 -47 -48 49 -54 -63 64 65 66 0
-6425 15 0
-6425 -24 0
-6425 25 0
-6425 -32 0
-6425 33 0
-6425 42 0
-6425 -47 0
-6425 48 0
-6425 -49 0
-6425 54 0
-6425 63 0
-6425 -64 0
-6425 -65 0
-6425 -66 0
6425 -15 24 -25 32 -33 -42 47 -48 49 -54 -63 64 65 66 0
-6426 15 0
-6426 -24 0
-6426 25 0
-6426 32 0
-6426 33 0
-6426 -42 0
-6426 -47 0
-6426 48 0
-6426 -49 0
-6426 54 0
-6426 63 0
-6426 -64 0
-6426 -65 0
-6426 -66 0
6426 -15 24 -25 -32 -33 42 47 -48 49 -54 -63 64 65 66 0
-6427 15 0
-6427 -24 0
-6427 25 0
-6427 -32 0
-6427 33 0
-6427 -42 0
-6427 -47 0
-6427 -48 0
-6427 -49 0
-6427 54 0
-6427 63 0
-6427 -64 0
-6427 -65 0
-6427 -66 0
6427 -15 24 -25 32 -33 42 47 48 49 -54 -63 64 65 66 0
-6428 15 0
-6428 -24 0
-6428 25 0
-6428 32 0
-6428 33 0
-6428 42 0
-6428 -47 0
-6428 -48 0
-6428 -49 0
-6428 54 0
-6428 63 0
-6428 -64 0
-6428 -65 0
-6428 -66 0
6428 -15 24 -25 -32 -33 -42 47 48 49 -54 -63 64 65 66 0
-6429 15 0
-6429 -24 0
-6429 25 0
-6429 -32 0
-6429 33 0
-6429 42 0
-6429 47 0
-6429 -48 0
-6429 -49 0
-6429 54 0
-6429 63 0
-6429 -64 0
-6429 -65 0
-6429 -66 0
6429 -15 24 -25 32 -33 -42 -47 48 49 -54 -63 64 65 66 0
-6430 15 0
-6430 -24 0
-6430 25 0
-6430 32 0
-6430 33 0
-6430 -42 0
-6430 47 0
-6430 -48 0
-6430 -49 0
-6430 54 0
-6430 63 0
-6430 -64 0
-6430 -65 0
-6430 -66 0
6430 -15 24 -25 -32 -33 42 -47 48 49 -54 -63 64 65 66 0
-6431 -15 0
-6431 -24 0
-6431 25 0
-6431 -32 0
-6431 33 0
-6431 -42 0
-6431 47 0
-6431 -48 0
-6431 -49 0
-6431 54 0
-6431 63 0
-6431 -64 0
-6431 -65 0
-6431 -66 0
6431 15 24 -25 32 -33 42 -47 48 49 -54 -63 64 65 66 0
-6432 -15 0
-6432 -24 0
-6432 25 0
-6432 32 0
-6432 33 0
-6432 42 0
-6432 47 0
-6432 -48 0
-6432 -49 0
-6432 54 0
-6432 63 0
-6432 -64 0
-6432 -65 0
-6432 -66 0
6432 15 24 -25 -32 -33 -42 -47 48 49 -54 -63 64 65 66 0
-6433 -15 0
-6433 -24 0
-6433 25 0
-6433 -32 0
-6433 33 0
-6433 42 0
-6433 -47 0
-6433 -48 0
-6433 -49 0
-6433 54 0
-6433 63 0
-6433 -64 0
-6433 -65 0
-6433 -66 0
6433 15 24 -25 32 -33 -42 47 48 49 -54 -63 64 65 66 0
-6434 -15 0
-6434 -24 0
-6434 25 0
-6434 32 0
-6434 33 0
-6434 -42 0
-6434 -47 0
-6434 -48 0
-6434 -49 0
-6434 54 0
-6434 63 0
-6434 -64 0
-6434 -65 0
-6434 -66 0
6434 15 24 -25 -32 -33 42 47 48 49 -54 -63 64 65 66 0
-6435 -15 0
-6435 -24 0
-6435 25 0
-6435 -32 0
-6435 33 0
-6435 -42 0
-6435 -47 0
-6435 -48 0
-6435 49 0
-6435 54 0
-6435 63 0
-6435 -64 0
-6435 -65 0
-6435 -66 0
6435 15 24 -25 32 -33 42 47 48 -49 -54 -63 64 65 66 0
-6436 15 0
-6436 -24 0
-6436 25 0
-6436 32 0
-6436 -33 0
-6436 -42 0
-6436 -47 0
-6436 -48 0
-6436 -49 0
-6436 54 0
-6436 63 0
-6436 -64 0
-6436 -65 0
-6436 -66 0
6436 -15 24 -25 -32 33 42 47 48 49 -54 -63 64 65 66 0
-6437 -15 0
-6437 -24 0
-6437 25 0
-6437 32 0
-6437 33 0
-6437 42 0
-6437 -47 0
-6437 -48 0
-6437 49 0
-6437 54 0
-6437 63 0
-6437 -64 0
-6437 -65 0
-6437 -66 0
6437 15 24 -25 -32 -33 -42 47 48 -49 -54 -63 64 65 66 0
-6438 -15 0
-6438 -24 0
-6438 25 0
-6438 -32 0
-6438 33 0
-6438 42 0
-6438 47 0
-6438 -48 0
-6438 49 0
-6438 54 0
-6438 63 0
-6438 -64 0
-6438 -65 0
-6438 -66 0
6438 15 24 -25 32 -33 -42 -47 48 -49 -54 -63 64 65 66 0
-6439 -15 0
-6439 -24 0
-6439 25 0
-6439 32 0
-6439 33 0
-6439 -42 0
-6439 47 0
-6439 -48 0
-6439 49 0
-6439 54 0
-6439 63 0
-6439 -64 0
-6439 -65 0
-6439 -66 0
6439 15 24 -25 -32 -33 42 -47 48 -49 -54 -63 64 65 66 0
-6440 15 0
-6440 -24 0
-6440 25 0
-6440 -32 0
-6440 33 0
-6440 -42 0
-6440 47 0
-6440 -48 0
-6440 49 0
-6440 54 0
-6440 63 0
-6440 -64 0
-6440 -65 0
-6440 -66 0
6440 -15 24 -25 32 -33 42 -47 48 -49 -54 -63 64 65 66 0
-6441 15 0
-6441 -24 0
-6441 25 0
-6441 32 0
-6441 33 0
-6441 42 0
-6441 47 0
-6441 -48 0
-6441 49 0
-6441 54 0
-6441 63 0
-6441 -64 0
-6441 -65 0
-6441 -66 0
6441 -15 24 -25 -32 -33 -42 -47 48 -49 -54 -63 64 65 66 0
-6442 15 0
-6442 -24 0
-6442 25 0
-6442 -32 0
-6442 33 0
-6442 42 0
-6442 -47 0
-6442 -48 0
-6442 49 0
-6442 54 0
-6442 63 0
-6442 -64 0
-6442 -65 0
-6442 -66 0
6442 -15 24 -25 32 -33 -42 47 48 -49 -54 -63 64 65 66 0
-6443 15 0
-6443 -24 0
-6443 25 0
-6443 32 0
-6443 33 0
-6443 -42 0
-6443 -47 0
-6443 -48 0
-6443 49 0
-6443 54 0
-6443 63 0
-6443 -64 0
-6443 -65 0
-6443 -66 0
6443 -15 24 -25 -32 -33 42 47 48 -49 -54 -63 64 65 66 0
-6444 15 0
-6444 -24 0
-6444 25 0
-6444 -32 0
-6444 33 0
-6444 -42 0
-6444 -47 0
-6444 48 0
-6444 49 0
-6444 54 0
-6444 63 0
-6444 -64 0
-6444 -65 0
-6444 -66 0
6444 -15 24 -25 32 -33 42 47 -48 -49 -54 -63 64 65 66 0
-6445 15 0
-6445 -24 0
-6445 25 0
-6445 32 0
-6445 33 0
-6445 42 0
-6445 -47 0
-6445 48 0
-6445 49 0
-6445 54 0
-6445 63 0
-6445 -64 0
-6445 -65 0
-6445 -66 0
6445 -15 24 -25 -32 -33 -42 47 -48 -49 -54 -63 64 65 66 0
-6446 15 0
-6446 -24 0
-6446 25 0
-6446 -32 0
-6446 33 0
-6446 42 0
-6446 47 0
-6446 48 0
-6446 49 0
-6446 54 0
-6446 63 0
-6446 -64 0
-6446 -65 0
-6446 -66 0
6446 -15 24 -25 32 -33 -42 -47 -48 -49 -54 -63 64 65 66 0
-6447 15 0
-6447 -24 0
-6447 25 0
-6447 32 0
-6447 33 0
-6447 -42 0
-6447 47 0
-6447 48 0
-6447 49 0
-6447 54 0
-6447 63 0
-6447 -64 0
-6447 -65 0
-6447 -66 0
6447 -15 24 -25 -32 -33 42 -47 -48 -49 -54 -63 64 65 66 0
-6448 -15 0
-6448 -24 0
-6448 25 0
-6448 -32 0
-6448 33 0
-6448 -42 0
-6448 47 0
-6448 48 0
-6448 49 0
-6448 54 0
-6448 63 0
-6448 -64 0
-6448 -65 0
-6448 -66 0
6448 15 24 -25 32 -33 42 -47 -48 -49 -54 -63 64 65 66 0
-6449 -15 0
-6449 -24 0
-6449 25 0
-6449 32 0
-6449 33 0
-6449 42 0
-6449 47 0
-6449 48 0
-6449 49 0
-6449 54 0
-6449 63 0
-6449 -64 0
-6449 -65 0
-6449 -66 0
6449 15 24 -25 -32 -33 -42 -47 -48 -49 -54 -63 64 65 66 0
-6450 -15 0
-6450 -24 0
-6450 25 0
-6450 -32 0
-6450 33 0
-6450 42 0
-6450 -47 0
-6450 48 0
-6450 49 0
-6450 54 0
-6450 63 0
-6450 -64 0
-6450 -65 0
-6450 -66 0
6450 15 24 -25 32 -33 -42 47 -48 -49 -54 -63 64 65 66 0
-6451 -15 0
-6451 -24 0
-6451 25 0
-6451 32 0
-6451 33 0
-6451 -42 0
-6451 -47 0
-6451 48 0
-6451 49 0
-6451 54 0
-6451 63 0
-6451 -64 0
-6451 -65 0
-6451 -66 0
6451 15 24 -25 -32 -33 42 47 -48 -49 -54 -63 64 65 66 0
-6452 -15 0
-6452 24 0
-6452 25 0
-6452 -32 0
-6452 33 0
-6452 -42 0
-6452 -47 0
-6452 48 0
-6452 49 0
-6452 54 0
-6452 63 0
-6452 -64 0
-6452 -65 0
-6452 -66 0
6452 15 -24 -25 32 -33 42 47 -48 -49 -54 -63 64 65 66 0
-6453 -15 0
-6453 24 0
-6453 25 0
-6453 32 0
-6453 33 0
-6453 42 0
-6453 -47 0
-6453 48 0
-6453 49 0
-6453 54 0
-6453 63 0
-6453 -64 0
-6453 -65 0
-6453 -66 0
6453 15 -24 -25 -32 -33 -42 47 -48 -49 -54 -63 64 65 66 0
-6454 -15 0
-6454 24 0
-6454 25 0
-6454 -32 0
-6454 33 0
-6454 42 0
-6454 47 0
-6454 48 0
-6454 49 0
-6454 54 0
-6454 63 0
-6454 -64 0
-6454 -65 0
-6454 -66 0
6454 15 -24 -25 32 -33 -42 -47 -48 -49 -54 -63 64 65 66 0
-6455 -15 0
-6455 24 0
-6455 25 0
-6455 32 0
-6455 33 0
-6455 -42 0
-6455 47 0
-6455 48 0
-6455 49 0
-6455 54 0
-6455 63 0
-6455 -64 0
-6455 -65 0
-6455 -66 0
6455 15 -24 -25 -32 -33 42 -47 -48 -49 -54 -63 64 65 66 0
-6456 15 0
-6456 24 0
-6456 25 0
-6456 -32 0
-6456 33 0
-6456 -42 0
-6456 47 0
-6456 48 0
-6456 49 0
-6456 54 0
-6456 63 0
-6456 -64 0
-6456 -65 0
-6456 -66 0
6456 -15 -24 -25 32 -33 42 -47 -48 -49 -54 -63 64 65 66 0
-6457 15 0
-6457 24 0
-6457 25 0
-6457 32 0
-6457 33 0
-6457 42 0
-6457 47 0
-6457 48 0
-6457 49 0
-6457 54 0
-6457 63 0
-6457 -64 0
-6457 -65 0
-6457 -66 0
6457 -15 -24 -25 -32 -33 -42 -47 -48 -49 -54 -63 64 65 66 0
-6458 15 0
-6458 24 0
-6458 25 0
-6458 -32 0
-6458 33 0
-6458 42 0
-6458 -47 0
-6458 48 0
-6458 49 0
-6458 54 0
-6458 63 0
-6458 -64 0
-6458 -65 0
-6458 -66 0
6458 -15 -24 -25 32 -33 -42 47 -48 -49 -54 -63 64 65 66 0
-6459 15 0
-6459 24 0
-6459 25 0
-6459 32 0
-6459 33 0
-6459 -42 0
-6459 -47 0
-6459 48 0
-6459 49 0
-6459 54 0
-6459 63 0
-6459 -64 0
-6459 -65 0
-6459 -66 0
6459 -15 -24 -25 -32 -33 42 47 -48 -49 -54 -63 64 65 66 0
-6460 15 0
-6460 24 0
-6460 25 0
-6460 -32 0
-6460 33 0
-6460 -42 0
-6460 -47 0
-6460 -48 0
-6460 49 0
-6460 54 0
-6460 63 0
-6460 -64 0
-6460 -65 0
-6460 -66 0
6460 -15 -24 -25 32 -33 42 47 48 -49 -54 -63 64 65 66 0
-6461 15 0
-6461 24 0
-6461 25 0
-6461 32 0
-6461 33 0
-6461 42 0
-6461 -47 0
-6461 -48 0
-6461 49 0
-6461 54 0
-6461 63 0
-6461 -64 0
-6461 -65 0
-6461 -66 0
6461 -15 -24 -25 -32 -33 -42 47 48 -49 -54 -63 64 65 66 0
-6462 15 0
-6462 24 0
-6462 25 0
-6462 -32 0
-6462 33 0
-6462 42 0
-6462 47 0
-6462 -48 0
-6462 49 0
-6462 54 0
-6462 63 0
-6462 -64 0
-6462 -65 0
-6462 -66 0
6462 -15 -24 -25 32 -33 -42 -47 48 -49 -54 -63 64 65 66 0
-6463 15 0
-6463 24 0
-6463 25 0
-6463 32 0
-6463 33 0
-6463 -42 0
-6463 47 0
-6463 -48 0
-6463 49 0
-6463 54 0
-6463 63 0
-6463 -64 0
-6463 -65 0
-6463 -66 0
6463 -15 -24 -25 -32 -33 42 -47 48 -49 -54 -63 64 65 66 0
-6464 -15 0
-6464 24 0
-6464 25 0
-6464 -32 0
-6464 33 0
-6464 -42 0
-6464 47 0
-6464 -48 0
-6464 49 0
-6464 54 0
-6464 63 0
-6464 -64 0
-6464 -65 0
-6464 -66 0
6464 15 -24 -25 32 -33 42 -47 48 -49 -54 -63 64 65 66 0
-6465 -15 0
-6465 24 0
-6465 25 0
-6465 32 0
-6465 33 0
-6465 42 0
-6465 47 0
-6465 -48 0
-6465 49 0
-6465 54 0
-6465 63 0
-6465 -64 0
-6465 -65 0
-6465 -66 0
6465 15 -24 -25 -32 -33 -42 -47 48 -49 -54 -63 64 65 66 0
-6466 -15 0
-6466 24 0
-6466 25 0
-6466 -32 0
-6466 33 0
-6466 42 0
-6466 -47 0
-6466 -48 0
-6466 49 0
-6466 54 0
-6466 63 0
-6466 -64 0
-6466 -65 0
-6466 -66 0
6466 15 -24 -25 32 -33 -42 47 48 -49 -54 -63 64 65 66 0
-6467 -15 0
-6467 24 0
-6467 25 0
-6467 32 0
-6467 33 0
-6467 -42 0
-6467 -47 0
-6467 -48 0
-6467 49 0
-6467 54 0
-6467 63 0
-6467 -64 0
-6467 -65 0
-6467 -66 0
6467 15 -24 -25 -32 -33 42 47 48 -49 -54 -63 64 65 66 0
-6468 -15 0
-6468 24 0
-6468 25 0
-6468 -32 0
-6468 33 0
-6468 -42 0
-6468 -47 0
-6468 -48 0
-6468 -49 0
-6468 54 0
-6468 63 0
-6468 -64 0
-6468 -65 0
-6468 -66 0
6468 15 -24 -25 32 -33 42 47 48 49 -54 -63 64 65 66 0
-6469 -15 0
-6469 24 0
-6469 25 0
-6469 32 0
-6469 33 0
-6469 42 0
-6469 -47 0
-6469 -48 0
-6469 -49 0
-6469 54 0
-6469 63 0
-6469 -64 0
-6469 -65 0
-6469 -66 0
6469 15 -24 -25 -32 -33 -42 47 48 49 -54 -63 64 65 66 0
-6470 -15 0
-6470 24 0
-6470 25 0
-6470 -32 0
-6470 33 0
-6470 42 0
-6470 47 0
-6470 -48 0
-6470 -49 0
-6470 54 0
-6470 63 0
-6470 -64 0
-6470 -65 0
-6470 -66 0
6470 15 -24 -25 32 -33 -42 -47 48 49 -54 -63 64 65 66 0
-6471 -15 0
-6471 24 0
-6471 25 0
-6471 32 0
-6471 33 0
-6471 -42 0
-6471 47 0
-6471 -48 0
-6471 -49 0
-6471 54 0
-6471 63 0
-6471 -64 0
-6471 -65 0
-6471 -66 0
6471 15 -24 -25 -32 -33 42 -47 48 49 -54 -63 64 65 66 0
-6472 15 0
-6472 24 0
-6472 25 0
-6472 -32 0
-6472 33 0
-6472 -42 0
-6472 47 0
-6472 -48 0
-6472 -49 0
-6472 54 0
-6472 63 0
-6472 -64 0
-6472 -65 0
-6472 -66 0
6472 -15 -24 -25 32 -33 42 -47 48 49 -54 -63 64 65 66 0
-6473 15 0
-6473 24 0
-6473 25 0
-6473 32 0
-6473 33 0
-6473 42 0
-6473 47 0
-6473 -48 0
-6473 -49 0
-6473 54 0
-6473 63 0
-6473 -64 0
-6473 -65 0
-6473 -66 0
6473 -15 -24 -25 -32 -33 -42 -47 48 49 -54 -63 64 65 66 0
-6474 15 0
-6474 24 0
-6474 25 0
-6474 -32 0
-6474 33 0
-6474 42 0
-6474 -47 0
-6474 -48 0
-6474 -49 0
-6474 54 0
-6474 63 0
-6474 -64 0
-6474 -65 0
-6474 -66 0
6474 -15 -24 -25 32 -33 -42 47 48 49 -54 -63 64 65 66 0
-6475 15 0
-6475 24 0
-6475 25 0
-6475 32 0
-6475 33 0
-6475 -42 0
-6475 -47 0
-6475 -48 0
-6475 -49 0
-6475 54 0
-6475 63 0
-6475 -64 0
-6475 -65 0
-6475 -66 0
6475 -15 -24 -25 -32 -33 42 47 48 49 -54 -63 64 65 66 0
-6476 15 0
-6476 24 0
-6476 25 0
-6476 -32 0
-6476 33 0
-6476 -42 0
-6476 -47 0
-6476 48 0
-6476 -49 0
-6476 54 0
-6476 63 0
-6476 -64 0
-6476 -65 0
-6476 -66 0
6476 -15 -24 -25 32 -33 42 47 -48 49 -54 -63 64 65 66 0
-6477 15 0
-6477 24 0
-6477 25 0
-6477 32 0
-6477 33 0
-6477 42 0
-6477 -47 0
-6477 48 0
-6477 -49 0
-6477 54 0
-6477 63 0
-6477 -64 0
-6477 -65 0
-6477 -66 0
6477 -15 -24 -25 -32 -33 -42 47 -48 49 -54 -63 64 65 66 0
-6478 15 0
-6478 24 0
-6478 25 0
-6478 32 0
-6478 33 0
-6478 -42 0
-6478 47 0
-6478 48 0
-6478 -49 0
-6478 54 0
-6478 63 0
-6478 -64 0
-6478 -65 0
-6478 -66 0
6478 -15 -24 -25 -32 -33 42 -47 -48 49 -54 -63 64 65 66 0
-6479 -15 0
-6479 24 0
-6479 25 0
-6479 -32 0
-6479 33 0
-6479 -42 0
-6479 47 0
-6479 48 0
-6479 -49 0
-6479 54 0
-6479 63 0
-6479 -64 0
-6479 -65 0
-6479 -66 0
6479 15 -24 -25 32 -33 42 -47 -48 49 -54 -63 64 65 66 0
-6480 -15 0
-6480 24 0
-6480 25 0
-6480 32 0
-6480 33 0
-6480 42 0
-6480 47 0
-6480 48 0
-6480 -49 0
-6480 54 0
-6480 63 0
-6480 -64 0
-6480 -65 0
-6480 -66 0
6480 15 -24 -25 -32 -33 -42 -47 -48 49 -54 -63 64 65 66 0
-6481 -15 0
-6481 24 0
-6481 25 0
-6481 -32 0
-6481 33 0
-6481 42 0
-6481 -47 0
-6481 48 0
-6481 -49 0
-6481 54 0
-6481 63 0
-6481 -64 0
-6481 -65 0
-6481 -66 0
6481 15 -24 -25 32 -33 -42 47 -48 49 -54 -63 64 65 66 0
-6482 -15 0
-6482 24 0
-6482 25 0
-6482 32 0
-6482 33 0
-6482 -42 0
-6482 -47 0
-6482 48 0
-6482 -49 0
-6482 54 0
-6482 63 0
-6482 -64 0
-6482 -65 0
-6482 -66 0
6482 15 -24 -25 -32 -33 42 47 -48 49 -54 -63 64 65 66 0
-6483 -15 0
-6483 24 0
-6483 25 0
-6483 -32 0
-6483 -33 0
-6483 -42 0
-6483 -47 0
-6483 48 0
-6483 -49 0
-6483 54 0
-6483 63 0
-6483 -64 0
-6483 -65 0
-6483 -66 0
6483 15 -24 -25 32 33 42 47 -48 49 -54 -63 64 65 66 0
-6484 -15 0
-6484 24 0
-6484 25 0
-6484 32 0
-6484 -33 0
-6484 42 0
-6484 -47 0
-6484 48 0
-6484 -49 0
-6484 54 0
-6484 63 0
-6484 -64 0
-6484 -65 0
-6484 -66 0
6484 15 -24 -25 -32 33 -42 47 -48 49 -54 -63 64 65 66 0
-6485 -15 0
-6485 24 0
-6485 25 0
-6485 32 0
-6485 -33 0
-6485 -42 0
-6485 47 0
-6485 48 0
-6485 -49 0
-6485 54 0
-6485 63 0
-6485 -64 0
-6485 -65 0
-6485 -66 0
6485 15 -24 -25 -32 33 42 -47 -48 49 -54 -63 64 65 66 0
-6486 15 0
-6486 24 0
-6486 25 0
-6486 -32 0
-6486 -33 0
-6486 -42 0
-6486 47 0
-6486 48 0
-6486 -49 0
-6486 54 0
-6486 63 0
-6486 -64 0
-6486 -65 0
-6486 -66 0
6486 -15 -24 -25 32 33 42 -47 -48 49 -54 -63 64 65 66 0
-6487 15 0
-6487 24 0
-6487 25 0
-6487 32 0
-6487 -33 0
-6487 42 0
-6487 47 0
-6487 48 0
-6487 -49 0
-6487 54 0
-6487 63 0
-6487 -64 0
-6487 -65 0
-6487 -66 0
6487 -15 -24 -25 -32 33 -42 -47 -48 49 -54 -63 64 65 66 0
-6488 15 0
-6488 24 0
-6488 25 0
-6488 -32 0
-6488 -33 0
-6488 42 0
-6488 -47 0
-6488 48 0
-6488 -49 0
-6488 54 0
-6488 63 0
-6488 -64 0
-6488 -65 0
-6488 -66 0
6488 -15 -24 -25 32 33 -42 47 -48 49 -54 -63 64 65 66 0
-6489 15 0
-6489 24 0
-6489 -25 0
-6489 32 0
-6489 -33 0
-6489 -42 0
-6489 47 0
-6489 48 0
-6489 -49 0
-6489 54 0
-6489 63 0
-6489 -64 0
-6489 -65 0
-6489 -66 0
6489 -15 -24 25 -32 33 42 -47 -48 49 -54 -63 64 65 66 0
-6490 15 0
-6490 24 0
-6490 25 0
-6490 32 0
-6490 -33 0
-6490 -42 0
-6490 -47 0
-6490 48 0
-6490 -49 0
-6490 54 0
-6490 63 0
-6490 -64 0
-6490 -65 0
-6490 -66 0
6490 -15 -24 -25 -32 33 42 47 -48 49 -54 -63 64 65 66 0
-6491 15 0
-6491 24 0
-6491 25 0
-6491 -32 0
-6491 -33 0
-6491 -42 0
-6491 -47 0
-6491 -48 0
-6491 -49 0
-6491 54 0
-6491 63 0
-6491 -64 0
-6491 -65 0
-6491 -66 0
6491 -15 -24 -25 32 33 42 47 48 49 -54 -63 64 65 66 0
-6492 15 0
-6492 24 0
-6492 25 0
-6492 32 0
-6492 -33 0
-6492 42 0
-6492 -47 0
-6492 -48 0
-6492 -49 0
-6492 54 0
-6492 63 0
-6492 -64 0
-6492 -65 0
-6492 -66 0
6492 -15 -24 -25 -32 33 -42 47 48 49 -54 -63 64 65 66 0
-6493 15 0
-6493 24 0
-6493 25 0
-6493 -32 0
-6493 -33 0
-6493 42 0
-6493 47 0
-6493 -48 0
-6493 -49 0
-6493 54 0
-6493 63 0
-6493 -64 0
-6493 -65 0
-6493 -66 0
6493 -15 -24 -25 32 33 -42 -47 48 49 -54 -63 64 65 66 0
-6494 15 0
-6494 24 0
-6494 25 0
-6494 32 0
-6494 -33 0
-6494 -42 0
-6494 47 0
-6494 -48 0
-6494 -49 0
-6494 54 0
-6494 63 0
-6494 -64 0
-6494 -65 0
-6494 -66 0
6494 -15 -24 -25 -32 33 42 -47 48 49 -54 -63 64 65 66 0
-6495 -15 0
-6495 24 0
-6495 25 0
-6495 -32 0
-6495 -33 0
-6495 -42 0
-6495 47 0
-6495 -48 0
-6495 -49 0
-6495 54 0
-6495 63 0
-6495 -64 0
-6495 -65 0
-6495 -66 0
6495 15 -24 -25 32 33 42 -47 48 49 -54 -63 64 65 66 0
-6496 -15 0
-6496 24 0
-6496 25 0
-6496 32 0
-6496 -33 0
-6496 42 0
-6496 47 0
-6496 -48 0
-6496 -49 0
-6496 54 0
-6496 63 0
-6496 -64 0
-6496 -65 0
-6496 -66 0
6496 15 -24 -25 -32 33 -42 -47 48 49 -54 -63 64 65 66 0
-6497 -15 0
-6497 24 0
-6497 25 0
-6497 -32 0
-6497 -33 0
-6497 42 0
-6497 -47 0
-6497 -48 0
-6497 -49 0
-6497 54 0
-6497 63 0
-6497 -64 0
-6497 -65 0
-6497 -66 0
6497 15 -24 -25 32 33 -42 47 48 49 -54 -63 64 65 66 0
-6498 -15 0
-6498 24 0
-6498 25 0
-6498 32 0
-6498 -33 0
-6498 -42 0
-6498 -47 0
-6498 -48 0
-6498 -49 0
-6498 54 0
-6498 63 0
-6498 -64 0
-6498 -65 0
-6498 -66 0
6498 15 -24 -25 -32 33 42 47 48 49 -54 -63 64 65 66 0
-6499 -15 0
-6499 24 0
-6499 25 0
-6499 -32 0
-6499 -33 0
-6499 -42 0
-6499 -47 0
-6499 -48 0
-6499 49 0
-6499 54 0
-6499 63 0
-6499 -64 0
-6499 -65 0
-6499 -66 0
6499 15 -24 -25 32 33 42 47 48 -49 -54 -63 64 65 66 0
-6500 -15 0
-6500 24 0
-6500 25 0
-6500 32 0
-6500 -33 0
-6500 42 0
-6500 -47 0
-6500 -48 0
-6500 49 0
-6500 54 0
-6500 63 0
-6500 -64 0
-6500 -65 0
-6500 -66 0
6500 15 -24 -25 -32 33 -42 47 48 -49 -54 -63 64 65 66 0
-6501 -15 0
-6501 24 0
-6501 25 0
-6501 -32 0
-6501 -33 0
-6501 42 0
-6501 47 0
-6501 -48 0
-6501 49 0
-6501 54 0
-6501 63 0
-6501 -64 0
-6501 -65 0
-6501 -66 0
6501 15 -24 -25 32 33 -42 -47 48 -49 -54 -63 64 65 66 0
-6502 -15 0
-6502 24 0
-6502 25 0
-6502 32 0
-6502 -33 0
-6502 -42 0
-6502 47 0
-6502 -48 0
-6502 49 0
-6502 54 0
-6502 63 0
-6502 -64 0
-6502 -65 0
-6502 -66 0
6502 15 -24 -25 -32 33 42 -47 48 -49 -54 -63 64 65 66 0
-6503 15 0
-6503 24 0
-6503 25 0
-6503 -32 0
-6503 -33 0
-6503 -42 0
-6503 47 0
-6503 -48 0
-6503 49 0
-6503 54 0
-6503 63 0
-6503 -64 0
-6503 -65 0
-6503 -66 0
6503 -15 -24 -25 32 33 42 -47 48 -49 -54 -63 64 65 66 0
-6504 15 0
-6504 24 0
-6504 25 0
-6504 32 0
-6504 -33 0
-6504 42 0
-6504 47 0
-6504 -48 0
-6504 49 0
-6504 54 0
-6504 63 0
-6504 -64 0
-6504 -65 0
-6504 -66 0
6504 -15 -24 -25 -32 33 -42 -47 48 -49 -54 -63 64 65 66 0
-6505 15 0
-6505 24 0
-6505 25 0
-6505 -32 0
-6505 -33 0
-6505 42 0
-6505 -47 0
-6505 -48 0
-6505 49 0
-6505 54 0
-6505 63 0
-6505 -64 0
-6505 -65 0
-6505 -66 0
6505 -15 -24 -25 32 33 -42 47 48 -49 -54 -63 64 65 66 0
-6506 15 0
-6506 24 0
-6506 25 0
-6506 32 0
-6506 -33 0
-6506 -42 0
-6506 -47 0
-6506 -48 0
-6506 49 0
-6506 54 0
-6506 63 0
-6506 -64 0
-6506 -65 0
-6506 -66 0
6506 -15 -24 -25 -32 33 42 47 48 -49 -54 -63 64 65 66 0
-6507 15 0
-6507 24 0
-6507 25 0
-6507 -32 0
-6507 -33 0
-6507 -42 0
-6507 -47 0
-6507 48 0
-6507 49 0
-6507 54 0
-6507 63 0
-6507 -64 0
-6507 -65 0
-6507 -66 0
6507 -15 -24 -25 32 33 42 47 -48 -49 -54 -63 64 65 66 0
-6508 15 0
-6508 24 0
-6508 25 0
-6508 32 0
-6508 -33 0
-6508 42 0
-6508 -47 0
-6508 48 0
-6508 49 0
-6508 54 0
-6508 63 0
-6508 -64 0
-6508 -65 0
-6508 -66 0
6508 -15 -24 -25 -32 33 -42 47 -48 -49 -54 -63 64 65 66 0
-6509 15 0
-6509 24 0
-6509 25 0
-6509 -32 0
-6509 -33 0
-6509 42 0
-6509 47 0
-6509 48 0
-6509 49 0
-6509 54 0
-6509 63 0
-6509 -64 0
-6509 -65 0
-6509 -66 0
6509 -15 -24 -25 32 33 -42 -47 -48 -49 -54 -63 64 65 66 0
-6510 15 0
-6510 24 0
-6510 25 0
-6510 32 0
-6510 -33 0
-6510 -42 0
-6510 47 0
-6510 48 0
-6510 49 0
-6510 54 0
-6510 63 0
-6510 -64 0
-6510 -65 0
-6510 -66 0
6510 -15 -24 -25 -32 33 42 -47 -48 -49 -54 -63 64 65 66 0
-6511 -15 0
-6511 24 0
-6511 25 0
-6511 -32 0
-6511 -33 0
-6511 -42 0
-6511 47 0
-6511 48 0
-6511 49 0
-6511 54 0
-6511 63 0
-6511 -64 0
-6511 -65 0
-6511 -66 0
6511 15 -24 -25 32 33 42 -47 -48 -49 -54 -63 64 65 66 0
-6512 -15 0
-6512 24 0
-6512 25 0
-6512 32 0
-6512 -33 0
-6512 42 0
-6512 47 0
-6512 48 0
-6512 49 0
-6512 54 0
-6512 63 0
-6512 -64 0
-6512 -65 0
-6512 -66 0
6512 15 -24 -25 -32 33 -42 -47 -48 -49 -54 -63 64 65 66 0
-6513 -15 0
-6513 24 0
-6513 25 0
-6513 -32 0
-6513 -33 0
-6513 42 0
-6513 -47 0
-6513 48 0
-6513 49 0
-6513 54 0
-6513 63 0
-6513 -64 0
-6513 -65 0
-6513 -66 0
6513 15 -24 -25 32 33 -42 47 -48 -49 -54 -63 64 65 66 0
-6514 -15 0
-6514 24 0
-6514 25 0
-6514 32 0
-6514 -33 0
-6514 -42 0
-6514 -47 0
-6514 48 0
-6514 49 0
-6514 54 0
-6514 63 0
-6514 -64 0
-6514 -65 0
-6514 -66 0
6514 15 -24 -25 -32 33 42 47 -48 -49 -54 -63 64 65 66 0
-6515 -15 0
-6515 -24 0
-6515 25 0
-6515 -32 0
-6515 -33 0
-6515 -42 0
-6515 -47 0
-6515 48 0
-6515 49 0
-6515 54 0
-6515 63 0
-6515 -64 0
-6515 -65 0
-6515 -66 0
6515 15 24 -25 32 33 42 47 -48 -49 -54 -63 64 65 66 0
-6516 -15 0
-6516 -24 0
-6516 25 0
-6516 32 0
-6516 -33 0
-6516 42 0
-6516 -47 0
-6516 48 0
-6516 49 0
-6516 54 0
-6516 63 0
-6516 -64 0
-6516 -65 0
-6516 -66 0
6516 15 24 -25 -32 33 -42 47 -48 -49 -54 -63 64 65 66 0
-6517 -15 0
-6517 -24 0
-6517 25 0
-6517 -32 0
-6517 -33 0
-6517 42 0
-6517 47 0
-6517 48 0
-6517 49 0
-6517 54 0
-6517 63 0
-6517 -64 0
-6517 -65 0
-6517 -66 0
6517 15 24 -25 32 33 -42 -47 -48 -49 -54 -63 64 65 66 0
-6518 -15 0
-6518 -24 0
-6518 25 0
-6518 32 0
-6518 -33 0
-6518 -42 0
-6518 47 0
-6518 48 0
-6518 49 0
-6518 54 0
-6518 63 0
-6518 -64 0
-6518 -65 0
-6518 -66 0
6518 15 24 -25 -32 33 42 -47 -48 -49 -54 -63 64 65 66 0
-6519 15 0
-6519 -24 0
-6519 25 0
-6519 -32 0
-6519 -33 0
-6519 -42 0
-6519 47 0
-6519 48 0
-6519 49 0
-6519 54 0
-6519 63 0
-6519 -64 0
-6519 -65 0
-6519 -66 0
6519 -15 24 -25 32 33 42 -47 -48 -49 -54 -63 64 65 66 0
-6520 15 0
-6520 -24 0
-6520 25 0
-6520 32 0
-6520 -33 0
-6520 42 0
-6520 47 0
-6520 48 0
-6520 49 0
-6520 54 0
-6520 63 0
-6520 -64 0
-6520 -65 0
-6520 -66 0
6520 -15 24 -25 -32 33 -42 -47 -48 -49 -54 -63 64 65 66 0
-6521 15 0
-6521 -24 0
-6521 25 0
-6521 -32 0
-6521 -33 0
-6521 42 0
-6521 -47 0
-6521 48 0
-6521 49 0
-6521 54 0
-6521 63 0
-6521 -64 0
-6521 -65 0
-6521 -66 0
6521 -15 24 -25 32 33 -42 47 -48 -49 -54 -63 64 65 66 0
-6522 15 0
-6522 -24 0
-6522 25 0
-6522 32 0
-6522 -33 0
-6522 -42 0
-6522 -47 0
-6522 48 0
-6522 49 0
-6522 54 0
-6522 63 0
-6522 -64 0
-6522 -65 0
-6522 -66 0
6522 -15 24 -25 -32 33 42 47 -48 -49 -54 -63 64 65 66 0
-6523 15 0
-6523 -24 0
-6523 25 0
-6523 -32 0
-6523 -33 0
-6523 -42 0
-6523 -47 0
-6523 -48 0
-6523 49 0
-6523 54 0
-6523 63 0
-6523 -64 0
-6523 -65 0
-6523 -66 0
6523 -15 24 -25 32 33 42 47 48 -49 -54 -63 64 65 66 0
-6524 15 0
-6524 -24 0
-6524 25 0
-6524 32 0
-6524 -33 0
-6524 42 0
-6524 -47 0
-6524 -48 0
-6524 49 0
-6524 54 0
-6524 63 0
-6524 -64 0
-6524 -65 0
-6524 -66 0
6524 -15 24 -25 -32 33 -42 47 48 -49 -54 -63 64 65 66 0
-6525 15 0
-6525 -24 0
-6525 25 0
-6525 -32 0
-6525 -33 0
-6525 42 0
-6525 47 0
-6525 -48 0
-6525 49 0
-6525 54 0
-6525 63 0
-6525 -64 0
-6525 -65 0
-6525 -66 0
6525 -15 24 -25 32 33 -42 -47 48 -49 -54 -63 64 65 66 0
-6526 15 0
-6526 -24 0
-6526 25 0
-6526 32 0
-6526 -33 0
-6526 -42 0
-6526 47 0
-6526 -48 0
-6526 49 0
-6526 54 0
-6526 63 0
-6526 -64 0
-6526 -65 0
-6526 -66 0
6526 -15 24 -25 -32 33 42 -47 48 -49 -54 -63 64 65 66 0
-6527 -15 0
-6527 -24 0
-6527 25 0
-6527 -32 0
-6527 -33 0
-6527 -42 0
-6527 47 0
-6527 -48 0
-6527 49 0
-6527 54 0
-6527 63 0
-6527 -64 0
-6527 -65 0
-6527 -66 0
6527 15 24 -25 32 33 42 -47 48 -49 -54 -63 64 65 66 0
-6528 -15 0
-6528 -24 0
-6528 25 0
-6528 32 0
-6528 -33 0
-6528 42 0
-6528 47 0
-6528 -48 0
-6528 49 0
-6528 54 0
-6528 63 0
-6528 -64 0
-6528 -65 0
-6528 -66 0
6528 15 24 -25 -32 33 -42 -47 48 -49 -54 -63 64 65 66 0
-6529 -15 0
-6529 -24 0
-6529 25 0
-6529 -32 0
-6529 -33 0
-6529 42 0
-6529 -47 0
-6529 -48 0
-6529 49 0
-6529 54 0
-6529 63 0
-6529 -64 0
-6529 -65 0
-6529 -66 0
6529 15 24 -25 32 33 -42 47 48 -49 -54 -63 64 65 66 0
-6530 -15 0
-6530 -24 0
-6530 25 0
-6530 32 0
-6530 -33 0
-6530 -42 0
-6530 -47 0
-6530 -48 0
-6530 49 0
-6530 54 0
-6530 63 0
-6530 -64 0
-6530 -65 0
-6530 -66 0
6530 15 24 -25 -32 33 42 47 48 -49 -54 -63 64 65 66 0
-6531 -15 0
-6531 -24 0
-6531 25 0
-6531 -32 0
-6531 -33 0
-6531 -42 0
-6531 -47 0
-6531 -48 0
-6531 -49 0
-6531 54 0
-6531 63 0
-6531 -64 0
-6531 -65 0
-6531 -66 0
6531 15 24 -25 32 33 42 47 48 49 -54 -63 64 65 66 0
-6532 -15 0
-6532 -24 0
-6532 25 0
-6532 32 0
-6532 -33 0
-6532 42 0
-6532 -47 0
-6532 -48 0
-6532 -49 0
-6532 54 0
-6532 63 0
-6532 -64 0
-6532 -65 0
-6532 -66 0
6532 15 24 -25 -32 33 -42 47 48 49 -54 -63 64 65 66 0
-6533 -15 0
-6533 -24 0
-6533 25 0
-6533 -32 0
-6533 -33 0
-6533 42 0
-6533 47 0
-6533 -48 0
-6533 -49 0
-6533 54 0
-6533 63 0
-6533 -64 0
-6533 -65 0
-6533 -66 0
6533 15 24 -25 32 33 -42 -47 48 49 -54 -63 64 65 66 0
-6534 -15 0
-6534 -24 0
-6534 25 0
-6534 32 0
-6534 -33 0
-6534 -42 0
-6534 47 0
-6534 -48 0
-6534 -49 0
-6534 54 0
-6534 63 0
-6534 -64 0
-6534 -65 0
-6534 -66 0
6534 15 24 -25 -32 33 42 -47 48 49 -54 -63 64 65 66 0
-6535 15 0
-6535 -24 0
-6535 25 0
-6535 -32 0
-6535 -33 0
-6535 -42 0
-6535 47 0
-6535 -48 0
-6535 -49 0
-6535 54 0
-6535 63 0
-6535 -64 0
-6535 -65 0
-6535 -66 0
6535 -15 24 -25 32 33 42 -47 48 49 -54 -63 64 65 66 0
-6536 15 0
-6536 -24 0
-6536 25 0
-6536 32 0
-6536 -33 0
-6536 42 0
-6536 47 0
-6536 -48 0
-6536 -49 0
-6536 54 0
-6536 63 0
-6536 -64 0
-6536 -65 0
-6536 -66 0
6536 -15 24 -25 -32 33 -42 -47 48 49 -54 -63 64 65 66 0
-6537 15 0
-6537 -24 0
-6537 25 0
-6537 -32 0
-6537 -33 0
-6537 42 0
-6537 -47 0
-6537 -48 0
-6537 -49 0
-6537 54 0
-6537 63 0
-6537 -64 0
-6537 -65 0
-6537 -66 0
6537 -15 24 -25 32 33 -42 47 48 49 -54 -63 64 65 66 0
-6538 15 0
-6538 -24 0
-6538 25 0
-6538 -32 0
-6538 -33 0
-6538 -42 0
-6538 -47 0
-6538 48 0
-6538 -49 0
-6538 54 0
-6538 63 0
-6538 -64 0
-6538 -65 0
-6538 -66 0
6538 -15 24 -25 32 33 42 47 -48 49 -54 -63 64 65 66 0
-6539 -15 0
-6539 -24 0
-6539 -25 0
-6539 -32 0
-6539 -33 0
-6539 42 0
-6539 -47 0
-6539 -48 0
-6539 -49 0
-6539 54 0
-6539 63 0
-6539 -64 0
-6539 -65 0
-6539 -66 0
6539 15 24 25 32 33 -42 47 48 49 -54 -63 64 65 66 0
-6540 15 0
-6540 -24 0
-6540 25 0
-6540 32 0
-6540 -33 0
-6540 42 0
-6540 -47 0
-6540 48 0
-6540 -49 0
-6540 54 0
-6540 63 0
-6540 -64 0
-6540 -65 0
-6540 -66 0
6540 -15 24 -25 -32 33 -42 47 -48 49 -54 -63 64 65 66 0
-6541 15 0
-6541 -24 0
-6541 25 0
-6541 -32 0
-6541 -33 0
-6541 42 0
-6541 47 0
-6541 48 0
-6541 -49 0
-6541 54 0
-6541 63 0
-6541 -64 0
-6541 -65 0
-6541 -66 0
6541 -15 24 -25 32 33 -42 -47 -48 49 -54 -63 64 65 66 0
-6542 15 0
-6542 -24 0
-6542 25 0
-6542 32 0
-6542 -33 0
-6542 -42 0
-6542 47 0
-6542 48 0
-6542 -49 0
-6542 54 0
-6542 63 0
-6542 -64 0
-6542 -65 0
-6542 -66 0
6542 -15 24 -25 -32 33 42 -47 -48 49 -54 -63 64 65 66 0
-6543 -15 0
-6543 -24 0
-6543 25 0
-6543 -32 0
-6543 -33 0
-6543 -42 0
-6543 47 0
-6543 48 0
-6543 -49 0
-6543 54 0
-6543 63 0
-6543 -64 0
-6543 -65 0
-6543 -66 0
6543 15 24 -25 32 33 42 -47 -48 49 -54 -63 64 65 66 0
-6544 -15 0
-6544 -24 0
-6544 25 0
-6544 32 0
-6544 -33 0
-6544 42 0
-6544 47 0
-6544 48 0
-6544 -49 0
-6544 54 0
-6544 63 0
-6544 -64 0
-6544 -65 0
-6544 -66 0
6544 15 24 -25 -32 33 -42 -47 -48 49 -54 -63 64 65 66 0
-6545 -15 0
-6545 -24 0
-6545 25 0
-6545 -32 0
-6545 -33 0
-6545 42 0
-6545 -47 0
-6545 48 0
-6545 -49 0
-6545 54 0
-6545 63 0
-6545 -64 0
-6545 -65 0
-6545 -66 0
6545 15 24 -25 32 33 -42 47 -48 49 -54 -63 64 65 66 0
-6546 -15 0
-6546 -24 0
-6546 25 0
-6546 32 0
-6546 -33 0
-6546 -42 0
-6546 -47 0
-6546 48 0
-6546 -49 0
-6546 54 0
-6546 63 0
-6546 -64 0
-6546 -65 0
-6546 -66 0
6546 15 24 -25 -32 33 42 47 -48 49 -54 -63 64 65 66 0
-6547 -15 0
-6547 -24 0
-6547 -25 0
-6547 -32 0
-6547 -33 0
-6547 -42 0
-6547 -47 0
-6547 48 0
-6547 -49 0
-6547 54 0
-6547 63 0
-6547 -64 0
-6547 -65 0
-6547 -66 0
6547 15 24 25 32 33 42 47 -48 49 -54 -63 64 65 66 0
-6548 -15 0
-6548 -24 0
-6548 -25 0
-6548 32 0
-6548 -33 0
-6548 42 0
-6548 -47 0
-6548 48 0
-6548 -49 0
-6548 54 0
-6548 63 0
-6548 -64 0
-6548 -65 0
-6548 -66 0
6548 15 24 25 -32 33 -42 47 -48 49 -54 -63 64 65 66 0
-6549 -15 0
-6549 -24 0
-6549 -25 0
-6549 -32 0
-6549 -33 0
-6549 42 0
-6549 47 0
-6549 48 0
-6549 -49 0
-6549 54 0
-6549 63 0
-6549 -64 0
-6549 -65 0
-6549 -66 0
6549 15 24 25 32 33 -42 -47 -48 49 -54 -63 64 65 66 0
-6550 -15 0
-6550 -24 0
-6550 -25 0
-6550 32 0
-6550 -33 0
-6550 -42 0
-6550 47 0
-6550 48 0
-6550 -49 0
-6550 54 0
-6550 63 0
-6550 -64 0
-6550 -65 0
-6550 -66 0
6550 15 24 25 -32 33 42 -47 -48 49 -54 -63 64 65 66 0
-6551 15 0
-6551 -24 0
-6551 -25 0
-6551 -32 0
-6551 -33 0
-6551 -42 0
-6551 47 0
-6551 48 0
-6551 -49 0
-6551 54 0
-6551 63 0
-6551 -64 0
-6551 -65 0
-6551 -66 0
6551 -15 24 25 32 33 42 -47 -48 49 -54 -63 64 65 66 0
-6552 15 0
-6552 -24 0
-6552 -25 0
-6552 32 0
-6552 -33 0
-6552 42 0
-6552 47 0
-6552 48 0
-6552 -49 0
-6552 54 0
-6552 63 0
-6552 -64 0
-6552 -65 0
-6552 -66 0
6552 -15 24 25 -32 33 -42 -47 -48 49 -54 -63 64 65 66 0
-6553 15 0
-6553 -24 0
-6553 -25 0
-6553 -32 0
-6553 -33 0
-6553 42 0
-6553 -47 0
-6553 48 0
-6553 -49 0
-6553 54 0
-6553 63 0
-6553 -64 0
-6553 -65 0
-6553 -66 0
6553 -15 24 25 32 33 -42 47 -48 49 -54 -63 64 65 66 0
-6554 15 0
-6554 -24 0
-6554 -25 0
-6554 32 0
-6554 -33 0
-6554 -42 0
-6554 -47 0
-6554 48 0
-6554 -49 0
-6554 54 0
-6554 63 0
-6554 -64 0
-6554 -65 0
-6554 -66 0
6554 -15 24 25 -32 33 42 47 -48 49 -54 -63 64 65 66 0
-6555 15 0
-6555 -24 0
-6555 -25 0
-6555 -32 0
-6555 -33 0
-6555 -42 0
-6555 -47 0
-6555 -48 0
-6555 -49 0
-6555 54 0
-6555 63 0
-6555 -64 0
-6555 -65 0
-6555 -66 0
6555 -15 24 25 32 33 42 47 48 49 -54 -63 64 65 66 0
-6556 15 0
-6556 -24 0
-6556 -25 0
-6556 32 0
-6556 -33 0
-6556 42 0
-6556 -47 0
-6556 -48 0
-6556 -49 0
-6556 54 0
-6556 63 0
-6556 -64 0
-6556 -65 0
-6556 -66 0
6556 -15 24 25 -32 33 -42 47 48 49 -54 -63 64 65 66 0
-6557 15 0
-6557 -24 0
-6557 -25 0
-6557 -32 0
-6557 -33 0
-6557 42 0
-6557 47 0
-6557 -48 0
-6557 -49 0
-6557 54 0
-6557 63 0
-6557 -64 0
-6557 -65 0
-6557 -66 0
6557 -15 24 25 32 33 -42 -47 48 49 -54 -63 64 65 66 0
-6558 15 0
-6558 -24 0
-6558 -25 0
-6558 32 0
-6558 -33 0
-6558 -42 0
-6558 47 0
-6558 -48 0
-6558 -49 0
-6558 54 0
-6558 63 0
-6558 -64 0
-6558 -65 0
-6558 -66 0
6558 -15 24 25 -32 33 42 -47 48 49 -54 -63 64 65 66 0
-6559 -15 0
-6559 -24 0
-6559 -25 0
-6559 -32 0
-6559 -33 0
-6559 -42 0
-6559 47 0
-6559 -48 0
-6559 -49 0
-6559 54 0
-6559 63 0
-6559 -64 0
-6559 -65 0
-6559 -66 0
6559 15 24 25 32 33 42 -47 48 49 -54 -63 64 65 66 0
-6560 -15 0
-6560 -24 0
-6560 -25 0
-6560 32 0
-6560 -33 0
-6560 42 0
-6560 47 0
-6560 -48 0
-6560 -49 0
-6560 54 0
-6560 63 0
-6560 -64 0
-6560 -65 0
-6560 -66 0
6560 15 24 25 -32 33 -42 -47 48 49 -54 -63 64 65 66 0
-6561 -15 0
-6561 -24 0
-6561 -25 0
-6561 32 0
-6561 -33 0
-6561 42 0
-6561 -47 0
-6561 -48 0
-6561 49 0
-6561 54 0
-6561 63 0
-6561 -64 0
-6561 -65 0
-6561 -66 0
6561 15 24 25 -32 33 -42 47 48 -49 -54 -63 64 65 66 0
-6562 -15 0
-6562 -24 0
-6562 -25 0
-6562 32 0
-6562 -33 0
-6562 -42 0
-6562 -47 0
-6562 48 0
-6562 49 0
-6562 54 0
-6562 63 0
-6562 -64 0
-6562 -65 0
-6562 -66 0
6562 15 24 25 -32 33 42 47 -48 -49 -54 -63 64 65 66 0
-6563 -15 0
-6563 -24 0
-6563 -25 0
-6563 -32 0
-6563 -33 0
-6563 42 0
-6563 -47 0
-6563 48 0
-6563 49 0
-6563 54 0
-6563 63 0
-6563 -64 0
-6563 -65 0
-6563 -66 0
6563 15 24 25 32 33 -42 47 -48 -49 -54 -63 64 65 66 0
-6564 -15 0
-6564 -24 0
-6564 -25 0
-6564 -32 0
-6564 -33 0
-6564 42 0
-6564 47 0
-6564 -48 0
-6564 49 0
-6564 54 0
-6564 63 0
-6564 -64 0
-6564 -65 0
-6564 -66 0
6564 15 24 25 32 33 -42 -47 48 -49 -54 -63 64 65 66 0
-6565 -15 0
-6565 -24 0
-6565 -25 0
-6565 32 0
-6565 -33 0
-6565 -42 0
-6565 47 0
-6565 -48 0
-6565 49 0
-6565 54 0
-6565 63 0
-6565 -64 0
-6565 -65 0
-6565 -66 0
6565 15 24 25 -32 33 42 -47 48 -49 -54 -63 64 65 66 0
-6566 15 0
-6566 -24 0
-6566 -25 0
-6566 -32 0
-6566 -33 0
-6566 -42 0
-6566 47 0
-6566 -48 0
-6566 49 0
-6566 54 0
-6566 63 0
-6566 -64 0
-6566 -65 0
-6566 -66 0
6566 -15 24 25 32 33 42 -47 48 -49 -54 -63 64 65 66 0
-6567 15 0
-6567 -24 0
-6567 -25 0
-6567 32 0
-6567 -33 0
-6567 42 0
-6567 47 0
-6567 -48 0
-6567 49 0
-6567 54 0
-6567 63 0
-6567 -64 0
-6567 -65 0
-6567 -66 0
6567 -15 24 25 -32 33 -42 -47 48 -49 -54 -63 64 65 66 0
-6568 15 0
-6568 -24 0
-6568 -25 0
-6568 -32 0
-6568 -33 0
-6568 42 0
-6568 -47 0
-6568 -48 0
-6568 49 0
-6568 54 0
-6568 63 0
-6568 -64 0
-6568 -65 0
-6568 -66 0
6568 -15 24 25 32 33 -42 47 48 -49 -54 -63 64 65 66 0
-6569 15 0
-6569 -24 0
-6569 -25 0
-6569 32 0
-6569 -33 0
-6569 -42 0
-6569 -47 0
-6569 -48 0
-6569 49 0
-6569 54 0
-6569 63 0
-6569 -64 0
-6569 -65 0
-6569 -66 0
6569 -15 24 25 -32 33 42 47 48 -49 -54 -63 64 65 66 0
-6570 15 0
-6570 -24 0
-6570 -25 0
-6570 -32 0
-6570 -33 0
-6570 -42 0
-6570 -47 0
-6570 48 0
-6570 49 0
-6570 54 0
-6570 63 0
-6570 -64 0
-6570 -65 0
-6570 -66 0
6570 -15 24 25 32 33 42 47 -48 -49 -54 -63 64 65 66 0
-6571 15 0
-6571 -24 0
-6571 -25 0
-6571 32 0
-6571 -33 0
-6571 42 0
-6571 -47 0
-6571 48 0
-6571 49 0
-6571 54 0
-6571 63 0
-6571 -64 0
-6571 -65 0
-6571 -66 0
6571 -15 24 25 -32 33 -42 47 -48 -49 -54 -63 64 65 66 0
-6572 15 0
-6572 -24 0
-6572 -25 0
-6572 -32 0
-6572 -33 0
-6572 42 0
-6572 47 0
-6572 48 0
-6572 49 0
-6572 54 0
-6572 63 0
-6572 -64 0
-6572 -65 0
-6572 -66 0
6572 -15 24 25 32 33 -42 -47 -48 -49 -54 -63 64 65 66 0
-6573 15 0
-6573 -24 0
-6573 -25 0
-6573 32 0
-6573 -33 0
-6573 -42 0
-6573 47 0
-6573 48 0
-6573 49 0
-6573 54 0
-6573 63 0
-6573 -64 0
-6573 -65 0
-6573 -66 0
6573 -15 24 25 -32 33 42 -47 -48 -49 -54 -63 64 65 66 0
-6574 -15 0
-6574 -24 0
-6574 -25 0
-6574 -32 0
-6574 -33 0
-6574 -42 0
-6574 47 0
-6574 48 0
-6574 49 0
-6574 54 0
-6574 63 0
-6574 -64 0
-6574 -65 0
-6574 -66 0
6574 15 24 25 32 33 42 -47 -48 -49 -54 -63 64 65 66 0
-6575 -15 0
-6575 -24 0
-6575 -25 0
-6575 32 0
-6575 -33 0
-6575 42 0
-6575 47 0
-6575 48 0
-6575 49 0
-6575 54 0
-6575 63 0
-6575 -64 0
-6575 -65 0
-6575 -66 0
6575 15 24 25 -32 33 -42 -47 -48 -49 -54 -63 64 65 66 0
-6576 -15 0
-6576 24 0
-6576 -25 0
-6576 -32 0
-6576 -33 0
-6576 -42 0
-6576 -47 0
-6576 48 0
-6576 49 0
-6576 54 0
-6576 63 0
-6576 -64 0
-6576 -65 0
-6576 -66 0
6576 15 -24 25 32 33 42 47 -48 -49 -54 -63 64 65 66 0
-6577 -15 0
-6577 -24 0
-6577 -25 0
-6577 32 0
-6577 -33 0
-6577 -42 0
-6577 -47 0
-6577 -48 0
-6577 -49 0
-6577 54 0
-6577 62 0
-6577 -64 0
-6577 -65 0
-6577 -66 0
6577 15 24 25 -32 33 42 47 48 49 -54 -62 64 65 66 0
-6578 15 0
-6578 -24 0
-6578 -25 0
-6578 32 0
-6578 33 0
-6578 -42 0
-6578 -47 0
-6578 -48 0
-6578 -49 0
-6578 54 0
-6578 62 0
-6578 -64 0
-6578 -65 0
-6578 -66 0
6578 -15 24 25 -32 -33 42 47 48 49 -54 -62 64 65 66 0
-6579 -15 0
-6579 24 0
-6579 -25 0
-6579 32 0
-6579 -33 0
-6579 42 0
-6579 -47 0
-6579 48 0
-6579 49 0
-6579 54 0
-6579 63 0
-6579 -64 0
-6579 -65 0
-6579 -66 0
6579 15 -24 25 -32 33 -42 47 -48 -49 -54 -63 64 65 66 0
-6580 -15 0
-6580 24 0
-6580 -25 0
-6580 -32 0
-6580 -33 0
-6580 42 0
-6580 47 0
-6580 48 0
-6580 49 0
-6580 54 0
-6580 63 0
-6580 -64 0
-6580 -65 0
-6580 -66 0
6580 15 -24 25 32 33 -42 -47 -48 -49 -54 -63 64 65 66 0
-6581 -15 0
-6581 24 0
-6581 -25 0
-6581 32 0
-6581 -33 0
-6581 -42 0
-6581 47 0
-6581 48 0
-6581 49 0
-6581 54 0
-6581 63 0
-6581 -64 0
-6581 -65 0
-6581 -66 0
6581 15 -24 25 -32 33 42 -47 -48 -49 -54 -63 64 65 66 0
-6582 15 0
-6582 24 0
-6582 -25 0
-6582 -32 0
-6582 -33 0
-6582 -42 0
-6582 47 0
-6582 48 0
-6582 49 0
-6582 54 0
-6582 63 0
-6582 -64 0
-6582 -65 0
-6582 -66 0
6582 -15 -24 25 32 33 42 -47 -48 -49 -54 -63 64 65 66 0
-6583 15 0
-6583 24 0
-6583 -25 0
-6583 32 0
-6583 -33 0
-6583 42 0
-6583 47 0
-6583 48 0
-6583 49 0
-6583 54 0
-6583 63 0
-6583 -64 0
-6583 -65 0
-6583 -66 0
6583 -15 -24 25 -32 33 -42 -47 -48 -49 -54 -63 64 65 66 0
-6584 15 0
-6584 24 0
-6584 -25 0
-6584 -32 0
-6584 -33 0
-6584 42 0
-6584 -47 0
-6584 48 0
-6584 49 0
-6584 54 0
-6584 63 0
-6584 -64 0
-6584 -65 0
-6584 -66 0
6584 -15 -24 25 32 33 -42 47 -48 -49 -54 -63 64 65 66 0
-6585 15 0
-6585 24 0
-6585 -25 0
-6585 32 0
-6585 -33 0
-6585 -42 0
-6585 -47 0
-6585 48 0
-6585 49 0
-6585 54 0
-6585 63 0
-6585 -64 0
-6585 -65 0
-6585 -66 0
6585 -15 -24 25 -32 33 42 47 -48 -49 -54 -63 64 65 66 0
-6586 15 0
-6586 24 0
-6586 -25 0
-6586 -32 0
-6586 -33 0
-6586 -42 0
-6586 -47 0
-6586 -48 0
-6586 49 0
-6586 54 0
-6586 63 0
-6586 -64 0
-6586 -65 0
-6586 -66 0
6586 -15 -24 25 32 33 42 47 48 -49 -54 -63 64 65 66 0
-6587 15 0
-6587 24 0
-6587 -25 0
-6587 32 0
-6587 -33 0
-6587 42 0
-6587 -47 0
-6587 -48 0
-6587 49 0
-6587 54 0
-6587 63 0
-6587 -64 0
-6587 -65 0
-6587 -66 0
6587 -15 -24 25 -32 33 -42 47 48 -49 -54 -63 64 65 66 0
-6588 15 0
-6588 24 0
-6588 -25 0
-6588 -32 0
-6588 -33 0
-6588 42 0
-6588 47 0
-6588 -48 0
-6588 49 0
-6588 54 0
-6588 63 0
-6588 -64 0
-6588 -65 0
-6588 -66 0
6588 -15 -24 25 32 33 -42 -47 48 -49 -54 -63 64 65 66 0
-6589 15 0
-6589 24 0
-6589 -25 0
-6589 32 0
-6589 -33 0
-6589 -42 0
-6589 47 0
-6589 -48 0
-6589 49 0
-6589 54 0
-6589 63 0
-6589 -64 0
-6589 -65 0
-6589 -66 0
6589 -15 -24 25 -32 33 42 -47 48 -49 -54 -63 64 65 66 0
-6590 -15 0
-6590 24 0
-6590 -25 0
-6590 -32 0
-6590 -33 0
-6590 -42 0
-6590 47 0
-6590 -48 0
-6590 49 0
-6590 54 0
-6590 63 0
-6590 -64 0
-6590 -65 0
-6590 -66 0
6590 15 -24 25 32 33 42 -47 48 -49 -54 -63 64 65 66 0
-6591 -15 0
-6591 24 0
-6591 -25 0
-6591 32 0
-6591 -33 0
-6591 42 0
-6591 47 0
-6591 -48 0
-6591 49 0
-6591 54 0
-6591 63 0
-6591 -64 0
-6591 -65 0
-6591 -66 0
6591 15 -24 25 -32 33 -42 -47 48 -49 -54 -63 64 65 66 0
-6592 -15 0
-6592 24 0
-6592 -25 0
-6592 -32 0
-6592 -33 0
-6592 42 0
-6592 -47 0
-6592 -48 0
-6592 49 0
-6592 54 0
-6592 63 0
-6592 -64 0
-6592 -65 0
-6592 -66 0
6592 15 -24 25 32 33 -42 47 48 -49 -54 -63 64 65 66 0
-6593 -15 0
-6593 24 0
-6593 -25 0
-6593 32 0
-6593 -33 0
-6593 -42 0
-6593 -47 0
-6593 -48 0
-6593 49 0
-6593 54 0
-6593 63 0
-6593 -64 0
-6593 -65 0
-6593 -66 0
6593 15 -24 25 -32 33 42 47 48 -49 -54 -63 64 65 66 0
-6594 -15 0
-6594 24 0
-6594 -25 0
-6594 -32 0
-6594 -33 0
-6594 -42 0
-6594 -47 0
-6594 -48 0
-6594 -49 0
-6594 54 0
-6594 63 0
-6594 -64 0
-6594 -65 0
-6594 -66 0
6594 15 -24 25 32 33 42 47 48 49 -54 -63 64 65 66 0
-6595 -15 0
-6595 24 0
-6595 -25 0
-6595 32 0
-6595 -33 0
-6595 42 0
-6595 -47 0
-6595 -48 0
-6595 -49 0
-6595 54 0
-6595 63 0
-6595 -64 0
-6595 -65 0
-6595 -66 0
6595 15 -24 25 -32 33 -42 47 48 49 -54 -63 64 65 66 0
-6596 -15 0
-6596 24 0
-6596 -25 0
-6596 -32 0
-6596 -33 0
-6596 42 0
-6596 47 0
-6596 -48 0
-6596 -49 0
-6596 54 0
-6596 63 0
-6596 -64 0
-6596 -65 0
-6596 -66 0
6596 15 -24 25 32 33 -42 -47 48 49 -54 -63 64 65 66 0
-6597 -15 0
-6597 24 0
-6597 -25 0
-6597 32 0
-6597 -33 0
-6597 -42 0
-6597 47 0
-6597 -48 0
-6597 -49 0
-6597 54 0
-6597 63 0
-6597 -64 0
-6597 -65 0
-6597 -66 0
6597 15 -24 25 -32 33 42 -47 48 49 -54 -63 64 65 66 0
-6598 15 0
-6598 24 0
-6598 -25 0
-6598 -32 0
-6598 -33 0
-6598 -42 0
-6598 47 0
-6598 -48 0
-6598 -49 0
-6598 54 0
-6598 63 0
-6598 -64 0
-6598 -65 0
-6598 -66 0
6598 -15 -24 25 32 33 42 -47 48 49 -54 -63 64 65 66 0
-6599 15 0
-6599 24 0
-6599 -25 0
-6599 32 0
-6599 -33 0
-6599 42 0
-6599 47 0
-6599 -48 0
-6599 -49 0
-6599 54 0
-6599 63 0
-6599 -64 0
-6599 -65 0
-6599 -66 0
6599 -15 -24 25 -32 33 -42 -47 48 49 -54 -63 64 65 66 0
-6600 15 0
-6600 24 0
-6600 -25 0
-6600 -32 0
-6600 -33 0
-6600 42 0
-6600 -47 0
-6600 -48 0
-6600 -49 0
-6600 54 0
-6600 63 0
-6600 -64 0
-6600 -65 0
-6600 -66 0
6600 -15 -24 25 32 33 -42 47 48 49 -54 -63 64 65 66 0
-6601 15 0
-6601 24 0
-6601 -25 0
-6601 32 0
-6601 -33 0
-6601 -42 0
-6601 -47 0
-6601 -48 0
-6601 -49 0
-6601 54 0
-6601 63 0
-6601 -64 0
-6601 -65 0
-6601 -66 0
6601 -15 -24 25 -32 33 42 47 48 49 -54 -63 64 65 66 0
-6602 15 0
-6602 24 0
-6602 -25 0
-6602 -32 0
-6602 -33 0
-6602 -42 0
-6602 -47 0
-6602 48 0
-6602 -49 0
-6602 54 0
-6602 63 0
-6602 -64 0
-6602 -65 0
-6602 -66 0
6602 -15 -24 25 32 33 42 47 -48 49 -54 -63 64 65 66 0
-6603 15 0
-6603 24 0
-6603 -25 0
-6603 32 0
-6603 -33 0
-6603 42 0
-6603 -47 0
-6603 48 0
-6603 -49 0
-6603 54 0
-6603 63 0
-6603 -64 0
-6603 -65 0
-6603 -66 0
6603 -15 -24 25 -32 33 -42 47 -48 49 -54 -63 64 65 66 0
-6604 -15 0
-6604 24 0
-6604 -25 0
-6604 -32 0
-6604 -33 0
-6604 -42 0
-6604 47 0
-6604 48 0
-6604 -49 0
-6604 54 0
-6604 63 0
-6604 -64 0
-6604 -65 0
-6604 -66 0
6604 15 -24 25 32 33 42 -47 -48 49 -54 -63 64 65 66 0
-6605 -15 0
-6605 24 0
-6605 -25 0
-6605 -32 0
-6605 -33 0
-6605 42 0
-6605 -47 0
-6605 48 0
-6605 -49 0
-6605 54 0
-6605 63 0
-6605 -64 0
-6605 -65 0
-6605 -66 0
6605 15 -24 25 32 33 -42 47 -48 49 -54 -63 64 65 66 0
-6606 -15 0
-6606 24 0
-6606 -25 0
-6606 32 0
-6606 -33 0
-6606 -42 0
-6606 -47 0
-6606 48 0
-6606 -49 0
-6606 54 0
-6606 63 0
-6606 -64 0
-6606 -65 0
-6606 -66 0
6606 15 -24 25 -32 33 42 47 -48 49 -54 -63 64 65 66 0
-6607 -15 0
-6607 24 0
-6607 -25 0
-6607 32 0
-6607 -33 0
-6607 42 0
-6607 47 0
-6607 48 0
-6607 -49 0
-6607 54 0
-6607 63 0
-6607 -64 0
-6607 -65 0
-6607 -66 0
6607 15 -24 25 -32 33 -42 -47 -48 49 -54 -63 64 65 66 0
-6608 -15 0
-6608 24 0
-6608 -25 0
-6608 32 0
-6608 -33 0
-6608 -42 0
-6608 -47 0
-6608 48 0
-6608 -49 0
-6608 54 0
-6608 62 0
-6608 -64 0
-6608 -65 0
-6608 -66 0
6608 15 -24 25 -32 33 42 47 -48 49 -54 -62 64 65 66 0
-6609 15 0
-6609 24 0
-6609 25 0
-6609 -32 0
-6609 33 0
-6609 42 0
-6609 47 0
-6609 48 0
-6609 -49 0
-6609 54 0
-6609 62 0
-6609 -64 0
-6609 -65 0
-6609 -66 0
6609 -15 -24 -25 32 -33 -42 -47 -48 49 -54 -62 64 65 66 0
-6610 -15 0
-6610 24 0
-6610 -25 0
-6610 -32 0
-6610 33 0
-6610 42 0
-6610 47 0
-6610 48 0
-6610 -49 0
-6610 54 0
-6610 62 0
-6610 -64 0
-6610 -65 0
-6610 -66 0
6610 15 -24 25 32 -33 -42 -47 -48 49 -54 -62 64 65 66 0
-6611 -15 0
-6611 24 0
-6611 -25 0
-6611 -32 0
-6611 -33 0
-6611 42 0
-6611 -47 0
-6611 48 0
-6611 -49 0
-6611 54 0
-6611 62 0
-6611 -64 0
-6611 -65 0
-6611 -66 0
6611 15 -24 25 32 33 -42 47 -48 49 -54 -62 64 65 66 0
-6612 -15 0
-6612 24 0
-6612 -25 0
-6612 32 0
-6612 -33 0
-6612 42 0
-6612 47 0
-6612 48 0
-6612 -49 0
-6612 54 0
-6612 62 0
-6612 -64 0
-6612 -65 0
-6612 -66 0
6612 15 -24 25 -32 33 -42 -47 -48 49 -54 -62 64 65 66 0
-6613 -15 0
-6613 24 0
-6613 -25 0
-6613 -32 0
-6613 -33 0
-6613 -42 0
-6613 47 0
-6613 48 0
-6613 -49 0
-6613 54 0
-6613 62 0
-6613 -64 0
-6613 -65 0
-6613 -66 0
6613 15 -24 25 32 33 42 -47 -48 49 -54 -62 64 65 66 0
-6614 15 0
-6614 24 0
-6614 -25 0
-6614 32 0
-6614 -33 0
-6614 -42 0
-6614 47 0
-6614 48 0
-6614 -49 0
-6614 54 0
-6614 62 0
-6614 -64 0
-6614 -65 0
-6614 -66 0
6614 -15 -24 25 -32 33 42 -47 -48 49 -54 -62 64 65 66 0
-6615 15 0
-6615 24 0
-6615 -25 0
-6615 -32 0
-6615 -33 0
-6615 42 0
-6615 47 0
-6615 48 0
-6615 -49 0
-6615 54 0
-6615 62 0
-6615 -64 0
-6615 -65 0
-6615 -66 0
6615 -15 -24 25 32 33 -42 -47 -48 49 -54 -62 64 65 66 0
-6616 15 0
-6616 24 0
-6616 -25 0
-6616 32 0
-6616 -33 0
-6616 42 0
-6616 -47 0
-6616 48 0
-6616 -49 0
-6616 54 0
-6616 62 0
-6616 -64 0
-6616 -65 0
-6616 -66 0
6616 -15 -24 25 -32 33 -42 47 -48 49 -54 -62 64 65 66 0
-6617 15 0
-6617 24 0
-6617 -25 0
-6617 -32 0
-6617 -33 0
-6617 -42 0
-6617 -47 0
-6617 48 0
-6617 -49 0
-6617 54 0
-6617 62 0
-6617 -64 0
-6617 -65 0
-6617 -66 0
6617 -15 -24 25 32 33 42 47 -48 49 -54 -62 64 65 66 0
-6618 15 0
-6618 24 0
-6618 -25 0
-6618 32 0
-6618 -33 0
-6618 -42 0
-6618 -47 0
-6618 -48 0
-6618 -49 0
-6618 54 0
-6618 62 0
-6618 -64 0
-6618 -65 0
-6618 -66 0
6618 -15 -24 25 -32 33 42 47 48 49 -54 -62 64 65 66 0
-6619 15 0
-6619 24 0
-6619 -25 0
-6619 -32 0
-6619 -33 0
-6619 42 0
-6619 -47 0
-6619 -48 0
-6619 -49 0
-6619 54 0
-6619 62 0
-6619 -64 0
-6619 -65 0
-6619 -66 0
6619 -15 -24 25 32 33 -42 47 48 49 -54 -62 64 65 66 0
-6620 15 0
-6620 24 0
-6620 -25 0
-6620 32 0
-6620 -33 0
-6620 42 0
-6620 47 0
-6620 -48 0
-6620 -49 0
-6620 54 0
-6620 62 0
-6620 -64 0
-6620 -65 0
-6620 -66 0
6620 -15 -24 25 -32 33 -42 -47 48 49 -54 -62 64 65 66 0
-6621 15 0
-6621 24 0
-6621 -25 0
-6621 -32 0
-6621 -33 0
-6621 -42 0
-6621 47 0
-6621 -48 0
-6621 -49 0
-6621 54 0
-6621 62 0
-6621 -64 0
-6621 -65 0
-6621 -66 0
6621 -15 -24 25 32 33 42 -47 48 49 -54 -62 64 65 66 0
-6622 -15 0
-6622 24 0
-6622 -25 0
-6622 32 0
-6622 -33 0
-6622 -42 0
-6622 47 0
-6622 -48 0
-6622 -49 0
-6622 54 0
-6622 62 0
-6622 -64 0
-6622 -65 0
-6622 -66 0
6622 15 -24 25 -32 33 42 -47 48 49 -54 -62 64 65 66 0
-6623 -15 0
-6623 24 0
-6623 -25 0
-6623 -32 0
-6623 -33 0
-6623 42 0
-6623 47 0
-6623 -48 0
-6623 -49 0
-6623 54 0
-6623 62 0
-6623 -64 0
-6623 -65 0
-6623 -66 0
6623 15 -24 25 32 33 -42 -47 48 49 -54 -62 64 65 66 0
-6624 -15 0
-6624 24 0
-6624 -25 0
-6624 32 0
-6624 -33 0
-6624 42 0
-6624 -47 0
-6624 -48 0
-6624 -49 0
-6624 54 0
-6624 62 0
-6624 -64 0
-6624 -65 0
-6624 -66 0
6624 15 -24 25 -32 33 -42 47 48 49 -54 -62 64 65 66 0
-6625 -15 0
-6625 24 0
-6625 -25 0
-6625 -32 0
-6625 -33 0
-6625 -42 0
-6625 -47 0
-6625 -48 0
-6625 -49 0
-6625 54 0
-6625 62 0
-6625 -64 0
-6625 -65 0
-6625 -66 0
6625 15 -24 25 32 33 42 47 48 49 -54 -62 64 65 66 0
-6626 -15 0
-6626 24 0
-6626 -25 0
-6626 32 0
-6626 -33 0
-6626 -42 0
-6626 -47 0
-6626 -48 0
-6626 49 0
-6626 54 0
-6626 62 0
-6626 -64 0
-6626 -65 0
-6626 -66 0
6626 15 -24 25 -32 33 42 47 48 -49 -54 -62 64 65 66 0
-6627 -15 0
-6627 24 0
-6627 -25 0
-6627 -32 0
-6627 -33 0
-6627 42 0
-6627 -47 0
-6627 -48 0
-6627 49 0
-6627 54 0
-6627 62 0
-6627 -64 0
-6627 -65 0
-6627 -66 0
6627 15 -24 25 32 33 -42 47 48 -49 -54 -62 64 65 66 0
-6628 -15 0
-6628 24 0
-6628 -25 0
-6628 32 0
-6628 -33 0
-6628 42 0
-6628 47 0
-6628 -48 0
-6628 49 0
-6628 54 0
-6628 62 0
-6628 -64 0
-6628 -65 0
-6628 -66 0
6628 15 -24 25 -32 33 -42 -47 48 -49 -54 -62 64 65 66 0
-6629 -15 0
-6629 24 0
-6629 -25 0
-6629 -32 0
-6629 -33 0
-6629 -42 0
-6629 47 0
-6629 -48 0
-6629 49 0
-6629 54 0
-6629 62 0
-6629 -64 0
-6629 -65 0
-6629 -66 0
6629 15 -24 25 32 33 42 -47 48 -49 -54 -62 64 65 66 0
-6630 15 0
-6630 24 0
-6630 -25 0
-6630 32 0
-6630 -33 0
-6630 -42 0
-6630 47 0
-6630 -48 0
-6630 49 0
-6630 54 0
-6630 62 0
-6630 -64 0
-6630 -65 0
-6630 -66 0
6630 -15 -24 25 -32 33 42 -47 48 -49 -54 -62 64 65 66 0
-6631 15 0
-6631 24 0
-6631 -25 0
-6631 -32 0
-6631 -33 0
-6631 42 0
-6631 47 0
-6631 -48 0
-6631 49 0
-6631 54 0
-6631 62 0
-6631 -64 0
-6631 -65 0
-6631 -66 0
6631 -15 -24 25 32 33 -42 -47 48 -49 -54 -62 64 65 66 0
-6632 15 0
-6632 24 0
-6632 -25 0
-6632 32 0
-6632 -33 0
-6632 42 0
-6632 -47 0
-6632 -48 0
-6632 49 0
-6632 54 0
-6632 62 0
-6632 -64 0
-6632 -65 0
-6632 -66 0
6632 -15 -24 25 -32 33 -42 47 48 -49 -54 -62 64 65 66 0
-6633 15 0
-6633 24 0
-6633 -25 0
-6633 -32 0
-6633 -33 0
-6633 -42 0
-6633 -47 0
-6633 -48 0
-6633 49 0
-6633 54 0
-6633 62 0
-6633 -64 0
-6633 -65 0
-6633 -66 0
6633 -15 -24 25 32 33 42 47 48 -49 -54 -62 64 65 66 0
-6634 15 0
-6634 24 0
-6634 -25 0
-6634 32 0
-6634 -33 0
-6634 -42 0
-6634 -47 0
-6634 48 0
-6634 49 0
-6634 54 0
-6634 62 0
-6634 -64 0
-6634 -65 0
-6634 -66 0
6634 -15 -24 25 -32 33 42 47 -48 -49 -54 -62 64 65 66 0
-6635 15 0
-6635 24 0
-6635 -25 0
-6635 -32 0
-6635 -33 0
-6635 42 0
-6635 -47 0
-6635 48 0
-6635 49 0
-6635 54 0
-6635 62 0
-6635 -64 0
-6635 -65 0
-6635 -66 0
6635 -15 -24 25 32 33 -42 47 -48 -49 -54 -62 64 65 66 0
-6636 15 0
-6636 24 0
-6636 -25 0
-6636 32 0
-6636 -33 0
-6636 42 0
-6636 47 0
-6636 48 0
-6636 49 0
-6636 54 0
-6636 62 0
-6636 -64 0
-6636 -65 0
-6636 -66 0
6636 -15 -24 25 -32 33 -42 -47 -48 -49 -54 -62 64 65 66 0
-6637 15 0
-6637 24 0
-6637 -25 0
-6637 -32 0
-6637 -33 0
-6637 -42 0
-6637 47 0
-6637 48 0
-6637 49 0
-6637 54 0
-6637 62 0
-6637 -64 0
-6637 -65 0
-6637 -66 0
6637 -15 -24 25 32 33 42 -47 -48 -49 -54 -62 64 65 66 0
-6638 -15 0
-6638 24 0
-6638 -25 0
-6638 32 0
-6638 -33 0
-6638 -42 0
-6638 47 0
-6638 48 0
-6638 49 0
-6638 54 0
-6638 62 0
-6638 -64 0
-6638 -65 0
-6638 -66 0
6638 15 -24 25 -32 33 42 -47 -48 -49 -54 -62 64 65 66 0
-6639 -15 0
-6639 24 0
-6639 -25 0
-6639 -32 0
-6639 -33 0
-6639 42 0
-6639 47 0
-6639 48 0
-6639 49 0
-6639 54 0
-6639 62 0
-6639 -64 0
-6639 -65 0
-6639 -66 0
6639 15 -24 25 32 33 -42 -47 -48 -49 -54 -62 64 65 66 0
-6640 -15 0
-6640 24 0
-6640 -25 0
-6640 32 0
-6640 -33 0
-6640 42 0
-6640 -47 0
-6640 48 0
-6640 49 0
-6640 54 0
-6640 62 0
-6640 -64 0
-6640 -65 0
-6640 -66 0
6640 15 -24 25 -32 33 -42 47 -48 -49 -54 -62 64 65 66 0
-6641 -15 0
-6641 24 0
-6641 -25 0
-6641 -32 0
-6641 -33 0
-6641 -42 0
-6641 -47 0
-6641 48 0
-6641 49 0
-6641 54 0
-6641 62 0
-6641 -64 0
-6641 -65 0
-6641 -66 0
6641 15 -24 25 32 33 42 47 -48 -49 -54 -62 64 65 66 0
-6642 -15 0
-6642 -24 0
-6642 -25 0
-6642 32 0
-6642 -33 0
-6642 -42 0
-6642 -47 0
-6642 48 0
-6642 49 0
-6642 54 0
-6642 62 0
-6642 -64 0
-6642 -65 0
-6642 -66 0
6642 15 24 25 -32 33 42 47 -48 -49 -54 -62 64 65 66 0
-6643 -15 0
-6643 -24 0
-6643 -25 0
-6643 -32 0
-6643 -33 0
-6643 42 0
-6643 -47 0
-6643 48 0
-6643 49 0
-6643 54 0
-6643 62 0
-6643 -64 0
-6643 -65 0
-6643 -66 0
6643 15 24 25 32 33 -42 47 -48 -49 -54 -62 64 65 66 0
-6644 -15 0
-6644 -24 0
-6644 -25 0
-6644 32 0
-6644 -33 0
-6644 42 0
-6644 47 0
-6644 48 0
-6644 49 0
-6644 54 0
-6644 62 0
-6644 -64 0
-6644 -65 0
-6644 -66 0
6644 15 24 25 -32 33 -42 -47 -48 -49 -54 -62 64 65 66 0
-6645 -15 0
-6645 -24 0
-6645 -25 0
-6645 -32 0
-6645 -33 0
-6645 -42 0
-6645 47 0
-6645 48 0
-6645 49 0
-6645 54 0
-6645 62 0
-6645 -64 0
-6645 -65 0
-6645 -66 0
6645 15 24 25 32 33 42 -47 -48 -49 -54 -62 64 65 66 0
-6646 15 0
-6646 -24 0
-6646 -25 0
-6646 32 0
-6646 -33 0
-6646 -42 0
-6646 47 0
-6646 48 0
-6646 49 0
-6646 54 0
-6646 62 0
-6646 -64 0
-6646 -65 0
-6646 -66 0
6646 -15 24 25 -32 33 42 -47 -48 -49 -54 -62 64 65 66 0
-6647 15 0
-6647 -24 0
-6647 -25 0
-6647 -32 0
-6647 -33 0
-6647 42 0
-6647 47 0
-6647 48 0
-6647 49 0
-6647 54 0
-6647 62 0
-6647 -64 0
-6647 -65 0
-6647 -66 0
6647 -15 24 25 32 33 -42 -47 -48 -49 -54 -62 64 65 66 0
-6648 15 0
-6648 -24 0
-6648 -25 0
-6648 32 0
-6648 -33 0
-6648 42 0
-6648 -47 0
-6648 48 0
-6648 49 0
-6648 54 0
-6648 62 0
-6648 -64 0
-6648 -65 0
-6648 -66 0
6648 -15 24 25 -32 33 -42 47 -48 -49 -54 -62 64 65 66 0
-6649 15 0
-6649 -24 0
-6649 -25 0
-6649 -32 0
-6649 -33 0
-6649 -42 0
-6649 -47 0
-6649 48 0
-6649 49 0
-6649 54 0
-6649 62 0
-6649 -64 0
-6649 -65 0
-6649 -66 0
6649 -15 24 25 32 33 42 47 -48 -49 -54 -62 64 65 66 0
-6650 15 0
-6650 -24 0
-6650 -25 0
-6650 32 0
-6650 -33 0
-6650 -42 0
-6650 -47 0
-6650 -48 0
-6650 49 0
-6650 54 0
-6650 62 0
-6650 -64 0
-6650 -65 0
-6650 -66 0
6650 -15 24 25 -32 33 42 47 48 -49 -54 -62 64 65 66 0
-6651 15 0
-6651 -24 0
-6651 -25 0
-6651 -32 0
-6651 -33 0
-6651 42 0
-6651 -47 0
-6651 -48 0
-6651 49 0
-6651 54 0
-6651 62 0
-6651 -64 0
-6651 -65 0
-6651 -66 0
6651 -15 24 25 32 33 -42 47 48 -49 -54 -62 64 65 66 0
-6652 15 0
-6652 -24 0
-6652 -25 0
-6652 32 0
-6652 -33 0
-6652 42 0
-6652 47 0
-6652 -48 0
-6652 49 0
-6652 54 0
-6652 62 0
-6652 -64 0
-6652 -65 0
-6652 -66 0
6652 -15 24 25 -32 33 -42 -47 48 -49 -54 -62 64 65 66 0
-6653 15 0
-6653 -24 0
-6653 -25 0
-6653 -32 0
-6653 -33 0
-6653 -42 0
-6653 47 0
-6653 -48 0
-6653 49 0
-6653 54 0
-6653 62 0
-6653 -64 0
-6653 -65 0
-6653 -66 0
6653 -15 24 25 32 33 42 -47 48 -49 -54 -62 64 65 66 0
-6654 -15 0
-6654 -24 0
-6654 -25 0
-6654 32 0
-6654 -33 0
-6654 -42 0
-6654 47 0
-6654 -48 0
-6654 49 0
-6654 54 0
-6654 62 0
-6654 -64 0
-6654 -65 0
-6654 -66 0
6654 15 24 25 -32 33 42 -47 48 -49 -54 -62 64 65 66 0
-6655 -15 0
-6655 -24 0
-6655 -25 0
-6655 -32 0
-6655 -33 0
-6655 42 0
-6655 47 0
-6655 -48 0
-6655 49 0
-6655 54 0
-6655 62 0
-6655 -64 0
-6655 -65 0
-6655 -66 0
6655 15 24 25 32 33 -42 -47 48 -49 -54 -62 64 65 66 0
-6656 -15 0
-6656 -24 0
-6656 -25 0
-6656 32 0
-6656 -33 0
-6656 42 0
-6656 -47 0
-6656 -48 0
-6656 49 0
-6656 54 0
-6656 62 0
-6656 -64 0
-6656 -65 0
-6656 -66 0
6656 15 24 25 -32 33 -42 47 48 -49 -54 -62 64 65 66 0
-6657 -15 0
-6657 -24 0
-6657 -25 0
-6657 -32 0
-6657 -33 0
-6657 42 0
-6657 -47 0
-6657 -48 0
-6657 -49 0
-6657 54 0
-6657 62 0
-6657 -64 0
-6657 -65 0
-6657 -66 0
6657 15 24 25 32 33 -42 47 48 49 -54 -62 64 65 66 0
-6658 -15 0
-6658 -24 0
-6658 -25 0
-6658 32 0
-6658 -33 0
-6658 42 0
-6658 47 0
-6658 -48 0
-6658 -49 0
-6658 54 0
-6658 62 0
-6658 -64 0
-6658 -65 0
-6658 -66 0
6658 15 24 25 -32 33 -42 -47 48 49 -54 -62 64 65 66 0
-6659 -15 0
-6659 -24 0
-6659 -25 0
-6659 -32 0
-6659 -33 0
-6659 -42 0
-6659 47 0
-6659 -48 0
-6659 -49 0
-6659 54 0
-6659 62 0
-6659 -64 0
-6659 -65 0
-6659 -66 0
6659 15 24 25 32 33 42 -47 48 49 -54 -62 64 65 66 0
-6660 15 0
-6660 -24 0
-6660 -25 0
-6660 32 0
-6660 -33 0
-6660 -42 0
-6660 47 0
-6660 -48 0
-6660 -49 0
-6660 54 0
-6660 62 0
-6660 -64 0
-6660 -65 0
-6660 -66 0
6660 -15 24 25 -32 33 42 -47 48 49 -54 -62 64 65 66 0
-6661 15 0
-6661 -24 0
-6661 -25 0
-6661 -32 0
-6661 -33 0
-6661 42 0
-6661 47 0
-6661 -48 0
-6661 -49 0
-6661 54 0
-6661 62 0
-6661 -64 0
-6661 -65 0
-6661 -66 0
6661 -15 24 25 32 33 -42 -47 48 49 -54 -62 64 65 66 0
-6662 15 0
-6662 -24 0
-6662 -25 0
-6662 32 0
-6662 -33 0
-6662 42 0
-6662 -47 0
-6662 -48 0
-6662 -49 0
-6662 54 0
-6662 62 0
-6662 -64 0
-6662 -65 0
-6662 -66 0
6662 -15 24 25 -32 33 -42 47 48 49 -54 -62 64 65 66 0
-6663 15 0
-6663 -24 0
-6663 -25 0
-6663 -32 0
-6663 -33 0
-6663 -42 0
-6663 -47 0
-6663 -48 0
-6663 -49 0
-6663 54 0
-6663 62 0
-6663 -64 0
-6663 -65 0
-6663 -66 0
6663 -15 24 25 32 33 42 47 48 49 -54 -62 64 65 66 0
-6664 15 0
-6664 -24 0
-6664 -25 0
-6664 32 0
-6664 -33 0
-6664 -42 0
-6664 -47 0
-6664 48 0
-6664 -49 0
-6664 54 0
-6664 62 0
-6664 -64 0
-6664 -65 0
-6664 -66 0
6664 -15 24 25 -32 33 42 47 -48 49 -54 -62 64 65 66 0
-6665 15 0
-6665 -24 0
-6665 -25 0
-6665 -32 0
-6665 -33 0
-6665 42 0
-6665 -47 0
-6665 48 0
-6665 -49 0
-6665 54 0
-6665 62 0
-6665 -64 0
-6665 -65 0
-6665 -66 0
6665 -15 24 25 32 33 -42 47 -48 49 -54 -62 64 65 66 0
-6666 15 0
-6666 -24 0
-6666 -25 0
-6666 32 0
-6666 -33 0
-6666 42 0
-6666 47 0
-6666 48 0
-6666 -49 0
-6666 54 0
-6666 62 0
-6666 -64 0
-6666 -65 0
-6666 -66 0
6666 -15 24 25 -32 33 -42 -47 -48 49 -54 -62 64 65 66 0
-6667 15 0
-6667 -24 0
-6667 -25 0
-6667 -32 0
-6667 -33 0
-6667 -42 0
-6667 47 0
-6667 48 0
-6667 -49 0
-6667 54 0
-6667 62 0
-6667 -64 0
-6667 -65 0
-6667 -66 0
6667 -15 24 25 32 33 42 -47 -48 49 -54 -62 64 65 66 0
-6668 -15 0
-6668 -24 0
-6668 -25 0
-6668 32 0
-6668 -33 0
-6668 -42 0
-6668 47 0
-6668 48 0
-6668 -49 0
-6668 54 0
-6668 62 0
-6668 -64 0
-6668 -65 0
-6668 -66 0
6668 15 24 25 -32 33 42 -47 -48 49 -54 -62 64 65 66 0
-6669 -15 0
-6669 -24 0
-6669 -25 0
-6669 -32 0
-6669 -33 0
-6669 42 0
-6669 47 0
-6669 48 0
-6669 -49 0
-6669 54 0
-6669 62 0
-6669 -64 0
-6669 -65 0
-6669 -66 0
6669 15 24 25 32 33 -42 -47 -48 49 -54 -62 64 65 66 0
-6670 -15 0
-6670 -24 0
-6670 -25 0
-6670 32 0
-6670 -33 0
-6670 42 0
-6670 -47 0
-6670 48 0
-6670 -49 0
-6670 54 0
-6670 62 0
-6670 -64 0
-6670 -65 0
-6670 -66 0
6670 15 24 25 -32 33 -42 47 -48 49 -54 -62 64 65 66 0
-6671 -15 0
-6671 -24 0
-6671 -25 0
-6671 -32 0
-6671 -33 0
-6671 -42 0
-6671 -47 0
-6671 48 0
-6671 -49 0
-6671 54 0
-6671 62 0
-6671 -64 0
-6671 -65 0
-6671 -66 0
6671 15 24 25 32 33 42 47 -48 49 -54 -62 64 65 66 0
-6672 -15 0
-6672 -24 0
-6672 25 0
-6672 32 0
-6672 -33 0
-6672 -42 0
-6672 -47 0
-6672 48 0
-6672 -49 0
-6672 54 0
-6672 62 0
-6672 -64 0
-6672 -65 0
-6672 -66 0
6672 15 24 -25 -32 33 42 47 -48 49 -54 -62 64 65 66 0
-6673 -15 0
-6673 -24 0
-6673 25 0
-6673 -32 0
-6673 -33 0
-6673 42 0
-6673 -47 0
-6673 48 0
-6673 -49 0
-6673 54 0
-6673 62 0
-6673 -64 0
-6673 -65 0
-6673 -66 0
6673 15 24 -25 32 33 -42 47 -48 49 -54 -62 64 65 66 0
-6674 -15 0
-6674 -24 0
-6674 25 0
-6674 32 0
-6674 -33 0
-6674 42 0
-6674 47 0
-6674 48 0
-6674 -49 0
-6674 54 0
-6674 62 0
-6674 -64 0
-6674 -65 0
-6674 -66 0
6674 15 24 -25 -32 33 -42 -47 -48 49 -54 -62 64 65 66 0
-6675 -15 0
-6675 -24 0
-6675 25 0
-6675 -32 0
-6675 -33 0
-6675 -42 0
-6675 47 0
-6675 48 0
-6675 -49 0
-6675 54 0
-6675 62 0
-6675 -64 0
-6675 -65 0
-6675 -66 0
6675 15 24 -25 32 33 42 -47 -48 49 -54 -62 64 65 66 0
-6676 15 0
-6676 -24 0
-6676 25 0
-6676 32 0
-6676 -33 0
-6676 -42 0
-6676 47 0
-6676 48 0
-6676 -49 0
-6676 54 0
-6676 62 0
-6676 -64 0
-6676 -65 0
-6676 -66 0
6676 -15 24 -25 -32 33 42 -47 -48 49 -54 -62 64 65 66 0
-6677 15 0
-6677 -24 0
-6677 25 0
-6677 -32 0
-6677 -33 0
-6677 42 0
-6677 47 0
-6677 48 0
-6677 -49 0
-6677 54 0
-6677 62 0
-6677 -64 0
-6677 -65 0
-6677 -66 0
6677 -15 24 -25 32 33 -42 -47 -48 49 -54 -62 64 65 66 0
-6678 15 0
-6678 -24 0
-6678 25 0
-6678 32 0
-6678 -33 0
-6678 42 0
-6678 -47 0
-6678 48 0
-6678 -49 0
-6678 54 0
-6678 62 0
-6678 -64 0
-6678 -65 0
-6678 -66 0
6678 -15 24 -25 -32 33 -42 47 -48 49 -54 -62 64 65 66 0
-6679 15 0
-6679 -24 0
-6679 25 0
-6679 -32 0
-6679 -33 0
-6679 -42 0
-6679 -47 0
-6679 48 0
-6679 -49 0
-6679 54 0
-6679 62 0
-6679 -64 0
-6679 -65 0
-6679 -66 0
6679 -15 24 -25 32 33 42 47 -48 49 -54 -62 64 65 66 0
-6680 15 0
-6680 -24 0
-6680 25 0
-6680 32 0
-6680 -33 0
-6680 -42 0
-6680 -47 0
-6680 -48 0
-6680 -49 0
-6680 54 0
-6680 62 0
-6680 -64 0
-6680 -65 0
-6680 -66 0
6680 -15 24 -25 -32 33 42 47 48 49 -54 -62 64 65 66 0
-6681 15 0
-6681 -24 0
-6681 25 0
-6681 -32 0
-6681 -33 0
-6681 42 0
-6681 -47 0
-6681 -48 0
-6681 -49 0
-6681 54 0
-6681 62 0
-6681 -64 0
-6681 -65 0
-6681 -66 0
6681 -15 24 -25 32 33 -42 47 48 49 -54 -62 64 65 66 0
-6682 15 0
-6682 -24 0
-6682 25 0
-6682 32 0
-6682 -33 0
-6682 42 0
-6682 47 0
-6682 -48 0
-6682 -49 0
-6682 54 0
-6682 62 0
-6682 -64 0
-6682 -65 0
-6682 -66 0
6682 -15 24 -25 -32 33 -42 -47 48 49 -54 -62 64 65 66 0
-6683 15 0
-6683 -24 0
-6683 25 0
-6683 -32 0
-6683 -33 0
-6683 -42 0
-6683 47 0
-6683 -48 0
-6683 -49 0
-6683 54 0
-6683 62 0
-6683 -64 0
-6683 -65 0
-6683 -66 0
6683 -15 24 -25 32 33 42 -47 48 49 -54 -62 64 65 66 0
-6684 -15 0
-6684 -24 0
-6684 25 0
-6684 32 0
-6684 -33 0
-6684 -42 0
-6684 47 0
-6684 -48 0
-6684 -49 0
-6684 54 0
-6684 62 0
-6684 -64 0
-6684 -65 0
-6684 -66 0
6684 15 24 -25 -32 33 42 -47 48 49 -54 -62 64 65 66 0
-6685 -15 0
-6685 -24 0
-6685 25 0
-6685 -32 0
-6685 -33 0
-6685 42 0
-6685 47 0
-6685 -48 0
-6685 -49 0
-6685 54 0
-6685 62 0
-6685 -64 0
-6685 -65 0
-6685 -66 0
6685 15 24 -25 32 33 -42 -47 48 49 -54 -62 64 65 66 0
-6686 -15 0
-6686 -24 0
-6686 25 0
-6686 32 0
-6686 -33 0
-6686 42 0
-6686 -47 0
-6686 -48 0
-6686 -49 0
-6686 54 0
-6686 62 0
-6686 -64 0
-6686 -65 0
-6686 -66 0
6686 15 24 -25 -32 33 -42 47 48 49 -54 -62 64 65 66 0
-6687 -15 0
-6687 -24 0
-6687 25 0
-6687 -32 0
-6687 -33 0
-6687 -42 0
-6687 -47 0
-6687 -48 0
-6687 -49 0
-6687 54 0
-6687 62 0
-6687 -64 0
-6687 -65 0
-6687 -66 0
6687 15 24 -25 32 33 42 47 48 49 -54 -62 64 65 66 0
-6688 -15 0
-6688 -24 0
-6688 25 0
-6688 32 0
-6688 -33 0
-6688 -42 0
-6688 -47 0
-6688 -48 0
-6688 49 0
-6688 54 0
-6688 62 0
-6688 -64 0
-6688 -65 0
-6688 -66 0
6688 15 24 -25 -32 33 42 47 48 -49 -54 -62 64 65 66 0
-6689 -15 0
-6689 -24 0
-6689 25 0
-6689 32 0
-6689 33 0
-6689 -42 0
-6689 -47 0
-6689 -48 0
-6689 -49 0
-6689 54 0
-6689 62 0
-6689 -64 0
-6689 -65 0
-6689 -66 0
6689 15 24 -25 -32 -33 42 47 48 49 -54 -62 64 65 66 0
-6690 -15 0
-6690 -24 0
-6690 25 0
-6690 -32 0
-6690 -33 0
-6690 42 0
-6690 -47 0
-6690 -48 0
-6690 49 0
-6690 54 0
-6690 62 0
-6690 -64 0
-6690 -65 0
-6690 -66 0
6690 15 24 -25 32 33 -42 47 48 -49 -54 -62 64 65 66 0
-6691 -15 0
-6691 -24 0
-6691 25 0
-6691 32 0
-6691 -33 0
-6691 42 0
-6691 47 0
-6691 -48 0
-6691 49 0
-6691 54 0
-6691 62 0
-6691 -64 0
-6691 -65 0
-6691 -66 0
6691 15 24 -25 -32 33 -42 -47 48 -49 -54 -62 64 65 66 0
-6692 -15 0
-6692 -24 0
-6692 25 0
-6692 -32 0
-6692 -33 0
-6692 -42 0
-6692 47 0
-6692 -48 0
-6692 49 0
-6692 54 0
-6692 62 0
-6692 -64 0
-6692 -65 0
-6692 -66 0
6692 15 24 -25 32 33 42 -47 48 -49 -54 -62 64 65 66 0
-6693 15 0
-6693 -24 0
-6693 25 0
-6693 32 0
-6693 -33 0
-6693 -42 0
-6693 47 0
-6693 -48 0
-6693 49 0
-6693 54 0
-6693 62 0
-6693 -64 0
-6693 -65 0
-6693 -66 0
6693 -15 24 -25 -32 33 42 -47 48 -49 -54 -62 64 65 66 0
-6694 15 0
-6694 -24 0
-6694 25 0
-6694 -32 0
-6694 -33 0
-6694 42 0
-6694 47 0
-6694 -48 0
-6694 49 0
-6694 54 0
-6694 62 0
-6694 -64 0
-6694 -65 0
-6694 -66 0
6694 -15 24 -25 32 33 -42 -47 48 -49 -54 -62 64 65 66 0
-6695 15 0
-6695 -24 0
-6695 25 0
-6695 32 0
-6695 -33 0
-6695 42 0
-6695 -47 0
-6695 -48 0
-6695 49 0
-6695 54 0
-6695 62 0
-6695 -64 0
-6695 -65 0
-6695 -66 0
6695 -15 24 -25 -32 33 -42 47 48 -49 -54 -62 64 65 66 0
-6696 15 0
-6696 -24 0
-6696 25 0
-6696 -32 0
-6696 -33 0
-6696 -42 0
-6696 -47 0
-6696 -48 0
-6696 49 0
-6696 54 0
-6696 62 0
-6696 -64 0
-6696 -65 0
-6696 -66 0
6696 -15 24 -25 32 33 42 47 48 -49 -54 -62 64 65 66 0
-6697 15 0
-6697 -24 0
-6697 25 0
-6697 32 0
-6697 -33 0
-6697 -42 0
-6697 -47 0
-6697 48 0
-6697 49 0
-6697 54 0
-6697 62 0
-6697 -64 0
-6697 -65 0
-6697 -66 0
6697 -15 24 -25 -32 33 42 47 -48 -49 -54 -62 64 65 66 0
-6698 15 0
-6698 -24 0
-6698 25 0
-6698 -32 0
-6698 -33 0
-6698 42 0
-6698 -47 0
-6698 48 0
-6698 49 0
-6698 54 0
-6698 62 0
-6698 -64 0
-6698 -65 0
-6698 -66 0
6698 -15 24 -25 32 33 -42 47 -48 -49 -54 -62 64 65 66 0
-6699 15 0
-6699 -24 0
-6699 25 0
-6699 32 0
-6699 -33 0
-6699 42 0
-6699 47 0
-6699 48 0
-6699 49 0
-6699 54 0
-6699 62 0
-6699 -64 0
-6699 -65 0
-6699 -66 0
6699 -15 24 -25 -32 33 -42 -47 -48 -49 -54 -62 64 65 66 0
-6700 15 0
-6700 -24 0
-6700 25 0
-6700 -32 0
-6700 -33 0
-6700 -42 0
-6700 47 0
-6700 48 0
-6700 49 0
-6700 54 0
-6700 62 0
-6700 -64 0
-6700 -65 0
-6700 -66 0
6700 -15 24 -25 32 33 42 -47 -48 -49 -54 -62 64 65 66 0
-6701 -15 0
-6701 -24 0
-6701 25 0
-6701 32 0
-6701 -33 0
-6701 -42 0
-6701 47 0
-6701 48 0
-6701 49 0
-6701 54 0
-6701 62 0
-6701 -64 0
-6701 -65 0
-6701 -66 0
6701 15 24 -25 -32 33 42 -47 -48 -49 -54 -62 64 65 66 0
-6702 -15 0
-6702 -24 0
-6702 25 0
-6702 -32 0
-6702 -33 0
-6702 42 0
-6702 47 0
-6702 48 0
-6702 49 0
-6702 54 0
-6702 62 0
-6702 -64 0
-6702 -65 0
-6702 -66 0
6702 15 24 -25 32 33 -42 -47 -48 -49 -54 -62 64 65 66 0
-6703 -15 0
-6703 -24 0
-6703 25 0
-6703 32 0
-6703 -33 0
-6703 42 0
-6703 -47 0
-6703 48 0
-6703 49 0
-6703 54 0
-6703 62 0
-6703 -64 0
-6703 -65 0
-6703 -66 0
6703 15 24 -25 -32 33 -42 47 -48 -49 -54 -62 64 65 66 0
-6704 -15 0
-6704 -24 0
-6704 25 0
-6704 -32 0
-6704 -33 0
-6704 -42 0
-6704 -47 0
-6704 48 0
-6704 49 0
-6704 54 0
-6704 62 0
-6704 -64 0
-6704 -65 0
-6704 -66 0
6704 15 24 -25 32 33 42 47 -48 -49 -54 -62 64 65 66 0
-6705 -15 0
-6705 24 0
-6705 25 0
-6705 32 0
-6705 -33 0
-6705 -42 0
-6705 -47 0
-6705 48 0
-6705 49 0
-6705 54 0
-6705 62 0
-6705 -64 0
-6705 -65 0
-6705 -66 0
6705 15 -24 -25 -32 33 42 47 -48 -49 -54 -62 64 65 66 0
-6706 -15 0
-6706 24 0
-6706 25 0
-6706 -32 0
-6706 -33 0
-6706 42 0
-6706 -47 0
-6706 48 0
-6706 49 0
-6706 54 0
-6706 62 0
-6706 -64 0
-6706 -65 0
-6706 -66 0
6706 15 -24 -25 32 33 -42 47 -48 -49 -54 -62 64 65 66 0
-6707 -15 0
-6707 24 0
-6707 25 0
-6707 32 0
-6707 -33 0
-6707 42 0
-6707 47 0
-6707 48 0
-6707 49 0
-6707 54 0
-6707 62 0
-6707 -64 0
-6707 -65 0
-6707 -66 0
6707 15 -24 -25 -32 33 -42 -47 -48 -49 -54 -62 64 65 66 0
-6708 -15 0
-6708 24 0
-6708 25 0
-6708 -32 0
-6708 -33 0
-6708 -42 0
-6708 47 0
-6708 48 0
-6708 49 0
-6708 54 0
-6708 62 0
-6708 -64 0
-6708 -65 0
-6708 -66 0
6708 15 -24 -25 32 33 42 -47 -48 -49 -54 -62 64 65 66 0
-6709 15 0
-6709 24 0
-6709 25 0
-6709 32 0
-6709 -33 0
-6709 -42 0
-6709 47 0
-6709 48 0
-6709 49 0
-6709 54 0
-6709 62 0
-6709 -64 0
-6709 -65 0
-6709 -66 0
6709 -15 -24 -25 -32 33 42 -47 -48 -49 -54 -62 64 65 66 0
-6710 15 0
-6710 24 0
-6710 25 0
-6710 -32 0
-6710 -33 0
-6710 42 0
-6710 47 0
-6710 48 0
-6710 49 0
-6710 54 0
-6710 62 0
-6710 -64 0
-6710 -65 0
-6710 -66 0
6710 -15 -24 -25 32 33 -42 -47 -48 -49 -54 -62 64 65 66 0
-6711 15 0
-6711 24 0
-6711 25 0
-6711 32 0
-6711 -33 0
-6711 42 0
-6711 -47 0
-6711 48 0
-6711 49 0
-6711 54 0
-6711 62 0
-6711 -64 0
-6711 -65 0
-6711 -66 0
6711 -15 -24 -25 -32 33 -42 47 -48 -49 -54 -62 64 65 66 0
-6712 15 0
-6712 24 0
-6712 25 0
-6712 -32 0
-6712 -33 0
-6712 -42 0
-6712 -47 0
-6712 48 0
-6712 49 0
-6712 54 0
-6712 62 0
-6712 -64 0
-6712 -65 0
-6712 -66 0
6712 -15 -24 -25 32 33 42 47 -48 -49 -54 -62 64 65 66 0
-6713 15 0
-6713 24 0
-6713 25 0
-6713 32 0
-6713 -33 0
-6713 -42 0
-6713 -47 0
-6713 -48 0
-6713 49 0
-6713 54 0
-6713 62 0
-6713 -64 0
-6713 -65 0
-6713 -66 0
6713 -15 -24 -25 -32 33 42 47 48 -49 -54 -62 64 65 66 0
-6714 15 0
-6714 24 0
-6714 25 0
-6714 -32 0
-6714 -33 0
-6714 42 0
-6714 -47 0
-6714 -48 0
-6714 49 0
-6714 54 0
-6714 62 0
-6714 -64 0
-6714 -65 0
-6714 -66 0
6714 -15 -24 -25 32 33 -42 47 48 -49 -54 -62 64 65 66 0
-6715 15 0
-6715 24 0
-6715 25 0
-6715 32 0
-6715 -33 0
-6715 42 0
-6715 47 0
-6715 -48 0
-6715 49 0
-6715 54 0
-6715 62 0
-6715 -64 0
-6715 -65 0
-6715 -66 0
6715 -15 -24 -25 -32 33 -42 -47 48 -49 -54 -62 64 65 66 0
-6716 15 0
-6716 24 0
-6716 25 0
-6716 -32 0
-6716 -33 0
-6716 -42 0
-6716 47 0
-6716 -48 0
-6716 49 0
-6716 54 0
-6716 62 0
-6716 -64 0
-6716 -65 0
-6716 -66 0
6716 -15 -24 -25 32 33 42 -47 48 -49 -54 -62 64 65 66 0
-6717 -15 0
-6717 24 0
-6717 25 0
-6717 32 0
-6717 -33 0
-6717 -42 0
-6717 47 0
-6717 -48 0
-6717 49 0
-6717 54 0
-6717 62 0
-6717 -64 0
-6717 -65 0
-6717 -66 0
6717 15 -24 -25 -32 33 42 -47 48 -49 -54 -62 64 65 66 0
-6718 -15 0
-6718 24 0
-6718 25 0
-6718 -32 0
-6718 -33 0
-6718 42 0
-6718 47 0
-6718 -48 0
-6718 49 0
-6718 54 0
-6718 62 0
-6718 -64 0
-6718 -65 0
-6718 -66 0
6718 15 -24 -25 32 33 -42 -47 48 -49 -54 -62 64 65 66 0
-6719 -15 0
-6719 24 0
-6719 25 0
-6719 32 0
-6719 -33 0
-6719 42 0
-6719 -47 0
-6719 -48 0
-6719 49 0
-6719 54 0
-6719 62 0
-6719 -64 0
-6719 -65 0
-6719 -66 0
6719 15 -24 -25 -32 33 -42 47 48 -49 -54 -62 64 65 66 0
-6720 -15 0
-6720 24 0
-6720 25 0
-6720 -32 0
-6720 -33 0
-6720 -42 0
-6720 -47 0
-6720 -48 0
-6720 49 0
-6720 54 0
-6720 62 0
-6720 -64 0
-6720 -65 0
-6720 -66 0
6720 15 -24 -25 32 33 42 47 48 -49 -54 -62 64 65 66 0
-6721 -15 0
-6721 24 0
-6721 25 0
-6721 32 0
-6721 -33 0
-6721 -42 0
-6721 -47 0
-6721 -48 0
-6721 -49 0
-6721 54 0
-6721 62 0
-6721 -64 0
-6721 -65 0
-6721 -66 0
6721 15 -24 -25 -32 33 42 47 48 49 -54 -62 64 65 66 0
-6722 -15 0
-6722 24 0
-6722 25 0
-6722 -32 0
-6722 -33 0
-6722 42 0
-6722 -47 0
-6722 -48 0
-6722 -49 0
-6722 54 0
-6722 62 0
-6722 -64 0
-6722 -65 0
-6722 -66 0
6722 15 -24 -25 32 33 -42 47 48 49 -54 -62 64 65 66 0
-6723 -15 0
-6723 24 0
-6723 25 0
-6723 32 0
-6723 -33 0
-6723 42 0
-6723 47 0
-6723 -48 0
-6723 -49 0
-6723 54 0
-6723 62 0
-6723 -64 0
-6723 -65 0
-6723 -66 0
6723 15 -24 -25 -32 33 -42 -47 48 49 -54 -62 64 65 66 0
-6724 -15 0
-6724 24 0
-6724 25 0
-6724 -32 0
-6724 -33 0
-6724 -42 0
-6724 47 0
-6724 -48 0
-6724 -49 0
-6724 54 0
-6724 62 0
-6724 -64 0
-6724 -65 0
-6724 -66 0
6724 15 -24 -25 32 33 42 -47 48 49 -54 -62 64 65 66 0
-6725 15 0
-6725 24 0
-6725 25 0
-6725 32 0
-6725 -33 0
-6725 -42 0
-6725 47 0
-6725 -48 0
-6725 -49 0
-6725 54 0
-6725 62 0
-6725 -64 0
-6725 -65 0
-6725 -66 0
6725 -15 -24 -25 -32 33 42 -47 48 49 -54 -62 64 65 66 0
-6726 15 0
-6726 24 0
-6726 25 0
-6726 -32 0
-6726 -33 0
-6726 42 0
-6726 47 0
-6726 -48 0
-6726 -49 0
-6726 54 0
-6726 62 0
-6726 -64 0
-6726 -65 0
-6726 -66 0
6726 -15 -24 -25 32 33 -42 -47 48 49 -54 -62 64 65 66 0
-6727 15 0
-6727 24 0
-6727 25 0
-6727 32 0
-6727 -33 0
-6727 42 0
-6727 -47 0
-6727 -48 0
-6727 -49 0
-6727 54 0
-6727 62 0
-6727 -64 0
-6727 -65 0
-6727 -66 0
6727 -15 -24 -25 -32 33 -42 47 48 49 -54 -62 64 65 66 0
-6728 15 0
-6728 24 0
-6728 25 0
-6728 -32 0
-6728 -33 0
-6728 -42 0
-6728 -47 0
-6728 -48 0
-6728 -49 0
-6728 54 0
-6728 62 0
-6728 -64 0
-6728 -65 0
-6728 -66 0
6728 -15 -24 -25 32 33 42 47 48 49 -54 -62 64 65 66 0
-6729 15 0
-6729 24 0
-6729 25 0
-6729 32 0
-6729 -33 0
-6729 -42 0
-6729 -47 0
-6729 48 0
-6729 -49 0
-6729 54 0
-6729 62 0
-6729 -64 0
-6729 -65 0
-6729 -66 0
6729 -15 -24 -25 -32 33 42 47 -48 49 -54 -62 64 65 66 0
-6730 15 0
-6730 24 0
-6730 25 0
-6730 -32 0
-6730 -33 0
-6730 42 0
-6730 -47 0
-6730 48 0
-6730 -49 0
-6730 54 0
-6730 62 0
-6730 -64 0
-6730 -65 0
-6730 -66 0
6730 -15 -24 -25 32 33 -42 47 -48 49 -54 -62 64 65 66 0
-6731 15 0
-6731 24 0
-6731 25 0
-6731 32 0
-6731 -33 0
-6731 42 0
-6731 47 0
-6731 48 0
-6731 -49 0
-6731 54 0
-6731 62 0
-6731 -64 0
-6731 -65 0
-6731 -66 0
6731 -15 -24 -25 -32 33 -42 -47 -48 49 -54 -62 64 65 66 0
-6732 15 0
-6732 24 0
-6732 25 0
-6732 -32 0
-6732 -33 0
-6732 -42 0
-6732 47 0
-6732 48 0
-6732 -49 0
-6732 54 0
-6732 62 0
-6732 -64 0
-6732 -65 0
-6732 -66 0
6732 -15 -24 -25 32 33 42 -47 -48 49 -54 -62 64 65 66 0
-6733 -15 0
-6733 24 0
-6733 25 0
-6733 32 0
-6733 -33 0
-6733 -42 0
-6733 47 0
-6733 48 0
-6733 -49 0
-6733 54 0
-6733 62 0
-6733 -64 0
-6733 -65 0
-6733 -66 0
6733 15 -24 -25 -32 33 42 -47 -48 49 -54 -62 64 65 66 0
-6734 -15 0
-6734 24 0
-6734 25 0
-6734 -32 0
-6734 -33 0
-6734 42 0
-6734 47 0
-6734 48 0
-6734 -49 0
-6734 54 0
-6734 62 0
-6734 -64 0
-6734 -65 0
-6734 -66 0
6734 15 -24 -25 32 33 -42 -47 -48 49 -54 -62 64 65 66 0
-6735 -15 0
-6735 24 0
-6735 25 0
-6735 32 0
-6735 -33 0
-6735 42 0
-6735 -47 0
-6735 48 0
-6735 -49 0
-6735 54 0
-6735 62 0
-6735 -64 0
-6735 -65 0
-6735 -66 0
6735 15 -24 -25 -32 33 -42 47 -48 49 -54 -62 64 65 66 0
-6736 -15 0
-6736 24 0
-6736 25 0
-6736 -32 0
-6736 -33 0
-6736 -42 0
-6736 -47 0
-6736 48 0
-6736 -49 0
-6736 54 0
-6736 62 0
-6736 -64 0
-6736 -65 0
-6736 -66 0
6736 15 -24 -25 32 33 42 47 -48 49 -54 -62 64 65 66 0
-6737 -15 0
-6737 24 0
-6737 25 0
-6737 32 0
-6737 33 0
-6737 -42 0
-6737 -47 0
-6737 48 0
-6737 -49 0
-6737 54 0
-6737 62 0
-6737 -64 0
-6737 -65 0
-6737 -66 0
6737 15 -24 -25 -32 -33 42 47 -48 49 -54 -62 64 65 66 0
-6738 -15 0
-6738 24 0
-6738 25 0
-6738 -32 0
-6738 33 0
-6738 42 0
-6738 -47 0
-6738 48 0
-6738 -49 0
-6738 54 0
-6738 62 0
-6738 -64 0
-6738 -65 0
-6738 -66 0
6738 15 -24 -25 32 -33 -42 47 -48 49 -54 -62 64 65 66 0
-6739 -15 0
-6739 24 0
-6739 25 0
-6739 32 0
-6739 33 0
-6739 42 0
-6739 47 0
-6739 48 0
-6739 -49 0
-6739 54 0
-6739 62 0
-6739 -64 0
-6739 -65 0
-6739 -66 0
6739 15 -24 -25 -32 -33 -42 -47 -48 49 -54 -62 64 65 66 0
-6740 -15 0
-6740 24 0
-6740 25 0
-6740 -32 0
-6740 33 0
-6740 -42 0
-6740 47 0
-6740 48 0
-6740 -49 0
-6740 54 0
-6740 62 0
-6740 -64 0
-6740 -65 0
-6740 -66 0
6740 15 -24 -25 32 -33 42 -47 -48 49 -54 -62 64 65 66 0
-6741 15 0
-6741 24 0
-6741 25 0
-6741 32 0
-6741 33 0
-6741 -42 0
-6741 47 0
-6741 48 0
-6741 -49 0
-6741 54 0
-6741 62 0
-6741 -64 0
-6741 -65 0
-6741 -66 0
6741 -15 -24 -25 -32 -33 42 -47 -48 49 -54 -62 64 65 66 0
-6742 15 0
-6742 24 0
-6742 25 0
-6742 32 0
-6742 33 0
-6742 42 0
-6742 -47 0
-6742 48 0
-6742 -49 0
-6742 54 0
-6742 62 0
-6742 -64 0
-6742 -65 0
-6742 -66 0
6742 -15 -24 -25 -32 -33 -42 47 -48 49 -54 -62 64 65 66 0
-6743 -15 0
-6743 24 0
-6743 -25 0
-6743 32 0
-6743 33 0
-6743 -42 0
-6743 47 0
-6743 48 0
-6743 -49 0
-6743 54 0
-6743 62 0
-6743 -64 0
-6743 -65 0
-6743 -66 0
6743 15 -24 25 -32 -33 42 -47 -48 49 -54 -62 64 65 66 0
-6744 15 0
-6744 24 0
-6744 25 0
-6744 -32 0
-6744 33 0
-6744 -42 0
-6744 -47 0
-6744 48 0
-6744 -49 0
-6744 54 0
-6744 62 0
-6744 -64 0
-6744 -65 0
-6744 -66 0
6744 -15 -24 -25 32 -33 42 47 -48 49 -54 -62 64 65 66 0
-6745 15 0
-6745 24 0
-6745 25 0
-6745 32 0
-6745 33 0
-6745 -42 0
-6745 -47 0
-6745 -48 0
-6745 -49 0
-6745 54 0
-6745 62 0
-6745 -64 0
-6745 -65 0
-6745 -66 0
6745 -15 -24 -25 -32 -33 42 47 48 49 -54 -62 64 65 66 0
-6746 15 0
-6746 24 0
-6746 25 0
-6746 -32 0
-6746 33 0
-6746 42 0
-6746 -47 0
-6746 -48 0
-6746 -49 0
-6746 54 0
-6746 62 0
-6746 -64 0
-6746 -65 0
-6746 -66 0
6746 -15 -24 -25 32 -33 -42 47 48 49 -54 -62 64 65 66 0
-6747 15 0
-6747 24 0
-6747 25 0
-6747 32 0
-6747 33 0
-6747 42 0
-6747 47 0
-6747 -48 0
-6747 -49 0
-6747 54 0
-6747 62 0
-6747 -64 0
-6747 -65 0
-6747 -66 0
6747 -15 -24 -25 -32 -33 -42 -47 48 49 -54 -62 64 65 66 0
-6748 15 0
-6748 24 0
-6748 25 0
-6748 -32 0
-6748 33 0
-6748 -42 0
-6748 47 0
-6748 -48 0
-6748 -49 0
-6748 54 0
-6748 62 0
-6748 -64 0
-6748 -65 0
-6748 -66 0
6748 -15 -24 -25 32 -33 42 -47 48 49 -54 -62 64 65 66 0
-6749 -15 0
-6749 24 0
-6749 25 0
-6749 32 0
-6749 33 0
-6749 -42 0
-6749 47 0
-6749 -48 0
-6749 -49 0
-6749 54 0
-6749 62 0
-6749 -64 0
-6749 -65 0
-6749 -66 0
6749 15 -24 -25 -32 -33 42 -47 48 49 -54 -62 64 65 66 0
-6750 -15 0
-6750 24 0
-6750 25 0
-6750 -32 0
-6750 33 0
-6750 42 0
-6750 47 0
-6750 -48 0
-6750 -49 0
-6750 54 0
-6750 62 0
-6750 -64 0
-6750 -65 0
-6750 -66 0
6750 15 -24 -25 32 -33 -42 -47 48 49 -54 -62 64 65 66 0
-6751 -15 0
-6751 24 0
-6751 25 0
-6751 32 0
-6751 33 0
-6751 42 0
-6751 -47 0
-6751 -48 0
-6751 -49 0
-6751 54 0
-6751 62 0
-6751 -64 0
-6751 -65 0
-6751 -66 0
6751 15 -24 -25 -32 -33 -42 47 48 49 -54 -62 64 65 66 0
-6752 -15 0
-6752 24 0
-6752 25 0
-6752 -32 0
-6752 33 0
-6752 -42 0
-6752 -47 0
-6752 -48 0
-6752 -49 0
-6752 54 0
-6752 62 0
-6752 -64 0
-6752 -65 0
-6752 -66 0
6752 15 -24 -25 32 -33 42 47 48 49 -54 -62 64 65 66 0
-6753 -15 0
-6753 24 0
-6753 25 0
-6753 32 0
-6753 33 0
-6753 -42 0
-6753 -47 0
-6753 -48 0
-6753 49 0
-6753 54 0
-6753 62 0
-6753 -64 0
-6753 -65 0
-6753 -66 0
6753 15 -24 -25 -32 -33 42 47 48 -49 -54 -62 64 65 66 0
-6754 -15 0
-6754 24 0
-6754 25 0
-6754 -32 0
-6754 33 0
-6754 42 0
-6754 -47 0
-6754 -48 0
-6754 49 0
-6754 54 0
-6754 62 0
-6754 -64 0
-6754 -65 0
-6754 -66 0
6754 15 -24 -25 32 -33 -42 47 48 -49 -54 -62 64 65 66 0
-6755 -15 0
-6755 24 0
-6755 25 0
-6755 32 0
-6755 33 0
-6755 42 0
-6755 47 0
-6755 -48 0
-6755 49 0
-6755 54 0
-6755 62 0
-6755 -64 0
-6755 -65 0
-6755 -66 0
6755 15 -24 -25 -32 -33 -42 -47 48 -49 -54 -62 64 65 66 0
-6756 -15 0
-6756 24 0
-6756 25 0
-6756 -32 0
-6756 33 0
-6756 -42 0
-6756 47 0
-6756 -48 0
-6756 49 0
-6756 54 0
-6756 62 0
-6756 -64 0
-6756 -65 0
-6756 -66 0
6756 15 -24 -25 32 -33 42 -47 48 -49 -54 -62 64 65 66 0
-6757 15 0
-6757 24 0
-6757 25 0
-6757 32 0
-6757 33 0
-6757 -42 0
-6757 47 0
-6757 -48 0
-6757 49 0
-6757 54 0
-6757 62 0
-6757 -64 0
-6757 -65 0
-6757 -66 0
6757 -15 -24 -25 -32 -33 42 -47 48 -49 -54 -62 64 65 66 0
-6758 15 0
-6758 24 0
-6758 25 0
-6758 -32 0
-6758 33 0
-6758 42 0
-6758 47 0
-6758 -48 0
-6758 49 0
-6758 54 0
-6758 62 0
-6758 -64 0
-6758 -65 0
-6758 -66 0
6758 -15 -24 -25 32 -33 -42 -47 48 -49 -54 -62 64 65 66 0
-6759 15 0
-6759 24 0
-6759 25 0
-6759 32 0
-6759 33 0
-6759 42 0
-6759 -47 0
-6759 -48 0
-6759 49 0
-6759 54 0
-6759 62 0
-6759 -64 0
-6759 -65 0
-6759 -66 0
6759 -15 -24 -25 -32 -33 -42 47 48 -49 -54 -62 64 65 66 0
-6760 15 0
-6760 24 0
-6760 25 0
-6760 -32 0
-6760 33 0
-6760 -42 0
-6760 -47 0
-6760 -48 0
-6760 49 0
-6760 54 0
-6760 62 0
-6760 -64 0
-6760 -65 0
-6760 -66 0
6760 -15 -24 -25 32 -33 42 47 48 -49 -54 -62 64 65 66 0
-6761 15 0
-6761 24 0
-6761 25 0
-6761 32 0
-6761 33 0
-6761 -42 0
-6761 -47 0
-6761 48 0
-6761 49 0
-6761 54 0
-6761 62 0
-6761 -64 0
-6761 -65 0
-6761 -66 0
6761 -15 -24 -25 -32 -33 42 47 -48 -49 -54 -62 64 65 66 0
-6762 15 0
-6762 24 0
-6762 25 0
-6762 -32 0
-6762 33 0
-6762 42 0
-6762 -47 0
-6762 48 0
-6762 49 0
-6762 54 0
-6762 62 0
-6762 -64 0
-6762 -65 0
-6762 -66 0
6762 -15 -24 -25 32 -33 -42 47 -48 -49 -54 -62 64 65 66 0
-6763 15 0
-6763 24 0
-6763 25 0
-6763 -32 0
-6763 33 0
-6763 -42 0
-6763 47 0
-6763 48 0
-6763 49 0
-6763 54 0
-6763 62 0
-6763 -64 0
-6763 -65 0
-6763 -66 0
6763 -15 -24 -25 32 -33 42 -47 -48 -49 -54 -62 64 65 66 0
-6764 -15 0
-6764 24 0
-6764 25 0
-6764 32 0
-6764 33 0
-6764 -42 0
-6764 47 0
-6764 48 0
-6764 49 0
-6764 54 0
-6764 62 0
-6764 -64 0
-6764 -65 0
-6764 -66 0
6764 15 -24 -25 -32 -33 42 -47 -48 -49 -54 -62 64 65 66 0
-6765 -15 0
-6765 24 0
-6765 25 0
-6765 -32 0
-6765 33 0
-6765 42 0
-6765 47 0
-6765 48 0
-6765 49 0
-6765 54 0
-6765 62 0
-6765 -64 0
-6765 -65 0
-6765 -66 0
6765 15 -24 -25 32 -33 -42 -47 -48 -49 -54 -62 64 65 66 0
-6766 -15 0
-6766 24 0
-6766 25 0
-6766 32 0
-6766 33 0
-6766 42 0
-6766 -47 0
-6766 48 0
-6766 49 0
-6766 54 0
-6766 62 0
-6766 -64 0
-6766 -65 0
-6766 -66 0
6766 15 -24 -25 -32 -33 -42 47 -48 -49 -54 -62 64 65 66 0
-6767 -15 0
-6767 24 0
-6767 25 0
-6767 -32 0
-6767 33 0
-6767 -42 0
-6767 -47 0
-6767 48 0
-6767 49 0
-6767 54 0
-6767 62 0
-6767 -64 0
-6767 -65 0
-6767 -66 0
6767 15 -24 -25 32 -33 42 47 -48 -49 -54 -62 64 65 66 0
-6768 -15 0
-6768 -24 0
-6768 25 0
-6768 32 0
-6768 33 0
-6768 -42 0
-6768 -47 0
-6768 48 0
-6768 49 0
-6768 54 0
-6768 62 0
-6768 -64 0
-6768 -65 0
-6768 -66 0
6768 15 24 -25 -32 -33 42 47 -48 -49 -54 -62 64 65 66 0
-6769 -15 0
-6769 -24 0
-6769 25 0
-6769 -32 0
-6769 33 0
-6769 42 0
-6769 -47 0
-6769 48 0
-6769 49 0
-6769 54 0
-6769 62 0
-6769 -64 0
-6769 -65 0
-6769 -66 0
6769 15 24 -25 32 -33 -42 47 -48 -49 -54 -62 64 65 66 0
-6770 -15 0
-6770 -24 0
-6770 25 0
-6770 32 0
-6770 33 0
-6770 42 0
-6770 47 0
-6770 48 0
-6770 49 0
-6770 54 0
-6770 62 0
-6770 -64 0
-6770 -65 0
-6770 -66 0
6770 15 24 -25 -32 -33 -42 -47 -48 -49 -54 -62 64 65 66 0
-6771 -15 0
-6771 -24 0
-6771 25 0
-6771 -32 0
-6771 33 0
-6771 -42 0
-6771 47 0
-6771 48 0
-6771 49 0
-6771 54 0
-6771 62 0
-6771 -64 0
-6771 -65 0
-6771 -66 0
6771 15 24 -25 32 -33 42 -47 -48 -49 -54 -62 64 65 66 0
-6772 15 0
-6772 -24 0
-6772 25 0
-6772 32 0
-6772 33 0
-6772 -42 0
-6772 47 0
-6772 48 0
-6772 49 0
-6772 54 0
-6772 62 0
-6772 -64 0
-6772 -65 0
-6772 -66 0
6772 -15 24 -25 -32 -33 42 -47 -48 -49 -54 -62 64 65 66 0
-6773 15 0
-6773 -24 0
-6773 25 0
-6773 -32 0
-6773 33 0
-6773 42 0
-6773 47 0
-6773 48 0
-6773 49 0
-6773 54 0
-6773 62 0
-6773 -64 0
-6773 -65 0
-6773 -66 0
6773 -15 24 -25 32 -33 -42 -47 -48 -49 -54 -62 64 65 66 0
-6774 15 0
-6774 -24 0
-6774 25 0
-6774 32 0
-6774 33 0
-6774 42 0
-6774 -47 0
-6774 48 0
-6774 49 0
-6774 54 0
-6774 62 0
-6774 -64 0
-6774 -65 0
-6774 -66 0
6774 -15 24 -25 -32 -33 -42 47 -48 -49 -54 -62 64 65 66 0
-6775 15 0
-6775 -24 0
-6775 25 0
-6775 -32 0
-6775 33 0
-6775 -42 0
-6775 -47 0
-6775 48 0
-6775 49 0
-6775 54 0
-6775 62 0
-6775 -64 0
-6775 -65 0
-6775 -66 0
6775 -15 24 -25 32 -33 42 47 -48 -49 -54 -62 64 65 66 0
-6776 15 0
-6776 -24 0
-6776 25 0
-6776 32 0
-6776 33 0
-6776 -42 0
-6776 -47 0
-6776 -48 0
-6776 49 0
-6776 54 0
-6776 62 0
-6776 -64 0
-6776 -65 0
-6776 -66 0
6776 -15 24 -25 -32 -33 42 47 48 -49 -54 -62 64 65 66 0
-6777 15 0
-6777 -24 0
-6777 25 0
-6777 -32 0
-6777 33 0
-6777 42 0
-6777 -47 0
-6777 -48 0
-6777 49 0
-6777 54 0
-6777 62 0
-6777 -64 0
-6777 -65 0
-6777 -66 0
6777 -15 24 -25 32 -33 -42 47 48 -49 -54 -62 64 65 66 0
-6778 15 0
-6778 -24 0
-6778 25 0
-6778 32 0
-6778 33 0
-6778 42 0
-6778 47 0
-6778 -48 0
-6778 49 0
-6778 54 0
-6778 62 0
-6778 -64 0
-6778 -65 0
-6778 -66 0
6778 -15 24 -25 -32 -33 -42 -47 48 -49 -54 -62 64 65 66 0
-6779 15 0
-6779 -24 0
-6779 25 0
-6779 -32 0
-6779 33 0
-6779 -42 0
-6779 47 0
-6779 -48 0
-6779 49 0
-6779 54 0
-6779 62 0
-6779 -64 0
-6779 -65 0
-6779 -66 0
6779 -15 24 -25 32 -33 42 -47 48 -49 -54 -62 64 65 66 0
-6780 -15 0
-6780 -24 0
-6780 25 0
-6780 32 0
-6780 33 0
-6780 -42 0
-6780 47 0
-6780 -48 0
-6780 49 0
-6780 54 0
-6780 62 0
-6780 -64 0
-6780 -65 0
-6780 -66 0
6780 15 24 -25 -32 -33 42 -47 48 -49 -54 -62 64 65 66 0
-6781 -15 0
-6781 -24 0
-6781 25 0
-6781 -32 0
-6781 33 0
-6781 42 0
-6781 47 0
-6781 -48 0
-6781 49 0
-6781 54 0
-6781 62 0
-6781 -64 0
-6781 -65 0
-6781 -66 0
6781 15 24 -25 32 -33 -42 -47 48 -49 -54 -62 64 65 66 0
-6782 -15 0
-6782 -24 0
-6782 25 0
-6782 32 0
-6782 33 0
-6782 42 0
-6782 -47 0
-6782 -48 0
-6782 49 0
-6782 54 0
-6782 62 0
-6782 -64 0
-6782 -65 0
-6782 -66 0
6782 15 24 -25 -32 -33 -42 47 48 -49 -54 -62 64 65 66 0
-6783 -15 0
-6783 -24 0
-6783 25 0
-6783 -32 0
-6783 33 0
-6783 -42 0
-6783 -47 0
-6783 -48 0
-6783 49 0
-6783 54 0
-6783 62 0
-6783 -64 0
-6783 -65 0
-6783 -66 0
6783 15 24 -25 32 -33 42 47 48 -49 -54 -62 64 65 66 0
-6784 -15 0
-6784 -24 0
-6784 25 0
-6784 -32 0
-6784 33 0
-6784 42 0
-6784 -47 0
-6784 -48 0
-6784 -49 0
-6784 54 0
-6784 62 0
-6784 -64 0
-6784 -65 0
-6784 -66 0
6784 15 24 -25 32 -33 -42 47 48 49 -54 -62 64 65 66 0
-6785 -15 0
-6785 -24 0
-6785 -25 0
-6785 -32 0
-6785 33 0
-6785 -42 0
-6785 -47 0
-6785 -48 0
-6785 -49 0
-6785 54 0
-6785 62 0
-6785 -64 0
-6785 -65 0
-6785 -66 0
6785 15 24 25 32 -33 42 47 48 49 -54 -62 64 65 66 0
-6786 -15 0
-6786 -24 0
-6786 -25 0
-6786 -32 0
-6786 33 0
-6786 -42 0
-6786 -47 0
-6786 48 0
-6786 49 0
-6786 54 0
-6786 62 0
-6786 -64 0
-6786 -65 0
-6786 -66 0
6786 15 24 25 32 -33 42 47 -48 -49 -54 -62 64 65 66 0
-6787 15 0
-6787 24 0
-6787 -25 0
-6787 32 0
-6787 33 0
-6787 42 0
-6787 47 0
-6787 48 0
-6787 -49 0
-6787 54 0
-6787 62 0
-6787 -64 0
-6787 -65 0
-6787 -66 0
6787 -15 -24 25 -32 -33 -42 -47 -48 49 -54 -62 64 65 66 0
-6788 15 0
-6788 24 0
-6788 -25 0
-6788 32 0
-6788 33 0
-6788 42 0
-6788 47 0
-6788 -48 0
-6788 49 0
-6788 54 0
-6788 62 0
-6788 -64 0
-6788 -65 0
-6788 -66 0
6788 -15 -24 25 -32 -33 -42 -47 48 -49 -54 -62 64 65 66 0
-6789 -15 0
-6789 24 0
-6789 -25 0
-6789 -32 0
-6789 33 0
-6789 -42 0
-6789 47 0
-6789 -48 0
-6789 -49 0
-6789 54 0
-6789 62 0
-6789 -64 0
-6789 -65 0
-6789 -66 0
6789 15 -24 25 32 -33 42 -47 48 49 -54 -62 64 65 66 0
-6790 -15 0
-6790 24 0
-6790 -25 0
-6790 32 0
-6790 33 0
-6790 42 0
-6790 47 0
-6790 -48 0
-6790 -49 0
-6790 54 0
-6790 62 0
-6790 -64 0
-6790 -65 0
-6790 -66 0
6790 15 -24 25 -32 -33 -42 -47 48 49 -54 -62 64 65 66 0
-6791 15 0
-6791 -24 0
-6791 25 0
-6791 32 0
-6791 33 0
-6791 42 0
-6791 47 0
-6791 48 0
-6791 -49 0
-6791 54 0
-6791 62 0
-6791 -64 0
-6791 -65 0
-6791 -66 0
6791 -15 24 -25 -32 -33 -42 -47 -48 49 -54 -62 64 65 66 0
-6792 -15 0
-6792 -24 0
-6792 -25 0
-6792 32 0
-6792 33 0
-6792 42 0
-6792 47 0
-6792 48 0
-6792 -49 0
-6792 54 0
-6792 62 0
-6792 -64 0
-6792 -65 0
-6792 -66 0
6792 15 24 25 -32 -33 -42 -47 -48 49 -54 -62 64 65 66 0
-6793 15 0
-6793 -24 0
-6793 25 0
-6793 32 0
-6793 33 0
-6793 42 0
-6793 -47 0
-6793 -48 0
-6793 -49 0
-6793 54 0
-6793 62 0
-6793 -64 0
-6793 -65 0
-6793 -66 0
6793 -15 24 -25 -32 -33 -42 47 48 49 -54 -62 64 65 66 0
-6794 15 0
-6794 -24 0
-6794 25 0
-6794 -32 0
-6794 33 0
-6794 -42 0
-6794 -47 0
-6794 -48 0
-6794 -49 0
-6794 54 0
-6794 62 0
-6794 -64 0
-6794 -65 0
-6794 -66 0
6794 -15 24 -25 32 -33 42 47 48 49 -54 -62 64 65 66 0
-6795 -15 0
-6795 -24 0
-6795 25 0
-6795 -32 0
-6795 33 0
-6795 -42 0
-6795 47 0
-6795 -48 0
-6795 -49 0
-6795 54 0
-6795 62 0
-6795 -64 0
-6795 -65 0
-6795 -66 0
6795 15 24 -25 32 -33 42 -47 48 49 -54 -62 64 65 66 0
-6796 15 0
-6796 -24 0
-6796 25 0
-6796 32 0
-6796 33 0
-6796 -42 0
-6796 47 0
-6796 -48 0
-6796 -49 0
-6796 54 0
-6796 62 0
-6796 -64 0
-6796 -65 0
-6796 -66 0
6796 -15 24 -25 -32 -33 42 -47 48 49 -54 -62 64 65 66 0
-6797 -15 0
-6797 -24 0
-6797 25 0
-6797 32 0
-6797 33 0
-6797 42 0
-6797 47 0
-6797 -48 0
-6797 -49 0
-6797 54 0
-6797 62 0
-6797 -64 0
-6797 -65 0
-6797 -66 0
6797 15 24 -25 -32 -33 -42 -47 48 49 -54 -62 64 65 66 0
-6798 15 0
-6798 -24 0
-6798 25 0
-6798 -32 0
-6798 33 0
-6798 42 0
-6798 47 0
-6798 -48 0
-6798 -49 0
-6798 54 0
-6798 62 0
-6798 -64 0
-6798 -65 0
-6798 -66 0
6798 -15 24 -25 32 -33 -42 -47 48 49 -54 -62 64 65 66 0
-6799 -15 0
-6799 -24 0
-6799 25 0
-6799 -32 0
-6799 33 0
-6799 42 0
-6799 47 0
-6799 48 0
-6799 -49 0
-6799 54 0
-6799 62 0
-6799 -64 0
-6799 -65 0
-6799 -66 0
6799 15 24 -25 32 -33 -42 -47 -48 49 -54 -62 64 65 66 0
-6800 -15 0
-6800 -24 0
-6800 25 0
-6800 32 0
-6800 33 0
-6800 -42 0
-6800 47 0
-6800 48 0
-6800 -49 0
-6800 54 0
-6800 62 0
-6800 -64 0
-6800 -65 0
-6800 -66 0
6800 15 24 -25 -32 -33 42 -47 -48 49 -54 -62 64 65 66 0
-6801 15 0
-6801 -24 0
-6801 25 0
-6801 -32 0
-6801 33 0
-6801 -42 0
-6801 47 0
-6801 48 0
-6801 -49 0
-6801 54 0
-6801 62 0
-6801 -64 0
-6801 -65 0
-6801 -66 0
6801 -15 24 -25 32 -33 42 -47 -48 49 -54 -62 64 65 66 0
-6802 -15 0
-6802 -24 0
-6802 -25 0
-6802 -32 0
-6802 33 0
-6802 -42 0
-6802 47 0
-6802 48 0
-6802 -49 0
-6802 54 0
-6802 62 0
-6802 -64 0
-6802 -65 0
-6802 -66 0
6802 15 24 25 32 -33 42 -47 -48 49 -54 -62 64 65 66 0
-6803 -15 0
-6803 -24 0
-6803 25 0
-6803 -32 0
-6803 33 0
-6803 -42 0
-6803 -47 0
-6803 48 0
-6803 -49 0
-6803 54 0
-6803 62 0
-6803 -64 0
-6803 -65 0
-6803 -66 0
6803 15 24 -25 32 -33 42 47 -48 49 -54 -62 64 65 66 0
-6804 15 0
-6804 -24 0
-6804 25 0
-6804 32 0
-6804 33 0
-6804 -42 0
-6804 -47 0
-6804 48 0
-6804 -49 0
-6804 54 0
-6804 62 0
-6804 -64 0
-6804 -65 0
-6804 -66 0
6804 -15 24 -25 -32 -33 42 47 -48 49 -54 -62 64 65 66 0
-6805 -15 0
-6805 -24 0
-6805 25 0
-6805 32 0
-6805 33 0
-6805 42 0
-6805 -47 0
-6805 48 0
-6805 -49 0
-6805 54 0
-6805 62 0
-6805 -64 0
-6805 -65 0
-6805 -66 0
6805 15 24 -25 -32 -33 -42 47 -48 49 -54 -62 64 65 66 0
-6806 15 0
-6806 -24 0
-6806 25 0
-6806 -32 0
-6806 33 0
-6806 42 0
-6806 -47 0
-6806 48 0
-6806 -49 0
-6806 54 0
-6806 62 0
-6806 -64 0
-6806 -65 0
-6806 -66 0
6806 -15 24 -25 32 -33 -42 47 -48 49 -54 -62 64 65 66 0
-6807 -15 0
-6807 -24 0
-6807 -25 0
-6807 -32 0
-6807 33 0
-6807 42 0
-6807 -47 0
-6807 48 0
-6807 -49 0
-6807 54 0
-6807 62 0
-6807 -64 0
-6807 -65 0
-6807 -66 0
6807 15 24 25 32 -33 -42 47 -48 49 -54 -62 64 65 66 0
-6808 15 0
-6808 -24 0
-6808 -25 0
-6808 -32 0
-6808 33 0
-6808 42 0
-6808 -47 0
-6808 48 0
-6808 49 0
-6808 54 0
-6808 62 0
-6808 -64 0
-6808 -65 0
-6808 -66 0
6808 -15 24 25 32 -33 -42 47 -48 -49 -54 -62 64 65 66 0
-6809 -15 0
-6809 24 0
-6809 -25 0
-6809 -32 0
-6809 33 0
-6809 42 0
-6809 -47 0
-6809 48 0
-6809 49 0
-6809 54 0
-6809 62 0
-6809 -64 0
-6809 -65 0
-6809 -66 0
6809 15 -24 25 32 -33 -42 47 -48 -49 -54 -62 64 65 66 0
-6810 15 0
-6810 24 0
-6810 -25 0
-6810 -32 0
-6810 33 0
-6810 42 0
-6810 -47 0
-6810 48 0
-6810 -49 0
-6810 54 0
-6810 62 0
-6810 -64 0
-6810 -65 0
-6810 -66 0
6810 -15 -24 25 32 -33 -42 47 -48 49 -54 -62 64 65 66 0
-6811 -15 0
-6811 24 0
-6811 -25 0
-6811 32 0
-6811 33 0
-6811 42 0
-6811 -47 0
-6811 48 0
-6811 -49 0
-6811 54 0
-6811 62 0
-6811 -64 0
-6811 -65 0
-6811 -66 0
6811 15 -24 25 -32 -33 -42 47 -48 49 -54 -62 64 65 66 0
-6812 15 0
-6812 24 0
-6812 -25 0
-6812 32 0
-6812 33 0
-6812 42 0
-6812 -47 0
-6812 48 0
-6812 49 0
-6812 54 0
-6812 62 0
-6812 -64 0
-6812 -65 0
-6812 -66 0
6812 -15 -24 25 -32 -33 -42 47 -48 -49 -54 -62 64 65 66 0
-6813 -15 0
-6813 -24 0
-6813 -25 0
-6813 32 0
-6813 33 0
-6813 42 0
-6813 -47 0
-6813 48 0
-6813 49 0
-6813 54 0
-6813 62 0
-6813 -64 0
-6813 -65 0
-6813 -66 0
6813 15 24 25 -32 -33 -42 47 -48 -49 -54 -62 64 65 66 0
-6814 15 0
-6814 -24 0
-6814 -25 0
-6814 32 0
-6814 33 0
-6814 42 0
-6814 -47 0
-6814 48 0
-6814 -49 0
-6814 54 0
-6814 62 0
-6814 -64 0
-6814 -65 0
-6814 -66 0
6814 -15 24 25 -32 -33 -42 47 -48 49 -54 -62 64 65 66 0
-6815 15 0
-6815 -24 0
-6815 -25 0
-6815 32 0
-6815 33 0
-6815 -42 0
-6815 -47 0
-6815 48 0
-6815 49 0
-6815 54 0
-6815 62 0
-6815 -64 0
-6815 -65 0
-6815 -66 0
6815 -15 24 25 -32 -33 42 47 -48 -49 -54 -62 64 65 66 0
-6816 -15 0
-6816 24 0
-6816 -25 0
-6816 32 0
-6816 33 0
-6816 -42 0
-6816 -47 0
-6816 48 0
-6816 49 0
-6816 54 0
-6816 62 0
-6816 -64 0
-6816 -65 0
-6816 -66 0
6816 15 -24 25 -32 -33 42 47 -48 -49 -54 -62 64 65 66 0
-6817 15 0
-6817 24 0
-6817 -25 0
-6817 32 0
-6817 33 0
-6817 -42 0
-6817 -47 0
-6817 48 0
-6817 -49 0
-6817 54 0
-6817 62 0
-6817 -64 0
-6817 -65 0
-6817 -66 0
6817 -15 -24 25 -32 -33 42 47 -48 49 -54 -62 64 65 66 0
-6818 -15 0
-6818 24 0
-6818 -25 0
-6818 -32 0
-6818 33 0
-6818 -42 0
-6818 -47 0
-6818 48 0
-6818 -49 0
-6818 54 0
-6818 62 0
-6818 -64 0
-6818 -65 0
-6818 -66 0
6818 15 -24 25 32 -33 42 47 -48 49 -54 -62 64 65 66 0
-6819 15 0
-6819 24 0
-6819 -25 0
-6819 -32 0
-6819 33 0
-6819 -42 0
-6819 -47 0
-6819 48 0
-6819 49 0
-6819 54 0
-6819 62 0
-6819 -64 0
-6819 -65 0
-6819 -66 0
6819 -15 -24 25 32 -33 42 47 -48 -49 -54 -62 64 65 66 0
-6820 15 0
-6820 -24 0
-6820 -25 0
-6820 -32 0
-6820 33 0
-6820 -42 0
-6820 -47 0
-6820 48 0
-6820 -49 0
-6820 54 0
-6820 62 0
-6820 -64 0
-6820 -65 0
-6820 -66 0
6820 -15 24 25 32 -33 42 47 -48 49 -54 -62 64 65 66 0
-6821 15 0
-6821 -24 0
-6821 -25 0
-6821 -32 0
-6821 33 0
-6821 -42 0
-6821 47 0
-6821 48 0
-6821 49 0
-6821 54 0
-6821 62 0
-6821 -64 0
-6821 -65 0
-6821 -66 0
6821 -15 24 25 32 -33 42 -47 -48 -49 -54 -62 64 65 66 0
-6822 -15 0
-6822 -24 0
-6822 -25 0
-6822 -32 0
-6822 33 0
-6822 -42 0
-6822 47 0
-6822 -48 0
-6822 49 0
-6822 54 0
-6822 62 0
-6822 -64 0
-6822 -65 0
-6822 -66 0
6822 15 24 25 32 -33 42 -47 48 -49 -54 -62 64 65 66 0
-6823 -15 0
-6823 24 0
-6823 -25 0
-6823 -32 0
-6823 33 0
-6823 -42 0
-6823 47 0
-6823 48 0
-6823 49 0
-6823 54 0
-6823 62 0
-6823 -64 0
-6823 -65 0
-6823 -66 0
6823 15 -24 25 32 -33 42 -47 -48 -49 -54 -62 64 65 66 0
-6824 15 0
-6824 24 0
-6824 -25 0
-6824 -32 0
-6824 33 0
-6824 -42 0
-6824 47 0
-6824 48 0
-6824 -49 0
-6824 54 0
-6824 62 0
-6824 -64 0
-6824 -65 0
-6824 -66 0
6824 -15 -24 25 32 -33 42 -47 -48 49 -54 -62 64 65 66 0
-6825 15 0
-6825 24 0
-6825 -25 0
-6825 32 0
-6825 33 0
-6825 -42 0
-6825 47 0
-6825 48 0
-6825 49 0
-6825 54 0
-6825 62 0
-6825 -64 0
-6825 -65 0
-6825 -66 0
6825 -15 -24 25 -32 -33 42 -47 -48 -49 -54 -62 64 65 66 0
-6826 -15 0
-6826 -24 0
-6826 -25 0
-6826 32 0
-6826 33 0
-6826 -42 0
-6826 47 0
-6826 48 0
-6826 49 0
-6826 54 0
-6826 62 0
-6826 -64 0
-6826 -65 0
-6826 -66 0
6826 15 24 25 -32 -33 42 -47 -48 -49 -54 -62 64 65 66 0
-6827 15 0
-6827 -24 0
-6827 -25 0
-6827 32 0
-6827 33 0
-6827 -42 0
-6827 47 0
-6827 48 0
-6827 -49 0
-6827 54 0
-6827 62 0
-6827 -64 0
-6827 -65 0
-6827 -66 0
6827 -15 24 25 -32 -33 42 -47 -48 49 -54 -62 64 65 66 0
-6828 15 0
-6828 -24 0
-6828 -25 0
-6828 32 0
-6828 33 0
-6828 42 0
-6828 47 0
-6828 48 0
-6828 49 0
-6828 54 0
-6828 62 0
-6828 -64 0
-6828 -65 0
-6828 -66 0
6828 -15 24 25 -32 -33 -42 -47 -48 -49 -54 -62 64 65 66 0
-6829 15 0
-6829 -24 0
-6829 -25 0
-6829 -32 0
-6829 33 0
-6829 42 0
-6829 47 0
-6829 48 0
-6829 -49 0
-6829 54 0
-6829 62 0
-6829 -64 0
-6829 -65 0
-6829 -66 0
6829 -15 24 25 32 -33 -42 -47 -48 49 -54 -62 64 65 66 0
-6830 -15 0
-6830 -24 0
-6830 -25 0
-6830 32 0
-6830 33 0
-6830 42 0
-6830 47 0
-6830 -48 0
-6830 49 0
-6830 54 0
-6830 62 0
-6830 -64 0
-6830 -65 0
-6830 -66 0
6830 15 24 25 -32 -33 -42 -47 48 -49 -54 -62 64 65 66 0
-6831 -15 0
-6831 24 0
-6831 -25 0
-6831 32 0
-6831 33 0
-6831 42 0
-6831 47 0
-6831 48 0
-6831 49 0
-6831 54 0
-6831 62 0
-6831 -64 0
-6831 -65 0
-6831 -66 0
6831 15 -24 25 -32 -33 -42 -47 -48 -49 -54 -62 64 65 66 0
-6832 15 0
-6832 24 0
-6832 -25 0
-6832 -32 0
-6832 33 0
-6832 42 0
-6832 47 0
-6832 48 0
-6832 49 0
-6832 54 0
-6832 62 0
-6832 -64 0
-6832 -65 0
-6832 -66 0
6832 -15 -24 25 32 -33 -42 -47 -48 -49 -54 -62 64 65 66 0
-6833 15 0
-6833 24 0
-6833 -25 0
-6833 32 0
-6833 33 0
-6833 42 0
-6833 -47 0
-6833 -48 0
-6833 -49 0
-6833 54 0
-6833 62 0
-6833 -64 0
-6833 -65 0
-6833 -66 0
6833 -15 -24 25 -32 -33 -42 47 48 49 -54 -62 64 65 66 0
-6834 -15 0
-6834 -24 0
-6834 -25 0
-6834 -32 0
-6834 33 0
-6834 42 0
-6834 47 0
-6834 48 0
-6834 49 0
-6834 54 0
-6834 62 0
-6834 -64 0
-6834 -65 0
-6834 -66 0
6834 15 24 25 32 -33 -42 -47 -48 -49 -54 -62 64 65 66 0
-6835 -15 0
-6835 -24 0
-6835 -25 0
-6835 -32 0
-6835 33 0
-6835 42 0
-6835 47 0
-6835 -48 0
-6835 -49 0
-6835 54 0
-6835 62 0
-6835 -64 0
-6835 -65 0
-6835 -66 0
6835 15 24 25 32 -33 -42 -47 48 49 -54 -62 64 65 66 0
-6836 15 0
-6836 -24 0
-6836 -25 0
-6836 -32 0
-6836 33 0
-6836 42 0
-6836 47 0
-6836 -48 0
-6836 49 0
-6836 54 0
-6836 62 0
-6836 -64 0
-6836 -65 0
-6836 -66 0
6836 -15 24 25 32 -33 -42 -47 48 -49 -54 -62 64 65 66 0
-6837 -15 0
-6837 24 0
-6837 -25 0
-6837 -32 0
-6837 33 0
-6837 42 0
-6837 47 0
-6837 -48 0
-6837 49 0
-6837 54 0
-6837 62 0
-6837 -64 0
-6837 -65 0
-6837 -66 0
6837 15 -24 25 32 -33 -42 -47 48 -49 -54 -62 64 65 66 0
-6838 15 0
-6838 24 0
-6838 -25 0
-6838 -32 0
-6838 33 0
-6838 42 0
-6838 47 0
-6838 -48 0
-6838 -49 0
-6838 54 0
-6838 62 0
-6838 -64 0
-6838 -65 0
-6838 -66 0
6838 -15 -24 25 32 -33 -42 -47 48 49 -54 -62 64 65 66 0
-6839 15 0
-6839 -24 0
-6839 -25 0
-6839 32 0
-6839 33 0
-6839 42 0
-6839 47 0
-6839 -48 0
-6839 -49 0
-6839 54 0
-6839 62 0
-6839 -64 0
-6839 -65 0
-6839 -66 0
6839 -15 24 25 -32 -33 -42 -47 48 49 -54 -62 64 65 66 0
-6840 15 0
-6840 24 0
-6840 -25 0
-6840 32 0
-6840 33 0
-6840 -42 0
-6840 47 0
-6840 -48 0
-6840 -49 0
-6840 54 0
-6840 62 0
-6840 -64 0
-6840 -65 0
-6840 -66 0
6840 -15 -24 25 -32 -33 42 -47 48 49 -54 -62 64 65 66 0
-6841 15 0
-6841 24 0
-6841 -25 0
-6841 32 0
-6841 33 0
-6841 -42 0
-6841 -47 0
-6841 -48 0
-6841 49 0
-6841 54 0
-6841 62 0
-6841 -64 0
-6841 -65 0
-6841 -66 0
6841 -15 -24 25 -32 -33 42 47 48 -49 -54 -62 64 65 66 0
-6842 -15 0
-6842 24 0
-6842 -25 0
-6842 -32 0
-6842 33 0
-6842 -42 0
-6842 -47 0
-6842 -48 0
-6842 49 0
-6842 54 0
-6842 62 0
-6842 -64 0
-6842 -65 0
-6842 -66 0
6842 15 -24 25 32 -33 42 47 48 -49 -54 -62 64 65 66 0
-6843 -15 0
-6843 24 0
-6843 -25 0
-6843 32 0
-6843 33 0
-6843 42 0
-6843 -47 0
-6843 -48 0
-6843 49 0
-6843 54 0
-6843 62 0
-6843 -64 0
-6843 -65 0
-6843 -66 0
6843 15 -24 25 -32 -33 -42 47 48 -49 -54 -62 64 65 66 0
-6844 15 0
-6844 -24 0
-6844 -25 0
-6844 32 0
-6844 33 0
-6844 -42 0
-6844 47 0
-6844 -48 0
-6844 49 0
-6844 54 0
-6844 62 0
-6844 -64 0
-6844 -65 0
-6844 -66 0
6844 -15 24 25 -32 -33 42 -47 48 -49 -54 -62 64 65 66 0
-6845 -15 0
-6845 -24 0
-6845 -25 0
-6845 32 0
-6845 33 0
-6845 -42 0
-6845 47 0
-6845 -48 0
-6845 -49 0
-6845 54 0
-6845 62 0
-6845 -64 0
-6845 -65 0
-6845 -66 0
6845 15 24 25 -32 -33 42 -47 48 49 -54 -62 64 65 66 0
-6846 -15 0
-6846 24 0
-6846 -25 0
-6846 32 0
-6846 33 0
-6846 -42 0
-6846 47 0
-6846 -48 0
-6846 49 0
-6846 54 0
-6846 62 0
-6846 -64 0
-6846 -65 0
-6846 -66 0
6846 15 -24 25 -32 -33 42 -47 48 -49 -54 -62 64 65 66 0
-6847 -15 0
-6847 -24 0
-6847 -25 0
-6847 32 0
-6847 33 0
-6847 42 0
-6847 -47 0
-6847 -48 0
-6847 -49 0
-6847 54 0
-6847 62 0
-6847 -64 0
-6847 -65 0
-6847 -66 0
6847 15 24 25 -32 -33 -42 47 48 49 -54 -62 64 65 66 0
-6848 15 0
-6848 24 0
-6848 -25 0
-6848 -32 0
-6848 33 0
-6848 -42 0
-6848 47 0
-6848 -48 0
-6848 49 0
-6848 54 0
-6848 62 0
-6848 -64 0
-6848 -65 0
-6848 -66 0
6848 -15 -24 25 32 -33 42 -47 48 -49 -54 -62 64 65 66 0
-6849 15 0
-6849 -24 0
-6849 -25 0
-6849 -32 0
-6849 33 0
-6849 -42 0
-6849 47 0
-6849 -48 0
-6849 -49 0
-6849 54 0
-6849 62 0
-6849 -64 0
-6849 -65 0
-6849 -66 0
6849 -15 24 25 32 -33 42 -47 48 49 -54 -62 64 65 66 0
-6850 15 0
-6850 -24 0
-6850 -25 0
-6850 -32 0
-6850 33 0
-6850 -42 0
-6850 -47 0
-6850 -48 0
-6850 49 0
-6850 54 0
-6850 62 0
-6850 -64 0
-6850 -65 0
-6850 -66 0
6850 -15 24 25 32 -33 42 47 48 -49 -54 -62 64 65 66 0
-6851 -15 0
-6851 -24 0
-6851 -25 0
-6851 -32 0
-6851 33 0
-6851 42 0
-6851 -47 0
-6851 -48 0
-6851 49 0
-6851 54 0
-6851 62 0
-6851 -64 0
-6851 -65 0
-6851 -66 0
6851 15 24 25 32 -33 -42 47 48 -49 -54 -62 64 65 66 0
-6852 15 0
-6852 24 0
-6852 -25 0
-6852 -32 0
-6852 33 0
-6852 -42 0
-6852 -47 0
-6852 -48 0
-6852 -49 0
-6852 54 0
-6852 62 0
-6852 -64 0
-6852 -65 0
-6852 -66 0
6852 -15 -24 25 32 -33 42 47 48 49 -54 -62 64 65 66 0
-6853 -15 0
-6853 -24 0
-6853 -25 0
-6853 32 0
-6853 33 0
-6853 -42 0
-6853 -47 0
-6853 -48 0
-6853 49 0
-6853 54 0
-6853 62 0
-6853 -64 0
-6853 -65 0
-6853 -66 0
6853 15 24 25 -32 -33 42 47 48 -49 -54 -62 64 65 66 0
-6854 -15 0
-6854 24 0
-6854 -25 0
-6854 32 0
-6854 33 0
-6854 -42 0
-6854 -47 0
-6854 -48 0
-6854 -49 0
-6854 54 0
-6854 62 0
-6854 -64 0
-6854 -65 0
-6854 -66 0
6854 15 -24 25 -32 -33 42 47 48 49 -54 -62 64 65 66 0
-6855 15 0
-6855 -24 0
-6855 -25 0
-6855 32 0
-6855 33 0
-6855 42 0
-6855 -47 0
-6855 -48 0
-6855 49 0
-6855 54 0
-6855 62 0
-6855 -64 0
-6855 -65 0
-6855 -66 0
6855 -15 24 25 -32 -33 -42 47 48 -49 -54 -62 64 65 66 0
-6856 15 0
-6856 24 0
-6856 -25 0
-6856 -32 0
-6856 33 0
-6856 42 0
-6856 -47 0
-6856 -48 0
-6856 49 0
-6856 54 0
-6856 62 0
-6856 -64 0
-6856 -65 0
-6856 -66 0
6856 -15 -24 25 32 -33 -42 47 48 -49 -54 -62 64 65 66 0
-6857 15 0
-6857 -24 0
-6857 -25 0
-6857 -32 0
-6857 33 0
-6857 42 0
-6857 -47 0
-6857 -48 0
-6857 -49 0
-6857 54 0
-6857 62 0
-6857 -64 0
-6857 -65 0
-6857 -66 0
6857 -15 24 25 32 -33 -42 47 48 49 -54 -62 64 65 66 0
-6858 -15 0
-6858 24 0
-6858 -25 0
-6858 -32 0
-6858 33 0
-6858 42 0
-6858 -47 0
-6858 -48 0
-6858 -49 0
-6858 54 0
-6858 62 0
-6858 -64 0
-6858 -65 0
-6858 -66 0
6858 15 -24 25 32 -33 -42 47 48 49 -54 -62 64 65 66 0
-6859 -6235 0
-6859 -6236 0
-6859 -6237 0
-6859 -6238 0
-6859 -6239 0
-6859 -6240 0
-6859 -6241 0
-6859 -6242 0
-6859 -6243 0
-6859 -6244 0
-6859 -6245 0
-6859 -6246 0
-6859 -6247 0
-6859 -6248 0
-6859 -6249 0
-6859 -6250 0
-6859 -6251 0
-6859 -6252 0
-6859 -6253 0
-6859 -6254 0
-6859 -6255 0
-6859 -6256 0
-6859 -6257 0
-6859 -6258 0
-6859 -6259 0
-6859 -6260 0
-6859 -6261 0
-6859 -6262 0
-6859 -6263 0
-6859 -6264 0
-6859 -6265 0
-6859 -6266 0
-6859 -6267 0
-6859 -6268 0
-6859 -6269 0
-6859 -6270 0
-6859 -6271 0
-6859 -6272 0
-6859 -6273 0
-6859 -6274 0
-6859 -6275 0
-6859 -6276 0
-6859 -6277 0
-6859 -6278 0
-6859 -6279 0
-6859 -6280 0
-6859 -6281 0
-6859 -6282 0
-6859 -6283 0
-6859 -6284 0
-6859 -6285 0
-6859 -6286 0
-6859 -6287 0
-6859 -6288 0
-6859 -6289 0
-6859 -6290 0
-6859 -6291 0
-6859 -6292 0
-6859 -6293 0
-6859 -6294 0
-6859 -6295 0
-6859 -6296 0
-6859 -6297 0
-6859 -6298 0
-6859 -6299 0
-6859 -6300 0
-6859 -6301 0
-6859 -6302 0
-6859 -6303 0
-6859 -6304 0
-6859 -6305 0
-6859 -6306 0
-6859 -6307 0
-6859 -6308 0
-6859 -6309 0
-6859 -6310 0
-6859 -6311 0
-6859 -6312 0
-6859 -6313 0
-6859 -6314 0
-6859 -6315 0
-6859 -6316 0
-6859 -6317 0
-6859 -6318 0
-6859 -6319 0
-6859 -6320 0
-6859 -6321 0
-6859 -6322 0
-6859 -6323 0
-6859 -6324 0
-6859 -6325 0
-6859 -6326 0
-6859 -6327 0
-6859 -6328 0
-6859 -6329 0
-6859 -6330 0
-6859 -6331 0
-6859 -6332 0
-6859 -6333 0
-6859 -6334 0
-6859 -6335 0
-6859 -6336 0
-6859 -6337 0
-6859 -6338 0
-6859 -6339 0
-6859 -6340 0
-6859 -6341 0
-6859 -6342 0
-6859 -6343 0
-6859 -6344 0
-6859 -6345 0
-6859 -6346 0
-6859 -6347 0
-6859 -6348 0
-6859 -6349 0
-6859 -6350 0
-6859 -6351 0
-6859 -6352 0
-6859 -6353 0
-6859 -6354 0
-6859 -6355 0
-6859 -6356 0
-6859 -6357 0
-6859 -6358 0
-6859 -6359 0
-6859 -6360 0
-6859 -6361 0
-6859 -6362 0
-6859 -6363 0
-6859 -6364 0
-6859 -6365 0
-6859 -6366 0
-6859 -6367 0
-6859 -6368 0
-6859 -6369 0
-6859 -6370 0
-6859 -6371 0
-6859 -6372 0
-6859 -6373 0
-6859 -6374 0
-6859 -6375 0
-6859 -6376 0
-6859 -6377 0
-6859 -6378 0
-6859 -6379 0
-6859 -6380 0
-6859 -6381 0
-6859 -6382 0
-6859 -6383 0
-6859 -6384 0
-6859 -6385 0
-6859 -6386 0
-6859 -6387 0
-6859 -6388 0
-6859 -6389 0
-6859 -6390 0
-6859 -6391 0
-6859 -6392 0
-6859 -6393 0
-6859 -6394 0
-6859 -6395 0
-6859 -6396 0
-6859 -6397 0
-6859 -6398 0
-6859 -6399 0
-6859 -6400 0
-6859 -6401 0
-6859 -6402 0
-6859 -6403 0
-6859 -6404 0
-6859 -6405 0
-6859 -6406 0
-6859 -6407 0
-6859 -6408 0
-6859 -6409 0
-6859 -6410 0
-6859 -6411 0
-6859 -6412 0
-6859 -6413 0
-6859 -6414 0
-6859 -6415 0
-6859 -6416 0
-6859 -6417 0
-6859 -6418 0
-6859 -6419 0
-6859 -6420 0
-6859 -6421 0
-6859 -6422 0
-6859 -6423 0
-6859 -6424 0
-6859 -6425 0
-6859 -6426 0
-6859 -6427 0
-6859 -6428 0
-6859 -6429 0
-6859 -6430 0
-6859 -6431 0
-6859 -6432 0
-6859 -6433 0
-6859 -6434 0
-6859 -6435 0
-6859 -6436 0
-6859 -6437 0
-6859 -6438 0
-6859 -6439 0
-6859 -6440 0
-6859 -6441 0
-6859 -6442 0
-6859 -6443 0
-6859 -6444 0
-6859 -6445 0
-6859 -6446 0
-6859 -6447 0
-6859 -6448 0
-6859 -6449 0
-6859 -6450 0
-6859 -6451 0
-6859 -6452 0
-6859 -6453 0
-6859 -6454 0
-6859 -6455 0
-6859 -6456 0
-6859 -6457 0
-6859 -6458 0
-6859 -6459 0
-6859 -6460 0
-6859 -6461 0
-6859 -6462 0
-6859 -6463 0
-6859 -6464 0
-6859 -6465 0
-6859 -6466 0
-6859 -6467 0
-6859 -6468 0
-6859 -6469 0
-6859 -6470 0
-6859 -6471 0
-6859 -6472 0
-6859 -6473 0
-6859 -6474 0
-6859 -6475 0
-6859 -6476 0
-6859 -6477 0
-6859 -6478 0
-6859 -6479 0
-6859 -6480 0
-6859 -6481 0
-6859 -6482 0
-6859 -6483 0
-6859 -6484 0
-6859 -6485 0
-6859 -6486 0
-6859 -6487 0
-6859 -6488 0
-6859 -6489 0
-6859 -6490 0
-6859 -6491 0
-6859 -6492 0
-6859 -6493 0
-6859 -6494 0
-6859 -6495 0
-6859 -6496 0
-6859 -6497 0
-6859 -6498 0
-6859 -6499 0
-6859 -6500 0
-6859 -6501 0
-6859 -6502 0
-6859 -6503 0
-6859 -6504 0
-6859 -6505 0
-6859 -6506 0
-6859 -6507 0
-6859 -6508 0
-6859 -6509 0
-6859 -6510 0
-6859 -6511 0
-6859 -6512 0
-6859 -6513 0
-6859 -6514 0
-6859 -6515 0
-6859 -6516 0
-6859 -6517 0
-6859 -6518 0
-6859 -6519 0
-6859 -6520 0
-6859 -6521 0
-6859 -6522 0
-6859 -6523 0
-6859 -6524 0
-6859 -6525 0
-6859 -6526 0
-6859 -6527 0
-6859 -6528 0
-6859 -6529 0
-6859 -6530 0
-6859 -6531 0
-6859 -6532 0
-6859 -6533 0
-6859 -6534 0
-6859 -6535 0
-6859 -6536 0
-6859 -6537 0
-6859 -6538 0
-6859 -6539 0
-6859 -6540 0
-6859 -6541 0
-6859 -6542 0
-6859 -6543 0
-6859 -6544 0
-6859 -6545 0
-6859 -6546 0
-6859 -6547 0
-6859 -6548 0
-6859 -6549 0
-6859 -6550 0
-6859 -6551 0
-6859 -6552 0
-6859 -6553 0
-6859 -6554 0
-6859 -6555 0
-6859 -6556 0
-6859 -6557 0
-6859 -6558 0
-6859 -6559 0
-6859 -6560 0
-6859 -6561 0
-6859 -6562 0
-6859 -6563 0
-6859 -6564 0
-6859 -6565 0
-6859 -6566 0
-6859 -6567 0
-6859 -6568 0
-6859 -6569 0
-6859 -6570 0
-6859 -6571 0
-6859 -6572 0
-6859 -6573 0
-6859 -6574 0
-6859 -6575 0
-6859 -6576 0
-6859 -6577 0
-6859 -6578 0
-6859 -6579 0
-6859 -6580 0
-6859 -6581 0
-6859 -6582 0
-6859 -6583 0
-6859 -6584 0
-6859 -6585 0
-6859 -6586 0
-6859 -6587 0
-6859 -6588 0
-6859 -6589 0
-6859 -6590 0
-6859 -6591 0
-6859 -6592 0
-6859 -6593 0
-6859 -6594 0
-6859 -6595 0
-6859 -6596 0
-6859 -6597 0
-6859 -6598 0
-6859 -6599 0
-6859 -6600 0
-6859 -6601 0
-6859 -6602 0
-6859 -6603 0
-6859 -6604 0
-6859 -6605 0
-6859 -6606 0
-6859 -6607 0
-6859 -6608 0
-6859 -6609 0
-6859 -6610 0
-6859 -6611 0
-6859 -6612 0
-6859 -6613 0
-6859 -6614 0
-6859 -6615 0
-6859 -6616 0
-6859 -6617 0
-6859 -6618 0
-6859 -6619 0
-6859 -6620 0
-6859 -6621 0
-6859 -6622 0
-6859 -6623 0
-6859 -6624 0
-6859 -6625 0
-6859 -6626 0
-6859 -6627 0
-6859 -6628 0
-6859 -6629 0
-6859 -6630 0
-6859 -6631 0
-6859 -6632 0
-6859 -6633 0
-6859 -6634 0
-6859 -6635 0
-6859 -6636 0
-6859 -6637 0
-6859 -6638 0
-6859 -6639 0
-6859 -6640 0
-6859 -6641 0
-6859 -6642 0
-6859 -6643 0
-6859 -6644 0
-6859 -6645 0
-6859 -6646 0
-6859 -6647 0
-6859 -6648 0
-6859 -6649 0
-6859 -6650 0
-6859 -6651 0
-6859 -6652 0
-6859 -6653 0
-6859 -6654 0
-6859 -6655 0
-6859 -6656 0
-6859 -6657 0
-6859 -6658 0
-6859 -6659 0
-6859 -6660 0
-6859 -6661 0
-6859 -6662 0
-6859 -6663 0
-6859 -6664 0
-6859 -6665 0
-6859 -6666 0
-6859 -6667 0
-6859 -6668 0
-6859 -6669 0
-6859 -6670 0
-6859 -6671 0
-6859 -6672 0
-6859 -6673 0
-6859 -6674 0
-6859 -6675 0
-6859 -6676 0
-6859 -6677 0
-6859 -6678 0
-6859 -6679 0
-6859 -6680 0
-6859 -6681 0
-6859 -6682 0
-6859 -6683 0
-6859 -6684 0
-6859 -6685 0
-6859 -6686 0
-6859 -6687 0
-6859 -6688 0
-6859 -6689 0
-6859 -6690 0
-6859 -6691 0
-6859 -6692 0
-6859 -6693 0
-6859 -6694 0
-6859 -6695 0
-6859 -6696 0
-6859 -6697 0
-6859 -6698 0
-6859 -6699 0
-6859 -6700 0
-6859 -6701 0
-6859 -6702 0
-6859 -6703 0
-6859 -6704 0
-6859 -6705 0
-6859 -6706 0
-6859 -6707 0
-6859 -6708 0
-6859 -6709 0
-6859 -6710 0
-6859 -6711 0
-6859 -6712 0
-6859 -6713 0
-6859 -6714 0
-6859 -6715 0
-6859 -6716 0
-6859 -6717 0
-6859 -6718 0
-6859 -6719 0
-6859 -6720 0
-6859 -6721 0
-6859 -6722 0
-6859 -6723 0
-6859 -6724 0
-6859 -6725 0
-6859 -6726 0
-6859 -6727 0
-6859 -6728 0
-6859 -6729 0
-6859 -6730 0
-6859 -6731 0
-6859 -6732 0
-6859 -6733 0
-6859 -6734 0
-6859 -6735 0
-6859 -6736 0
-6859 -6737 0
-6859 -6738 0
-6859 -6739 0
-6859 -6740 0
-6859 -6741 0
-6859 -6742 0
-6859 -6743 0
-6859 -6744 0
-6859 -6745 0
-6859 -6746 0
-6859 -6747 0
-6859 -6748 0
-6859 -6749 0
-6859 -6750 0
-6859 -6751 0
-6859 -6752 0
-6859 -6753 0
-6859 -6754 0
-6859 -6755 0
-6859 -6756 0
-6859 -6757 0
-6859 -6758 0
-6859 -6759 0
-6859 -6760 0
-6859 -6761 0
-6859 -6762 0
-6859 -6763 0
-6859 -6764 0
-6859 -6765 0
-6859 -6766 0
-6859 -6767 0
-6859 -6768 0
-6859 -6769 0
-6859 -6770 0
-6859 -6771 0
-6859 -6772 0
-6859 -6773 0
-6859 -6774 0
-6859 -6775 0
-6859 -6776 0
-6859 -6777 0
-6859 -6778 0
-6859 -6779 0
-6859 -6780 0
-6859 -6781 0
-6859 -6782 0
-6859 -6783 0
-6859 -6784 0
-6859 -6785 0
-6859 -6786 0
-6859 -6787 0
-6859 -6788 0
-6859 -6789 0
-6859 -6790 0
-6859 -6791 0
-6859 -6792 0
-6859 -6793 0
-6859 -6794 0
-6859 -6795 0
-6859 -6796 0
-6859 -6797 0
-6859 -6798 0
-6859 -6799 0
-6859 -6800 0
-6859 -6801 0
-6859 -6802 0
-6859 -6803 0
-6859 -6804 0
-6859 -6805 0
-6859 -6806 0
-6859 -6807 0
-6859 -6808 0
-6859 -6809 0
-6859 -6810 0
-6859 -6811 0
-6859 -6812 0
-6859 -6813 0
-6859 -6814 0
-6859 -6815 0
-6859 -6816 0
-6859 -6817 0
-6859 -6818 0
-6859 -6819 0
-6859 -6820 0
-6859 -6821 0
-6859 -6822 0
-6859 -6823 0
-6859 -6824 0
-6859 -6825 0
-6859 -6826 0
-6859 -6827 0
-6859 -6828 0
-6859 -6829 0
-6859 -6830 0
-6859 -6831 0
-6859 -6832 0
-6859 -6833 0
-6859 -6834 0
-6859 -6835 0
-6859 -6836 0
-6859 -6837 0
-6859 -6838 0
-6859 -6839 0
-6859 -6840 0
-6859 -6841 0
-6859 -6842 0
-6859 -6843 0
-6859 -6844 0
-6859 -6845 0
-6859 -6846 0
-6859 -6847 0
-6859 -6848 0
-6859 -6849 0
-6859 -6850 0
-6859 -6851 0
-6859 -6852 0
-6859 -6853 0
-6859 -6854 0
-6859 -6855 0
-6859 -6856 0
-6859 -6857 0
-6859 -6858 0
6859 6235 6236 6237 6238 6239 6240 6241 6242 6243 6244 6245 6246 6247 6248 6249 6250 6251 6252 6253 6254 6255 6256 6257 6258 6259 6260 6261 6262 6263 6264 6265 6266 6267 6268 6269 6270 6271 6272 6273 6274 6275 6276 6277 6278 6279 6280 6281 6282 6283 6284 6285 6286 6287 6288 6289 6290 6291 6292 6293 6294 6295 6296 6297 6298 6299 6300 6301 6302 6303 6304 6305 6306 6307 6308 6309 6310 6311 6312 6313 6314 6315 6316 6317 6318 6319 6320 6321 6322 6323 6324 6325 6326 6327 6328 6329 6330 6331 6332 6333 6334 6335 6336 6337 6338 6339 6340 6341 6342 6343 6344 6345 6346 6347 6348 6349 6350 6351 6352 6353 6354 6355 6356 6357 6358 6359 6360 6361 6362 6363 6364 6365 6366 6367 6368 6369 6370 6371 6372 6373 6374 6375 6376 6377 6378 6379 6380 6381 6382 6383 6384 6385 6386 6387 6388 6389 6390 6391 6392 6393 6394 6395 6396 6397 6398 6399 6400 6401 6402 6403 6404 6405 6406 6407 6408 6409 6410 6411 6412 6413 6414 6415 6416 6417 6418 6419 6420 6421 6422 6423 6424 6425 6426 6427 6428 6429 6430 6431 6432 6433 6434 6435 6436 6437 6438 6439 6440 6441 6442 6443 6444 6445 6446 6447 6448 6449 6450 6451 6452 6453 6454 6455 6456 6457 6458 6459 6460 6461 6462 6463 6464 6465 6466 6467 6468 6469 6470 6471 6472 6473 6474 6475 6476 6477 6478 6479 6480 6481 6482 6483 6484 6485 6486 6487 6488 6489 6490 6491 6492 6493 6494 6495 6496 6497 6498 6499 6500 6501 6502 6503 6504 6505 6506 6507 6508 6509 6510 6511 6512 6513 6514 6515 6516 6517 6518 6519 6520 6521 6522 6523 6524 6525 6526 6527 6528 6529 6530 6531 6532 6533 6534 6535 6536 6537 6538 6539 6540 6541 6542 6543 6544 6545 6546 6547 6548 6549 6550 6551 6552 6553 6554 6555 6556 6557 6558 6559 6560 6561 6562 6563 6564 6565 6566 6567 6568 6569 6570 6571 6572 6573 6574 6575 6576 6577 6578 6579 6580 6581 6582 6583 6584 6585 6586 6587 6588 6589 6590 6591 6592 6593 6594 6595 6596 6597 6598 6599 6600 6601 6602 6603 6604 6605 6606 6607 6608 6609 6610 6611 6612 6613 6614 6615 6616 6617 6618 6619 6620 6621 6622 6623 6624 6625 6626 6627 6628 6629 6630 6631 6632 6633 6634 6635 6636 6637 6638 6639 6640 6641 6642 6643 6644 6645 6646 6647 6648 6649 6650 6651 6652 6653 6654 6655 6656 6657 6658 6659 6660 6661 6662 6663 6664 6665 6666 6667 6668 6669 6670 6671 6672 6673 6674 6675 6676 6677 6678 6679 6680 6681 6682 6683 6684 6685 6686 6687 6688 6689 6690 6691 6692 6693 6694 6695 6696 6697 6698 6699 6700 6701 6702 6703 6704 6705 6706 6707 6708 6709 6710 6711 6712 6713 6714 6715 6716 6717 6718 6719 6720 6721 6722 6723 6724 6725 6726 6727 6728 6729 6730 6731 6732 6733 6734 6735 6736 6737 6738 6739 6740 6741 6742 6743 6744 6745 6746 6747 6748 6749 6750 6751 6752 6753 6754 6755 6756 6757 6758 6759 6760 6761 6762 6763 6764 6765 6766 6767 6768 6769 6770 6771 6772 6773 6774 6775 6776 6777 6778 6779 6780 6781 6782 6783 6784 6785 6786 6787 6788 6789 6790 6791 6792 6793 6794 6795 6796 6797 6798 6799 6800 6801 6802 6803 6804 6805 6806 6807 6808 6809 6810 6811 6812 6813 6814 6815 6816 6817 6818 6819 6820 6821 6822 6823 6824 6825 6826 6827 6828 6829 6830 6831 6832 6833 6834 6835 6836 6837 6838 6839 6840 6841 6842 6843 6844 6845 6846 6847 6848 6849 6850 6851 6852 6853 6854 6855 6856 6857 6858 0
-6860 -6204 0
-6860 -6213 0
-6860 -6225 0
-6860 -6234 0
-6860 -6859 0
6860 6204 6213 6225 6234 6859 0
