p cnf 1324 3715
24 75 -215 0
-24 -75 -215 0
24 -75 215 0
-24 75 215 0
13 77 -1039 0
-13 -77 -1039 0
13 -77 1039 0
-13 77 1039 0
1039 78 -217 0
-1039 -78 -217 0
1039 -78 217 0
-1039 78 217 0
1 13 -1040 0
-1 -13 -1040 0
1 -13 1040 0
-1 13 1040 0
1040 24 -1041 0
-1040 -24 -1041 0
1040 -24 1041 0
-1040 24 1041 0
1041 76 -219 0
-1041 -76 -219 0
1041 -76 219 0
-1041 76 219 0
-222 -72 0
-222 -73 0
222 72 73 0
-223 71 0
-223 76 0
-223 77 0
-223 -78 0
-223 173 0
-223 -215 0
-223 -217 0
-223 219 0
-223 -222 0
223 -71 -76 -77 78 -173 215 217 -219 222 0
-226 69 0
-226 76 0
-226 -77 0
-226 -78 0
-226 173 0
-226 -217 0
226 -69 -76 77 78 -173 217 0
-227 69 0
-227 -77 0
-227 -78 0
-227 173 0
-227 -217 0
-227 219 0
227 -69 77 78 -173 217 -219 0
-228 69 0
-228 -77 0
-228 -78 0
-228 173 0
-228 215 0
-228 -217 0
228 -69 77 78 -173 -215 217 0
-233 76 0
-233 -77 0
-233 -78 0
-233 173 0
-233 -217 0
233 -76 77 78 -173 217 0
-234 -77 0
-234 -78 0
-234 173 0
-234 -217 0
-234 219 0
234 77 78 -173 217 -219 0
-235 -77 0
-235 -78 0
-235 173 0
-235 215 0
-235 -217 0
235 77 78 -173 -215 217 0
-240 -69 0
-240 70 0
-240 76 0
-240 -77 0
-240 -78 0
-240 173 0
-240 215 0
-240 -217 0
-240 219 0
-240 -223 0
240 69 -70 -76 77 78 -173 -215 217 -219 223 0
-248 71 0
-248 -76 0
-248 -77 0
-248 -78 0
-248 173 0
-248 215 0
-248 -217 0
-248 219 0
248 -71 76 77 78 -173 -215 217 -219 0
-250 -151 0
-250 171 0
250 151 -171 0
-251 151 0
-251 -171 0
251 -151 171 0
-257 -234 0
-257 -235 0
257 234 235 0
-258 69 0
-258 -227 0
-258 -228 0
258 -69 227 228 0
257 258 -259 0
-257 -258 -259 0
257 -258 259 0
-257 258 259 0
-261 76 0
-261 -77 0
-261 -78 0
-261 151 0
-261 173 0
-261 -217 0
-261 -248 0
-261 -250 0
-261 -251 0
-261 259 0
261 -76 77 78 -151 -173 217 248 250 251 -259 0
-262 71 0
-262 215 0
262 -71 -215 0
-263 71 0
-263 78 0
263 -71 -78 0
-264 71 0
-264 217 0
264 -71 -217 0
-266 71 0
-266 76 0
266 -71 -76 0
-267 71 0
-267 219 0
267 -71 -219 0
-268 71 0
-268 77 0
268 -71 -77 0
-269 71 0
-269 76 0
-269 77 0
-269 215 0
-269 219 0
269 -71 -76 -77 -215 -219 0
-270 -267 0
-270 -268 0
270 267 268 0
-272 -262 0
-272 -263 0
-272 -264 0
-272 -269 0
-272 -270 0
272 262 263 264 269 270 0
-273 69 0
-273 77 0
273 -69 -77 0
-274 69 0
-274 217 0
274 -69 -217 0
-275 69 0
-275 78 0
275 -69 -78 0
-277 69 0
-277 219 0
277 -69 -219 0
-278 69 0
-278 76 0
278 -69 -76 0
-279 69 0
-279 215 0
279 -69 -215 0
-281 69 0
-281 76 0
-281 215 0
-281 219 0
-281 -273 0
-281 -274 0
-281 -275 0
281 -69 -76 -215 -219 273 274 275 0
-282 -272 0
-282 -281 0
282 272 281 0
-283 -268 0
-283 -277 0
283 268 277 0
-284 -266 0
-284 -279 0
284 266 279 0
-285 -267 0
-285 -278 0
285 267 278 0
-287 -207 0
-287 -268 0
-287 -277 0
-287 -284 0
-287 -285 0
287 207 268 277 284 285 0
-289 -30 0
-289 -267 0
-289 -278 0
-289 -283 0
-289 -284 0
289 30 267 278 283 284 0
4 34 -1042 0
-4 -34 -1042 0
4 -34 1042 0
-4 34 1042 0
1042 41 -290 0
-1042 -41 -290 0
1042 -41 290 0
-1042 41 290 0
-292 -283 0
-292 -284 0
-292 -285 0
-292 -290 0
292 283 284 285 290 0
23 52 -294 0
-23 -52 -294 0
23 -52 294 0
-23 52 294 0
-295 -266 0
-295 -279 0
-295 -283 0
-295 -285 0
-295 -294 0
295 266 279 283 285 294 0
-298 -46 0
-298 -266 0
-298 -268 0
-298 -277 0
-298 -279 0
-298 -285 0
298 46 266 268 277 279 285 0
-299 -287 0
-299 -289 0
-299 -292 0
-299 -295 0
-299 -298 0
299 287 289 292 295 298 0
-300 -282 0
-300 -299 0
300 282 299 0
25 209 -301 0
-25 -209 -301 0
25 -209 301 0
-25 209 301 0
-302 -266 0
-302 -279 0
-302 -283 0
-302 -285 0
-302 -301 0
302 266 279 283 285 301 0
-303 -29 0
-303 -268 0
-303 -277 0
-303 -284 0
-303 -285 0
303 29 268 277 284 285 0
-304 -49 0
-304 -267 0
-304 -278 0
-304 -283 0
-304 -284 0
304 49 267 278 283 284 0
-306 -302 0
-306 -303 0
-306 -304 0
306 302 303 304 0
-307 71 0
-307 215 0
-307 -263 0
-307 -264 0
-307 -269 0
-307 -270 0
307 -71 -215 263 264 269 270 0
-308 -277 0
-308 -278 0
308 277 278 0
-309 -273 0
-309 -274 0
-309 -275 0
-309 -308 0
309 273 274 275 308 0
-310 -307 0
-310 -309 0
310 307 309 0
-311 -306 0
-311 -310 0
311 306 310 0
-312 -300 0
-312 -311 0
312 300 311 0
-314 76 0
-314 -77 0
-314 -78 0
-314 215 0
-314 -217 0
-314 219 0
314 -76 77 78 -215 217 -219 0
-315 -272 0
-315 -314 0
315 272 314 0
-316 -219 0
-316 -268 0
316 219 268 0
-317 -215 0
-317 -266 0
317 215 266 0
-318 -76 0
-318 -267 0
318 76 267 0
-320 -207 0
-320 -219 0
-320 -268 0
-320 -317 0
-320 -318 0
320 207 219 268 317 318 0
-322 -30 0
-322 -76 0
-322 -267 0
-322 -316 0
-322 -317 0
322 30 76 267 316 317 0
-324 -290 0
-324 -316 0
-324 -317 0
-324 -318 0
324 290 316 317 318 0
-326 -215 0
-326 -266 0
-326 -294 0
-326 -316 0
-326 -318 0
326 215 266 294 316 318 0
-329 -46 0
-329 -215 0
-329 -219 0
-329 -266 0
-329 -268 0
-329 -318 0
329 46 215 219 266 268 318 0
-330 -320 0
-330 -322 0
-330 -324 0
-330 -326 0
-330 -329 0
330 320 322 324 326 329 0
-331 -315 0
-331 -330 0
331 315 330 0
-332 -215 0
-332 -266 0
-332 -301 0
-332 -316 0
-332 -318 0
332 215 266 301 316 318 0
-333 -29 0
-333 -219 0
-333 -268 0
-333 -317 0
-333 -318 0
333 29 219 268 317 318 0
-334 -49 0
-334 -76 0
-334 -267 0
-334 -316 0
-334 -317 0
334 49 76 267 316 317 0
-336 -332 0
-336 -333 0
-336 -334 0
336 332 333 334 0
-337 -76 0
-337 -219 0
337 76 219 0
-338 -77 0
-338 -78 0
-338 -217 0
-338 -337 0
338 77 78 217 337 0
-339 -307 0
-339 -338 0
339 307 338 0
-340 -336 0
-340 -339 0
340 336 339 0
-341 -331 0
-341 -340 0
341 331 340 0
312 341 -342 0
-312 -341 -342 0
312 -341 342 0
-312 341 342 0
-343 -208 0
-343 -268 0
-343 -277 0
-343 -284 0
-343 -285 0
343 208 268 277 284 285 0
-344 -41 0
-344 -283 0
-344 -284 0
-344 -285 0
344 41 283 284 285 0
-345 -38 0
-345 -267 0
-345 -278 0
-345 -283 0
-345 -284 0
345 38 267 278 283 284 0
-346 -52 0
-346 -266 0
-346 -279 0
-346 -283 0
-346 -285 0
346 52 266 279 283 285 0
-347 -343 0
-347 -344 0
-347 -345 0
-347 -346 0
347 343 344 345 346 0
-348 -282 0
-348 -347 0
348 282 347 0
6 37 -1043 0
-6 -37 -1043 0
6 -37 1043 0
-6 37 1043 0
1043 49 -349 0
-1043 -49 -349 0
1043 -49 349 0
-1043 49 349 0
-350 -267 0
-350 -278 0
-350 -283 0
-350 -284 0
-350 -349 0
350 267 278 283 284 349 0
-351 -33 0
-351 -268 0
-351 -277 0
-351 -284 0
-351 -285 0
351 33 268 277 284 285 0
-353 -209 0
-353 -266 0
-353 -279 0
-353 -283 0
-353 -285 0
353 209 266 279 283 285 0
-354 -350 0
-354 -351 0
-354 -353 0
354 350 351 353 0
-355 -310 0
-355 -354 0
355 310 354 0
-356 -348 0
-356 -355 0
356 348 355 0
-357 -208 0
-357 -219 0
-357 -268 0
-357 -317 0
-357 -318 0
357 208 219 268 317 318 0
-358 -41 0
-358 -316 0
-358 -317 0
-358 -318 0
358 41 316 317 318 0
-359 -38 0
-359 -76 0
-359 -267 0
-359 -316 0
-359 -317 0
359 38 76 267 316 317 0
-360 -52 0
-360 -215 0
-360 -266 0
-360 -316 0
-360 -318 0
360 52 215 266 316 318 0
-361 -357 0
-361 -358 0
-361 -359 0
-361 -360 0
361 357 358 359 360 0
-362 -315 0
-362 -361 0
362 315 361 0
-363 -76 0
-363 -267 0
-363 -316 0
-363 -317 0
-363 -349 0
363 76 267 316 317 349 0
-364 -33 0
-364 -219 0
-364 -268 0
-364 -317 0
-364 -318 0
364 33 219 268 317 318 0
-366 -209 0
-366 -215 0
-366 -266 0
-366 -316 0
-366 -318 0
366 209 215 266 316 318 0
-367 -363 0
-367 -364 0
-367 -366 0
367 363 364 366 0
-368 -339 0
-368 -367 0
368 339 367 0
-369 -362 0
-369 -368 0
369 362 368 0
356 369 -370 0
-356 -369 -370 0
356 -369 370 0
-356 369 370 0
-371 -212 0
-371 -266 0
-371 -279 0
-371 -283 0
-371 -285 0
371 212 266 279 283 285 0
-372 -55 0
-372 -268 0
-372 -277 0
-372 -284 0
-372 -285 0
372 55 268 277 284 285 0
-373 -50 0
-373 -267 0
-373 -278 0
-373 -283 0
-373 -284 0
373 50 267 278 283 284 0
-375 -371 0
-375 -372 0
-375 -373 0
375 371 372 373 0
-376 -310 0
-376 -375 0
376 310 375 0
-377 -64 0
-377 -266 0
-377 -279 0
-377 -283 0
-377 -285 0
377 64 266 279 283 285 0
-378 -42 0
-378 -283 0
-378 -284 0
-378 -285 0
378 42 283 284 285 0
18 31 -1044 0
-18 -31 -1044 0
18 -31 1044 0
-18 31 1044 0
1044 211 -379 0
-1044 -211 -379 0
1044 -211 379 0
-1044 211 379 0
-380 -268 0
-380 -277 0
-380 -284 0
-380 -285 0
-380 -379 0
380 268 277 284 285 379 0
-381 -44 0
-381 -267 0
-381 -278 0
-381 -283 0
-381 -284 0
381 44 267 278 283 284 0
-382 -377 0
-382 -378 0
-382 -380 0
-382 -381 0
382 377 378 380 381 0
-383 -282 0
-383 -382 0
383 282 382 0
-384 -376 0
-384 -383 0
384 376 383 0
-385 -212 0
-385 -215 0
-385 -266 0
-385 -316 0
-385 -318 0
385 212 215 266 316 318 0
-386 -55 0
-386 -219 0
-386 -268 0
-386 -317 0
-386 -318 0
386 55 219 268 317 318 0
-387 -50 0
-387 -76 0
-387 -267 0
-387 -316 0
-387 -317 0
387 50 76 267 316 317 0
-389 -385 0
-389 -386 0
-389 -387 0
389 385 386 387 0
-390 -339 0
-390 -389 0
390 339 389 0
-391 -64 0
-391 -215 0
-391 -266 0
-391 -316 0
-391 -318 0
391 64 215 266 316 318 0
-392 -42 0
-392 -316 0
-392 -317 0
-392 -318 0
392 42 316 317 318 0
-393 -219 0
-393 -268 0
-393 -317 0
-393 -318 0
-393 -379 0
393 219 268 317 318 379 0
-394 -44 0
-394 -76 0
-394 -267 0
-394 -316 0
-394 -317 0
394 44 76 267 316 317 0
-395 -391 0
-395 -392 0
-395 -393 0
-395 -394 0
395 391 392 393 394 0
-396 -315 0
-396 -395 0
396 315 395 0
-397 -390 0
-397 -396 0
397 390 396 0
384 397 -398 0
-384 -397 -398 0
384 -397 398 0
-384 397 398 0
10 50 -1045 0
-10 -50 -1045 0
10 -50 1045 0
-10 50 1045 0
1045 51 -399 0
-1045 -51 -399 0
1045 -51 399 0
-1045 51 399 0
-400 -267 0
-400 -278 0
-400 -283 0
-400 -284 0
-400 -399 0
400 267 278 283 284 399 0
-401 -56 0
-401 -268 0
-401 -277 0
-401 -284 0
-401 -285 0
401 56 268 277 284 285 0
20 28 -1046 0
-20 -28 -1046 0
20 -28 1046 0
-20 28 1046 0
1046 212 -403 0
-1046 -212 -403 0
1046 -212 403 0
-1046 212 403 0
-404 -266 0
-404 -279 0
-404 -283 0
-404 -285 0
-404 -403 0
404 266 279 283 285 403 0
-405 -400 0
-405 -401 0
-405 -404 0
405 400 401 404 0
-406 -310 0
-406 -405 0
406 310 405 0
12 63 -1047 0
-12 -63 -1047 0
12 -63 1047 0
-12 63 1047 0
1047 64 -407 0
-1047 -64 -407 0
1047 -64 407 0
-1047 64 407 0
-408 -266 0
-408 -279 0
-408 -283 0
-408 -285 0
-408 -407 0
408 266 279 283 285 407 0
-409 -211 0
-409 -268 0
-409 -277 0
-409 -284 0
-409 -285 0
409 211 268 277 284 285 0
-410 -57 0
-410 -283 0
-410 -284 0
-410 -285 0
410 57 283 284 285 0
-411 -43 0
-411 -267 0
-411 -278 0
-411 -283 0
-411 -284 0
411 43 267 278 283 284 0
-412 -408 0
-412 -409 0
-412 -410 0
-412 -411 0
412 408 409 410 411 0
-413 -282 0
-413 -412 0
413 282 412 0
-414 -406 0
-414 -413 0
414 406 413 0
-415 -76 0
-415 -267 0
-415 -316 0
-415 -317 0
-415 -399 0
415 76 267 316 317 399 0
-416 -56 0
-416 -219 0
-416 -268 0
-416 -317 0
-416 -318 0
416 56 219 268 317 318 0
-418 -215 0
-418 -266 0
-418 -316 0
-418 -318 0
-418 -403 0
418 215 266 316 318 403 0
-419 -415 0
-419 -416 0
-419 -418 0
419 415 416 418 0
-420 -339 0
-420 -419 0
420 339 419 0
-421 -215 0
-421 -266 0
-421 -316 0
-421 -318 0
-421 -407 0
421 215 266 316 318 407 0
-422 -211 0
-422 -219 0
-422 -268 0
-422 -317 0
-422 -318 0
422 211 219 268 317 318 0
-423 -57 0
-423 -316 0
-423 -317 0
-423 -318 0
423 57 316 317 318 0
-424 -43 0
-424 -76 0
-424 -267 0
-424 -316 0
-424 -317 0
424 43 76 267 316 317 0
-425 -421 0
-425 -422 0
-425 -423 0
-425 -424 0
425 421 422 423 424 0
-426 -315 0
-426 -425 0
426 315 425 0
-427 -420 0
-427 -426 0
427 420 426 0
414 427 -428 0
-414 -427 -428 0
414 -427 428 0
-414 427 428 0
7 43 -1048 0
-7 -43 -1048 0
7 -43 1048 0
-7 43 1048 0
1048 44 -429 0
-1048 -44 -429 0
1048 -44 429 0
-1048 44 429 0
-430 -267 0
-430 -278 0
-430 -283 0
-430 -284 0
-430 -429 0
430 267 278 283 284 429 0
-431 -31 0
-431 -268 0
-431 -277 0
-431 -284 0
-431 -285 0
431 31 268 277 284 285 0
11 42 -1049 0
-11 -42 -1049 0
11 -42 1049 0
-11 42 1049 0
1049 57 -432 0
-1049 -57 -432 0
1049 -57 432 0
-1049 57 432 0
-433 -283 0
-433 -284 0
-433 -285 0
-433 -432 0
433 283 284 285 432 0
-434 -63 0
-434 -266 0
-434 -279 0
-434 -283 0
-434 -285 0
434 63 266 279 283 285 0
-435 -430 0
-435 -431 0
-435 -433 0
-435 -434 0
435 430 431 433 434 0
-436 -282 0
-436 -435 0
436 282 435 0
-437 -51 0
-437 -267 0
-437 -278 0
-437 -283 0
-437 -284 0
437 51 267 278 283 284 0
14 55 -1050 0
-14 -55 -1050 0
14 -55 1050 0
-14 55 1050 0
1050 56 -438 0
-1050 -56 -438 0
1050 -56 438 0
-1050 56 438 0
-439 -268 0
-439 -277 0
-439 -284 0
-439 -285 0
-439 -438 0
439 268 277 284 285 438 0
-441 -28 0
-441 -266 0
-441 -279 0
-441 -283 0
-441 -285 0
441 28 266 279 283 285 0
-442 -437 0
-442 -439 0
-442 -441 0
442 437 439 441 0
-443 -310 0
-443 -442 0
443 310 442 0
-444 -436 0
-444 -443 0
444 436 443 0
-445 -76 0
-445 -267 0
-445 -316 0
-445 -317 0
-445 -429 0
445 76 267 316 317 429 0
-446 -31 0
-446 -219 0
-446 -268 0
-446 -317 0
-446 -318 0
446 31 219 268 317 318 0
-447 -316 0
-447 -317 0
-447 -318 0
-447 -432 0
447 316 317 318 432 0
-448 -63 0
-448 -215 0
-448 -266 0
-448 -316 0
-448 -318 0
448 63 215 266 316 318 0
-449 -445 0
-449 -446 0
-449 -447 0
-449 -448 0
449 445 446 447 448 0
-450 -315 0
-450 -449 0
450 315 449 0
-451 -51 0
-451 -76 0
-451 -267 0
-451 -316 0
-451 -317 0
451 51 76 267 316 317 0
-452 -219 0
-452 -268 0
-452 -317 0
-452 -318 0
-452 -438 0
452 219 268 317 318 438 0
-454 -28 0
-454 -215 0
-454 -266 0
-454 -316 0
-454 -318 0
454 28 215 266 316 318 0
-455 -451 0
-455 -452 0
-455 -454 0
455 451 452 454 0
-456 -339 0
-456 -455 0
456 339 455 0
-457 -450 0
-457 -456 0
457 450 456 0
444 457 -458 0
-444 -457 -458 0
444 -457 458 0
-444 457 458 0
5 35 -1051 0
-5 -35 -1051 0
5 -35 1051 0
-5 35 1051 0
1051 36 -459 0
-1051 -36 -459 0
1051 -36 459 0
-1051 36 459 0
-460 -267 0
-460 -278 0
-460 -283 0
-460 -284 0
-460 -459 0
460 267 278 283 284 459 0
15 97 -1052 0
-15 -97 -1052 0
15 -97 1052 0
-15 97 1052 0
1052 98 -461 0
-1052 -98 -461 0
1052 -98 461 0
-1052 98 461 0
-462 -268 0
-462 -277 0
-462 -284 0
-462 -285 0
-462 -461 0
462 268 277 284 285 461 0
-464 -213 0
-464 -266 0
-464 -279 0
-464 -283 0
-464 -285 0
464 213 266 279 283 285 0
-465 -460 0
-465 -462 0
-465 -464 0
465 460 462 464 0
-466 -310 0
-466 -465 0
466 310 465 0
-467 -27 0
-467 -268 0
-467 -277 0
-467 -284 0
-467 -285 0
467 27 268 277 284 285 0
9 40 -1053 0
-9 -40 -1053 0
9 -40 1053 0
-9 40 1053 0
1053 48 -468 0
-1053 -48 -468 0
1053 -48 468 0
-1053 48 468 0
-469 -266 0
-469 -279 0
-469 -283 0
-469 -285 0
-469 -468 0
469 266 279 283 285 468 0
-470 -39 0
-470 -267 0
-470 -278 0
-470 -283 0
-470 -284 0
470 39 267 278 283 284 0
16 60 -1054 0
-16 -60 -1054 0
16 -60 1054 0
-16 60 1054 0
1054 99 -471 0
-1054 -99 -471 0
1054 -99 471 0
-1054 99 471 0
-472 -283 0
-472 -284 0
-472 -285 0
-472 -471 0
472 283 284 285 471 0
-473 -467 0
-473 -469 0
-473 -470 0
-473 -472 0
473 467 469 470 472 0
-474 -282 0
-474 -473 0
474 282 473 0
-475 -466 0
-475 -474 0
475 466 474 0
-476 -76 0
-476 -267 0
-476 -316 0
-476 -317 0
-476 -459 0
476 76 267 316 317 459 0
-477 -219 0
-477 -268 0
-477 -317 0
-477 -318 0
-477 -461 0
477 219 268 317 318 461 0
-479 -213 0
-479 -215 0
-479 -266 0
-479 -316 0
-479 -318 0
479 213 215 266 316 318 0
-480 -476 0
-480 -477 0
-480 -479 0
480 476 477 479 0
-481 -339 0
-481 -480 0
481 339 480 0
-482 -27 0
-482 -219 0
-482 -268 0
-482 -317 0
-482 -318 0
482 27 219 268 317 318 0
-483 -215 0
-483 -266 0
-483 -316 0
-483 -318 0
-483 -468 0
483 215 266 316 318 468 0
-484 -39 0
-484 -76 0
-484 -267 0
-484 -316 0
-484 -317 0
484 39 76 267 316 317 0
-485 -316 0
-485 -317 0
-485 -318 0
-485 -471 0
485 316 317 318 471 0
-486 -482 0
-486 -483 0
-486 -484 0
-486 -485 0
486 482 483 484 485 0
-487 -315 0
-487 -486 0
487 315 486 0
-488 -481 0
-488 -487 0
488 481 487 0
475 488 -489 0
-475 -488 -489 0
475 -488 489 0
-475 488 489 0
-490 -35 0
-490 -267 0
-490 -278 0
-490 -283 0
-490 -284 0
490 35 267 278 283 284 0
-491 -98 0
-491 -268 0
-491 -277 0
-491 -284 0
-491 -285 0
491 98 268 277 284 285 0
-493 -214 0
-493 -266 0
-493 -279 0
-493 -283 0
-493 -285 0
493 214 266 279 283 285 0
-494 -490 0
-494 -491 0
-494 -493 0
494 490 491 493 0
-495 -310 0
-495 -494 0
495 310 494 0
-496 -60 0
-496 -283 0
-496 -284 0
-496 -285 0
496 60 283 284 285 0
-497 -32 0
-497 -268 0
-497 -277 0
-497 -284 0
-497 -285 0
497 32 268 277 284 285 0
-498 -40 0
-498 -266 0
-498 -279 0
-498 -283 0
-498 -285 0
498 40 266 279 283 285 0
8 39 -1055 0
-8 -39 -1055 0
8 -39 1055 0
-8 39 1055 0
1055 45 -499 0
-1055 -45 -499 0
1055 -45 499 0
-1055 45 499 0
-500 -267 0
-500 -278 0
-500 -283 0
-500 -284 0
-500 -499 0
500 267 278 283 284 499 0
-501 -496 0
-501 -497 0
-501 -498 0
-501 -500 0
501 496 497 498 500 0
-502 -282 0
-502 -501 0
502 282 501 0
-503 -495 0
-503 -502 0
503 495 502 0
-504 -35 0
-504 -76 0
-504 -267 0
-504 -316 0
-504 -317 0
504 35 76 267 316 317 0
-505 -98 0
-505 -219 0
-505 -268 0
-505 -317 0
-505 -318 0
505 98 219 268 317 318 0
-507 -214 0
-507 -215 0
-507 -266 0
-507 -316 0
-507 -318 0
507 214 215 266 316 318 0
-508 -504 0
-508 -505 0
-508 -507 0
508 504 505 507 0
-509 -339 0
-509 -508 0
509 339 508 0
-510 -60 0
-510 -316 0
-510 -317 0
-510 -318 0
510 60 316 317 318 0
-511 -32 0
-511 -219 0
-511 -268 0
-511 -317 0
-511 -318 0
511 32 219 268 317 318 0
-512 -40 0
-512 -215 0
-512 -266 0
-512 -316 0
-512 -318 0
512 40 215 266 316 318 0
-513 -76 0
-513 -267 0
-513 -316 0
-513 -317 0
-513 -499 0
513 76 267 316 317 499 0
-514 -510 0
-514 -511 0
-514 -512 0
-514 -513 0
514 510 511 512 513 0
-515 -315 0
-515 -514 0
515 315 514 0
-516 -509 0
-516 -515 0
516 509 515 0
503 516 -517 0
-503 -516 -517 0
503 -516 517 0
-503 516 517 0
-518 -99 0
-518 -283 0
-518 -284 0
-518 -285 0
518 99 283 284 285 0
19 27 -1056 0
-19 -27 -1056 0
19 -27 1056 0
-19 27 1056 0
1056 32 -519 0
-1056 -32 -519 0
1056 -32 519 0
-1056 32 519 0
-520 -268 0
-520 -277 0
-520 -284 0
-520 -285 0
-520 -519 0
520 268 277 284 285 519 0
-521 -48 0
-521 -266 0
-521 -279 0
-521 -283 0
-521 -285 0
521 48 266 279 283 285 0
-522 -45 0
-522 -267 0
-522 -278 0
-522 -283 0
-522 -284 0
522 45 267 278 283 284 0
-523 -518 0
-523 -520 0
-523 -521 0
-523 -522 0
523 518 520 521 522 0
-524 -282 0
-524 -523 0
524 282 523 0
21 213 -1057 0
-21 -213 -1057 0
21 -213 1057 0
-21 213 1057 0
1057 214 -525 0
-1057 -214 -525 0
1057 -214 525 0
-1057 214 525 0
-526 -266 0
-526 -279 0
-526 -283 0
-526 -285 0
-526 -525 0
526 266 279 283 285 525 0
-527 -97 0
-527 -268 0
-527 -277 0
-527 -284 0
-527 -285 0
527 97 268 277 284 285 0
-528 -36 0
-528 -267 0
-528 -278 0
-528 -283 0
-528 -284 0
528 36 267 278 283 284 0
-530 -526 0
-530 -527 0
-530 -528 0
530 526 527 528 0
-531 -310 0
-531 -530 0
531 310 530 0
-532 -524 0
-532 -531 0
532 524 531 0
-533 -99 0
-533 -316 0
-533 -317 0
-533 -318 0
533 99 316 317 318 0
-534 -219 0
-534 -268 0
-534 -317 0
-534 -318 0
-534 -519 0
534 219 268 317 318 519 0
-535 -48 0
-535 -215 0
-535 -266 0
-535 -316 0
-535 -318 0
535 48 215 266 316 318 0
-536 -45 0
-536 -76 0
-536 -267 0
-536 -316 0
-536 -317 0
536 45 76 267 316 317 0
-537 -533 0
-537 -534 0
-537 -535 0
-537 -536 0
537 533 534 535 536 0
-538 -315 0
-538 -537 0
538 315 537 0
-539 -215 0
-539 -266 0
-539 -316 0
-539 -318 0
-539 -525 0
539 215 266 316 318 525 0
-540 -97 0
-540 -219 0
-540 -268 0
-540 -317 0
-540 -318 0
540 97 219 268 317 318 0
-541 -36 0
-541 -76 0
-541 -267 0
-541 -316 0
-541 -317 0
541 36 76 267 316 317 0
-543 -539 0
-543 -540 0
-543 -541 0
543 539 540 541 0
-544 -339 0
-544 -543 0
544 339 543 0
-545 -538 0
-545 -544 0
545 538 544 0
532 545 -546 0
-532 -545 -546 0
532 -545 546 0
-532 545 546 0
-547 46 0
-547 -266 0
-547 -268 0
-547 -277 0
-547 -279 0
-547 -285 0
547 -46 266 268 277 279 285 0
-548 -266 0
-548 -267 0
-548 -278 0
-548 -279 0
-548 -283 0
548 266 267 278 279 283 0
3 30 -1058 0
-3 -30 -1058 0
3 -30 1058 0
-3 30 1058 0
1058 38 -550 0
-1058 -38 -550 0
1058 -38 550 0
-1058 38 550 0
-551 -267 0
-551 -278 0
-551 -283 0
-551 -284 0
-551 -550 0
551 267 278 283 284 550 0
17 207 -1059 0
-17 -207 -1059 0
17 -207 1059 0
-17 207 1059 0
1059 208 -552 0
-1059 -208 -552 0
1059 -208 552 0
-1059 208 552 0
-553 -268 0
-553 -277 0
-553 -284 0
-553 -285 0
-553 -552 0
553 268 277 284 285 552 0
-554 -34 0
-554 -283 0
-554 -284 0
-554 -285 0
554 34 283 284 285 0
-555 -9 0
-555 -12 0
-555 -23 0
555 9 12 23 0
-556 -9 0
-556 12 0
-556 23 0
556 9 -12 -23 0
-557 9 0
-557 12 0
-557 -23 0
557 -9 -12 23 0
-558 9 0
-558 -12 0
-558 23 0
558 -9 12 -23 0
-559 -555 0
-559 -556 0
-559 -557 0
-559 -558 0
559 555 556 557 558 0
-560 -266 0
-560 -279 0
-560 -283 0
-560 -285 0
-560 -559 0
560 266 279 283 285 559 0
-562 -547 0
-562 -548 0
-562 -551 0
-562 -553 0
-562 -554 0
-562 -560 0
562 547 548 551 553 554 560 0
-563 -282 0
-563 -562 0
563 282 562 0
-564 -20 0
-564 -21 0
-564 -25 0
564 20 21 25 0
-565 20 0
-565 -21 0
-565 25 0
565 -20 21 -25 0
-566 20 0
-566 21 0
-566 -25 0
566 -20 -21 25 0
-567 -20 0
-567 21 0
-567 25 0
567 20 -21 -25 0
-568 -564 0
-568 -565 0
-568 -566 0
-568 -567 0
568 564 565 566 567 0
-569 -266 0
-569 -279 0
-569 -283 0
-569 -285 0
-569 -568 0
569 266 279 283 285 568 0
-570 -37 0
-570 -267 0
-570 -278 0
-570 -283 0
-570 -284 0
570 37 267 278 283 284 0
22 29 -1060 0
-22 -29 -1060 0
22 -29 1060 0
-22 29 1060 0
1060 33 -571 0
-1060 -33 -571 0
1060 -33 571 0
-1060 33 571 0
-572 -268 0
-572 -277 0
-572 -284 0
-572 -285 0
-572 -571 0
572 268 277 284 285 571 0
-574 -569 0
-574 -570 0
-574 -572 0
574 569 570 572 0
-575 -310 0
-575 -574 0
575 310 574 0
-576 -563 0
-576 -575 0
576 563 575 0
-577 46 0
-577 -215 0
-577 -219 0
-577 -266 0
-577 -268 0
-577 -318 0
577 -46 215 219 266 268 318 0
-578 -76 0
-578 -215 0
-578 -266 0
-578 -267 0
-578 -316 0
578 76 215 266 267 316 0
-580 -76 0
-580 -267 0
-580 -316 0
-580 -317 0
-580 -550 0
580 76 267 316 317 550 0
-581 -219 0
-581 -268 0
-581 -317 0
-581 -318 0
-581 -552 0
581 219 268 317 318 552 0
-582 -34 0
-582 -316 0
-582 -317 0
-582 -318 0
582 34 316 317 318 0
-583 -215 0
-583 -266 0
-583 -316 0
-583 -318 0
-583 -559 0
583 215 266 316 318 559 0
-585 -577 0
-585 -578 0
-585 -580 0
-585 -581 0
-585 -582 0
-585 -583 0
585 577 578 580 581 582 583 0
-586 -315 0
-586 -585 0
586 315 585 0
-587 -215 0
-587 -266 0
-587 -316 0
-587 -318 0
-587 -568 0
587 215 266 316 318 568 0
-588 -37 0
-588 -76 0
-588 -267 0
-588 -316 0
-588 -317 0
588 37 76 267 316 317 0
-589 -219 0
-589 -268 0
-589 -317 0
-589 -318 0
-589 -571 0
589 219 268 317 318 571 0
-591 -587 0
-591 -588 0
-591 -589 0
591 587 588 589 0
-592 -339 0
-592 -591 0
592 339 591 0
-593 -586 0
-593 -592 0
593 586 592 0
576 593 -594 0
-576 -593 -594 0
576 -593 594 0
-576 593 594 0
-595 -273 0
-595 -274 0
-595 -275 0
-595 -308 0
-595 -562 0
595 273 274 275 308 562 0
-597 -77 0
-597 -78 0
-597 -217 0
-597 -337 0
-597 -585 0
597 77 78 217 337 585 0
595 597 -599 0
-595 -597 -599 0
595 -597 599 0
-595 597 599 0
-600 -2 0
-600 599 0
600 2 -599 0
-601 -273 0
-601 -274 0
-601 -275 0
-601 -299 0
-601 -308 0
601 273 274 275 299 308 0
-602 210 0
-602 -568 0
602 -210 568 0
-603 -210 0
-603 -564 0
-603 -565 0
-603 -566 0
-603 -567 0
603 210 564 565 566 567 0
-604 -602 0
-604 -603 0
604 602 603 0
-606 -77 0
-606 -78 0
-606 -217 0
-606 -330 0
-606 -337 0
606 77 78 217 330 337 0
601 606 -608 0
-601 -606 -608 0
601 -606 608 0
-601 606 608 0
-609 -604 0
-609 608 0
609 604 -608 0
-610 -273 0
-610 -274 0
-610 -275 0
-610 -308 0
-610 -347 0
610 273 274 275 308 347 0
-611 -47 0
-611 -555 0
-611 -556 0
-611 -557 0
-611 -558 0
611 47 555 556 557 558 0
-612 47 0
-612 -559 0
612 -47 559 0
-613 -611 0
-613 -612 0
613 611 612 0
-615 -77 0
-615 -78 0
-615 -217 0
-615 -337 0
-615 -361 0
615 77 78 217 337 361 0
610 615 -617 0
-610 -615 -617 0
610 -615 617 0
-610 615 617 0
-618 -613 0
-618 617 0
618 613 -617 0
-619 -273 0
-619 -274 0
-619 -275 0
-619 -308 0
-619 -382 0
619 273 274 275 308 382 0
-620 -5 0
-620 6 0
-620 -10 0
620 5 -6 10 0
-621 -5 0
-621 -6 0
-621 10 0
621 5 6 -10 0
-622 5 0
-622 6 0
-622 10 0
622 -5 -6 -10 0
-623 5 0
-623 -6 0
-623 -10 0
623 -5 6 10 0
-624 -620 0
-624 -621 0
-624 -622 0
-624 -623 0
624 620 621 622 623 0
-626 -77 0
-626 -78 0
-626 -217 0
-626 -337 0
-626 -395 0
626 77 78 217 337 395 0
619 626 -628 0
-619 -626 -628 0
619 -626 628 0
-619 626 628 0
-629 -624 0
-629 628 0
629 624 -628 0
-630 -273 0
-630 -274 0
-630 -275 0
-630 -308 0
-630 -412 0
630 273 274 275 308 412 0
-631 3 0
-631 -7 0
-631 -8 0
631 -3 7 8 0
-632 -3 0
-632 7 0
-632 -8 0
632 3 -7 8 0
-633 3 0
-633 7 0
-633 8 0
633 -3 -7 -8 0
-634 -3 0
-634 -7 0
-634 8 0
634 3 7 -8 0
-635 -631 0
-635 -632 0
-635 -633 0
-635 -634 0
635 631 632 633 634 0
-637 -77 0
-637 -78 0
-637 -217 0
-637 -337 0
-637 -425 0
637 77 78 217 337 425 0
630 637 -639 0
-630 -637 -639 0
630 -637 639 0
-630 637 639 0
-640 -635 0
-640 639 0
640 635 -639 0
-641 -273 0
-641 -274 0
-641 -275 0
-641 -308 0
-641 -435 0
641 273 274 275 308 435 0
-642 -14 0
-642 -15 0
-642 22 0
642 14 15 -22 0
-643 14 0
-643 -15 0
-643 -22 0
643 -14 15 22 0
-644 14 0
-644 15 0
-644 22 0
644 -14 -15 -22 0
-645 -14 0
-645 15 0
-645 -22 0
645 14 -15 22 0
-646 -642 0
-646 -643 0
-646 -644 0
-646 -645 0
646 642 643 644 645 0
-648 -77 0
-648 -78 0
-648 -217 0
-648 -337 0
-648 -449 0
648 77 78 217 337 449 0
641 648 -650 0
-641 -648 -650 0
641 -648 650 0
-641 648 650 0
-651 -646 0
-651 650 0
651 646 -650 0
-652 -273 0
-652 -274 0
-652 -275 0
-652 -308 0
-652 -473 0
652 273 274 275 308 473 0
-653 17 0
-653 -18 0
-653 -19 0
653 -17 18 19 0
-654 -17 0
-654 18 0
-654 -19 0
654 17 -18 19 0
-655 17 0
-655 18 0
-655 19 0
655 -17 -18 -19 0
-656 -17 0
-656 -18 0
-656 19 0
656 17 18 -19 0
-657 -653 0
-657 -654 0
-657 -655 0
-657 -656 0
657 653 654 655 656 0
-659 -77 0
-659 -78 0
-659 -217 0
-659 -337 0
-659 -486 0
659 77 78 217 337 486 0
652 659 -661 0
-652 -659 -661 0
652 -659 661 0
-652 659 661 0
-662 -657 0
-662 661 0
662 657 -661 0
-663 -273 0
-663 -274 0
-663 -275 0
-663 -308 0
-663 -501 0
663 273 274 275 308 501 0
-664 4 0
-664 -11 0
-664 -16 0
664 -4 11 16 0
-665 -4 0
-665 11 0
-665 -16 0
665 4 -11 16 0
-666 4 0
-666 11 0
-666 16 0
666 -4 -11 -16 0
-667 -4 0
-667 -11 0
-667 16 0
667 4 11 -16 0
-668 -664 0
-668 -665 0
-668 -666 0
-668 -667 0
668 664 665 666 667 0
-670 -77 0
-670 -78 0
-670 -217 0
-670 -337 0
-670 -514 0
670 77 78 217 337 514 0
663 670 -672 0
-663 -670 -672 0
663 -670 672 0
-663 670 672 0
-673 -668 0
-673 672 0
673 668 -672 0
-674 -273 0
-674 -274 0
-674 -275 0
-674 -308 0
-674 -523 0
674 273 274 275 308 523 0
-676 -77 0
-676 -78 0
-676 -217 0
-676 -337 0
-676 -537 0
676 77 78 217 337 537 0
674 676 -678 0
-674 -676 -678 0
674 -676 678 0
-674 676 678 0
-679 -1 0
-679 678 0
679 1 -678 0
-680 71 0
-680 -76 0
-680 77 0
-680 -78 0
-680 173 0
-680 215 0
-680 -217 0
-680 -219 0
-680 -222 0
680 -71 76 -77 78 -173 -215 217 219 222 0
-683 -151 0
-683 -171 0
683 151 171 0
-684 150 0
-684 -151 0
-684 -162 0
-684 -171 0
684 -150 151 162 171 0
-685 -150 0
-685 -683 0
685 150 683 0
-686 -150 0
-686 162 0
686 150 -162 0
-691 -233 0
-691 -235 0
691 233 235 0
-692 69 0
-692 -226 0
-692 -228 0
692 -69 226 228 0
691 692 -693 0
-691 -692 -693 0
691 -692 693 0
-691 692 693 0
-695 70 0
-695 -77 0
-695 -78 0
-695 173 0
-695 -217 0
-695 219 0
-695 -680 0
-695 -684 0
-695 -685 0
-695 -686 0
-695 693 0
695 -70 77 78 -173 217 -219 680 684 685 686 -693 0
-696 71 0
-696 -76 0
-696 -77 0
-696 -78 0
-696 173 0
-696 215 0
-696 -217 0
-696 219 0
-696 -222 0
696 -71 76 77 78 -173 -215 217 -219 222 0
-698 -150 0
-698 -151 0
-698 -162 0
-698 -171 0
698 150 151 162 171 0
-699 -150 0
-699 -151 0
-699 -162 0
-699 -171 0
-699 174 0
699 150 151 162 171 -174 0
-700 -174 0
-700 -698 0
700 174 698 0
-706 70 0
-706 76 0
-706 -77 0
-706 -78 0
-706 173 0
-706 -217 0
-706 259 0
-706 -696 0
-706 -699 0
-706 -700 0
706 -70 -76 77 78 -173 217 -259 696 699 700 0
-708 69 0
-708 70 0
-708 -77 0
-708 -78 0
-708 173 0
-708 215 0
-708 -217 0
-708 219 0
-708 -226 0
708 -69 -70 77 78 -173 -215 217 -219 226 0
-711 71 0
-711 76 0
-711 77 0
-711 -78 0
-711 173 0
-711 215 0
-711 -217 0
-711 -219 0
-711 -222 0
711 -71 -76 -77 78 -173 -215 217 219 222 0
-712 -708 0
-712 -711 0
712 708 711 0
-716 41 0
-716 -42 0
-716 57 0
-716 -127 0
-716 -290 0
716 -41 42 -57 127 290 0
-717 41 0
-717 -42 0
-717 57 0
-717 -127 0
-717 -190 0
-717 -191 0
-717 -290 0
717 -41 42 -57 127 190 191 290 0
-718 41 0
-718 -42 0
-718 57 0
-718 -110 0
-718 -127 0
-718 -190 0
-718 -191 0
-718 195 0
-718 -290 0
718 -41 42 -57 110 127 190 191 -195 290 0
-719 110 0
-719 -195 0
719 -110 195 0
-720 -195 0
-720 -717 0
720 195 717 0
-721 -718 0
-721 -719 0
-721 -720 0
721 718 719 720 0
-722 -708 0
-722 -711 0
-722 -721 0
722 708 711 721 0
-723 96 0
-723 -712 0
723 -96 712 0
-724 -722 0
-724 -723 0
724 722 723 0
-726 70 0
-726 -77 0
-726 -78 0
-726 173 0
-726 215 0
-726 -217 0
-726 219 0
-726 -233 0
726 -70 77 78 -173 -215 217 -219 233 0
-727 -711 0
-727 -726 0
727 711 726 0
-728 -711 0
-728 -721 0
-728 -726 0
728 711 721 726 0
-729 96 0
-729 -727 0
729 -96 727 0
-730 -728 0
-730 -729 0
730 728 729 0
724 730 -731 0
-724 -730 -731 0
724 -730 731 0
-724 730 731 0
-732 41 0
-732 -42 0
-732 57 0
-732 110 0
-732 -127 0
-732 -190 0
-732 -191 0
-732 -290 0
732 -41 42 -57 -110 127 190 191 290 0
-733 -110 0
-733 -717 0
733 110 717 0
-734 -732 0
-734 -733 0
734 732 733 0
-735 -708 0
-735 -711 0
-735 -734 0
735 708 711 734 0
-736 95 0
-736 -712 0
736 -95 712 0
-737 -735 0
-737 -736 0
737 735 736 0
-738 -711 0
-738 -726 0
-738 -734 0
738 711 726 734 0
-739 95 0
-739 -727 0
739 -95 727 0
-740 -738 0
-740 -739 0
740 738 739 0
737 740 -741 0
-737 -740 -741 0
737 -740 741 0
-737 740 741 0
-742 41 0
-742 -42 0
-742 57 0
-742 110 0
-742 -127 0
-742 -191 0
-742 -290 0
742 -41 42 -57 -110 127 191 290 0
-743 41 0
-743 -42 0
-743 57 0
-743 -127 0
-743 190 0
-743 -290 0
743 -41 42 -57 127 -190 290 0
-744 -742 0
-744 -743 0
744 742 743 0
-745 53 0
-745 -744 0
745 -53 744 0
-746 -53 0
-746 -742 0
-746 -743 0
746 53 742 743 0
-747 -745 0
-747 -746 0
747 745 746 0
-748 -708 0
-748 -711 0
-748 -747 0
748 708 711 747 0
-749 88 0
-749 -712 0
749 -88 712 0
-750 -748 0
-750 -749 0
750 748 749 0
-751 -711 0
-751 -726 0
-751 -747 0
751 711 726 747 0
-752 88 0
-752 -727 0
752 -88 727 0
-753 -751 0
-753 -752 0
753 751 752 0
750 753 -754 0
-750 -753 -754 0
750 -753 754 0
-750 753 754 0
-755 69 0
-755 70 0
-755 -77 0
-755 -78 0
-755 83 0
-755 173 0
-755 215 0
-755 -217 0
-755 219 0
-755 -226 0
755 -69 -70 77 78 -83 -173 -215 217 -219 226 0
-758 41 0
-758 -42 0
-758 57 0
-758 -127 0
-758 290 0
758 -41 42 -57 127 -290 0
-759 41 0
-759 -42 0
-759 57 0
-759 -58 0
-759 -61 0
-759 -127 0
-759 290 0
759 -41 42 -57 58 61 127 -290 0
-760 41 0
-760 -42 0
-760 57 0
-760 -58 0
-760 59 0
-760 -61 0
-760 -62 0
-760 -127 0
-760 290 0
760 -41 42 -57 58 -59 61 62 127 -290 0
-761 -59 0
-761 62 0
761 59 -62 0
-762 -59 0
-762 -759 0
762 59 759 0
-763 -760 0
-763 -761 0
-763 -762 0
763 760 761 762 0
-765 71 0
-765 76 0
-765 77 0
-765 -78 0
-765 173 0
-765 -215 0
-765 -217 0
-765 -219 0
-765 -222 0
765 -71 -76 -77 78 -173 215 217 219 222 0
-767 -708 0
-767 -763 0
-767 -765 0
767 708 763 765 0
-768 71 0
-768 76 0
-768 77 0
-768 -78 0
-768 92 0
-768 173 0
-768 -215 0
-768 -217 0
-768 -219 0
-768 -222 0
768 -71 -76 -77 78 -92 -173 215 217 219 222 0
-770 70 0
-770 -77 0
-770 -78 0
-770 83 0
-770 173 0
-770 215 0
-770 -217 0
-770 219 0
-770 -233 0
770 -70 77 78 -83 -173 -215 217 -219 233 0
-772 -726 0
-772 -763 0
-772 -765 0
772 726 763 765 0
-774 -755 0
-774 -767 0
774 755 767 0
-775 -770 0
-775 -772 0
775 770 772 0
774 775 -776 0
-774 -775 -776 0
774 -775 776 0
-774 775 776 0
-777 -768 0
-777 776 0
777 768 -776 0
-778 69 0
-778 70 0
-778 -77 0
-778 -78 0
-778 82 0
-778 173 0
-778 215 0
-778 -217 0
-778 219 0
-778 -226 0
778 -69 -70 77 78 -82 -173 -215 217 -219 226 0
-779 41 0
-779 -42 0
-779 57 0
-779 -58 0
-779 -61 0
-779 62 0
-779 -127 0
-779 290 0
779 -41 42 -57 58 61 -62 127 -290 0
-780 -62 0
-780 -759 0
780 62 759 0
-781 -779 0
-781 -780 0
781 779 780 0
-782 -708 0
-782 -765 0
-782 -781 0
782 708 765 781 0
-783 71 0
-783 76 0
-783 77 0
-783 -78 0
-783 91 0
-783 173 0
-783 -215 0
-783 -217 0
-783 -219 0
-783 -222 0
783 -71 -76 -77 78 -91 -173 215 217 219 222 0
-785 70 0
-785 -77 0
-785 -78 0
-785 82 0
-785 173 0
-785 215 0
-785 -217 0
-785 219 0
-785 -233 0
785 -70 77 78 -82 -173 -215 217 -219 233 0
-786 -726 0
-786 -765 0
-786 -781 0
786 726 765 781 0
-788 -778 0
-788 -782 0
788 778 782 0
-789 -785 0
-789 -786 0
789 785 786 0
788 789 -790 0
-788 -789 -790 0
788 -789 790 0
-788 789 790 0
-791 -783 0
-791 790 0
791 783 -790 0
-792 69 0
-792 70 0
-792 -77 0
-792 -78 0
-792 79 0
-792 173 0
-792 215 0
-792 -217 0
-792 219 0
-792 -226 0
792 -69 -70 77 78 -79 -173 -215 217 -219 226 0
-793 41 0
-793 -42 0
-793 57 0
-793 -61 0
-793 62 0
-793 -127 0
-793 290 0
793 -41 42 -57 61 -62 127 -290 0
-794 41 0
-794 -42 0
-794 57 0
-794 58 0
-794 -127 0
-794 290 0
794 -41 42 -57 -58 127 -290 0
-795 -793 0
-795 -794 0
795 793 794 0
-796 -54 0
-796 -793 0
-796 -794 0
796 54 793 794 0
-797 54 0
-797 -795 0
797 -54 795 0
-798 -796 0
-798 -797 0
798 796 797 0
-799 -708 0
-799 -765 0
-799 -798 0
799 708 765 798 0
-800 71 0
-800 76 0
-800 77 0
-800 -78 0
-800 88 0
-800 173 0
-800 -215 0
-800 -217 0
-800 -219 0
-800 -222 0
800 -71 -76 -77 78 -88 -173 215 217 219 222 0
-802 70 0
-802 -77 0
-802 -78 0
-802 79 0
-802 173 0
-802 215 0
-802 -217 0
-802 219 0
-802 -233 0
802 -70 77 78 -79 -173 -215 217 -219 233 0
-803 -726 0
-803 -765 0
-803 -798 0
803 726 765 798 0
-805 -802 0
-805 -803 0
805 802 803 0
-806 -792 0
-806 -799 0
806 792 799 0
805 806 -807 0
-805 -806 -807 0
805 -806 807 0
-805 806 807 0
-808 -800 0
-808 807 0
808 800 -807 0
-809 69 0
-809 70 0
-809 -77 0
-809 -78 0
-809 80 0
-809 173 0
-809 215 0
-809 -217 0
-809 219 0
-809 -226 0
809 -69 -70 77 78 -80 -173 -215 217 -219 226 0
-810 -58 0
-810 -758 0
810 58 758 0
-811 -794 0
-811 -810 0
811 794 810 0
-812 -708 0
-812 -765 0
-812 -811 0
812 708 765 811 0
-813 71 0
-813 76 0
-813 77 0
-813 -78 0
-813 89 0
-813 173 0
-813 -215 0
-813 -217 0
-813 -219 0
-813 -222 0
813 -71 -76 -77 78 -89 -173 215 217 219 222 0
-815 70 0
-815 -77 0
-815 -78 0
-815 80 0
-815 173 0
-815 215 0
-815 -217 0
-815 219 0
-815 -233 0
815 -70 77 78 -80 -173 -215 217 -219 233 0
-816 -726 0
-816 -765 0
-816 -811 0
816 726 765 811 0
-818 -815 0
-818 -816 0
818 815 816 0
-819 -809 0
-819 -812 0
819 809 812 0
818 819 -820 0
-818 -819 -820 0
818 -819 820 0
-818 819 820 0
-821 -813 0
-821 820 0
821 813 -820 0
-822 71 0
-822 76 0
-822 77 0
-822 -78 0
-822 90 0
-822 173 0
-822 -215 0
-822 -217 0
-822 -219 0
-822 -222 0
822 -71 -76 -77 78 -90 -173 215 217 219 222 0
-823 41 0
-823 -42 0
-823 57 0
-823 -58 0
-823 61 0
-823 -127 0
-823 290 0
823 -41 42 -57 58 -61 127 -290 0
-824 58 0
-824 -61 0
824 -58 61 0
-825 -61 0
-825 -758 0
825 61 758 0
-826 -823 0
-826 -824 0
-826 -825 0
826 823 824 825 0
-827 -708 0
-827 -765 0
-827 -826 0
827 708 765 826 0
-828 69 0
-828 70 0
-828 -77 0
-828 -78 0
-828 81 0
-828 173 0
-828 215 0
-828 -217 0
-828 219 0
-828 -226 0
828 -69 -70 77 78 -81 -173 -215 217 -219 226 0
-830 -726 0
-830 -765 0
-830 -826 0
830 726 765 826 0
-831 70 0
-831 -77 0
-831 -78 0
-831 81 0
-831 173 0
-831 215 0
-831 -217 0
-831 219 0
-831 -233 0
831 -70 77 78 -81 -173 -215 217 -219 233 0
-833 -830 0
-833 -831 0
833 830 831 0
-834 -827 0
-834 -828 0
834 827 828 0
833 834 -835 0
-833 -834 -835 0
833 -834 835 0
-833 834 835 0
-836 -822 0
-836 835 0
836 822 -835 0
-837 -190 0
-837 -716 0
837 190 716 0
-838 -743 0
-838 -837 0
838 743 837 0
-839 -708 0
-839 -711 0
-839 -838 0
839 708 711 838 0
-840 93 0
-840 -712 0
840 -93 712 0
-841 -839 0
-841 -840 0
841 839 840 0
-842 -711 0
-842 -726 0
-842 -838 0
842 711 726 838 0
-843 93 0
-843 -727 0
843 -93 727 0
-844 -842 0
-844 -843 0
844 842 843 0
841 844 -845 0
-841 -844 -845 0
841 -844 845 0
-841 844 845 0
-846 94 0
-846 -712 0
846 -94 712 0
-847 41 0
-847 -42 0
-847 57 0
-847 -127 0
-847 -190 0
-847 191 0
-847 -290 0
847 -41 42 -57 127 190 -191 290 0
-848 -191 0
-848 -716 0
848 191 716 0
-849 190 0
-849 -191 0
849 -190 191 0
-850 -847 0
-850 -848 0
-850 -849 0
850 847 848 849 0
-851 -708 0
-851 -711 0
-851 -850 0
851 708 711 850 0
-852 -846 0
-852 -851 0
852 846 851 0
-853 94 0
-853 -727 0
853 -94 727 0
-854 -711 0
-854 -726 0
-854 -850 0
854 711 726 850 0
-855 -853 0
-855 -854 0
855 853 854 0
852 855 -856 0
-852 -855 -856 0
852 -855 856 0
-852 855 856 0
-860 71 0
-860 -76 0
-860 77 0
-860 -78 0
-860 173 0
-860 215 0
-860 -217 0
-860 219 0
-860 -222 0
860 -71 76 -77 78 -173 -215 217 -219 222 0
-865 41 0
-865 42 0
-865 57 0
-865 -127 0
-865 -290 0
865 -41 -42 -57 127 290 0
-868 41 0
-868 42 0
-868 -57 0
-868 -127 0
-868 290 0
868 -41 -42 57 127 -290 0
-869 -716 0
-869 -758 0
-869 -865 0
-869 -868 0
869 716 758 865 868 0
-871 -111 0
-871 133 0
-871 136 0
-871 -142 0
-871 -143 0
871 111 -133 -136 142 143 0
-874 104 0
-874 105 0
-874 -106 0
-874 -112 0
-874 -121 0
-874 -149 0
874 -104 -105 106 112 121 149 0
-877 104 0
-877 -105 0
-877 -106 0
-877 112 0
-877 121 0
-877 149 0
877 -104 105 106 -112 -121 -149 0
-878 -874 0
-878 -877 0
878 874 877 0
-880 111 0
-880 133 0
-880 -136 0
-880 -142 0
-880 -143 0
880 -111 -133 136 142 143 0
-882 -142 0
-882 -869 0
-882 -871 0
-882 -878 0
-882 -880 0
882 142 869 871 878 880 0
-889 69 0
-889 -228 0
889 -69 228 0
235 889 -890 0
-235 -889 -890 0
235 -889 890 0
-235 889 890 0
-894 70 0
-894 76 0
-894 -77 0
-894 -78 0
-894 94 0
-894 173 0
-894 -217 0
-894 219 0
-894 -860 0
-894 -882 0
-894 -890 0
894 -70 -76 77 78 -94 -173 217 -219 860 882 890 0
-895 71 0
-895 76 0
-895 77 0
-895 -78 0
-895 94 0
-895 173 0
-895 -215 0
-895 -217 0
-895 -219 0
-895 -222 0
895 -71 -76 -77 78 -94 -173 215 217 219 222 0
-900 69 0
-900 -226 0
900 -69 226 0
233 900 -901 0
-233 -900 -901 0
233 -900 901 0
-233 900 901 0
-903 70 0
-903 -77 0
-903 -78 0
-903 85 0
-903 173 0
-903 215 0
-903 -217 0
-903 219 0
-903 -895 0
-903 -901 0
903 -70 77 78 -85 -173 -215 217 -219 895 901 0
-909 70 0
-909 76 0
-909 -77 0
-909 -78 0
-909 95 0
-909 173 0
-909 -217 0
-909 219 0
-909 -860 0
-909 -882 0
-909 -890 0
909 -70 -76 77 78 -95 -173 217 -219 860 882 890 0
-915 70 0
-915 76 0
-915 -77 0
-915 -78 0
-915 96 0
-915 173 0
-915 -217 0
-915 219 0
-915 -860 0
-915 -882 0
-915 -890 0
915 -70 -76 77 78 -96 -173 217 -219 860 882 890 0
-919 71 0
-919 95 0
-919 -882 0
919 -71 -95 882 0
-924 -69 0
-924 86 0
-924 -882 0
-924 -919 0
924 69 -86 882 919 0
-925 71 0
-925 76 0
-925 77 0
-925 -78 0
-925 96 0
-925 173 0
-925 -215 0
-925 -217 0
-925 -219 0
-925 -222 0
925 -71 -76 -77 78 -96 -173 215 217 219 222 0
-931 70 0
-931 -77 0
-931 -78 0
-931 87 0
-931 173 0
-931 215 0
-931 -217 0
-931 219 0
-931 -901 0
-931 -925 0
931 -70 77 78 -87 -173 -215 217 -219 901 925 0
-937 70 0
-937 76 0
-937 -77 0
-937 -78 0
-937 91 0
-937 173 0
-937 -217 0
-937 219 0
-937 -860 0
-937 -882 0
-937 -890 0
937 -70 -76 77 78 -91 -173 217 -219 860 882 890 0
-943 70 0
-943 76 0
-943 -77 0
-943 -78 0
-943 93 0
-943 173 0
-943 -217 0
-943 219 0
-943 -860 0
-943 -882 0
-943 -890 0
943 -70 -76 77 78 -93 -173 217 -219 860 882 890 0
-949 70 0
-949 76 0
-949 -77 0
-949 -78 0
-949 90 0
-949 173 0
-949 -217 0
-949 219 0
-949 -860 0
-949 -882 0
-949 -890 0
949 -70 -76 77 78 -90 -173 217 -219 860 882 890 0
-955 70 0
-955 76 0
-955 -77 0
-955 -78 0
-955 92 0
-955 173 0
-955 -217 0
-955 219 0
-955 -860 0
-955 -882 0
-955 -890 0
955 -70 -76 77 78 -92 -173 217 -219 860 882 890 0
-961 70 0
-961 76 0
-961 -77 0
-961 -78 0
-961 88 0
-961 173 0
-961 -217 0
-961 219 0
-961 -860 0
-961 -882 0
-961 -890 0
961 -70 -76 77 78 -88 -173 217 -219 860 882 890 0
-967 70 0
-967 76 0
-967 -77 0
-967 -78 0
-967 89 0
-967 173 0
-967 -217 0
-967 219 0
-967 -860 0
-967 -882 0
-967 -890 0
967 -70 -76 77 78 -89 -173 217 -219 860 882 890 0
-969 71 0
-969 76 0
-969 77 0
-969 -78 0
-969 95 0
-969 173 0
-969 -215 0
-969 -217 0
-969 -219 0
-969 -222 0
969 -71 -76 -77 78 -95 -173 215 217 219 222 0
-974 70 0
-974 -77 0
-974 -78 0
-974 86 0
-974 173 0
-974 215 0
-974 -217 0
-974 219 0
-974 -901 0
-974 -969 0
974 -70 77 78 -86 -173 -215 217 -219 901 969 0
-976 71 0
-976 88 0
-976 -882 0
976 -71 -88 882 0
-981 -69 0
-981 79 0
-981 -882 0
-981 -976 0
981 69 -79 882 976 0
-982 71 0
-982 94 0
-982 -882 0
982 -71 -94 882 0
-988 -69 0
-988 85 0
-988 -882 0
-988 -982 0
988 69 -85 882 982 0
-989 71 0
-989 90 0
-989 -882 0
989 -71 -90 882 0
-995 -69 0
-995 81 0
-995 -882 0
-995 -989 0
995 69 -81 882 989 0
-997 71 0
-997 76 0
-997 77 0
-997 -78 0
-997 93 0
-997 173 0
-997 -215 0
-997 -217 0
-997 -219 0
-997 -222 0
997 -71 -76 -77 78 -93 -173 215 217 219 222 0
-1002 70 0
-1002 -77 0
-1002 -78 0
-1002 84 0
-1002 173 0
-1002 215 0
-1002 -217 0
-1002 219 0
-1002 -901 0
-1002 -997 0
1002 -70 77 78 -84 -173 -215 217 -219 901 997 0
-1003 71 0
-1003 96 0
-1003 -882 0
1003 -71 -96 882 0
-1009 -69 0
-1009 87 0
-1009 -882 0
-1009 -1003 0
1009 69 -87 882 1003 0
-1011 71 0
-1011 89 0
-1011 -882 0
1011 -71 -89 882 0
-1016 -69 0
-1016 80 0
-1016 -882 0
-1016 -1011 0
1016 69 -80 882 1011 0
-1017 71 0
-1017 93 0
-1017 -882 0
1017 -71 -93 882 0
-1023 -69 0
-1023 84 0
-1023 -882 0
-1023 -1017 0
1023 69 -84 882 1017 0
-1025 71 0
-1025 91 0
-1025 -882 0
1025 -71 -91 882 0
-1030 -69 0
-1030 82 0
-1030 -882 0
-1030 -1025 0
1030 69 -82 882 1025 0
-1032 71 0
-1032 92 0
-1032 -882 0
1032 -71 -92 882 0
-1037 -69 0
-1037 83 0
-1037 -882 0
-1037 -1032 0
1037 69 -83 882 1032 0
-1038 -240 0
-1038 -261 0
-1038 -342 0
-1038 -370 0
-1038 -398 0
-1038 -428 0
-1038 -458 0
-1038 -489 0
-1038 -517 0
-1038 -546 0
-1038 -594 0
-1038 -600 0
-1038 -609 0
-1038 -618 0
-1038 -629 0
-1038 -640 0
-1038 -651 0
-1038 -662 0
-1038 -673 0
-1038 -679 0
-1038 -695 0
-1038 -706 0
-1038 -731 0
-1038 -741 0
-1038 -754 0
-1038 -777 0
-1038 -791 0
-1038 -808 0
-1038 -821 0
-1038 -836 0
-1038 -845 0
-1038 -856 0
-1038 -894 0
-1038 -903 0
-1038 -909 0
-1038 -915 0
-1038 -924 0
-1038 -931 0
-1038 -937 0
-1038 -943 0
-1038 -949 0
-1038 -955 0
-1038 -961 0
-1038 -967 0
-1038 -974 0
-1038 -981 0
-1038 -988 0
-1038 -995 0
-1038 -1002 0
-1038 -1009 0
-1038 -1016 0
-1038 -1023 0
-1038 -1030 0
-1038 -1037 0
1038 240 261 342 370 398 428 458 489 517 546 594 600 609 618 629 640 651 662 673 679 695 706 731 741 754 777 791 808 821 836 845 856 894 903 909 915 924 931 937 943 949 955 961 967 974 981 988 995 1002 1009 1016 1023 1030 1037 0
-1061 -3 0
-1061 -7 0
-1061 -8 0
1061 3 7 8 0
-1062 3 0
-1062 -7 0
-1062 -8 0
1062 -3 7 8 0
-1063 -3 0
-1063 7 0
-1063 -8 0
1063 3 -7 8 0
-1064 3 0
-1064 7 0
-1064 -8 0
1064 -3 -7 8 0
-1065 -3 0
-1065 -7 0
-1065 8 0
1065 3 7 -8 0
-1066 3 0
-1066 -7 0
-1066 8 0
1066 -3 7 -8 0
-1067 -3 0
-1067 7 0
-1067 8 0
1067 3 -7 -8 0
-1068 3 0
-1068 7 0
-1068 8 0
1068 -3 -7 -8 0
-1069 -4 0
-1069 -11 0
-1069 -16 0
1069 4 11 16 0
-1070 4 0
-1070 -11 0
-1070 -16 0
1070 -4 11 16 0
-1071 -4 0
-1071 11 0
-1071 -16 0
1071 4 -11 16 0
-1072 4 0
-1072 11 0
-1072 -16 0
1072 -4 -11 16 0
-1073 -4 0
-1073 -11 0
-1073 16 0
1073 4 11 -16 0
-1074 4 0
-1074 -11 0
-1074 16 0
1074 -4 11 -16 0
-1075 -4 0
-1075 11 0
-1075 16 0
1075 4 -11 -16 0
-1076 4 0
-1076 11 0
-1076 16 0
1076 -4 -11 -16 0
-1077 -5 0
-1077 -6 0
-1077 -10 0
1077 5 6 10 0
-1078 5 0
-1078 -6 0
-1078 -10 0
1078 -5 6 10 0
-1079 -5 0
-1079 6 0
-1079 -10 0
1079 5 -6 10 0
-1080 5 0
-1080 6 0
-1080 -10 0
1080 -5 -6 10 0
-1081 -5 0
-1081 -6 0
-1081 10 0
1081 5 6 -10 0
-1082 5 0
-1082 -6 0
-1082 10 0
1082 -5 6 -10 0
-1083 -5 0
-1083 6 0
-1083 10 0
1083 5 -6 -10 0
-1084 5 0
-1084 6 0
-1084 10 0
1084 -5 -6 -10 0
-1085 -9 0
-1085 -12 0
-1085 -23 0
1085 9 12 23 0
-1086 9 0
-1086 -12 0
-1086 -23 0
1086 -9 12 23 0
-1087 -9 0
-1087 12 0
-1087 -23 0
1087 9 -12 23 0
-1088 9 0
-1088 12 0
-1088 -23 0
1088 -9 -12 23 0
-1089 -9 0
-1089 -12 0
-1089 23 0
1089 9 12 -23 0
-1090 9 0
-1090 -12 0
-1090 23 0
1090 -9 12 -23 0
-1091 -9 0
-1091 12 0
-1091 23 0
1091 9 -12 -23 0
-1092 9 0
-1092 12 0
-1092 23 0
1092 -9 -12 -23 0
-1093 -14 0
-1093 -15 0
-1093 -22 0
1093 14 15 22 0
-1094 14 0
-1094 -15 0
-1094 -22 0
1094 -14 15 22 0
-1095 -14 0
-1095 15 0
-1095 -22 0
1095 14 -15 22 0
-1096 14 0
-1096 15 0
-1096 -22 0
1096 -14 -15 22 0
-1097 -14 0
-1097 -15 0
-1097 22 0
1097 14 15 -22 0
-1098 14 0
-1098 -15 0
-1098 22 0
1098 -14 15 -22 0
-1099 -14 0
-1099 15 0
-1099 22 0
1099 14 -15 -22 0
-1100 14 0
-1100 15 0
-1100 22 0
1100 -14 -15 -22 0
-1101 -17 0
-1101 -18 0
-1101 -19 0
1101 17 18 19 0
-1102 17 0
-1102 -18 0
-1102 -19 0
1102 -17 18 19 0
-1103 -17 0
-1103 18 0
-1103 -19 0
1103 17 -18 19 0
-1104 17 0
-1104 18 0
-1104 -19 0
1104 -17 -18 19 0
-1105 -17 0
-1105 -18 0
-1105 19 0
1105 17 18 -19 0
-1106 17 0
-1106 -18 0
-1106 19 0
1106 -17 18 -19 0
-1107 -17 0
-1107 18 0
-1107 19 0
1107 17 -18 -19 0
-1108 17 0
-1108 18 0
-1108 19 0
1108 -17 -18 -19 0
-1109 -20 0
-1109 -21 0
-1109 -25 0
1109 20 21 25 0
-1110 20 0
-1110 -21 0
-1110 -25 0
1110 -20 21 25 0
-1111 -20 0
-1111 21 0
-1111 -25 0
1111 20 -21 25 0
-1112 20 0
-1112 21 0
-1112 -25 0
1112 -20 -21 25 0
-1113 -20 0
-1113 -21 0
-1113 25 0
1113 20 21 -25 0
-1114 20 0
-1114 -21 0
-1114 25 0
1114 -20 21 -25 0
-1115 -20 0
-1115 21 0
-1115 25 0
1115 20 -21 -25 0
-1116 20 0
-1116 21 0
-1116 25 0
1116 -20 -21 -25 0
-1117 -151 0
-1117 -171 0
1117 151 171 0
-1118 151 0
-1118 -171 0
1118 -151 171 0
-1119 -151 0
-1119 171 0
1119 151 -171 0
-1120 151 0
-1120 171 0
1120 -151 -171 0
-1121 -13 0
-1121 -77 0
-1121 -78 0
1121 13 77 78 0
-1122 13 0
-1122 -77 0
-1122 -78 0
1122 -13 77 78 0
-1123 -13 0
-1123 77 0
-1123 -78 0
1123 13 -77 78 0
-1124 13 0
-1124 77 0
-1124 -78 0
1124 -13 -77 78 0
-1125 -13 0
-1125 -77 0
-1125 78 0
1125 13 77 -78 0
-1126 13 0
-1126 -77 0
-1126 78 0
1126 -13 77 -78 0
-1127 -13 0
-1127 77 0
-1127 78 0
1127 13 -77 -78 0
-1128 13 0
-1128 77 0
-1128 78 0
1128 -13 -77 -78 0
-1129 -24 0
-1129 -69 0
-1129 -75 0
1129 24 69 75 0
-1130 24 0
-1130 -69 0
-1130 -75 0
1130 -24 69 75 0
-1131 -24 0
-1131 69 0
-1131 -75 0
1131 24 -69 75 0
-1132 24 0
-1132 69 0
-1132 -75 0
1132 -24 -69 75 0
-1133 -24 0
-1133 -69 0
-1133 75 0
1133 24 69 -75 0
-1134 24 0
-1134 -69 0
-1134 75 0
1134 -24 69 -75 0
-1135 -24 0
-1135 69 0
-1135 75 0
1135 24 -69 -75 0
-1136 24 0
-1136 69 0
-1136 75 0
1136 -24 -69 -75 0
-1137 -58 0
-1137 -61 0
1137 58 61 0
-1138 58 0
-1138 -61 0
1138 -58 61 0
-1139 -58 0
-1139 61 0
1139 58 -61 0
-1140 58 0
-1140 61 0
1140 -58 -61 0
-1141 -59 0
-1141 -62 0
1141 59 62 0
-1142 59 0
-1142 -62 0
1142 -59 62 0
-1143 -59 0
-1143 62 0
1143 59 -62 0
-1144 59 0
-1144 62 0
1144 -59 -62 0
-1145 -71 0
-1145 -76 0
1145 71 76 0
-1146 71 0
-1146 -76 0
1146 -71 76 0
-1147 -71 0
-1147 76 0
1147 71 -76 0
-1148 71 0
-1148 76 0
1148 -71 -76 0
-1149 -72 0
-1149 -73 0
1149 72 73 0
-1150 72 0
-1150 -73 0
1150 -72 73 0
-1151 -72 0
-1151 73 0
1151 72 -73 0
-1152 72 0
-1152 73 0
1152 -72 -73 0
-1153 -110 0
-1153 -195 0
1153 110 195 0
-1154 110 0
-1154 -195 0
1154 -110 195 0
-1155 -110 0
-1155 195 0
1155 110 -195 0
-1156 110 0
-1156 195 0
1156 -110 -195 0
-1157 -150 0
-1157 -162 0
1157 150 162 0
-1158 150 0
-1158 -162 0
1158 -150 162 0
-1159 -150 0
-1159 162 0
1159 150 -162 0
-1160 150 0
-1160 162 0
1160 -150 -162 0
-1161 -190 0
-1161 -191 0
1161 190 191 0
-1162 190 0
-1162 -191 0
1162 -190 191 0
-1163 -190 0
-1163 191 0
1163 190 -191 0
-1164 190 0
-1164 191 0
1164 -190 -191 0
-1165 -1 0
1165 1 0
-1166 1 0
1166 -1 0
-1167 -2 0
1167 2 0
-1168 2 0
1168 -2 0
-1169 -27 0
1169 27 0
-1170 27 0
1170 -27 0
-1171 -28 0
1171 28 0
-1172 28 0
1172 -28 0
-1173 -29 0
1173 29 0
-1174 29 0
1174 -29 0
-1175 -30 0
1175 30 0
-1176 30 0
1176 -30 0
-1177 -31 0
1177 31 0
-1178 31 0
1178 -31 0
-1179 -32 0
1179 32 0
-1180 32 0
1180 -32 0
-1181 -33 0
1181 33 0
-1182 33 0
1182 -33 0
-1183 -34 0
1183 34 0
-1184 34 0
1184 -34 0
-1185 -35 0
1185 35 0
-1186 35 0
1186 -35 0
-1187 -36 0
1187 36 0
-1188 36 0
1188 -36 0
-1189 -37 0
1189 37 0
-1190 37 0
1190 -37 0
-1191 -38 0
1191 38 0
-1192 38 0
1192 -38 0
-1193 -39 0
1193 39 0
-1194 39 0
1194 -39 0
-1195 -40 0
1195 40 0
-1196 40 0
1196 -40 0
-1197 -41 0
1197 41 0
-1198 41 0
1198 -41 0
-1199 -42 0
1199 42 0
-1200 42 0
1200 -42 0
-1201 -43 0
1201 43 0
-1202 43 0
1202 -43 0
-1203 -44 0
1203 44 0
-1204 44 0
1204 -44 0
-1205 -45 0
1205 45 0
-1206 45 0
1206 -45 0
-1207 -46 0
1207 46 0
-1208 46 0
1208 -46 0
-1209 -47 0
1209 47 0
-1210 47 0
1210 -47 0
-1211 -48 0
1211 48 0
-1212 48 0
1212 -48 0
-1213 -49 0
1213 49 0
-1214 49 0
1214 -49 0
-1215 -50 0
1215 50 0
-1216 50 0
1216 -50 0
-1217 -51 0
1217 51 0
-1218 51 0
1218 -51 0
-1219 -52 0
1219 52 0
-1220 52 0
1220 -52 0
-1221 -53 0
1221 53 0
-1222 53 0
1222 -53 0
-1223 -54 0
1223 54 0
-1224 54 0
1224 -54 0
-1225 -55 0
1225 55 0
-1226 55 0
1226 -55 0
-1227 -56 0
1227 56 0
-1228 56 0
1228 -56 0
-1229 -57 0
1229 57 0
-1230 57 0
1230 -57 0
-1231 -60 0
1231 60 0
-1232 60 0
1232 -60 0
-1233 -63 0
1233 63 0
-1234 63 0
1234 -63 0
-1235 -64 0
1235 64 0
-1236 64 0
1236 -64 0
-1237 -70 0
1237 70 0
-1238 70 0
1238 -70 0
-1239 -79 0
1239 79 0
-1240 79 0
1240 -79 0
-1241 -80 0
1241 80 0
-1242 80 0
1242 -80 0
-1243 -81 0
1243 81 0
-1244 81 0
1244 -81 0
-1245 -82 0
1245 82 0
-1246 82 0
1246 -82 0
-1247 -83 0
1247 83 0
-1248 83 0
1248 -83 0
-1249 -84 0
1249 84 0
-1250 84 0
1250 -84 0
-1251 -85 0
1251 85 0
-1252 85 0
1252 -85 0
-1253 -86 0
1253 86 0
-1254 86 0
1254 -86 0
-1255 -87 0
1255 87 0
-1256 87 0
1256 -87 0
-1257 -88 0
1257 88 0
-1258 88 0
1258 -88 0
-1259 -89 0
1259 89 0
-1260 89 0
1260 -89 0
-1261 -90 0
1261 90 0
-1262 90 0
1262 -90 0
-1263 -91 0
1263 91 0
-1264 91 0
1264 -91 0
-1265 -92 0
1265 92 0
-1266 92 0
1266 -92 0
-1267 -93 0
1267 93 0
-1268 93 0
1268 -93 0
-1269 -94 0
1269 94 0
-1270 94 0
1270 -94 0
-1271 -95 0
1271 95 0
-1272 95 0
1272 -95 0
-1273 -96 0
1273 96 0
-1274 96 0
1274 -96 0
-1275 -97 0
1275 97 0
-1276 97 0
1276 -97 0
-1277 -98 0
1277 98 0
-1278 98 0
1278 -98 0
-1279 -99 0
1279 99 0
-1280 99 0
1280 -99 0
-1281 -104 0
1281 104 0
-1282 104 0
1282 -104 0
-1283 -105 0
1283 105 0
-1284 105 0
1284 -105 0
-1285 -106 0
1285 106 0
-1286 106 0
1286 -106 0
-1287 -111 0
1287 111 0
-1288 111 0
1288 -111 0
-1289 -112 0
1289 112 0
-1290 112 0
1290 -112 0
-1291 -121 0
1291 121 0
-1292 121 0
1292 -121 0
-1293 -127 0
1293 127 0
-1294 127 0
1294 -127 0
-1295 -133 0
1295 133 0
-1296 133 0
1296 -133 0
-1297 -136 0
1297 136 0
-1298 136 0
1298 -136 0
-1299 -142 0
1299 142 0
-1300 142 0
1300 -142 0
-1301 -143 0
1301 143 0
-1302 143 0
1302 -143 0
-1303 -149 0
1303 149 0
-1304 149 0
1304 -149 0
-1305 -173 0
1305 173 0
-1306 173 0
1306 -173 0
-1307 -174 0
1307 174 0
-1308 174 0
1308 -174 0
-1309 -207 0
1309 207 0
-1310 207 0
1310 -207 0
-1311 -208 0
1311 208 0
-1312 208 0
1312 -208 0
-1313 -209 0
1313 209 0
-1314 209 0
1314 -209 0
-1315 -210 0
1315 210 0
-1316 210 0
1316 -210 0
-1317 -211 0
1317 211 0
-1318 211 0
1318 -211 0
-1319 -212 0
1319 212 0
-1320 212 0
1320 -212 0
-1321 -213 0
1321 213 0
-1322 213 0
1322 -213 0
-1323 -214 0
1323 214 0
-1324 214 0
1324 -214 0
