p cnf 454 660
-218 54 0
-218 61 0
-218 -64 0
-218 -65 0
-218 -66 0
-218 164 0
218 -54 -61 64 65 66 -164 0
-221 54 0
-221 55 0
-221 62 0
-221 63 0
-221 -64 0
-221 -65 0
-221 -66 0
-221 164 0
-221 -218 0
221 -54 -55 -62 -63 64 65 66 -164 218 0
-222 -57 0
-222 -58 0
222 57 58 0
-227 56 0
-227 61 0
-227 -62 0
-227 63 0
-227 64 0
-227 -65 0
-227 -66 0
-227 164 0
-227 -222 0
227 -56 -61 62 -63 -64 65 66 -164 222 0
-228 -221 0
-228 -227 0
228 221 227 0
-229 82 0
-229 -228 0
229 -82 228 0
-233 16 0
-233 -17 0
-233 19 0
-233 39 0
-233 -116 0
233 -16 17 -19 -39 116 0
-237 16 0
-237 17 0
-237 19 0
-237 -39 0
-237 -116 0
237 -16 -17 -19 39 116 0
-240 16 0
-240 -17 0
-240 -19 0
-240 39 0
-240 -116 0
240 -16 17 19 -39 116 0
-242 16 0
-242 17 0
-242 -19 0
-242 39 0
-242 -116 0
242 -16 -17 19 -39 116 0
-243 -233 0
-243 -237 0
-243 -240 0
-243 -242 0
243 233 237 240 242 0
-245 -100 0
-245 122 0
-245 126 0
-245 -133 0
-245 -134 0
245 100 -122 -126 133 134 0
-248 93 0
-248 94 0
-248 -95 0
-248 -101 0
-248 -110 0
-248 -140 0
248 -93 -94 95 101 110 140 0
-251 93 0
-251 -94 0
-251 -95 0
-251 101 0
-251 110 0
-251 140 0
251 -93 94 95 -101 -110 -140 0
-252 -248 0
-252 -251 0
252 248 251 0
-254 100 0
-254 122 0
-254 -126 0
-254 -133 0
-254 -134 0
254 -100 -122 126 133 134 0
-256 -133 0
-256 -243 0
-256 -245 0
-256 -252 0
-256 -254 0
256 133 243 245 252 254 0
-259 -133 0
-259 -243 0
-259 -245 0
-259 -254 0
259 133 243 245 254 0
-262 -133 0
-262 -229 0
-262 -243 0
-262 -245 0
-262 -248 0
-262 -251 0
-262 -254 0
262 133 229 243 245 248 251 254 0
-263 83 0
-263 -228 0
263 -83 228 0
-266 -133 0
-266 -243 0
-266 -245 0
-266 -248 0
-266 -251 0
-266 -254 0
-266 -263 0
266 133 243 245 248 251 254 263 0
-267 84 0
-267 -228 0
267 -84 228 0
-270 -133 0
-270 -243 0
-270 -245 0
-270 -248 0
-270 -251 0
-270 -254 0
-270 -267 0
270 133 243 245 248 251 254 267 0
-272 54 0
-272 74 0
-272 -256 0
272 -54 -74 256 0
-274 56 0
-274 83 0
-274 -256 0
274 -56 -83 256 0
-275 -256 0
-275 -272 0
-275 -274 0
275 256 272 274 0
-277 54 0
-277 74 0
-277 -259 0
277 -54 -74 259 0
-279 56 0
-279 83 0
-279 -259 0
279 -56 -83 259 0
-280 -259 0
-280 -277 0
-280 -279 0
280 259 277 279 0
275 280 -281 0
-275 -280 -281 0
275 -280 281 0
-275 280 281 0
-282 79 0
-282 -228 0
282 -79 228 0
-285 -133 0
-285 -243 0
-285 -245 0
-285 -248 0
-285 -251 0
-285 -254 0
-285 -282 0
285 133 243 245 248 251 254 282 0
-286 81 0
-286 -228 0
286 -81 228 0
-289 -133 0
-289 -243 0
-289 -245 0
-289 -248 0
-289 -251 0
-289 -254 0
-289 -286 0
289 133 243 245 248 251 254 286 0
-290 78 0
-290 -228 0
290 -78 228 0
-293 -133 0
-293 -243 0
-293 -245 0
-293 -248 0
-293 -251 0
-293 -254 0
-293 -290 0
293 133 243 245 248 251 254 290 0
-294 80 0
-294 -228 0
294 -80 228 0
-297 -133 0
-297 -243 0
-297 -245 0
-297 -248 0
-297 -251 0
-297 -254 0
-297 -294 0
297 133 243 245 248 251 254 294 0
-298 76 0
-298 -228 0
298 -76 228 0
-301 -133 0
-301 -243 0
-301 -245 0
-301 -248 0
-301 -251 0
-301 -254 0
-301 -298 0
301 133 243 245 248 251 254 298 0
-302 77 0
-302 -228 0
302 -77 228 0
-305 -133 0
-305 -243 0
-305 -245 0
-305 -248 0
-305 -251 0
-305 -254 0
-305 -302 0
305 133 243 245 248 251 254 302 0
-306 54 0
-306 67 0
-306 -256 0
306 -54 -67 256 0
-307 56 0
-307 76 0
-307 -256 0
307 -56 -76 256 0
-308 -256 0
-308 -306 0
-308 -307 0
308 256 306 307 0
-309 54 0
-309 67 0
-309 -259 0
309 -54 -67 259 0
-310 56 0
-310 76 0
-310 -259 0
310 -56 -76 259 0
-311 -259 0
-311 -309 0
-311 -310 0
311 259 309 310 0
308 311 -312 0
-308 -311 -312 0
308 -311 312 0
-308 311 312 0
-313 56 0
-313 82 0
-313 -256 0
313 -56 -82 256 0
-314 54 0
-314 73 0
-314 -256 0
314 -54 -73 256 0
-315 -256 0
-315 -313 0
-315 -314 0
315 256 313 314 0
-316 56 0
-316 82 0
-316 -259 0
316 -56 -82 259 0
-317 54 0
-317 73 0
-317 -259 0
317 -54 -73 259 0
-318 -259 0
-318 -316 0
-318 -317 0
318 259 316 317 0
315 318 -319 0
-315 -318 -319 0
315 -318 319 0
-315 318 319 0
-320 56 0
-320 78 0
-320 -256 0
320 -56 -78 256 0
-321 54 0
-321 69 0
-321 -256 0
321 -54 -69 256 0
-322 -256 0
-322 -320 0
-322 -321 0
322 256 320 321 0
-323 56 0
-323 78 0
-323 -259 0
323 -56 -78 259 0
-324 54 0
-324 69 0
-324 -259 0
324 -54 -69 259 0
-325 -259 0
-325 -323 0
-325 -324 0
325 259 323 324 0
322 325 -326 0
-322 -325 -326 0
322 -325 326 0
-322 325 326 0
-327 56 0
-327 84 0
-327 -256 0
327 -56 -84 256 0
-328 54 0
-328 75 0
-328 -256 0
328 -54 -75 256 0
-329 -256 0
-329 -327 0
-329 -328 0
329 256 327 328 0
-330 56 0
-330 84 0
-330 -259 0
330 -56 -84 259 0
-331 54 0
-331 75 0
-331 -259 0
331 -54 -75 259 0
-332 -259 0
-332 -330 0
-332 -331 0
332 259 330 331 0
329 332 -333 0
-329 -332 -333 0
329 -332 333 0
-329 332 333 0
-334 54 0
-334 68 0
-334 -256 0
334 -54 -68 256 0
-335 56 0
-335 77 0
-335 -256 0
335 -56 -77 256 0
-336 -256 0
-336 -334 0
-336 -335 0
336 256 334 335 0
-337 54 0
-337 68 0
-337 -259 0
337 -54 -68 259 0
-338 56 0
-338 77 0
-338 -259 0
338 -56 -77 259 0
-339 -259 0
-339 -337 0
-339 -338 0
339 259 337 338 0
336 339 -340 0
-336 -339 -340 0
336 -339 340 0
-336 339 340 0
-341 56 0
-341 81 0
-341 -256 0
341 -56 -81 256 0
-342 54 0
-342 72 0
-342 -256 0
342 -54 -72 256 0
-343 -256 0
-343 -341 0
-343 -342 0
343 256 341 342 0
-344 56 0
-344 81 0
-344 -259 0
344 -56 -81 259 0
-345 54 0
-345 72 0
-345 -259 0
345 -54 -72 259 0
-346 -259 0
-346 -344 0
-346 -345 0
346 259 344 345 0
343 346 -347 0
-343 -346 -347 0
343 -346 347 0
-343 346 347 0
-348 54 0
-348 70 0
-348 -256 0
348 -54 -70 256 0
-349 56 0
-349 79 0
-349 -256 0
349 -56 -79 256 0
-350 -256 0
-350 -348 0
-350 -349 0
350 256 348 349 0
-351 54 0
-351 70 0
-351 -259 0
351 -54 -70 259 0
-352 56 0
-352 79 0
-352 -259 0
352 -56 -79 259 0
-353 -259 0
-353 -351 0
-353 -352 0
353 259 351 352 0
350 353 -354 0
-350 -353 -354 0
350 -353 354 0
-350 353 354 0
-355 54 0
-355 71 0
-355 -256 0
355 -54 -71 256 0
-356 56 0
-356 80 0
-356 -256 0
356 -56 -80 256 0
-357 -256 0
-357 -355 0
-357 -356 0
357 256 355 356 0
-358 54 0
-358 71 0
-358 -259 0
358 -54 -71 259 0
-359 56 0
-359 80 0
-359 -259 0
359 -56 -80 259 0
-360 -259 0
-360 -358 0
-360 -359 0
360 259 358 359 0
357 360 -361 0
-357 -360 -361 0
357 -360 361 0
-357 360 361 0
-362 -262 0
-362 -266 0
-362 -270 0
-362 -281 0
-362 -285 0
-362 -289 0
-362 -293 0
-362 -297 0
-362 -301 0
-362 -305 0
-362 -312 0
-362 -319 0
-362 -326 0
-362 -333 0
-362 -340 0
-362 -347 0
-362 -354 0
-362 -361 0
362 262 266 270 281 285 289 293 297 301 305 312 319 326 333 340 347 354 361 0
-363 -57 0
-363 -58 0
363 57 58 0
-364 57 0
-364 -58 0
364 -57 58 0
-365 -57 0
-365 58 0
365 57 -58 0
-366 57 0
-366 58 0
366 -57 -58 0
-367 -16 0
367 16 0
-368 16 0
368 -16 0
-369 -17 0
369 17 0
-370 17 0
370 -17 0
-371 -19 0
371 19 0
-372 19 0
372 -19 0
-373 -39 0
373 39 0
-374 39 0
374 -39 0
-375 -54 0
375 54 0
-376 54 0
376 -54 0
-377 -55 0
377 55 0
-378 55 0
378 -55 0
-379 -56 0
379 56 0
-380 56 0
380 -56 0
-381 -61 0
381 61 0
-382 61 0
382 -61 0
-383 -62 0
383 62 0
-384 62 0
384 -62 0
-385 -63 0
385 63 0
-386 63 0
386 -63 0
-387 -64 0
387 64 0
-388 64 0
388 -64 0
-389 -65 0
389 65 0
-390 65 0
390 -65 0
-391 -66 0
391 66 0
-392 66 0
392 -66 0
-393 -67 0
393 67 0
-394 67 0
394 -67 0
-395 -68 0
395 68 0
-396 68 0
396 -68 0
-397 -69 0
397 69 0
-398 69 0
398 -69 0
-399 -70 0
399 70 0
-400 70 0
400 -70 0
-401 -71 0
401 71 0
-402 71 0
402 -71 0
-403 -72 0
403 72 0
-404 72 0
404 -72 0
-405 -73 0
405 73 0
-406 73 0
406 -73 0
-407 -74 0
407 74 0
-408 74 0
408 -74 0
-409 -75 0
409 75 0
-410 75 0
410 -75 0
-411 -76 0
411 76 0
-412 76 0
412 -76 0
-413 -77 0
413 77 0
-414 77 0
414 -77 0
-415 -78 0
415 78 0
-416 78 0
416 -78 0
-417 -79 0
417 79 0
-418 79 0
418 -79 0
-419 -80 0
419 80 0
-420 80 0
420 -80 0
-421 -81 0
421 81 0
-422 81 0
422 -81 0
-423 -82 0
423 82 0
-424 82 0
424 -82 0
-425 -83 0
425 83 0
-426 83 0
426 -83 0
-427 -84 0
427 84 0
-428 84 0
428 -84 0
-429 -93 0
429 93 0
-430 93 0
430 -93 0
-431 -94 0
431 94 0
-432 94 0
432 -94 0
-433 -95 0
433 95 0
-434 95 0
434 -95 0
-435 -100 0
435 100 0
-436 100 0
436 -100 0
-437 -101 0
437 101 0
-438 101 0
438 -101 0
-439 -110 0
439 110 0
-440 110 0
440 -110 0
-441 -116 0
441 116 0
-442 116 0
442 -116 0
-443 -122 0
443 122 0
-444 122 0
444 -122 0
-445 -126 0
445 126 0
-446 126 0
446 -126 0
-447 -133 0
447 133 0
-448 133 0
448 -133 0
-449 -134 0
449 134 0
-450 134 0
450 -134 0
-451 -140 0
451 140 0
-452 140 0
452 -140 0
-453 -164 0
453 164 0
-454 164 0
454 -164 0
