p cnf 817 1700
6 95 -590 0
-6 -95 -590 0
6 -95 590 0
-6 95 590 0
590 104 -215 0
-590 -104 -215 0
590 -104 215 0
-590 104 215 0
2 6 -591 0
-2 -6 -591 0
2 -6 591 0
-2 6 591 0
591 124 -592 0
-591 -124 -592 0
591 -124 592 0
-591 124 592 0
592 134 -217 0
-592 -134 -217 0
592 -134 217 0
-592 134 217 0
-220 -3 0
-220 -4 0
-220 -7 0
220 3 4 7 0
-221 -3 0
-221 4 0
-221 7 0
221 3 -4 -7 0
-222 3 0
-222 4 0
-222 -7 0
222 -3 -4 7 0
-223 3 0
-223 -4 0
-223 7 0
223 -3 4 -7 0
-224 -220 0
-224 -221 0
-224 -222 0
-224 -223 0
224 220 221 222 223 0
-228 -23 0
-228 -24 0
-228 26 0
-228 45 0
-228 -118 0
228 23 24 -26 -45 118 0
-229 -23 0
-229 -24 0
-229 26 0
-229 45 0
-229 -118 0
-229 -220 0
-229 -221 0
-229 -222 0
-229 -223 0
229 23 24 -26 -45 118 220 221 222 223 0
-230 -224 0
-230 -228 0
230 224 228 0
-231 -229 0
-231 -230 0
231 229 230 0
-232 104 0
-232 124 0
-232 -134 0
-232 215 0
-232 -217 0
-232 -231 0
232 -104 -124 134 -215 217 231 0
7 39 -236 0
-7 -39 -236 0
7 -39 236 0
-7 39 236 0
-237 -104 0
-237 -124 0
-237 -134 0
-237 -215 0
-237 217 0
-237 -236 0
237 104 124 134 215 -217 236 0
4 52 -593 0
-4 -52 -593 0
4 -52 593 0
-4 52 593 0
593 53 -240 0
-593 -53 -240 0
593 -53 240 0
-593 53 240 0
-241 104 0
-241 -124 0
-241 -134 0
-241 215 0
-241 217 0
-241 -240 0
241 -104 124 134 -215 -217 240 0
-244 -53 0
-244 -104 0
-244 -124 0
-244 -134 0
-244 215 0
-244 217 0
244 53 104 124 134 -215 -217 0
-247 -39 0
-247 104 0
-247 -124 0
-247 -134 0
-247 -215 0
-247 217 0
247 39 -104 124 134 215 -217 0
-250 -32 0
-250 104 0
-250 124 0
-250 -134 0
-250 215 0
-250 217 0
250 32 -104 -124 134 -215 -217 0
-253 -52 0
-253 -104 0
-253 124 0
-253 -134 0
-253 -215 0
-253 217 0
253 52 104 -124 134 215 -217 0
-256 -22 0
-256 -104 0
-256 124 0
-256 -134 0
-256 215 0
-256 217 0
256 22 104 -124 134 -215 -217 0
3 22 -594 0
-3 -22 -594 0
3 -22 594 0
-3 22 594 0
594 32 -257 0
-594 -32 -257 0
594 -32 257 0
-594 32 257 0
-260 104 0
-260 124 0
-260 -134 0
-260 -215 0
-260 217 0
-260 -257 0
260 -104 -124 134 215 -217 257 0
-262 -232 0
-262 -237 0
-262 -241 0
-262 -244 0
-262 -247 0
-262 -250 0
-262 -253 0
-262 -256 0
-262 -260 0
262 232 237 241 244 247 250 253 256 260 0
-265 -23 0
-265 24 0
-265 26 0
-265 45 0
-265 -118 0
265 23 -24 -26 -45 118 0
-266 -228 0
-266 -265 0
266 228 265 0
-267 -262 0
-267 -266 0
267 262 266 0
-270 163 0
-270 166 0
-270 173 0
270 -163 -166 -173 0
-271 -25 0
-271 163 0
-271 166 0
-271 173 0
271 25 -163 -166 -173 0
-272 -179 0
-272 -270 0
272 179 270 0
-273 -271 0
-273 -272 0
273 271 272 0
-274 104 0
-274 -124 0
-274 134 0
-274 215 0
-274 -217 0
-274 -273 0
274 -104 124 -134 -215 217 273 0
-275 -16 0
-275 163 0
-275 166 0
-275 173 0
275 16 -163 -166 -173 0
-276 -90 0
-276 -270 0
276 90 270 0
-277 -275 0
-277 -276 0
277 275 276 0
-279 -104 0
-279 124 0
-279 134 0
-279 -215 0
-279 -217 0
-279 -277 0
279 104 -124 -134 215 217 277 0
-281 -36 0
-281 163 0
-281 166 0
-281 173 0
281 36 -163 -166 -173 0
-282 -91 0
-282 -270 0
282 91 270 0
-283 -281 0
-283 -282 0
283 281 282 0
-284 -104 0
-284 -124 0
-284 134 0
-284 215 0
-284 -217 0
-284 -283 0
284 104 124 -134 -215 217 283 0
-286 -17 0
-286 163 0
-286 166 0
-286 173 0
286 17 -163 -166 -173 0
-287 -89 0
-287 -270 0
287 89 270 0
-288 -286 0
-288 -287 0
288 286 287 0
-289 104 0
-289 124 0
-289 134 0
-289 -215 0
-289 -217 0
-289 -288 0
289 -104 -124 -134 215 217 288 0
-296 23 0
-296 24 0
-296 26 0
-296 -45 0
-296 -118 0
296 -23 -24 -26 45 118 0
-297 -228 0
-297 -265 0
-297 -296 0
297 228 265 296 0
-298 -104 0
-298 124 0
-298 134 0
-298 215 0
-298 217 0
-298 -297 0
298 104 -124 -134 -215 -217 297 0
-299 152 0
-299 -296 0
299 -152 296 0
-301 104 0
-301 124 0
-301 134 0
-301 215 0
-301 217 0
-301 -299 0
301 -104 -124 -134 -215 -217 299 0
-303 -21 0
-303 163 0
-303 166 0
-303 173 0
303 21 -163 -166 -173 0
-304 -8 0
-304 -270 0
304 8 270 0
-305 -303 0
-305 -304 0
305 303 304 0
-307 104 0
-307 -124 0
-307 134 0
-307 215 0
-307 217 0
-307 -305 0
307 -104 124 -134 -215 -217 305 0
-308 -211 0
-308 -270 0
308 211 270 0
-309 -29 0
-309 163 0
-309 166 0
-309 173 0
309 29 -163 -166 -173 0
-310 -308 0
-310 -309 0
310 308 309 0
-312 104 0
-312 124 0
-312 134 0
-312 -215 0
-312 217 0
-312 -310 0
312 -104 -124 -134 215 -217 310 0
-313 -12 0
-313 -270 0
313 12 270 0
-314 -37 0
-314 163 0
-314 166 0
-314 173 0
314 37 -163 -166 -173 0
-315 -313 0
-315 -314 0
315 313 314 0
-317 -104 0
-317 -124 0
-317 134 0
-317 215 0
-317 217 0
-317 -315 0
317 104 124 -134 -215 -217 315 0
-318 -38 0
-318 163 0
-318 166 0
-318 173 0
318 38 -163 -166 -173 0
-319 -13 0
-319 -270 0
319 13 270 0
-320 -318 0
-320 -319 0
320 318 319 0
-322 -104 0
-322 124 0
-322 134 0
-322 -215 0
-322 217 0
-322 -320 0
322 104 -124 -134 215 -217 320 0
-324 -11 0
-324 163 0
-324 166 0
-324 173 0
324 11 -163 -166 -173 0
-325 -200 0
-325 -270 0
325 200 270 0
-326 -324 0
-326 -325 0
326 324 325 0
-328 -104 0
-328 124 0
-328 134 0
-328 215 0
-328 -217 0
-328 -326 0
328 104 -124 -134 -215 217 326 0
-330 -201 0
-330 -270 0
330 201 270 0
-331 -19 0
-331 163 0
-331 166 0
-331 173 0
331 19 -163 -166 -173 0
-332 -330 0
-332 -331 0
332 330 331 0
-333 104 0
-333 124 0
-333 134 0
-333 215 0
-333 -217 0
-333 -332 0
333 -104 -124 -134 -215 217 332 0
-335 -209 0
-335 -270 0
335 209 270 0
-336 -28 0
-336 163 0
-336 166 0
-336 173 0
336 28 -163 -166 -173 0
-337 -335 0
-337 -336 0
337 335 336 0
-338 -104 0
-338 -124 0
-338 134 0
-338 -215 0
-338 217 0
-338 -337 0
338 104 124 -134 215 -217 337 0
-340 -206 0
-340 -270 0
340 206 270 0
-341 -27 0
-341 163 0
-341 166 0
-341 173 0
341 27 -163 -166 -173 0
-342 -340 0
-342 -341 0
342 340 341 0
-343 104 0
-343 -124 0
-343 134 0
-343 -215 0
-343 217 0
-343 -342 0
343 -104 124 -134 215 -217 342 0
-345 -274 0
-345 -279 0
-345 -284 0
-345 -289 0
-345 -298 0
-345 -301 0
-345 -307 0
-345 -312 0
-345 -317 0
-345 -322 0
-345 -328 0
-345 -333 0
-345 -338 0
-345 -343 0
345 274 279 284 289 298 301 307 312 317 322 328 333 338 343 0
-346 193 0
-346 -345 0
346 -193 345 0
-347 -30 0
-347 -101 0
-347 164 0
347 30 101 -164 0
-348 -163 0
-348 -174 0
348 163 174 0
-349 148 0
-349 -348 0
349 -148 348 0
-351 -186 0
-351 -192 0
-351 -270 0
-351 -349 0
351 186 192 270 349 0
-353 148 0
-353 -177 0
-353 -192 0
-353 -270 0
-353 -348 0
353 -148 177 192 270 348 0
-355 -267 0
-355 -346 0
-355 -347 0
-355 -351 0
-355 -353 0
355 267 346 347 351 353 0
-358 104 0
-358 124 0
-358 215 0
-358 -217 0
-358 -231 0
358 -104 -124 -215 217 231 0
-360 -104 0
-360 -124 0
-360 -215 0
-360 217 0
-360 -236 0
360 104 124 215 -217 236 0
-362 104 0
-362 -124 0
-362 215 0
-362 217 0
-362 -240 0
362 -104 124 -215 -217 240 0
-364 -53 0
-364 -104 0
-364 -124 0
-364 215 0
-364 217 0
364 53 104 124 -215 -217 0
-366 -39 0
-366 104 0
-366 -124 0
-366 -215 0
-366 217 0
366 39 -104 124 215 -217 0
-369 -32 0
-369 104 0
-369 124 0
-369 215 0
-369 217 0
369 32 -104 -124 -215 -217 0
-371 -52 0
-371 -104 0
-371 124 0
-371 -215 0
-371 217 0
371 52 104 -124 215 -217 0
-373 -22 0
-373 -104 0
-373 124 0
-373 215 0
-373 217 0
373 22 104 -124 -215 -217 0
-375 104 0
-375 124 0
-375 -215 0
-375 217 0
-375 -257 0
375 -104 -124 215 -217 257 0
-377 -358 0
-377 -360 0
-377 -362 0
-377 -364 0
-377 -366 0
-377 -369 0
-377 -371 0
-377 -373 0
-377 -375 0
377 358 360 362 364 366 369 371 373 375 0
-378 -266 0
-378 -377 0
378 266 377 0
-379 -346 0
-379 -347 0
-379 -351 0
-379 -353 0
-379 -378 0
379 346 347 351 353 378 0
262 377 -381 0
-262 -377 -381 0
262 -377 381 0
-262 377 381 0
-383 -2 0
-383 -266 0
-383 -346 0
-383 -347 0
-383 -351 0
-383 -353 0
-383 381 0
383 2 266 346 347 351 353 -381 0
-386 -1 0
-386 -266 0
-386 -346 0
-386 -347 0
-386 -351 0
-386 -353 0
-386 381 0
386 1 266 346 347 351 353 -381 0
-389 57 0
-389 160 0
-389 163 0
-389 -171 0
389 -57 -160 -163 171 0
-390 168 0
-390 -389 0
390 -168 389 0
-392 -167 0
-392 168 0
-392 169 0
392 167 -168 -169 0
-394 -56 0
-394 164 0
-394 -171 0
-394 -390 0
-394 -392 0
394 56 -164 171 390 392 0
-397 23 0
-397 -24 0
-397 26 0
-397 45 0
-397 -118 0
397 -23 24 -26 -45 118 0
-400 23 0
-400 -24 0
-400 -26 0
-400 45 0
-400 -118 0
400 -23 24 26 -45 118 0
-402 23 0
-402 24 0
-402 -26 0
-402 45 0
-402 -118 0
402 -23 -24 26 -45 118 0
-403 -296 0
-403 -397 0
-403 -400 0
-403 -402 0
403 296 397 400 402 0
-405 148 0
-405 -185 0
-405 -192 0
-405 -348 0
-405 -403 0
405 -148 185 192 348 403 0
-406 189 0
-406 -349 0
406 -189 349 0
-408 148 0
-408 -181 0
-408 -266 0
-408 -348 0
408 -148 181 266 348 0
-409 -406 0
-409 -408 0
409 406 408 0
-410 -177 0
-410 -409 0
410 177 409 0
-412 104 0
-412 124 0
-412 -134 0
-412 -215 0
-412 -217 0
412 -104 -124 134 215 217 0
-413 -228 0
-413 -265 0
-413 -296 0
-413 -397 0
-413 -400 0
-413 -402 0
413 228 265 296 397 400 402 0
-416 -189 0
-416 192 0
-416 -270 0
-416 -349 0
416 189 -192 270 349 0
-420 148 0
-420 181 0
-420 -182 0
-420 -348 0
420 -148 -181 182 348 0
-422 148 0
-422 -177 0
-422 -181 0
-422 192 0
-422 -228 0
-422 -265 0
-422 -348 0
422 -148 177 181 -192 228 265 348 0
-425 104 0
-425 124 0
-425 -215 0
-425 -217 0
425 -104 -124 215 217 0
-434 104 0
-434 124 0
-434 134 0
-434 -186 0
-434 -195 0
-434 -215 0
-434 -217 0
-434 -349 0
-434 -394 0
-434 -405 0
-434 -410 0
-434 -413 0
-434 -416 0
-434 -420 0
-434 -422 0
434 -104 -124 -134 186 195 215 217 349 394 405 410 413 416 420 422 0
1 5 -595 0
-1 -5 -595 0
1 -5 595 0
-1 5 595 0
595 98 -596 0
-595 -98 -596 0
595 -98 596 0
-595 98 596 0
596 99 -435 0
-596 -99 -435 0
596 -99 435 0
-596 99 435 0
5 96 -597 0
-5 -96 -597 0
5 -96 597 0
-5 96 597 0
597 97 -437 0
-597 -97 -437 0
597 -97 437 0
-597 97 437 0
-439 -400 0
-439 -402 0
439 400 402 0
-441 -104 0
-441 124 0
-441 -134 0
-441 215 0
-441 -217 0
441 104 -124 134 -215 217 0
-443 -104 0
-443 124 0
-443 215 0
-443 -217 0
443 104 -124 -215 217 0
-445 97 0
-445 -98 0
-445 99 0
-445 -104 0
-445 124 0
-445 134 0
-445 215 0
-445 -217 0
-445 435 0
-445 437 0
-445 -439 0
445 -97 98 -99 104 -124 -134 -215 217 -435 -437 439 0
-448 -267 0
-448 -355 0
448 267 355 0
-449 -378 0
-449 -379 0
449 378 379 0
448 449 -450 0
-448 -449 -450 0
448 -449 450 0
-448 449 450 0
-451 -346 0
-451 -347 0
-451 -351 0
-451 -353 0
-451 450 0
451 346 347 351 353 -450 0
-455 58 0
-455 65 0
-455 -68 0
-455 -69 0
-455 -70 0
-455 164 0
455 -58 -65 68 69 70 -164 0
-458 58 0
-458 59 0
-458 66 0
-458 67 0
-458 -68 0
-458 -69 0
-458 -70 0
-458 164 0
-458 -455 0
458 -58 -59 -66 -67 68 69 70 -164 455 0
-459 -61 0
-459 -62 0
459 61 62 0
-464 60 0
-464 65 0
-464 -66 0
-464 67 0
-464 68 0
-464 -69 0
-464 -70 0
-464 164 0
-464 -459 0
464 -60 -65 66 -67 -68 69 70 -164 459 0
-465 -458 0
-465 -464 0
465 458 464 0
-466 86 0
-466 -465 0
466 -86 465 0
-469 97 0
-469 98 0
-469 -99 0
-469 -140 0
-469 -435 0
-469 -437 0
469 -97 -98 99 140 435 437 0
-472 97 0
-472 -98 0
-472 -99 0
-472 140 0
-472 435 0
-472 437 0
472 -97 98 99 -140 -435 -437 0
-473 -469 0
-473 -472 0
473 469 472 0
-475 -134 0
-475 -403 0
-475 -412 0
-475 -441 0
-475 -473 0
475 134 403 412 441 473 0
-478 -403 0
-478 -425 0
-478 -443 0
-478 -473 0
478 403 425 443 473 0
-480 -425 0
-480 -443 0
480 425 443 0
-481 -134 0
-481 -412 0
-481 -441 0
481 134 412 441 0
480 481 -482 0
-480 -481 -482 0
480 -481 482 0
-480 481 482 0
-484 -403 0
-484 -466 0
-484 -473 0
-484 482 0
484 403 466 473 -482 0
-485 87 0
-485 -465 0
485 -87 465 0
-488 -403 0
-488 -473 0
-488 482 0
-488 -485 0
488 403 473 -482 485 0
-489 88 0
-489 -465 0
489 -88 465 0
-492 -403 0
-492 -473 0
-492 482 0
-492 -489 0
492 403 473 -482 489 0
-494 58 0
-494 78 0
-494 -475 0
494 -58 -78 475 0
-496 60 0
-496 87 0
-496 -475 0
496 -60 -87 475 0
-497 -475 0
-497 -494 0
-497 -496 0
497 475 494 496 0
-499 58 0
-499 78 0
-499 -478 0
499 -58 -78 478 0
-501 60 0
-501 87 0
-501 -478 0
501 -60 -87 478 0
-502 -478 0
-502 -499 0
-502 -501 0
502 478 499 501 0
497 502 -503 0
-497 -502 -503 0
497 -502 503 0
-497 502 503 0
-504 83 0
-504 -465 0
504 -83 465 0
-507 -403 0
-507 -473 0
-507 482 0
-507 -504 0
507 403 473 -482 504 0
-508 85 0
-508 -465 0
508 -85 465 0
-511 -403 0
-511 -473 0
-511 482 0
-511 -508 0
511 403 473 -482 508 0
-512 82 0
-512 -465 0
512 -82 465 0
-515 -403 0
-515 -473 0
-515 482 0
-515 -512 0
515 403 473 -482 512 0
-516 84 0
-516 -465 0
516 -84 465 0
-519 -403 0
-519 -473 0
-519 482 0
-519 -516 0
519 403 473 -482 516 0
-520 80 0
-520 -465 0
520 -80 465 0
-523 -403 0
-523 -473 0
-523 482 0
-523 -520 0
523 403 473 -482 520 0
-524 81 0
-524 -465 0
524 -81 465 0
-527 -403 0
-527 -473 0
-527 482 0
-527 -524 0
527 403 473 -482 524 0
-528 58 0
-528 71 0
-528 -475 0
528 -58 -71 475 0
-529 60 0
-529 80 0
-529 -475 0
529 -60 -80 475 0
-530 -475 0
-530 -528 0
-530 -529 0
530 475 528 529 0
-531 58 0
-531 71 0
-531 -478 0
531 -58 -71 478 0
-532 60 0
-532 80 0
-532 -478 0
532 -60 -80 478 0
-533 -478 0
-533 -531 0
-533 -532 0
533 478 531 532 0
530 533 -534 0
-530 -533 -534 0
530 -533 534 0
-530 533 534 0
-535 60 0
-535 86 0
-535 -475 0
535 -60 -86 475 0
-536 58 0
-536 77 0
-536 -475 0
536 -58 -77 475 0
-537 -475 0
-537 -535 0
-537 -536 0
537 475 535 536 0
-538 60 0
-538 86 0
-538 -478 0
538 -60 -86 478 0
-539 58 0
-539 77 0
-539 -478 0
539 -58 -77 478 0
-540 -478 0
-540 -538 0
-540 -539 0
540 478 538 539 0
537 540 -541 0
-537 -540 -541 0
537 -540 541 0
-537 540 541 0
-542 60 0
-542 82 0
-542 -475 0
542 -60 -82 475 0
-543 58 0
-543 73 0
-543 -475 0
543 -58 -73 475 0
-544 -475 0
-544 -542 0
-544 -543 0
544 475 542 543 0
-545 60 0
-545 82 0
-545 -478 0
545 -60 -82 478 0
-546 58 0
-546 73 0
-546 -478 0
546 -58 -73 478 0
-547 -478 0
-547 -545 0
-547 -546 0
547 478 545 546 0
544 547 -548 0
-544 -547 -548 0
544 -547 548 0
-544 547 548 0
-549 60 0
-549 88 0
-549 -475 0
549 -60 -88 475 0
-550 58 0
-550 79 0
-550 -475 0
550 -58 -79 475 0
-551 -475 0
-551 -549 0
-551 -550 0
551 475 549 550 0
-552 60 0
-552 88 0
-552 -478 0
552 -60 -88 478 0
-553 58 0
-553 79 0
-553 -478 0
553 -58 -79 478 0
-554 -478 0
-554 -552 0
-554 -553 0
554 478 552 553 0
551 554 -555 0
-551 -554 -555 0
551 -554 555 0
-551 554 555 0
-556 58 0
-556 72 0
-556 -475 0
556 -58 -72 475 0
-557 60 0
-557 81 0
-557 -475 0
557 -60 -81 475 0
-558 -475 0
-558 -556 0
-558 -557 0
558 475 556 557 0
-559 58 0
-559 72 0
-559 -478 0
559 -58 -72 478 0
-560 60 0
-560 81 0
-560 -478 0
560 -60 -81 478 0
-561 -478 0
-561 -559 0
-561 -560 0
561 478 559 560 0
558 561 -562 0
-558 -561 -562 0
558 -561 562 0
-558 561 562 0
-563 60 0
-563 85 0
-563 -475 0
563 -60 -85 475 0
-564 58 0
-564 76 0
-564 -475 0
564 -58 -76 475 0
-565 -475 0
-565 -563 0
-565 -564 0
565 475 563 564 0
-566 60 0
-566 85 0
-566 -478 0
566 -60 -85 478 0
-567 58 0
-567 76 0
-567 -478 0
567 -58 -76 478 0
-568 -478 0
-568 -566 0
-568 -567 0
568 478 566 567 0
565 568 -569 0
-565 -568 -569 0
565 -568 569 0
-565 568 569 0
-570 58 0
-570 74 0
-570 -475 0
570 -58 -74 475 0
-571 60 0
-571 83 0
-571 -475 0
571 -60 -83 475 0
-572 -475 0
-572 -570 0
-572 -571 0
572 475 570 571 0
-573 58 0
-573 74 0
-573 -478 0
573 -58 -74 478 0
-574 60 0
-574 83 0
-574 -478 0
574 -60 -83 478 0
-575 -478 0
-575 -573 0
-575 -574 0
575 478 573 574 0
572 575 -576 0
-572 -575 -576 0
572 -575 576 0
-572 575 576 0
-577 58 0
-577 75 0
-577 -475 0
577 -58 -75 475 0
-578 60 0
-578 84 0
-578 -475 0
578 -60 -84 475 0
-579 -475 0
-579 -577 0
-579 -578 0
579 475 577 578 0
-580 58 0
-580 75 0
-580 -478 0
580 -58 -75 478 0
-581 60 0
-581 84 0
-581 -478 0
581 -60 -84 478 0
-582 -478 0
-582 -580 0
-582 -581 0
582 478 580 581 0
579 582 -583 0
-579 -582 -583 0
579 -582 583 0
-579 582 583 0
-588 97 0
-588 -98 0
-588 99 0
-588 104 0
-588 124 0
-588 134 0
-588 215 0
-588 217 0
-588 435 0
-588 437 0
588 -97 98 -99 -104 -124 -134 -215 -217 -435 -437 0
-589 -383 0
-589 -386 0
-589 -434 0
-589 -445 0
-589 -451 0
-589 -484 0
-589 -488 0
-589 -492 0
-589 -503 0
-589 -507 0
-589 -511 0
-589 -515 0
-589 -519 0
-589 -523 0
-589 -527 0
-589 -534 0
-589 -541 0
-589 -548 0
-589 -555 0
-589 -562 0
-589 -569 0
-589 -576 0
-589 -583 0
-589 -588 0
589 383 386 434 445 451 484 488 492 503 507 511 515 519 523 527 534 541 548 555 562 569 576 583 588 0
-598 -3 0
-598 -4 0
-598 -7 0
598 3 4 7 0
-599 3 0
-599 -4 0
-599 -7 0
599 -3 4 7 0
-600 -3 0
-600 4 0
-600 -7 0
600 3 -4 7 0
-601 3 0
-601 4 0
-601 -7 0
601 -3 -4 7 0
-602 -3 0
-602 -4 0
-602 7 0
602 3 4 -7 0
-603 3 0
-603 -4 0
-603 7 0
603 -3 4 -7 0
-604 -3 0
-604 4 0
-604 7 0
604 3 -4 -7 0
-605 3 0
-605 4 0
-605 7 0
605 -3 -4 -7 0
-606 -5 0
-606 -96 0
-606 -97 0
606 5 96 97 0
-607 5 0
-607 -96 0
-607 -97 0
607 -5 96 97 0
-608 -5 0
-608 96 0
-608 -97 0
608 5 -96 97 0
-609 5 0
-609 96 0
-609 -97 0
609 -5 -96 97 0
-610 -5 0
-610 -96 0
-610 97 0
610 5 96 -97 0
-611 5 0
-611 -96 0
-611 97 0
611 -5 96 -97 0
-612 -5 0
-612 96 0
-612 97 0
612 5 -96 -97 0
-613 5 0
-613 96 0
-613 97 0
613 -5 -96 -97 0
-614 -6 0
-614 -95 0
-614 -104 0
614 6 95 104 0
-615 6 0
-615 -95 0
-615 -104 0
615 -6 95 104 0
-616 -6 0
-616 95 0
-616 -104 0
616 6 -95 104 0
-617 6 0
-617 95 0
-617 -104 0
617 -6 -95 104 0
-618 -6 0
-618 -95 0
-618 104 0
618 6 95 -104 0
-619 6 0
-619 -95 0
-619 104 0
619 -6 95 -104 0
-620 -6 0
-620 95 0
-620 104 0
620 6 -95 -104 0
-621 6 0
-621 95 0
-621 104 0
621 -6 -95 -104 0
-622 -30 0
-622 -101 0
-622 -164 0
622 30 101 164 0
-623 30 0
-623 -101 0
-623 -164 0
623 -30 101 164 0
-624 -30 0
-624 101 0
-624 -164 0
624 30 -101 164 0
-625 30 0
-625 101 0
-625 -164 0
625 -30 -101 164 0
-626 -30 0
-626 -101 0
-626 164 0
626 30 101 -164 0
-627 30 0
-627 -101 0
-627 164 0
627 -30 101 -164 0
-628 -30 0
-628 101 0
-628 164 0
628 30 -101 -164 0
-629 30 0
-629 101 0
-629 164 0
629 -30 -101 -164 0
-630 -148 0
-630 -163 0
-630 -174 0
630 148 163 174 0
-631 148 0
-631 -163 0
-631 -174 0
631 -148 163 174 0
-632 -148 0
-632 163 0
-632 -174 0
632 148 -163 174 0
-633 148 0
-633 163 0
-633 -174 0
633 -148 -163 174 0
-634 -148 0
-634 -163 0
-634 174 0
634 148 163 -174 0
-635 148 0
-635 -163 0
-635 174 0
635 -148 163 -174 0
-636 -148 0
-636 163 0
-636 174 0
636 148 -163 -174 0
-637 148 0
-637 163 0
-637 174 0
637 -148 -163 -174 0
-638 -167 0
-638 -168 0
-638 -169 0
638 167 168 169 0
-639 167 0
-639 -168 0
-639 -169 0
639 -167 168 169 0
-640 -167 0
-640 168 0
-640 -169 0
640 167 -168 169 0
-641 167 0
-641 168 0
-641 -169 0
641 -167 -168 169 0
-642 -167 0
-642 -168 0
-642 169 0
642 167 168 -169 0
-643 167 0
-643 -168 0
-643 169 0
643 -167 168 -169 0
-644 -167 0
-644 168 0
-644 169 0
644 167 -168 -169 0
-645 167 0
-645 168 0
-645 169 0
645 -167 -168 -169 0
-646 -61 0
-646 -62 0
646 61 62 0
-647 61 0
-647 -62 0
647 -61 62 0
-648 -61 0
-648 62 0
648 61 -62 0
-649 61 0
-649 62 0
649 -61 -62 0
-650 -1 0
650 1 0
-651 1 0
651 -1 0
-652 -2 0
652 2 0
-653 2 0
653 -2 0
-654 -8 0
654 8 0
-655 8 0
655 -8 0
-656 -11 0
656 11 0
-657 11 0
657 -11 0
-658 -12 0
658 12 0
-659 12 0
659 -12 0
-660 -13 0
660 13 0
-661 13 0
661 -13 0
-662 -16 0
662 16 0
-663 16 0
663 -16 0
-664 -17 0
664 17 0
-665 17 0
665 -17 0
-666 -19 0
666 19 0
-667 19 0
667 -19 0
-668 -21 0
668 21 0
-669 21 0
669 -21 0
-670 -22 0
670 22 0
-671 22 0
671 -22 0
-672 -23 0
672 23 0
-673 23 0
673 -23 0
-674 -24 0
674 24 0
-675 24 0
675 -24 0
-676 -25 0
676 25 0
-677 25 0
677 -25 0
-678 -26 0
678 26 0
-679 26 0
679 -26 0
-680 -27 0
680 27 0
-681 27 0
681 -27 0
-682 -28 0
682 28 0
-683 28 0
683 -28 0
-684 -29 0
684 29 0
-685 29 0
685 -29 0
-686 -32 0
686 32 0
-687 32 0
687 -32 0
-688 -36 0
688 36 0
-689 36 0
689 -36 0
-690 -37 0
690 37 0
-691 37 0
691 -37 0
-692 -38 0
692 38 0
-693 38 0
693 -38 0
-694 -39 0
694 39 0
-695 39 0
695 -39 0
-696 -45 0
696 45 0
-697 45 0
697 -45 0
-698 -52 0
698 52 0
-699 52 0
699 -52 0
-700 -53 0
700 53 0
-701 53 0
701 -53 0
-702 -56 0
702 56 0
-703 56 0
703 -56 0
-704 -57 0
704 57 0
-705 57 0
705 -57 0
-706 -58 0
706 58 0
-707 58 0
707 -58 0
-708 -59 0
708 59 0
-709 59 0
709 -59 0
-710 -60 0
710 60 0
-711 60 0
711 -60 0
-712 -65 0
712 65 0
-713 65 0
713 -65 0
-714 -66 0
714 66 0
-715 66 0
715 -66 0
-716 -67 0
716 67 0
-717 67 0
717 -67 0
-718 -68 0
718 68 0
-719 68 0
719 -68 0
-720 -69 0
720 69 0
-721 69 0
721 -69 0
-722 -70 0
722 70 0
-723 70 0
723 -70 0
-724 -71 0
724 71 0
-725 71 0
725 -71 0
-726 -72 0
726 72 0
-727 72 0
727 -72 0
-728 -73 0
728 73 0
-729 73 0
729 -73 0
-730 -74 0
730 74 0
-731 74 0
731 -74 0
-732 -75 0
732 75 0
-733 75 0
733 -75 0
-734 -76 0
734 76 0
-735 76 0
735 -76 0
-736 -77 0
736 77 0
-737 77 0
737 -77 0
-738 -78 0
738 78 0
-739 78 0
739 -78 0
-740 -79 0
740 79 0
-741 79 0
741 -79 0
-742 -80 0
742 80 0
-743 80 0
743 -80 0
-744 -81 0
744 81 0
-745 81 0
745 -81 0
-746 -82 0
746 82 0
-747 82 0
747 -82 0
-748 -83 0
748 83 0
-749 83 0
749 -83 0
-750 -84 0
750 84 0
-751 84 0
751 -84 0
-752 -85 0
752 85 0
-753 85 0
753 -85 0
-754 -86 0
754 86 0
-755 86 0
755 -86 0
-756 -87 0
756 87 0
-757 87 0
757 -87 0
-758 -88 0
758 88 0
-759 88 0
759 -88 0
-760 -89 0
760 89 0
-761 89 0
761 -89 0
-762 -90 0
762 90 0
-763 90 0
763 -90 0
-764 -91 0
764 91 0
-765 91 0
765 -91 0
-766 -98 0
766 98 0
-767 98 0
767 -98 0
-768 -99 0
768 99 0
-769 99 0
769 -99 0
-770 -118 0
770 118 0
-771 118 0
771 -118 0
-772 -124 0
772 124 0
-773 124 0
773 -124 0
-774 -134 0
774 134 0
-775 134 0
775 -134 0
-776 -140 0
776 140 0
-777 140 0
777 -140 0
-778 -152 0
778 152 0
-779 152 0
779 -152 0
-780 -160 0
780 160 0
-781 160 0
781 -160 0
-782 -166 0
782 166 0
-783 166 0
783 -166 0
-784 -171 0
784 171 0
-785 171 0
785 -171 0
-786 -173 0
786 173 0
-787 173 0
787 -173 0
-788 -177 0
788 177 0
-789 177 0
789 -177 0
-790 -179 0
790 179 0
-791 179 0
791 -179 0
-792 -181 0
792 181 0
-793 181 0
793 -181 0
-794 -182 0
794 182 0
-795 182 0
795 -182 0
-796 -185 0
796 185 0
-797 185 0
797 -185 0
-798 -186 0
798 186 0
-799 186 0
799 -186 0
-800 -189 0
800 189 0
-801 189 0
801 -189 0
-802 -192 0
802 192 0
-803 192 0
803 -192 0
-804 -193 0
804 193 0
-805 193 0
805 -193 0
-806 -195 0
806 195 0
-807 195 0
807 -195 0
-808 -200 0
808 200 0
-809 200 0
809 -200 0
-810 -201 0
810 201 0
-811 201 0
811 -201 0
-812 -206 0
812 206 0
-813 206 0
813 -206 0
-814 -209 0
814 209 0
-815 209 0
815 -209 0
-816 -211 0
816 211 0
-817 211 0
817 -211 0
