p cnf 457 679
-218 54 0
-218 61 0
-218 -64 0
-218 -65 0
-218 -66 0
-218 164 0
218 -54 -61 64 65 66 -164 0
-221 54 0
-221 55 0
-221 62 0
-221 63 0
-221 -64 0
-221 -65 0
-221 -66 0
-221 164 0
-221 -218 0
221 -54 -55 -62 -63 64 65 66 -164 218 0
-222 -57 0
-222 -58 0
222 57 58 0
-227 56 0
-227 61 0
-227 -62 0
-227 63 0
-227 64 0
-227 -65 0
-227 -66 0
-227 164 0
-227 -222 0
227 -56 -61 62 -63 -64 65 66 -164 222 0
-228 -221 0
-228 -227 0
228 221 227 0
-229 82 0
-229 -228 0
229 -82 228 0
-233 16 0
-233 -17 0
-233 19 0
-233 39 0
-233 -116 0
233 -16 17 -19 -39 116 0
-237 16 0
-237 17 0
-237 19 0
-237 -39 0
-237 -116 0
237 -16 -17 -19 39 116 0
-240 16 0
-240 -17 0
-240 -19 0
-240 39 0
-240 -116 0
240 -16 17 19 -39 116 0
-242 16 0
-242 17 0
-242 -19 0
-242 39 0
-242 -116 0
242 -16 -17 19 -39 116 0
-243 -233 0
-243 -237 0
-243 -240 0
-243 -242 0
243 233 237 240 242 0
-245 -100 0
-245 122 0
-245 126 0
-245 -133 0
-245 -134 0
245 100 -122 -126 133 134 0
-248 93 0
-248 94 0
-248 -95 0
-248 -101 0
-248 -110 0
-248 -140 0
248 -93 -94 95 101 110 140 0
-250 93 0
-250 -94 0
-250 -95 0
-250 101 0
-250 110 0
250 -93 94 95 -101 -110 0
-251 93 0
-251 -94 0
-251 -95 0
-251 101 0
-251 110 0
-251 140 0
251 -93 94 95 -101 -110 -140 0
-252 -248 0
-252 -251 0
252 248 251 0
-254 100 0
-254 122 0
-254 -126 0
-254 -133 0
-254 -134 0
254 -100 -122 126 133 134 0
-256 -133 0
-256 -243 0
-256 -245 0
-256 -252 0
-256 -254 0
256 133 243 245 252 254 0
-258 -140 0
-258 -248 0
258 140 248 0
-260 -133 0
-260 -243 0
-260 -245 0
-260 -254 0
-260 -258 0
260 133 243 245 254 258 0
-265 -133 0
-265 140 0
-265 -229 0
-265 -243 0
-265 -245 0
-265 -248 0
-265 -250 0
-265 -254 0
265 133 -140 229 243 245 248 250 254 0
-266 83 0
-266 -228 0
266 -83 228 0
-269 -133 0
-269 140 0
-269 -243 0
-269 -245 0
-269 -248 0
-269 -250 0
-269 -254 0
-269 -266 0
269 133 -140 243 245 248 250 254 266 0
-270 84 0
-270 -228 0
270 -84 228 0
-273 -133 0
-273 140 0
-273 -243 0
-273 -245 0
-273 -248 0
-273 -250 0
-273 -254 0
-273 -270 0
273 133 -140 243 245 248 250 254 270 0
-275 54 0
-275 74 0
-275 -256 0
275 -54 -74 256 0
-277 56 0
-277 83 0
-277 -256 0
277 -56 -83 256 0
-278 -256 0
-278 -275 0
-278 -277 0
278 256 275 277 0
-280 54 0
-280 74 0
-280 -260 0
280 -54 -74 260 0
-282 56 0
-282 83 0
-282 -260 0
282 -56 -83 260 0
-283 -260 0
-283 -280 0
-283 -282 0
283 260 280 282 0
278 283 -284 0
-278 -283 -284 0
278 -283 284 0
-278 283 284 0
-285 79 0
-285 -228 0
285 -79 228 0
-288 -133 0
-288 140 0
-288 -243 0
-288 -245 0
-288 -248 0
-288 -250 0
-288 -254 0
-288 -285 0
288 133 -140 243 245 248 250 254 285 0
-289 81 0
-289 -228 0
289 -81 228 0
-292 -133 0
-292 140 0
-292 -243 0
-292 -245 0
-292 -248 0
-292 -250 0
-292 -254 0
-292 -289 0
292 133 -140 243 245 248 250 254 289 0
-293 78 0
-293 -228 0
293 -78 228 0
-296 -133 0
-296 140 0
-296 -243 0
-296 -245 0
-296 -248 0
-296 -250 0
-296 -254 0
-296 -293 0
296 133 -140 243 245 248 250 254 293 0
-297 80 0
-297 -228 0
297 -80 228 0
-300 -133 0
-300 140 0
-300 -243 0
-300 -245 0
-300 -248 0
-300 -250 0
-300 -254 0
-300 -297 0
300 133 -140 243 245 248 250 254 297 0
-301 76 0
-301 -228 0
301 -76 228 0
-304 -133 0
-304 140 0
-304 -243 0
-304 -245 0
-304 -248 0
-304 -250 0
-304 -254 0
-304 -301 0
304 133 -140 243 245 248 250 254 301 0
-305 77 0
-305 -228 0
305 -77 228 0
-308 -133 0
-308 140 0
-308 -243 0
-308 -245 0
-308 -248 0
-308 -250 0
-308 -254 0
-308 -305 0
308 133 -140 243 245 248 250 254 305 0
-309 54 0
-309 67 0
-309 -256 0
309 -54 -67 256 0
-310 56 0
-310 76 0
-310 -256 0
310 -56 -76 256 0
-311 -256 0
-311 -309 0
-311 -310 0
311 256 309 310 0
-312 54 0
-312 67 0
-312 -260 0
312 -54 -67 260 0
-313 56 0
-313 76 0
-313 -260 0
313 -56 -76 260 0
-314 -260 0
-314 -312 0
-314 -313 0
314 260 312 313 0
311 314 -315 0
-311 -314 -315 0
311 -314 315 0
-311 314 315 0
-316 56 0
-316 82 0
-316 -256 0
316 -56 -82 256 0
-317 54 0
-317 73 0
-317 -256 0
317 -54 -73 256 0
-318 -256 0
-318 -316 0
-318 -317 0
318 256 316 317 0
-319 56 0
-319 82 0
-319 -260 0
319 -56 -82 260 0
-320 54 0
-320 73 0
-320 -260 0
320 -54 -73 260 0
-321 -260 0
-321 -319 0
-321 -320 0
321 260 319 320 0
318 321 -322 0
-318 -321 -322 0
318 -321 322 0
-318 321 322 0
-323 56 0
-323 78 0
-323 -256 0
323 -56 -78 256 0
-324 54 0
-324 69 0
-324 -256 0
324 -54 -69 256 0
-325 -256 0
-325 -323 0
-325 -324 0
325 256 323 324 0
-326 56 0
-326 78 0
-326 -260 0
326 -56 -78 260 0
-327 54 0
-327 69 0
-327 -260 0
327 -54 -69 260 0
-328 -260 0
-328 -326 0
-328 -327 0
328 260 326 327 0
325 328 -329 0
-325 -328 -329 0
325 -328 329 0
-325 328 329 0
-330 56 0
-330 84 0
-330 -256 0
330 -56 -84 256 0
-331 54 0
-331 75 0
-331 -256 0
331 -54 -75 256 0
-332 -256 0
-332 -330 0
-332 -331 0
332 256 330 331 0
-333 56 0
-333 84 0
-333 -260 0
333 -56 -84 260 0
-334 54 0
-334 75 0
-334 -260 0
334 -54 -75 260 0
-335 -260 0
-335 -333 0
-335 -334 0
335 260 333 334 0
332 335 -336 0
-332 -335 -336 0
332 -335 336 0
-332 335 336 0
-337 54 0
-337 68 0
-337 -256 0
337 -54 -68 256 0
-338 56 0
-338 77 0
-338 -256 0
338 -56 -77 256 0
-339 -256 0
-339 -337 0
-339 -338 0
339 256 337 338 0
-340 54 0
-340 68 0
-340 -260 0
340 -54 -68 260 0
-341 56 0
-341 77 0
-341 -260 0
341 -56 -77 260 0
-342 -260 0
-342 -340 0
-342 -341 0
342 260 340 341 0
339 342 -343 0
-339 -342 -343 0
339 -342 343 0
-339 342 343 0
-344 56 0
-344 81 0
-344 -256 0
344 -56 -81 256 0
-345 54 0
-345 72 0
-345 -256 0
345 -54 -72 256 0
-346 -256 0
-346 -344 0
-346 -345 0
346 256 344 345 0
-347 56 0
-347 81 0
-347 -260 0
347 -56 -81 260 0
-348 54 0
-348 72 0
-348 -260 0
348 -54 -72 260 0
-349 -260 0
-349 -347 0
-349 -348 0
349 260 347 348 0
346 349 -350 0
-346 -349 -350 0
346 -349 350 0
-346 349 350 0
-351 54 0
-351 70 0
-351 -256 0
351 -54 -70 256 0
-352 56 0
-352 79 0
-352 -256 0
352 -56 -79 256 0
-353 -256 0
-353 -351 0
-353 -352 0
353 256 351 352 0
-354 54 0
-354 70 0
-354 -260 0
354 -54 -70 260 0
-355 56 0
-355 79 0
-355 -260 0
355 -56 -79 260 0
-356 -260 0
-356 -354 0
-356 -355 0
356 260 354 355 0
353 356 -357 0
-353 -356 -357 0
353 -356 357 0
-353 356 357 0
-358 54 0
-358 71 0
-358 -256 0
358 -54 -71 256 0
-359 56 0
-359 80 0
-359 -256 0
359 -56 -80 256 0
-360 -256 0
-360 -358 0
-360 -359 0
360 256 358 359 0
-361 54 0
-361 71 0
-361 -260 0
361 -54 -71 260 0
-362 56 0
-362 80 0
-362 -260 0
362 -56 -80 260 0
-363 -260 0
-363 -361 0
-363 -362 0
363 260 361 362 0
360 363 -364 0
-360 -363 -364 0
360 -363 364 0
-360 363 364 0
-365 -265 0
-365 -269 0
-365 -273 0
-365 -284 0
-365 -288 0
-365 -292 0
-365 -296 0
-365 -300 0
-365 -304 0
-365 -308 0
-365 -315 0
-365 -322 0
-365 -329 0
-365 -336 0
-365 -343 0
-365 -350 0
-365 -357 0
-365 -364 0
365 265 269 273 284 288 292 296 300 304 308 315 322 329 336 343 350 357 364 0
-366 -57 0
-366 -58 0
366 57 58 0
-367 57 0
-367 -58 0
367 -57 58 0
-368 -57 0
-368 58 0
368 57 -58 0
-369 57 0
-369 58 0
369 -57 -58 0
-370 -16 0
370 16 0
-371 16 0
371 -16 0
-372 -17 0
372 17 0
-373 17 0
373 -17 0
-374 -19 0
374 19 0
-375 19 0
375 -19 0
-376 -39 0
376 39 0
-377 39 0
377 -39 0
-378 -54 0
378 54 0
-379 54 0
379 -54 0
-380 -55 0
380 55 0
-381 55 0
381 -55 0
-382 -56 0
382 56 0
-383 56 0
383 -56 0
-384 -61 0
384 61 0
-385 61 0
385 -61 0
-386 -62 0
386 62 0
-387 62 0
387 -62 0
-388 -63 0
388 63 0
-389 63 0
389 -63 0
-390 -64 0
390 64 0
-391 64 0
391 -64 0
-392 -65 0
392 65 0
-393 65 0
393 -65 0
-394 -66 0
394 66 0
-395 66 0
395 -66 0
-396 -67 0
396 67 0
-397 67 0
397 -67 0
-398 -68 0
398 68 0
-399 68 0
399 -68 0
-400 -69 0
400 69 0
-401 69 0
401 -69 0
-402 -70 0
402 70 0
-403 70 0
403 -70 0
-404 -71 0
404 71 0
-405 71 0
405 -71 0
-406 -72 0
406 72 0
-407 72 0
407 -72 0
-408 -73 0
408 73 0
-409 73 0
409 -73 0
-410 -74 0
410 74 0
-411 74 0
411 -74 0
-412 -75 0
412 75 0
-413 75 0
413 -75 0
-414 -76 0
414 76 0
-415 76 0
415 -76 0
-416 -77 0
416 77 0
-417 77 0
417 -77 0
-418 -78 0
418 78 0
-419 78 0
419 -78 0
-420 -79 0
420 79 0
-421 79 0
421 -79 0
-422 -80 0
422 80 0
-423 80 0
423 -80 0
-424 -81 0
424 81 0
-425 81 0
425 -81 0
-426 -82 0
426 82 0
-427 82 0
427 -82 0
-428 -83 0
428 83 0
-429 83 0
429 -83 0
-430 -84 0
430 84 0
-431 84 0
431 -84 0
-432 -93 0
432 93 0
-433 93 0
433 -93 0
-434 -94 0
434 94 0
-435 94 0
435 -94 0
-436 -95 0
436 95 0
-437 95 0
437 -95 0
-438 -100 0
438 100 0
-439 100 0
439 -100 0
-440 -101 0
440 101 0
-441 101 0
441 -101 0
-442 -110 0
442 110 0
-443 110 0
443 -110 0
-444 -116 0
444 116 0
-445 116 0
445 -116 0
-446 -122 0
446 122 0
-447 122 0
447 -122 0
-448 -126 0
448 126 0
-449 126 0
449 -126 0
-450 -133 0
450 133 0
-451 133 0
451 -133 0
-452 -134 0
452 134 0
-453 134 0
453 -134 0
-454 -140 0
454 140 0
-455 140 0
455 -140 0
-456 -164 0
456 164 0
-457 164 0
457 -164 0
