p cnf 67 52
-27 -3 0
-27 -4 0
27 3 4 0
-28 -5 0
-28 -6 0
28 5 6 0
-29 -7 0
-29 -8 0
29 7 8 0
-30 -9 0
-30 -10 0
30 9 10 0
-31 -11 0
-31 -12 0
31 11 12 0
-32 -13 0
-32 -14 0
32 13 14 0
-33 -15 0
-33 -16 0
33 15 16 0
-34 -17 0
-34 -18 0
34 17 18 0
-35 -19 0
-35 -20 0
35 19 20 0
-36 -21 0
-36 -22 0
36 21 22 0
-37 -23 0
-37 -24 0
37 23 24 0
-38 -25 0
-38 -26 0
38 25 26 0
-49 -27 0
-49 -28 0
-49 -29 0
-49 -30 0
-49 -31 0
-49 -32 0
-49 -33 0
-49 -34 0
-49 -35 0
-49 -36 0
-49 -37 0
-49 -38 0
49 27 28 29 30 31 32 33 34 35 36 37 38 0
-50 -2 0
-50 -49 0
50 2 49 0
