p cnf 177 482
53 0
29 30 -54 0
29 -30 54 0
-29 30 54 0
-29 -30 54 0
27 54 -55 0
27 -54 -55 0
-27 54 -55 0
-27 -54 55 0
31 32 -56 0
31 -32 56 0
-31 32 56 0
-31 -32 56 0
55 56 -57 0
55 -56 -57 0
-55 56 -57 0
-55 -56 57 0
33 34 -58 0
33 -34 58 0
-33 34 58 0
-33 -34 58 0
57 58 -59 0
57 -58 -59 0
-57 58 -59 0
-57 -58 59 0
35 36 -60 0
35 -36 60 0
-35 36 60 0
-35 -36 60 0
59 60 -61 0
59 -60 -61 0
-59 60 -61 0
-59 -60 61 0
37 38 -62 0
37 -38 62 0
-37 38 62 0
-37 -38 62 0
61 62 -63 0
61 -62 -63 0
-61 62 -63 0
-61 -62 63 0
39 40 -64 0
39 -40 64 0
-39 40 64 0
-39 -40 64 0
63 64 -65 0
63 -64 -65 0
-63 64 -65 0
-63 -64 65 0
41 42 -66 0
41 -42 66 0
-41 42 66 0
-41 -42 66 0
65 66 -67 0
65 -66 -67 0
-65 66 -67 0
-65 -66 67 0
43 44 -68 0
43 -44 68 0
-43 44 68 0
-43 -44 68 0
67 68 -69 0
67 -68 -69 0
-67 68 -69 0
-67 -68 69 0
45 46 -70 0
45 -46 70 0
-45 46 70 0
-45 -46 70 0
69 70 -71 0
69 -70 -71 0
-69 70 -71 0
-69 -70 71 0
47 48 -72 0
47 -48 72 0
-47 48 72 0
-47 -48 72 0
71 72 -73 0
71 -72 -73 0
-71 72 -73 0
-71 -72 73 0
49 50 -74 0
49 -50 74 0
-49 50 74 0
-49 -50 74 0
73 74 -75 0
73 -74 -75 0
-73 74 -75 0
-73 -74 75 0
51 52 -76 0
51 -52 76 0
-51 52 76 0
-51 -52 76 0
75 76 -77 0
75 -76 -77 0
-75 76 -77 0
-75 -76 77 0
54 -78 0
-54 78 0
78 56 -79 0
78 -56 -79 0
-78 56 -79 0
-78 -56 79 0
79 58 -80 0
79 -58 -80 0
-79 58 -80 0
-79 -58 80 0
80 60 -81 0
80 -60 -81 0
-80 60 -81 0
-80 -60 81 0
81 62 -82 0
81 -62 -82 0
-81 62 -82 0
-81 -62 82 0
82 64 -83 0
82 -64 -83 0
-82 64 -83 0
-82 -64 83 0
83 66 -84 0
83 -66 -84 0
-83 66 -84 0
-83 -66 84 0
84 68 -85 0
84 -68 -85 0
-84 68 -85 0
-84 -68 85 0
85 70 -86 0
85 -70 -86 0
-85 70 -86 0
-85 -70 86 0
86 72 -87 0
86 -72 -87 0
-86 72 -87 0
-86 -72 87 0
87 74 -88 0
87 -74 -88 0
-87 74 -88 0
-87 -74 88 0
88 76 -89 0
88 -76 -89 0
-88 76 -89 0
-88 -76 89 0
89 28 -90 0
89 -28 90 0
-89 28 90 0
-89 -28 90 0
90 91 0
-90 -91 0
77 91 -92 0
77 -91 92 0
-77 91 92 0
-77 -91 92 0
29 30 -93 0
29 -30 93 0
-29 30 93 0
-29 -30 93 0
-53 93 -94 0
-53 -93 -94 0
53 93 -94 0
53 -93 94 0
31 32 -95 0
31 -32 95 0
-31 32 95 0
-31 -32 95 0
94 95 -96 0
94 -95 -96 0
-94 95 -96 0
-94 -95 96 0
33 34 -97 0
33 -34 97 0
-33 34 97 0
-33 -34 97 0
96 97 -98 0
96 -97 -98 0
-96 97 -98 0
-96 -97 98 0
35 36 -99 0
35 -36 99 0
-35 36 99 0
-35 -36 99 0
98 99 -100 0
98 -99 -100 0
-98 99 -100 0
-98 -99 100 0
37 38 -101 0
37 -38 101 0
-37 38 101 0
-37 -38 101 0
100 101 -102 0
100 -101 -102 0
-100 101 -102 0
-100 -101 102 0
39 40 -103 0
39 -40 103 0
-39 40 103 0
-39 -40 103 0
102 103 -104 0
102 -103 -104 0
-102 103 -104 0
-102 -103 104 0
41 42 -105 0
41 -42 105 0
-41 42 105 0
-41 -42 105 0
104 105 -106 0
104 -105 -106 0
-104 105 -106 0
-104 -105 106 0
43 44 -107 0
43 -44 107 0
-43 44 107 0
-43 -44 107 0
106 107 -108 0
106 -107 -108 0
-106 107 -108 0
-106 -107 108 0
45 46 -109 0
45 -46 109 0
-45 46 109 0
-45 -46 109 0
108 109 -110 0
108 -109 -110 0
-108 109 -110 0
-108 -109 110 0
47 48 -111 0
47 -48 111 0
-47 48 111 0
-47 -48 111 0
110 111 -112 0
110 -111 -112 0
-110 111 -112 0
-110 -111 112 0
49 50 -113 0
49 -50 113 0
-49 50 113 0
-49 -50 113 0
112 113 -114 0
112 -113 -114 0
-112 113 -114 0
-112 -113 114 0
51 52 -115 0
51 -52 115 0
-51 52 115 0
-51 -52 115 0
114 115 -116 0
114 -115 -116 0
-114 115 -116 0
-114 -115 116 0
93 -117 0
-93 117 0
117 95 -118 0
117 -95 -118 0
-117 95 -118 0
-117 -95 118 0
118 97 -119 0
118 -97 -119 0
-118 97 -119 0
-118 -97 119 0
119 99 -120 0
119 -99 -120 0
-119 99 -120 0
-119 -99 120 0
120 101 -121 0
120 -101 -121 0
-120 101 -121 0
-120 -101 121 0
121 103 -122 0
121 -103 -122 0
-121 103 -122 0
-121 -103 122 0
122 105 -123 0
122 -105 -123 0
-122 105 -123 0
-122 -105 123 0
123 107 -124 0
123 -107 -124 0
-123 107 -124 0
-123 -107 124 0
124 109 -125 0
124 -109 -125 0
-124 109 -125 0
-124 -109 125 0
125 111 -126 0
125 -111 -126 0
-125 111 -126 0
-125 -111 126 0
126 113 -127 0
126 -113 -127 0
-126 113 -127 0
-126 -113 127 0
127 115 -128 0
127 -115 -128 0
-127 115 -128 0
-127 -115 128 0
128 28 -129 0
128 -28 129 0
-128 28 129 0
-128 -28 129 0
129 130 0
-129 -130 0
116 130 -131 0
116 -130 131 0
-116 130 131 0
-116 -130 131 0
92 131 -132 0
92 -131 132 0
-92 131 132 0
-92 -131 -132 0
77 90 -133 0
77 -90 -133 0
-77 90 -133 0
-77 -90 133 0
116 129 -134 0
116 -129 -134 0
-116 129 -134 0
-116 -129 134 0
133 134 -135 0
133 -134 135 0
-133 134 135 0
-133 -134 -135 0
-132 136 0
-135 136 0
-136 132 135 0
-1 27 0
1 -27 0
-2 28 0
2 -28 0
-3 29 0
3 -29 0
-4 30 0
4 -30 0
-5 31 0
5 -31 0
-6 32 0
6 -32 0
-7 33 0
7 -33 0
-8 34 0
8 -34 0
-9 35 0
9 -35 0
-10 36 0
10 -36 0
-11 37 0
11 -37 0
-12 38 0
12 -38 0
-13 39 0
13 -39 0
-14 40 0
14 -40 0
-15 41 0
15 -41 0
-16 42 0
16 -42 0
-17 43 0
17 -43 0
-18 44 0
18 -44 0
-19 45 0
19 -45 0
-20 46 0
20 -46 0
-21 47 0
21 -47 0
-22 48 0
22 -48 0
-23 49 0
23 -49 0
-24 50 0
24 -50 0
-25 51 0
25 -51 0
-26 52 0
26 -52 0
-137 1 0
137 -1 0
-138 -137 0
138 137 0
-139 3 0
139 -3 0
-140 4 0
140 -4 0
-141 -139 0
-141 -140 0
141 139 140 0
-142 5 0
142 -5 0
-143 6 0
143 -6 0
-144 -142 0
-144 -143 0
144 142 143 0
-145 7 0
145 -7 0
-146 8 0
146 -8 0
-147 -145 0
-147 -146 0
147 145 146 0
-148 9 0
148 -9 0
-149 10 0
149 -10 0
-150 -148 0
-150 -149 0
150 148 149 0
-151 11 0
151 -11 0
-152 12 0
152 -12 0
-153 -151 0
-153 -152 0
153 151 152 0
-154 13 0
154 -13 0
-155 14 0
155 -14 0
-156 -154 0
-156 -155 0
156 154 155 0
-157 15 0
157 -15 0
-158 16 0
158 -16 0
-159 -157 0
-159 -158 0
159 157 158 0
-160 17 0
160 -17 0
-161 18 0
161 -18 0
-162 -160 0
-162 -161 0
162 160 161 0
-163 19 0
163 -19 0
-164 20 0
164 -20 0
-165 -163 0
-165 -164 0
165 163 164 0
-166 21 0
166 -21 0
-167 22 0
167 -22 0
-168 -166 0
-168 -167 0
168 166 167 0
-169 23 0
169 -23 0
-170 24 0
170 -24 0
-171 -169 0
-171 -170 0
171 169 170 0
-172 25 0
172 -25 0
-173 26 0
173 -26 0
-174 -172 0
-174 -173 0
174 172 173 0
175 0
-176 -175 0
176 175 0
-177 -138 0
-177 -141 0
-177 -144 0
-177 -147 0
-177 -150 0
-177 -153 0
-177 -156 0
-177 -159 0
-177 -162 0
-177 -165 0
-177 -168 0
-177 -171 0
-177 -174 0
-177 -176 0
177 138 141 144 147 150 153 156 159 162 165 168 171 174 176 0
