p cnf 4273 57827
53 0
29 30 -54 0
29 -30 54 0
-29 30 54 0
-29 -30 54 0
27 54 -55 0
27 -54 -55 0
-27 54 -55 0
-27 -54 55 0
31 32 -56 0
31 -32 56 0
-31 32 56 0
-31 -32 56 0
55 56 -57 0
55 -56 -57 0
-55 56 -57 0
-55 -56 57 0
33 34 -58 0
33 -34 58 0
-33 34 58 0
-33 -34 58 0
57 58 -59 0
57 -58 -59 0
-57 58 -59 0
-57 -58 59 0
35 36 -60 0
35 -36 60 0
-35 36 60 0
-35 -36 60 0
59 60 -61 0
59 -60 -61 0
-59 60 -61 0
-59 -60 61 0
37 38 -62 0
37 -38 62 0
-37 38 62 0
-37 -38 62 0
61 62 -63 0
61 -62 -63 0
-61 62 -63 0
-61 -62 63 0
39 40 -64 0
39 -40 64 0
-39 40 64 0
-39 -40 64 0
63 64 -65 0
63 -64 -65 0
-63 64 -65 0
-63 -64 65 0
41 42 -66 0
41 -42 66 0
-41 42 66 0
-41 -42 66 0
65 66 -67 0
65 -66 -67 0
-65 66 -67 0
-65 -66 67 0
43 44 -68 0
43 -44 68 0
-43 44 68 0
-43 -44 68 0
67 68 -69 0
67 -68 -69 0
-67 68 -69 0
-67 -68 69 0
45 46 -70 0
45 -46 70 0
-45 46 70 0
-45 -46 70 0
69 70 -71 0
69 -70 -71 0
-69 70 -71 0
-69 -70 71 0
47 48 -72 0
47 -48 72 0
-47 48 72 0
-47 -48 72 0
71 72 -73 0
71 -72 -73 0
-71 72 -73 0
-71 -72 73 0
49 50 -74 0
49 -50 74 0
-49 50 74 0
-49 -50 74 0
73 74 -75 0
73 -74 -75 0
-73 74 -75 0
-73 -74 75 0
51 52 -76 0
51 -52 76 0
-51 52 76 0
-51 -52 76 0
75 76 -77 0
75 -76 -77 0
-75 76 -77 0
-75 -76 77 0
54 -78 0
-54 78 0
78 56 -79 0
78 -56 -79 0
-78 56 -79 0
-78 -56 79 0
79 58 -80 0
79 -58 -80 0
-79 58 -80 0
-79 -58 80 0
80 60 -81 0
80 -60 -81 0
-80 60 -81 0
-80 -60 81 0
81 62 -82 0
81 -62 -82 0
-81 62 -82 0
-81 -62 82 0
82 64 -83 0
82 -64 -83 0
-82 64 -83 0
-82 -64 83 0
83 66 -84 0
83 -66 -84 0
-83 66 -84 0
-83 -66 84 0
84 68 -85 0
84 -68 -85 0
-84 68 -85 0
-84 -68 85 0
85 70 -86 0
85 -70 -86 0
-85 70 -86 0
-85 -70 86 0
86 72 -87 0
86 -72 -87 0
-86 72 -87 0
-86 -72 87 0
87 74 -88 0
87 -74 -88 0
-87 74 -88 0
-87 -74 88 0
88 76 -89 0
88 -76 -89 0
-88 76 -89 0
-88 -76 89 0
89 28 -90 0
89 -28 90 0
-89 28 90 0
-89 -28 90 0
90 91 0
-90 -91 0
77 91 -92 0
77 -91 92 0
-77 91 92 0
-77 -91 92 0
29 30 -93 0
29 -30 93 0
-29 30 93 0
-29 -30 93 0
-53 93 -94 0
-53 -93 -94 0
53 93 -94 0
53 -93 94 0
31 32 -95 0
31 -32 95 0
-31 32 95 0
-31 -32 95 0
94 95 -96 0
94 -95 -96 0
-94 95 -96 0
-94 -95 96 0
33 34 -97 0
33 -34 97 0
-33 34 97 0
-33 -34 97 0
96 97 -98 0
96 -97 -98 0
-96 97 -98 0
-96 -97 98 0
35 36 -99 0
35 -36 99 0
-35 36 99 0
-35 -36 99 0
98 99 -100 0
98 -99 -100 0
-98 99 -100 0
-98 -99 100 0
37 38 -101 0
37 -38 101 0
-37 38 101 0
-37 -38 101 0
100 101 -102 0
100 -101 -102 0
-100 101 -102 0
-100 -101 102 0
39 40 -103 0
39 -40 103 0
-39 40 103 0
-39 -40 103 0
102 103 -104 0
102 -103 -104 0
-102 103 -104 0
-102 -103 104 0
41 42 -105 0
41 -42 105 0
-41 42 105 0
-41 -42 105 0
104 105 -106 0
104 -105 -106 0
-104 105 -106 0
-104 -105 106 0
43 44 -107 0
43 -44 107 0
-43 44 107 0
-43 -44 107 0
106 107 -108 0
106 -107 -108 0
-106 107 -108 0
-106 -107 108 0
45 46 -109 0
45 -46 109 0
-45 46 109 0
-45 -46 109 0
108 109 -110 0
108 -109 -110 0
-108 109 -110 0
-108 -109 110 0
47 48 -111 0
47 -48 111 0
-47 48 111 0
-47 -48 111 0
110 111 -112 0
110 -111 -112 0
-110 111 -112 0
-110 -111 112 0
49 50 -113 0
49 -50 113 0
-49 50 113 0
-49 -50 113 0
112 113 -114 0
112 -113 -114 0
-112 113 -114 0
-112 -113 114 0
51 52 -115 0
51 -52 115 0
-51 52 115 0
-51 -52 115 0
114 115 -116 0
114 -115 -116 0
-114 115 -116 0
-114 -115 116 0
93 -117 0
-93 117 0
117 95 -118 0
117 -95 -118 0
-117 95 -118 0
-117 -95 118 0
118 97 -119 0
118 -97 -119 0
-118 97 -119 0
-118 -97 119 0
119 99 -120 0
119 -99 -120 0
-119 99 -120 0
-119 -99 120 0
120 101 -121 0
120 -101 -121 0
-120 101 -121 0
-120 -101 121 0
121 103 -122 0
121 -103 -122 0
-121 103 -122 0
-121 -103 122 0
122 105 -123 0
122 -105 -123 0
-122 105 -123 0
-122 -105 123 0
123 107 -124 0
123 -107 -124 0
-123 107 -124 0
-123 -107 124 0
124 109 -125 0
124 -109 -125 0
-124 109 -125 0
-124 -109 125 0
125 111 -126 0
125 -111 -126 0
-125 111 -126 0
-125 -111 126 0
126 113 -127 0
126 -113 -127 0
-126 113 -127 0
-126 -113 127 0
127 115 -128 0
127 -115 -128 0
-127 115 -128 0
-127 -115 128 0
128 28 -129 0
128 -28 129 0
-128 28 129 0
-128 -28 129 0
129 130 0
-129 -130 0
116 130 -131 0
116 -130 131 0
-116 130 131 0
-116 -130 131 0
92 131 -132 0
92 -131 132 0
-92 131 132 0
-92 -131 -132 0
77 90 -133 0
77 -90 -133 0
-77 90 -133 0
-77 -90 133 0
116 129 -134 0
116 -129 -134 0
-116 129 -134 0
-116 -129 134 0
133 134 -135 0
133 -134 135 0
-133 134 135 0
-133 -134 -135 0
-132 136 0
-135 136 0
-136 132 135 0
-1 27 0
1 -27 0
-2 28 0
2 -28 0
-3 29 0
3 -29 0
-4 30 0
4 -30 0
-5 31 0
5 -31 0
-6 32 0
6 -32 0
-7 33 0
7 -33 0
-8 34 0
8 -34 0
-9 35 0
9 -35 0
-10 36 0
10 -36 0
-11 37 0
11 -37 0
-12 38 0
12 -38 0
-13 39 0
13 -39 0
-14 40 0
14 -40 0
-15 41 0
15 -41 0
-16 42 0
16 -42 0
-17 43 0
17 -43 0
-18 44 0
18 -44 0
-19 45 0
19 -45 0
-20 46 0
20 -46 0
-21 47 0
21 -47 0
-22 48 0
22 -48 0
-23 49 0
23 -49 0
-24 50 0
24 -50 0
-25 51 0
25 -51 0
-26 52 0
26 -52 0
-137 1 0
137 -1 0
-138 -137 0
138 137 0
-139 3 0
139 -3 0
-140 4 0
140 -4 0
-141 -139 0
-141 -140 0
141 139 140 0
-142 5 0
142 -5 0
-143 6 0
143 -6 0
-144 -142 0
-144 -143 0
144 142 143 0
-145 7 0
145 -7 0
-146 8 0
146 -8 0
-147 -145 0
-147 -146 0
147 145 146 0
-148 9 0
148 -9 0
-149 10 0
149 -10 0
-150 -148 0
-150 -149 0
150 148 149 0
-151 11 0
151 -11 0
-152 12 0
152 -12 0
-153 -151 0
-153 -152 0
153 151 152 0
-154 13 0
154 -13 0
-155 14 0
155 -14 0
-156 -154 0
-156 -155 0
156 154 155 0
-157 15 0
157 -15 0
-158 16 0
158 -16 0
-159 -157 0
-159 -158 0
159 157 158 0
-160 17 0
160 -17 0
-161 18 0
161 -18 0
-162 -160 0
-162 -161 0
162 160 161 0
-163 19 0
163 -19 0
-164 20 0
164 -20 0
-165 -163 0
-165 -164 0
165 163 164 0
-166 21 0
166 -21 0
-167 22 0
167 -22 0
-168 -166 0
-168 -167 0
168 166 167 0
-169 23 0
169 -23 0
-170 24 0
170 -24 0
-171 -169 0
-171 -170 0
171 169 170 0
-172 25 0
172 -25 0
-173 26 0
173 -26 0
-174 -172 0
-174 -173 0
174 172 173 0
-175 4 0
-175 6 0
-175 8 0
-175 10 0
-175 12 0
-175 14 0
-175 16 0
-175 18 0
-175 20 0
-175 22 0
-175 24 0
-175 26 0
175 -4 -6 -8 -10 -12 -14 -16 -18 -20 -22 -24 -26 0
-176 4 0
-176 6 0
-176 8 0
-176 10 0
-176 12 0
-176 14 0
-176 16 0
-176 18 0
-176 20 0
-176 22 0
-176 24 0
-176 25 0
176 -4 -6 -8 -10 -12 -14 -16 -18 -20 -22 -24 -25 0
-177 4 0
-177 6 0
-177 8 0
-177 10 0
-177 12 0
-177 14 0
-177 16 0
-177 18 0
-177 20 0
-177 22 0
-177 23 0
-177 26 0
177 -4 -6 -8 -10 -12 -14 -16 -18 -20 -22 -23 -26 0
-178 4 0
-178 6 0
-178 8 0
-178 10 0
-178 12 0
-178 14 0
-178 16 0
-178 18 0
-178 20 0
-178 22 0
-178 23 0
-178 25 0
178 -4 -6 -8 -10 -12 -14 -16 -18 -20 -22 -23 -25 0
-179 2 0
179 -2 0
-180 3 0
-180 5 0
-180 7 0
-180 9 0
-180 11 0
-180 13 0
-180 15 0
-180 17 0
-180 19 0
-180 21 0
-180 23 0
-180 25 0
180 -3 -5 -7 -9 -11 -13 -15 -17 -19 -21 -23 -25 0
-181 4 0
-181 5 0
-181 7 0
-181 9 0
-181 11 0
-181 13 0
-181 15 0
-181 17 0
-181 19 0
-181 21 0
-181 23 0
-181 25 0
181 -4 -5 -7 -9 -11 -13 -15 -17 -19 -21 -23 -25 0
-182 3 0
-182 6 0
-182 7 0
-182 9 0
-182 11 0
-182 13 0
-182 15 0
-182 17 0
-182 19 0
-182 21 0
-182 23 0
-182 25 0
182 -3 -6 -7 -9 -11 -13 -15 -17 -19 -21 -23 -25 0
-183 4 0
-183 6 0
-183 7 0
-183 9 0
-183 11 0
-183 13 0
-183 15 0
-183 17 0
-183 19 0
-183 21 0
-183 23 0
-183 25 0
183 -4 -6 -7 -9 -11 -13 -15 -17 -19 -21 -23 -25 0
-184 3 0
-184 5 0
-184 8 0
-184 9 0
-184 11 0
-184 13 0
-184 15 0
-184 17 0
-184 19 0
-184 21 0
-184 23 0
-184 25 0
184 -3 -5 -8 -9 -11 -13 -15 -17 -19 -21 -23 -25 0
-185 4 0
-185 5 0
-185 8 0
-185 9 0
-185 11 0
-185 13 0
-185 15 0
-185 17 0
-185 19 0
-185 21 0
-185 23 0
-185 25 0
185 -4 -5 -8 -9 -11 -13 -15 -17 -19 -21 -23 -25 0
-186 3 0
-186 6 0
-186 8 0
-186 9 0
-186 11 0
-186 13 0
-186 15 0
-186 17 0
-186 19 0
-186 21 0
-186 23 0
-186 25 0
186 -3 -6 -8 -9 -11 -13 -15 -17 -19 -21 -23 -25 0
-187 4 0
-187 6 0
-187 8 0
-187 9 0
-187 11 0
-187 13 0
-187 15 0
-187 17 0
-187 19 0
-187 21 0
-187 23 0
-187 25 0
187 -4 -6 -8 -9 -11 -13 -15 -17 -19 -21 -23 -25 0
-188 3 0
-188 6 0
-188 8 0
-188 10 0
-188 11 0
-188 13 0
-188 15 0
-188 17 0
-188 19 0
-188 21 0
-188 23 0
-188 25 0
188 -3 -6 -8 -10 -11 -13 -15 -17 -19 -21 -23 -25 0
-189 3 0
-189 5 0
-189 7 0
-189 10 0
-189 11 0
-189 13 0
-189 15 0
-189 17 0
-189 19 0
-189 21 0
-189 23 0
-189 25 0
189 -3 -5 -7 -10 -11 -13 -15 -17 -19 -21 -23 -25 0
-190 4 0
-190 5 0
-190 7 0
-190 10 0
-190 11 0
-190 13 0
-190 15 0
-190 17 0
-190 19 0
-190 21 0
-190 23 0
-190 25 0
190 -4 -5 -7 -10 -11 -13 -15 -17 -19 -21 -23 -25 0
-191 3 0
-191 6 0
-191 7 0
-191 10 0
-191 11 0
-191 13 0
-191 15 0
-191 17 0
-191 19 0
-191 21 0
-191 23 0
-191 25 0
191 -3 -6 -7 -10 -11 -13 -15 -17 -19 -21 -23 -25 0
-192 4 0
-192 6 0
-192 7 0
-192 10 0
-192 11 0
-192 13 0
-192 15 0
-192 17 0
-192 19 0
-192 21 0
-192 23 0
-192 25 0
192 -4 -6 -7 -10 -11 -13 -15 -17 -19 -21 -23 -25 0
-193 4 0
-193 6 0
-193 8 0
-193 10 0
-193 11 0
-193 13 0
-193 15 0
-193 17 0
-193 19 0
-193 21 0
-193 23 0
-193 25 0
193 -4 -6 -8 -10 -11 -13 -15 -17 -19 -21 -23 -25 0
-194 3 0
-194 5 0
-194 8 0
-194 10 0
-194 11 0
-194 13 0
-194 15 0
-194 17 0
-194 19 0
-194 21 0
-194 23 0
-194 25 0
194 -3 -5 -8 -10 -11 -13 -15 -17 -19 -21 -23 -25 0
-195 4 0
-195 5 0
-195 8 0
-195 10 0
-195 11 0
-195 13 0
-195 15 0
-195 17 0
-195 19 0
-195 21 0
-195 23 0
-195 25 0
195 -4 -5 -8 -10 -11 -13 -15 -17 -19 -21 -23 -25 0
-196 3 0
-196 6 0
-196 7 0
-196 10 0
-196 12 0
-196 13 0
-196 15 0
-196 17 0
-196 19 0
-196 21 0
-196 23 0
-196 25 0
196 -3 -6 -7 -10 -12 -13 -15 -17 -19 -21 -23 -25 0
-197 3 0
-197 5 0
-197 7 0
-197 9 0
-197 12 0
-197 13 0
-197 15 0
-197 17 0
-197 19 0
-197 21 0
-197 23 0
-197 25 0
197 -3 -5 -7 -9 -12 -13 -15 -17 -19 -21 -23 -25 0
-198 4 0
-198 5 0
-198 7 0
-198 9 0
-198 12 0
-198 13 0
-198 15 0
-198 17 0
-198 19 0
-198 21 0
-198 23 0
-198 25 0
198 -4 -5 -7 -9 -12 -13 -15 -17 -19 -21 -23 -25 0
-199 3 0
-199 6 0
-199 7 0
-199 9 0
-199 12 0
-199 13 0
-199 15 0
-199 17 0
-199 19 0
-199 21 0
-199 23 0
-199 25 0
199 -3 -6 -7 -9 -12 -13 -15 -17 -19 -21 -23 -25 0
-200 4 0
-200 6 0
-200 7 0
-200 9 0
-200 12 0
-200 13 0
-200 15 0
-200 17 0
-200 19 0
-200 21 0
-200 23 0
-200 25 0
200 -4 -6 -7 -9 -12 -13 -15 -17 -19 -21 -23 -25 0
-201 4 0
-201 6 0
-201 7 0
-201 10 0
-201 12 0
-201 13 0
-201 15 0
-201 17 0
-201 19 0
-201 21 0
-201 23 0
-201 25 0
201 -4 -6 -7 -10 -12 -13 -15 -17 -19 -21 -23 -25 0
-202 3 0
-202 5 0
-202 7 0
-202 10 0
-202 12 0
-202 13 0
-202 15 0
-202 17 0
-202 19 0
-202 21 0
-202 23 0
-202 25 0
202 -3 -5 -7 -10 -12 -13 -15 -17 -19 -21 -23 -25 0
-203 3 0
-203 5 0
-203 8 0
-203 9 0
-203 12 0
-203 13 0
-203 15 0
-203 17 0
-203 19 0
-203 21 0
-203 23 0
-203 25 0
203 -3 -5 -8 -9 -12 -13 -15 -17 -19 -21 -23 -25 0
-204 3 0
-204 6 0
-204 8 0
-204 9 0
-204 12 0
-204 13 0
-204 15 0
-204 17 0
-204 19 0
-204 21 0
-204 23 0
-204 25 0
204 -3 -6 -8 -9 -12 -13 -15 -17 -19 -21 -23 -25 0
-205 4 0
-205 5 0
-205 8 0
-205 9 0
-205 12 0
-205 13 0
-205 15 0
-205 17 0
-205 19 0
-205 21 0
-205 23 0
-205 25 0
205 -4 -5 -8 -9 -12 -13 -15 -17 -19 -21 -23 -25 0
-206 4 0
-206 5 0
-206 7 0
-206 10 0
-206 12 0
-206 13 0
-206 15 0
-206 17 0
-206 19 0
-206 21 0
-206 23 0
-206 25 0
206 -4 -5 -7 -10 -12 -13 -15 -17 -19 -21 -23 -25 0
-207 3 0
-207 5 0
-207 8 0
-207 10 0
-207 12 0
-207 13 0
-207 15 0
-207 17 0
-207 19 0
-207 21 0
-207 23 0
-207 25 0
207 -3 -5 -8 -10 -12 -13 -15 -17 -19 -21 -23 -25 0
-208 4 0
-208 5 0
-208 8 0
-208 10 0
-208 12 0
-208 13 0
-208 15 0
-208 17 0
-208 19 0
-208 21 0
-208 23 0
-208 25 0
208 -4 -5 -8 -10 -12 -13 -15 -17 -19 -21 -23 -25 0
-209 3 0
-209 6 0
-209 8 0
-209 10 0
-209 12 0
-209 13 0
-209 15 0
-209 17 0
-209 19 0
-209 21 0
-209 23 0
-209 25 0
209 -3 -6 -8 -10 -12 -13 -15 -17 -19 -21 -23 -25 0
-210 4 0
-210 6 0
-210 8 0
-210 10 0
-210 12 0
-210 13 0
-210 15 0
-210 17 0
-210 19 0
-210 21 0
-210 23 0
-210 25 0
210 -4 -6 -8 -10 -12 -13 -15 -17 -19 -21 -23 -25 0
-211 4 0
-211 6 0
-211 8 0
-211 9 0
-211 12 0
-211 13 0
-211 15 0
-211 17 0
-211 19 0
-211 21 0
-211 23 0
-211 25 0
211 -4 -6 -8 -9 -12 -13 -15 -17 -19 -21 -23 -25 0
-212 3 0
-212 6 0
-212 7 0
-212 9 0
-212 12 0
-212 14 0
-212 15 0
-212 17 0
-212 19 0
-212 21 0
-212 23 0
-212 25 0
212 -3 -6 -7 -9 -12 -14 -15 -17 -19 -21 -23 -25 0
-213 3 0
-213 5 0
-213 7 0
-213 9 0
-213 11 0
-213 14 0
-213 15 0
-213 17 0
-213 19 0
-213 21 0
-213 23 0
-213 25 0
213 -3 -5 -7 -9 -11 -14 -15 -17 -19 -21 -23 -25 0
-214 4 0
-214 5 0
-214 7 0
-214 9 0
-214 11 0
-214 14 0
-214 15 0
-214 17 0
-214 19 0
-214 21 0
-214 23 0
-214 25 0
214 -4 -5 -7 -9 -11 -14 -15 -17 -19 -21 -23 -25 0
-215 3 0
-215 6 0
-215 7 0
-215 9 0
-215 11 0
-215 14 0
-215 15 0
-215 17 0
-215 19 0
-215 21 0
-215 23 0
-215 25 0
215 -3 -6 -7 -9 -11 -14 -15 -17 -19 -21 -23 -25 0
-216 4 0
-216 6 0
-216 7 0
-216 9 0
-216 11 0
-216 14 0
-216 15 0
-216 17 0
-216 19 0
-216 21 0
-216 23 0
-216 25 0
216 -4 -6 -7 -9 -11 -14 -15 -17 -19 -21 -23 -25 0
-217 4 0
-217 6 0
-217 7 0
-217 9 0
-217 12 0
-217 14 0
-217 15 0
-217 17 0
-217 19 0
-217 21 0
-217 23 0
-217 25 0
217 -4 -6 -7 -9 -12 -14 -15 -17 -19 -21 -23 -25 0
-218 3 0
-218 5 0
-218 7 0
-218 9 0
-218 12 0
-218 14 0
-218 15 0
-218 17 0
-218 19 0
-218 21 0
-218 23 0
-218 25 0
218 -3 -5 -7 -9 -12 -14 -15 -17 -19 -21 -23 -25 0
-219 3 0
-219 5 0
-219 8 0
-219 9 0
-219 11 0
-219 14 0
-219 15 0
-219 17 0
-219 19 0
-219 21 0
-219 23 0
-219 25 0
219 -3 -5 -8 -9 -11 -14 -15 -17 -19 -21 -23 -25 0
-220 3 0
-220 6 0
-220 8 0
-220 9 0
-220 11 0
-220 14 0
-220 15 0
-220 17 0
-220 19 0
-220 21 0
-220 23 0
-220 25 0
220 -3 -6 -8 -9 -11 -14 -15 -17 -19 -21 -23 -25 0
-221 4 0
-221 5 0
-221 8 0
-221 9 0
-221 11 0
-221 14 0
-221 15 0
-221 17 0
-221 19 0
-221 21 0
-221 23 0
-221 25 0
221 -4 -5 -8 -9 -11 -14 -15 -17 -19 -21 -23 -25 0
-222 4 0
-222 5 0
-222 7 0
-222 9 0
-222 12 0
-222 14 0
-222 15 0
-222 17 0
-222 19 0
-222 21 0
-222 23 0
-222 25 0
222 -4 -5 -7 -9 -12 -14 -15 -17 -19 -21 -23 -25 0
-223 3 0
-223 5 0
-223 8 0
-223 9 0
-223 12 0
-223 14 0
-223 15 0
-223 17 0
-223 19 0
-223 21 0
-223 23 0
-223 25 0
223 -3 -5 -8 -9 -12 -14 -15 -17 -19 -21 -23 -25 0
-224 4 0
-224 5 0
-224 8 0
-224 9 0
-224 12 0
-224 14 0
-224 15 0
-224 17 0
-224 19 0
-224 21 0
-224 23 0
-224 25 0
224 -4 -5 -8 -9 -12 -14 -15 -17 -19 -21 -23 -25 0
-225 3 0
-225 6 0
-225 8 0
-225 9 0
-225 12 0
-225 14 0
-225 15 0
-225 17 0
-225 19 0
-225 21 0
-225 23 0
-225 25 0
225 -3 -6 -8 -9 -12 -14 -15 -17 -19 -21 -23 -25 0
-226 3 0
-226 5 0
-226 7 0
-226 10 0
-226 11 0
-226 14 0
-226 15 0
-226 17 0
-226 19 0
-226 21 0
-226 23 0
-226 25 0
226 -3 -5 -7 -10 -11 -14 -15 -17 -19 -21 -23 -25 0
-227 3 0
-227 6 0
-227 7 0
-227 10 0
-227 11 0
-227 14 0
-227 15 0
-227 17 0
-227 19 0
-227 21 0
-227 23 0
-227 25 0
227 -3 -6 -7 -10 -11 -14 -15 -17 -19 -21 -23 -25 0
-228 4 0
-228 5 0
-228 7 0
-228 10 0
-228 11 0
-228 14 0
-228 15 0
-228 17 0
-228 19 0
-228 21 0
-228 23 0
-228 25 0
228 -4 -5 -7 -10 -11 -14 -15 -17 -19 -21 -23 -25 0
-229 4 0
-229 6 0
-229 8 0
-229 9 0
-229 12 0
-229 14 0
-229 15 0
-229 17 0
-229 19 0
-229 21 0
-229 23 0
-229 25 0
229 -4 -6 -8 -9 -12 -14 -15 -17 -19 -21 -23 -25 0
-230 3 0
-230 6 0
-230 8 0
-230 10 0
-230 12 0
-230 14 0
-230 15 0
-230 17 0
-230 19 0
-230 21 0
-230 23 0
-230 25 0
230 -3 -6 -8 -10 -12 -14 -15 -17 -19 -21 -23 -25 0
-231 4 0
-231 6 0
-231 8 0
-231 10 0
-231 12 0
-231 14 0
-231 15 0
-231 17 0
-231 19 0
-231 21 0
-231 23 0
-231 25 0
231 -4 -6 -8 -10 -12 -14 -15 -17 -19 -21 -23 -25 0
-232 3 0
-232 5 0
-232 8 0
-232 10 0
-232 12 0
-232 14 0
-232 15 0
-232 17 0
-232 19 0
-232 21 0
-232 23 0
-232 25 0
232 -3 -5 -8 -10 -12 -14 -15 -17 -19 -21 -23 -25 0
-233 4 0
-233 5 0
-233 8 0
-233 10 0
-233 11 0
-233 14 0
-233 15 0
-233 17 0
-233 19 0
-233 21 0
-233 23 0
-233 25 0
233 -4 -5 -8 -10 -11 -14 -15 -17 -19 -21 -23 -25 0
-234 4 0
-234 6 0
-234 7 0
-234 10 0
-234 11 0
-234 14 0
-234 15 0
-234 17 0
-234 19 0
-234 21 0
-234 23 0
-234 25 0
234 -4 -6 -7 -10 -11 -14 -15 -17 -19 -21 -23 -25 0
-235 4 0
-235 5 0
-235 8 0
-235 10 0
-235 12 0
-235 14 0
-235 15 0
-235 17 0
-235 19 0
-235 21 0
-235 23 0
-235 25 0
235 -4 -5 -8 -10 -12 -14 -15 -17 -19 -21 -23 -25 0
-236 3 0
-236 5 0
-236 7 0
-236 10 0
-236 12 0
-236 14 0
-236 15 0
-236 17 0
-236 19 0
-236 21 0
-236 23 0
-236 25 0
236 -3 -5 -7 -10 -12 -14 -15 -17 -19 -21 -23 -25 0
-237 4 0
-237 5 0
-237 7 0
-237 10 0
-237 12 0
-237 14 0
-237 15 0
-237 17 0
-237 19 0
-237 21 0
-237 23 0
-237 25 0
237 -4 -5 -7 -10 -12 -14 -15 -17 -19 -21 -23 -25 0
-238 3 0
-238 6 0
-238 7 0
-238 10 0
-238 12 0
-238 14 0
-238 15 0
-238 17 0
-238 19 0
-238 21 0
-238 23 0
-238 25 0
238 -3 -6 -7 -10 -12 -14 -15 -17 -19 -21 -23 -25 0
-239 4 0
-239 6 0
-239 7 0
-239 10 0
-239 12 0
-239 14 0
-239 15 0
-239 17 0
-239 19 0
-239 21 0
-239 23 0
-239 25 0
239 -4 -6 -7 -10 -12 -14 -15 -17 -19 -21 -23 -25 0
-240 3 0
-240 5 0
-240 8 0
-240 10 0
-240 11 0
-240 14 0
-240 15 0
-240 17 0
-240 19 0
-240 21 0
-240 23 0
-240 25 0
240 -3 -5 -8 -10 -11 -14 -15 -17 -19 -21 -23 -25 0
-241 4 0
-241 6 0
-241 8 0
-241 9 0
-241 11 0
-241 14 0
-241 15 0
-241 17 0
-241 19 0
-241 21 0
-241 23 0
-241 25 0
241 -4 -6 -8 -9 -11 -14 -15 -17 -19 -21 -23 -25 0
-242 3 0
-242 6 0
-242 8 0
-242 10 0
-242 11 0
-242 14 0
-242 15 0
-242 17 0
-242 19 0
-242 21 0
-242 23 0
-242 25 0
242 -3 -6 -8 -10 -11 -14 -15 -17 -19 -21 -23 -25 0
-243 4 0
-243 6 0
-243 8 0
-243 10 0
-243 11 0
-243 14 0
-243 15 0
-243 17 0
-243 19 0
-243 21 0
-243 23 0
-243 25 0
243 -4 -6 -8 -10 -11 -14 -15 -17 -19 -21 -23 -25 0
-244 3 0
-244 6 0
-244 7 0
-244 9 0
-244 11 0
-244 14 0
-244 16 0
-244 17 0
-244 19 0
-244 21 0
-244 23 0
-244 25 0
244 -3 -6 -7 -9 -11 -14 -16 -17 -19 -21 -23 -25 0
-245 3 0
-245 5 0
-245 7 0
-245 9 0
-245 11 0
-245 13 0
-245 16 0
-245 17 0
-245 19 0
-245 21 0
-245 23 0
-245 25 0
245 -3 -5 -7 -9 -11 -13 -16 -17 -19 -21 -23 -25 0
-246 4 0
-246 5 0
-246 7 0
-246 9 0
-246 11 0
-246 13 0
-246 16 0
-246 17 0
-246 19 0
-246 21 0
-246 23 0
-246 25 0
246 -4 -5 -7 -9 -11 -13 -16 -17 -19 -21 -23 -25 0
-247 3 0
-247 6 0
-247 7 0
-247 9 0
-247 11 0
-247 13 0
-247 16 0
-247 17 0
-247 19 0
-247 21 0
-247 23 0
-247 25 0
247 -3 -6 -7 -9 -11 -13 -16 -17 -19 -21 -23 -25 0
-248 4 0
-248 6 0
-248 7 0
-248 9 0
-248 11 0
-248 13 0
-248 16 0
-248 17 0
-248 19 0
-248 21 0
-248 23 0
-248 25 0
248 -4 -6 -7 -9 -11 -13 -16 -17 -19 -21 -23 -25 0
-249 4 0
-249 6 0
-249 7 0
-249 9 0
-249 11 0
-249 14 0
-249 16 0
-249 17 0
-249 19 0
-249 21 0
-249 23 0
-249 25 0
249 -4 -6 -7 -9 -11 -14 -16 -17 -19 -21 -23 -25 0
-250 3 0
-250 5 0
-250 7 0
-250 9 0
-250 11 0
-250 14 0
-250 16 0
-250 17 0
-250 19 0
-250 21 0
-250 23 0
-250 25 0
250 -3 -5 -7 -9 -11 -14 -16 -17 -19 -21 -23 -25 0
-251 3 0
-251 5 0
-251 8 0
-251 9 0
-251 11 0
-251 13 0
-251 16 0
-251 17 0
-251 19 0
-251 21 0
-251 23 0
-251 25 0
251 -3 -5 -8 -9 -11 -13 -16 -17 -19 -21 -23 -25 0
-252 3 0
-252 6 0
-252 8 0
-252 9 0
-252 11 0
-252 13 0
-252 16 0
-252 17 0
-252 19 0
-252 21 0
-252 23 0
-252 25 0
252 -3 -6 -8 -9 -11 -13 -16 -17 -19 -21 -23 -25 0
-253 4 0
-253 5 0
-253 8 0
-253 9 0
-253 11 0
-253 13 0
-253 16 0
-253 17 0
-253 19 0
-253 21 0
-253 23 0
-253 25 0
253 -4 -5 -8 -9 -11 -13 -16 -17 -19 -21 -23 -25 0
-254 4 0
-254 5 0
-254 7 0
-254 9 0
-254 11 0
-254 14 0
-254 16 0
-254 17 0
-254 19 0
-254 21 0
-254 23 0
-254 25 0
254 -4 -5 -7 -9 -11 -14 -16 -17 -19 -21 -23 -25 0
-255 3 0
-255 5 0
-255 8 0
-255 9 0
-255 11 0
-255 14 0
-255 16 0
-255 17 0
-255 19 0
-255 21 0
-255 23 0
-255 25 0
255 -3 -5 -8 -9 -11 -14 -16 -17 -19 -21 -23 -25 0
-256 4 0
-256 5 0
-256 8 0
-256 9 0
-256 11 0
-256 14 0
-256 16 0
-256 17 0
-256 19 0
-256 21 0
-256 23 0
-256 25 0
256 -4 -5 -8 -9 -11 -14 -16 -17 -19 -21 -23 -25 0
-257 3 0
-257 6 0
-257 8 0
-257 9 0
-257 11 0
-257 14 0
-257 16 0
-257 17 0
-257 19 0
-257 21 0
-257 23 0
-257 25 0
257 -3 -6 -8 -9 -11 -14 -16 -17 -19 -21 -23 -25 0
-258 3 0
-258 5 0
-258 7 0
-258 10 0
-258 11 0
-258 13 0
-258 16 0
-258 17 0
-258 19 0
-258 21 0
-258 23 0
-258 25 0
258 -3 -5 -7 -10 -11 -13 -16 -17 -19 -21 -23 -25 0
-259 3 0
-259 6 0
-259 7 0
-259 10 0
-259 11 0
-259 13 0
-259 16 0
-259 17 0
-259 19 0
-259 21 0
-259 23 0
-259 25 0
259 -3 -6 -7 -10 -11 -13 -16 -17 -19 -21 -23 -25 0
-260 4 0
-260 5 0
-260 7 0
-260 10 0
-260 11 0
-260 13 0
-260 16 0
-260 17 0
-260 19 0
-260 21 0
-260 23 0
-260 25 0
260 -4 -5 -7 -10 -11 -13 -16 -17 -19 -21 -23 -25 0
-261 4 0
-261 6 0
-261 8 0
-261 9 0
-261 11 0
-261 14 0
-261 16 0
-261 17 0
-261 19 0
-261 21 0
-261 23 0
-261 25 0
261 -4 -6 -8 -9 -11 -14 -16 -17 -19 -21 -23 -25 0
-262 3 0
-262 6 0
-262 8 0
-262 10 0
-262 11 0
-262 14 0
-262 16 0
-262 17 0
-262 19 0
-262 21 0
-262 23 0
-262 25 0
262 -3 -6 -8 -10 -11 -14 -16 -17 -19 -21 -23 -25 0
-263 4 0
-263 6 0
-263 8 0
-263 10 0
-263 11 0
-263 14 0
-263 16 0
-263 17 0
-263 19 0
-263 21 0
-263 23 0
-263 25 0
263 -4 -6 -8 -10 -11 -14 -16 -17 -19 -21 -23 -25 0
-264 3 0
-264 5 0
-264 8 0
-264 10 0
-264 11 0
-264 14 0
-264 16 0
-264 17 0
-264 19 0
-264 21 0
-264 23 0
-264 25 0
264 -3 -5 -8 -10 -11 -14 -16 -17 -19 -21 -23 -25 0
-265 4 0
-265 5 0
-265 8 0
-265 10 0
-265 11 0
-265 13 0
-265 16 0
-265 17 0
-265 19 0
-265 21 0
-265 23 0
-265 25 0
265 -4 -5 -8 -10 -11 -13 -16 -17 -19 -21 -23 -25 0
-266 4 0
-266 6 0
-266 7 0
-266 10 0
-266 11 0
-266 13 0
-266 16 0
-266 17 0
-266 19 0
-266 21 0
-266 23 0
-266 25 0
266 -4 -6 -7 -10 -11 -13 -16 -17 -19 -21 -23 -25 0
-267 4 0
-267 5 0
-267 8 0
-267 10 0
-267 11 0
-267 14 0
-267 16 0
-267 17 0
-267 19 0
-267 21 0
-267 23 0
-267 25 0
267 -4 -5 -8 -10 -11 -14 -16 -17 -19 -21 -23 -25 0
-268 3 0
-268 5 0
-268 7 0
-268 10 0
-268 11 0
-268 14 0
-268 16 0
-268 17 0
-268 19 0
-268 21 0
-268 23 0
-268 25 0
268 -3 -5 -7 -10 -11 -14 -16 -17 -19 -21 -23 -25 0
-269 4 0
-269 5 0
-269 7 0
-269 10 0
-269 11 0
-269 14 0
-269 16 0
-269 17 0
-269 19 0
-269 21 0
-269 23 0
-269 25 0
269 -4 -5 -7 -10 -11 -14 -16 -17 -19 -21 -23 -25 0
-270 3 0
-270 6 0
-270 7 0
-270 10 0
-270 11 0
-270 14 0
-270 16 0
-270 17 0
-270 19 0
-270 21 0
-270 23 0
-270 25 0
270 -3 -6 -7 -10 -11 -14 -16 -17 -19 -21 -23 -25 0
-271 3 0
-271 5 0
-271 7 0
-271 9 0
-271 12 0
-271 13 0
-271 16 0
-271 17 0
-271 19 0
-271 21 0
-271 23 0
-271 25 0
271 -3 -5 -7 -9 -12 -13 -16 -17 -19 -21 -23 -25 0
-272 3 0
-272 6 0
-272 7 0
-272 9 0
-272 12 0
-272 13 0
-272 16 0
-272 17 0
-272 19 0
-272 21 0
-272 23 0
-272 25 0
272 -3 -6 -7 -9 -12 -13 -16 -17 -19 -21 -23 -25 0
-273 4 0
-273 5 0
-273 7 0
-273 9 0
-273 12 0
-273 13 0
-273 16 0
-273 17 0
-273 19 0
-273 21 0
-273 23 0
-273 25 0
273 -4 -5 -7 -9 -12 -13 -16 -17 -19 -21 -23 -25 0
-274 4 0
-274 6 0
-274 7 0
-274 10 0
-274 11 0
-274 14 0
-274 16 0
-274 17 0
-274 19 0
-274 21 0
-274 23 0
-274 25 0
274 -4 -6 -7 -10 -11 -14 -16 -17 -19 -21 -23 -25 0
-275 3 0
-275 6 0
-275 7 0
-275 10 0
-275 12 0
-275 14 0
-275 16 0
-275 17 0
-275 19 0
-275 21 0
-275 23 0
-275 25 0
275 -3 -6 -7 -10 -12 -14 -16 -17 -19 -21 -23 -25 0
-276 4 0
-276 6 0
-276 7 0
-276 10 0
-276 12 0
-276 14 0
-276 16 0
-276 17 0
-276 19 0
-276 21 0
-276 23 0
-276 25 0
276 -4 -6 -7 -10 -12 -14 -16 -17 -19 -21 -23 -25 0
-277 3 0
-277 5 0
-277 7 0
-277 10 0
-277 12 0
-277 14 0
-277 16 0
-277 17 0
-277 19 0
-277 21 0
-277 23 0
-277 25 0
277 -3 -5 -7 -10 -12 -14 -16 -17 -19 -21 -23 -25 0
-278 3 0
-278 5 0
-278 8 0
-278 9 0
-278 12 0
-278 13 0
-278 16 0
-278 17 0
-278 19 0
-278 21 0
-278 23 0
-278 25 0
278 -3 -5 -8 -9 -12 -13 -16 -17 -19 -21 -23 -25 0
-279 3 0
-279 6 0
-279 8 0
-279 9 0
-279 12 0
-279 13 0
-279 16 0
-279 17 0
-279 19 0
-279 21 0
-279 23 0
-279 25 0
279 -3 -6 -8 -9 -12 -13 -16 -17 -19 -21 -23 -25 0
-280 4 0
-280 5 0
-280 8 0
-280 9 0
-280 12 0
-280 13 0
-280 16 0
-280 17 0
-280 19 0
-280 21 0
-280 23 0
-280 25 0
280 -4 -5 -8 -9 -12 -13 -16 -17 -19 -21 -23 -25 0
-281 4 0
-281 5 0
-281 7 0
-281 10 0
-281 12 0
-281 14 0
-281 16 0
-281 17 0
-281 19 0
-281 21 0
-281 23 0
-281 25 0
281 -4 -5 -7 -10 -12 -14 -16 -17 -19 -21 -23 -25 0
-282 3 0
-282 5 0
-282 8 0
-282 10 0
-282 12 0
-282 14 0
-282 16 0
-282 17 0
-282 19 0
-282 21 0
-282 23 0
-282 25 0
282 -3 -5 -8 -10 -12 -14 -16 -17 -19 -21 -23 -25 0
-283 4 0
-283 5 0
-283 8 0
-283 10 0
-283 12 0
-283 14 0
-283 16 0
-283 17 0
-283 19 0
-283 21 0
-283 23 0
-283 25 0
283 -4 -5 -8 -10 -12 -14 -16 -17 -19 -21 -23 -25 0
-284 3 0
-284 6 0
-284 8 0
-284 10 0
-284 12 0
-284 14 0
-284 16 0
-284 17 0
-284 19 0
-284 21 0
-284 23 0
-284 25 0
284 -3 -6 -8 -10 -12 -14 -16 -17 -19 -21 -23 -25 0
-285 4 0
-285 6 0
-285 7 0
-285 9 0
-285 12 0
-285 13 0
-285 16 0
-285 17 0
-285 19 0
-285 21 0
-285 23 0
-285 25 0
285 -4 -6 -7 -9 -12 -13 -16 -17 -19 -21 -23 -25 0
-286 4 0
-286 6 0
-286 8 0
-286 10 0
-286 12 0
-286 14 0
-286 16 0
-286 17 0
-286 19 0
-286 21 0
-286 23 0
-286 25 0
286 -4 -6 -8 -10 -12 -14 -16 -17 -19 -21 -23 -25 0
-287 3 0
-287 6 0
-287 8 0
-287 9 0
-287 12 0
-287 14 0
-287 16 0
-287 17 0
-287 19 0
-287 21 0
-287 23 0
-287 25 0
287 -3 -6 -8 -9 -12 -14 -16 -17 -19 -21 -23 -25 0
-288 4 0
-288 6 0
-288 8 0
-288 9 0
-288 12 0
-288 14 0
-288 16 0
-288 17 0
-288 19 0
-288 21 0
-288 23 0
-288 25 0
288 -4 -6 -8 -9 -12 -14 -16 -17 -19 -21 -23 -25 0
-289 3 0
-289 5 0
-289 8 0
-289 9 0
-289 12 0
-289 14 0
-289 16 0
-289 17 0
-289 19 0
-289 21 0
-289 23 0
-289 25 0
289 -3 -5 -8 -9 -12 -14 -16 -17 -19 -21 -23 -25 0
-290 4 0
-290 5 0
-290 8 0
-290 9 0
-290 12 0
-290 14 0
-290 16 0
-290 17 0
-290 19 0
-290 21 0
-290 23 0
-290 25 0
290 -4 -5 -8 -9 -12 -14 -16 -17 -19 -21 -23 -25 0
-291 3 0
-291 5 0
-291 7 0
-291 9 0
-291 12 0
-291 14 0
-291 16 0
-291 17 0
-291 19 0
-291 21 0
-291 23 0
-291 25 0
291 -3 -5 -7 -9 -12 -14 -16 -17 -19 -21 -23 -25 0
-292 4 0
-292 5 0
-292 7 0
-292 9 0
-292 12 0
-292 14 0
-292 16 0
-292 17 0
-292 19 0
-292 21 0
-292 23 0
-292 25 0
292 -4 -5 -7 -9 -12 -14 -16 -17 -19 -21 -23 -25 0
-293 3 0
-293 6 0
-293 7 0
-293 9 0
-293 12 0
-293 14 0
-293 16 0
-293 17 0
-293 19 0
-293 21 0
-293 23 0
-293 25 0
293 -3 -6 -7 -9 -12 -14 -16 -17 -19 -21 -23 -25 0
-294 4 0
-294 6 0
-294 7 0
-294 9 0
-294 12 0
-294 14 0
-294 16 0
-294 17 0
-294 19 0
-294 21 0
-294 23 0
-294 25 0
294 -4 -6 -7 -9 -12 -14 -16 -17 -19 -21 -23 -25 0
-295 4 0
-295 6 0
-295 8 0
-295 9 0
-295 12 0
-295 13 0
-295 16 0
-295 17 0
-295 19 0
-295 21 0
-295 23 0
-295 25 0
295 -4 -6 -8 -9 -12 -13 -16 -17 -19 -21 -23 -25 0
-296 3 0
-296 6 0
-296 8 0
-296 10 0
-296 12 0
-296 13 0
-296 16 0
-296 17 0
-296 19 0
-296 21 0
-296 23 0
-296 25 0
296 -3 -6 -8 -10 -12 -13 -16 -17 -19 -21 -23 -25 0
-297 4 0
-297 6 0
-297 8 0
-297 10 0
-297 12 0
-297 13 0
-297 16 0
-297 17 0
-297 19 0
-297 21 0
-297 23 0
-297 25 0
297 -4 -6 -8 -10 -12 -13 -16 -17 -19 -21 -23 -25 0
-298 3 0
-298 5 0
-298 8 0
-298 10 0
-298 12 0
-298 13 0
-298 16 0
-298 17 0
-298 19 0
-298 21 0
-298 23 0
-298 25 0
298 -3 -5 -8 -10 -12 -13 -16 -17 -19 -21 -23 -25 0
-299 4 0
-299 5 0
-299 8 0
-299 10 0
-299 12 0
-299 13 0
-299 16 0
-299 17 0
-299 19 0
-299 21 0
-299 23 0
-299 25 0
299 -4 -5 -8 -10 -12 -13 -16 -17 -19 -21 -23 -25 0
-300 3 0
-300 5 0
-300 7 0
-300 10 0
-300 12 0
-300 13 0
-300 16 0
-300 17 0
-300 19 0
-300 21 0
-300 23 0
-300 25 0
300 -3 -5 -7 -10 -12 -13 -16 -17 -19 -21 -23 -25 0
-301 4 0
-301 5 0
-301 7 0
-301 10 0
-301 12 0
-301 13 0
-301 16 0
-301 17 0
-301 19 0
-301 21 0
-301 23 0
-301 25 0
301 -4 -5 -7 -10 -12 -13 -16 -17 -19 -21 -23 -25 0
-302 3 0
-302 6 0
-302 7 0
-302 10 0
-302 12 0
-302 13 0
-302 16 0
-302 17 0
-302 19 0
-302 21 0
-302 23 0
-302 25 0
302 -3 -6 -7 -10 -12 -13 -16 -17 -19 -21 -23 -25 0
-303 4 0
-303 6 0
-303 7 0
-303 10 0
-303 12 0
-303 13 0
-303 16 0
-303 17 0
-303 19 0
-303 21 0
-303 23 0
-303 25 0
303 -4 -6 -7 -10 -12 -13 -16 -17 -19 -21 -23 -25 0
-304 3 0
-304 5 0
-304 8 0
-304 10 0
-304 11 0
-304 13 0
-304 16 0
-304 17 0
-304 19 0
-304 21 0
-304 23 0
-304 25 0
304 -3 -5 -8 -10 -11 -13 -16 -17 -19 -21 -23 -25 0
-305 4 0
-305 6 0
-305 8 0
-305 9 0
-305 11 0
-305 13 0
-305 16 0
-305 17 0
-305 19 0
-305 21 0
-305 23 0
-305 25 0
305 -4 -6 -8 -9 -11 -13 -16 -17 -19 -21 -23 -25 0
-306 3 0
-306 6 0
-306 8 0
-306 10 0
-306 11 0
-306 13 0
-306 16 0
-306 17 0
-306 19 0
-306 21 0
-306 23 0
-306 25 0
306 -3 -6 -8 -10 -11 -13 -16 -17 -19 -21 -23 -25 0
-307 4 0
-307 6 0
-307 8 0
-307 10 0
-307 11 0
-307 13 0
-307 16 0
-307 17 0
-307 19 0
-307 21 0
-307 23 0
-307 25 0
307 -4 -6 -8 -10 -11 -13 -16 -17 -19 -21 -23 -25 0
-308 3 0
-308 6 0
-308 7 0
-308 9 0
-308 11 0
-308 13 0
-308 16 0
-308 18 0
-308 19 0
-308 21 0
-308 23 0
-308 25 0
308 -3 -6 -7 -9 -11 -13 -16 -18 -19 -21 -23 -25 0
-309 3 0
-309 5 0
-309 7 0
-309 9 0
-309 11 0
-309 13 0
-309 15 0
-309 18 0
-309 19 0
-309 21 0
-309 23 0
-309 25 0
309 -3 -5 -7 -9 -11 -13 -15 -18 -19 -21 -23 -25 0
-310 4 0
-310 5 0
-310 7 0
-310 9 0
-310 11 0
-310 13 0
-310 15 0
-310 18 0
-310 19 0
-310 21 0
-310 23 0
-310 25 0
310 -4 -5 -7 -9 -11 -13 -15 -18 -19 -21 -23 -25 0
-311 3 0
-311 6 0
-311 7 0
-311 9 0
-311 11 0
-311 13 0
-311 15 0
-311 18 0
-311 19 0
-311 21 0
-311 23 0
-311 25 0
311 -3 -6 -7 -9 -11 -13 -15 -18 -19 -21 -23 -25 0
-312 4 0
-312 6 0
-312 7 0
-312 9 0
-312 11 0
-312 13 0
-312 15 0
-312 18 0
-312 19 0
-312 21 0
-312 23 0
-312 25 0
312 -4 -6 -7 -9 -11 -13 -15 -18 -19 -21 -23 -25 0
-313 4 0
-313 6 0
-313 7 0
-313 9 0
-313 11 0
-313 13 0
-313 16 0
-313 18 0
-313 19 0
-313 21 0
-313 23 0
-313 25 0
313 -4 -6 -7 -9 -11 -13 -16 -18 -19 -21 -23 -25 0
-314 3 0
-314 5 0
-314 7 0
-314 9 0
-314 11 0
-314 13 0
-314 16 0
-314 18 0
-314 19 0
-314 21 0
-314 23 0
-314 25 0
314 -3 -5 -7 -9 -11 -13 -16 -18 -19 -21 -23 -25 0
-315 3 0
-315 5 0
-315 8 0
-315 9 0
-315 11 0
-315 13 0
-315 15 0
-315 18 0
-315 19 0
-315 21 0
-315 23 0
-315 25 0
315 -3 -5 -8 -9 -11 -13 -15 -18 -19 -21 -23 -25 0
-316 3 0
-316 6 0
-316 8 0
-316 9 0
-316 11 0
-316 13 0
-316 15 0
-316 18 0
-316 19 0
-316 21 0
-316 23 0
-316 25 0
316 -3 -6 -8 -9 -11 -13 -15 -18 -19 -21 -23 -25 0
-317 4 0
-317 5 0
-317 8 0
-317 9 0
-317 11 0
-317 13 0
-317 15 0
-317 18 0
-317 19 0
-317 21 0
-317 23 0
-317 25 0
317 -4 -5 -8 -9 -11 -13 -15 -18 -19 -21 -23 -25 0
-318 4 0
-318 5 0
-318 7 0
-318 9 0
-318 11 0
-318 13 0
-318 16 0
-318 18 0
-318 19 0
-318 21 0
-318 23 0
-318 25 0
318 -4 -5 -7 -9 -11 -13 -16 -18 -19 -21 -23 -25 0
-319 3 0
-319 5 0
-319 8 0
-319 9 0
-319 11 0
-319 13 0
-319 16 0
-319 18 0
-319 19 0
-319 21 0
-319 23 0
-319 25 0
319 -3 -5 -8 -9 -11 -13 -16 -18 -19 -21 -23 -25 0
-320 4 0
-320 5 0
-320 8 0
-320 9 0
-320 11 0
-320 13 0
-320 16 0
-320 18 0
-320 19 0
-320 21 0
-320 23 0
-320 25 0
320 -4 -5 -8 -9 -11 -13 -16 -18 -19 -21 -23 -25 0
-321 3 0
-321 6 0
-321 8 0
-321 9 0
-321 11 0
-321 13 0
-321 16 0
-321 18 0
-321 19 0
-321 21 0
-321 23 0
-321 25 0
321 -3 -6 -8 -9 -11 -13 -16 -18 -19 -21 -23 -25 0
-322 3 0
-322 5 0
-322 7 0
-322 10 0
-322 11 0
-322 13 0
-322 15 0
-322 18 0
-322 19 0
-322 21 0
-322 23 0
-322 25 0
322 -3 -5 -7 -10 -11 -13 -15 -18 -19 -21 -23 -25 0
-323 3 0
-323 6 0
-323 7 0
-323 10 0
-323 11 0
-323 13 0
-323 15 0
-323 18 0
-323 19 0
-323 21 0
-323 23 0
-323 25 0
323 -3 -6 -7 -10 -11 -13 -15 -18 -19 -21 -23 -25 0
-324 4 0
-324 5 0
-324 7 0
-324 10 0
-324 11 0
-324 13 0
-324 15 0
-324 18 0
-324 19 0
-324 21 0
-324 23 0
-324 25 0
324 -4 -5 -7 -10 -11 -13 -15 -18 -19 -21 -23 -25 0
-325 4 0
-325 6 0
-325 8 0
-325 9 0
-325 11 0
-325 13 0
-325 16 0
-325 18 0
-325 19 0
-325 21 0
-325 23 0
-325 25 0
325 -4 -6 -8 -9 -11 -13 -16 -18 -19 -21 -23 -25 0
-326 3 0
-326 6 0
-326 8 0
-326 10 0
-326 11 0
-326 13 0
-326 16 0
-326 18 0
-326 19 0
-326 21 0
-326 23 0
-326 25 0
326 -3 -6 -8 -10 -11 -13 -16 -18 -19 -21 -23 -25 0
-327 4 0
-327 6 0
-327 8 0
-327 10 0
-327 11 0
-327 13 0
-327 16 0
-327 18 0
-327 19 0
-327 21 0
-327 23 0
-327 25 0
327 -4 -6 -8 -10 -11 -13 -16 -18 -19 -21 -23 -25 0
-328 3 0
-328 5 0
-328 8 0
-328 10 0
-328 11 0
-328 13 0
-328 16 0
-328 18 0
-328 19 0
-328 21 0
-328 23 0
-328 25 0
328 -3 -5 -8 -10 -11 -13 -16 -18 -19 -21 -23 -25 0
-329 4 0
-329 5 0
-329 8 0
-329 10 0
-329 11 0
-329 13 0
-329 15 0
-329 18 0
-329 19 0
-329 21 0
-329 23 0
-329 25 0
329 -4 -5 -8 -10 -11 -13 -15 -18 -19 -21 -23 -25 0
-330 4 0
-330 6 0
-330 7 0
-330 10 0
-330 11 0
-330 13 0
-330 15 0
-330 18 0
-330 19 0
-330 21 0
-330 23 0
-330 25 0
330 -4 -6 -7 -10 -11 -13 -15 -18 -19 -21 -23 -25 0
-331 4 0
-331 5 0
-331 8 0
-331 10 0
-331 11 0
-331 13 0
-331 16 0
-331 18 0
-331 19 0
-331 21 0
-331 23 0
-331 25 0
331 -4 -5 -8 -10 -11 -13 -16 -18 -19 -21 -23 -25 0
-332 3 0
-332 5 0
-332 7 0
-332 10 0
-332 11 0
-332 13 0
-332 16 0
-332 18 0
-332 19 0
-332 21 0
-332 23 0
-332 25 0
332 -3 -5 -7 -10 -11 -13 -16 -18 -19 -21 -23 -25 0
-333 4 0
-333 5 0
-333 7 0
-333 10 0
-333 11 0
-333 13 0
-333 16 0
-333 18 0
-333 19 0
-333 21 0
-333 23 0
-333 25 0
333 -4 -5 -7 -10 -11 -13 -16 -18 -19 -21 -23 -25 0
-334 3 0
-334 6 0
-334 7 0
-334 10 0
-334 11 0
-334 13 0
-334 16 0
-334 18 0
-334 19 0
-334 21 0
-334 23 0
-334 25 0
334 -3 -6 -7 -10 -11 -13 -16 -18 -19 -21 -23 -25 0
-335 3 0
-335 5 0
-335 7 0
-335 9 0
-335 12 0
-335 13 0
-335 15 0
-335 18 0
-335 19 0
-335 21 0
-335 23 0
-335 25 0
335 -3 -5 -7 -9 -12 -13 -15 -18 -19 -21 -23 -25 0
-336 3 0
-336 6 0
-336 7 0
-336 9 0
-336 12 0
-336 13 0
-336 15 0
-336 18 0
-336 19 0
-336 21 0
-336 23 0
-336 25 0
336 -3 -6 -7 -9 -12 -13 -15 -18 -19 -21 -23 -25 0
-337 4 0
-337 5 0
-337 7 0
-337 9 0
-337 12 0
-337 13 0
-337 15 0
-337 18 0
-337 19 0
-337 21 0
-337 23 0
-337 25 0
337 -4 -5 -7 -9 -12 -13 -15 -18 -19 -21 -23 -25 0
-338 4 0
-338 6 0
-338 7 0
-338 10 0
-338 11 0
-338 13 0
-338 16 0
-338 18 0
-338 19 0
-338 21 0
-338 23 0
-338 25 0
338 -4 -6 -7 -10 -11 -13 -16 -18 -19 -21 -23 -25 0
-339 3 0
-339 6 0
-339 7 0
-339 10 0
-339 12 0
-339 13 0
-339 16 0
-339 18 0
-339 19 0
-339 21 0
-339 23 0
-339 25 0
339 -3 -6 -7 -10 -12 -13 -16 -18 -19 -21 -23 -25 0
-340 4 0
-340 6 0
-340 7 0
-340 10 0
-340 12 0
-340 13 0
-340 16 0
-340 18 0
-340 19 0
-340 21 0
-340 23 0
-340 25 0
340 -4 -6 -7 -10 -12 -13 -16 -18 -19 -21 -23 -25 0
-341 3 0
-341 5 0
-341 7 0
-341 10 0
-341 12 0
-341 13 0
-341 16 0
-341 18 0
-341 19 0
-341 21 0
-341 23 0
-341 25 0
341 -3 -5 -7 -10 -12 -13 -16 -18 -19 -21 -23 -25 0
-342 3 0
-342 5 0
-342 8 0
-342 9 0
-342 12 0
-342 13 0
-342 15 0
-342 18 0
-342 19 0
-342 21 0
-342 23 0
-342 25 0
342 -3 -5 -8 -9 -12 -13 -15 -18 -19 -21 -23 -25 0
-343 3 0
-343 6 0
-343 8 0
-343 9 0
-343 12 0
-343 13 0
-343 15 0
-343 18 0
-343 19 0
-343 21 0
-343 23 0
-343 25 0
343 -3 -6 -8 -9 -12 -13 -15 -18 -19 -21 -23 -25 0
-344 4 0
-344 5 0
-344 8 0
-344 9 0
-344 12 0
-344 13 0
-344 15 0
-344 18 0
-344 19 0
-344 21 0
-344 23 0
-344 25 0
344 -4 -5 -8 -9 -12 -13 -15 -18 -19 -21 -23 -25 0
-345 4 0
-345 5 0
-345 7 0
-345 10 0
-345 12 0
-345 13 0
-345 16 0
-345 18 0
-345 19 0
-345 21 0
-345 23 0
-345 25 0
345 -4 -5 -7 -10 -12 -13 -16 -18 -19 -21 -23 -25 0
-346 3 0
-346 5 0
-346 8 0
-346 10 0
-346 12 0
-346 13 0
-346 16 0
-346 18 0
-346 19 0
-346 21 0
-346 23 0
-346 25 0
346 -3 -5 -8 -10 -12 -13 -16 -18 -19 -21 -23 -25 0
-347 4 0
-347 5 0
-347 8 0
-347 10 0
-347 12 0
-347 13 0
-347 16 0
-347 18 0
-347 19 0
-347 21 0
-347 23 0
-347 25 0
347 -4 -5 -8 -10 -12 -13 -16 -18 -19 -21 -23 -25 0
-348 3 0
-348 6 0
-348 8 0
-348 10 0
-348 12 0
-348 13 0
-348 16 0
-348 18 0
-348 19 0
-348 21 0
-348 23 0
-348 25 0
348 -3 -6 -8 -10 -12 -13 -16 -18 -19 -21 -23 -25 0
-349 4 0
-349 6 0
-349 7 0
-349 9 0
-349 12 0
-349 13 0
-349 15 0
-349 18 0
-349 19 0
-349 21 0
-349 23 0
-349 25 0
349 -4 -6 -7 -9 -12 -13 -15 -18 -19 -21 -23 -25 0
-350 4 0
-350 6 0
-350 8 0
-350 10 0
-350 12 0
-350 13 0
-350 16 0
-350 18 0
-350 19 0
-350 21 0
-350 23 0
-350 25 0
350 -4 -6 -8 -10 -12 -13 -16 -18 -19 -21 -23 -25 0
-351 3 0
-351 6 0
-351 8 0
-351 9 0
-351 12 0
-351 13 0
-351 16 0
-351 18 0
-351 19 0
-351 21 0
-351 23 0
-351 25 0
351 -3 -6 -8 -9 -12 -13 -16 -18 -19 -21 -23 -25 0
-352 4 0
-352 6 0
-352 8 0
-352 9 0
-352 12 0
-352 13 0
-352 16 0
-352 18 0
-352 19 0
-352 21 0
-352 23 0
-352 25 0
352 -4 -6 -8 -9 -12 -13 -16 -18 -19 -21 -23 -25 0
-353 3 0
-353 5 0
-353 8 0
-353 9 0
-353 12 0
-353 13 0
-353 16 0
-353 18 0
-353 19 0
-353 21 0
-353 23 0
-353 25 0
353 -3 -5 -8 -9 -12 -13 -16 -18 -19 -21 -23 -25 0
-354 4 0
-354 5 0
-354 8 0
-354 9 0
-354 12 0
-354 13 0
-354 16 0
-354 18 0
-354 19 0
-354 21 0
-354 23 0
-354 25 0
354 -4 -5 -8 -9 -12 -13 -16 -18 -19 -21 -23 -25 0
-355 3 0
-355 5 0
-355 7 0
-355 9 0
-355 12 0
-355 13 0
-355 16 0
-355 18 0
-355 19 0
-355 21 0
-355 23 0
-355 25 0
355 -3 -5 -7 -9 -12 -13 -16 -18 -19 -21 -23 -25 0
-356 4 0
-356 5 0
-356 7 0
-356 9 0
-356 12 0
-356 13 0
-356 16 0
-356 18 0
-356 19 0
-356 21 0
-356 23 0
-356 25 0
356 -4 -5 -7 -9 -12 -13 -16 -18 -19 -21 -23 -25 0
-357 3 0
-357 6 0
-357 7 0
-357 9 0
-357 12 0
-357 13 0
-357 16 0
-357 18 0
-357 19 0
-357 21 0
-357 23 0
-357 25 0
357 -3 -6 -7 -9 -12 -13 -16 -18 -19 -21 -23 -25 0
-358 3 0
-358 5 0
-358 7 0
-358 9 0
-358 11 0
-358 14 0
-358 15 0
-358 18 0
-358 19 0
-358 21 0
-358 23 0
-358 25 0
358 -3 -5 -7 -9 -11 -14 -15 -18 -19 -21 -23 -25 0
-359 3 0
-359 6 0
-359 7 0
-359 9 0
-359 11 0
-359 14 0
-359 15 0
-359 18 0
-359 19 0
-359 21 0
-359 23 0
-359 25 0
359 -3 -6 -7 -9 -11 -14 -15 -18 -19 -21 -23 -25 0
-360 4 0
-360 5 0
-360 7 0
-360 9 0
-360 11 0
-360 14 0
-360 15 0
-360 18 0
-360 19 0
-360 21 0
-360 23 0
-360 25 0
360 -4 -5 -7 -9 -11 -14 -15 -18 -19 -21 -23 -25 0
-361 4 0
-361 6 0
-361 7 0
-361 9 0
-361 12 0
-361 13 0
-361 16 0
-361 18 0
-361 19 0
-361 21 0
-361 23 0
-361 25 0
361 -4 -6 -7 -9 -12 -13 -16 -18 -19 -21 -23 -25 0
-362 3 0
-362 6 0
-362 7 0
-362 9 0
-362 12 0
-362 14 0
-362 16 0
-362 18 0
-362 19 0
-362 21 0
-362 23 0
-362 25 0
362 -3 -6 -7 -9 -12 -14 -16 -18 -19 -21 -23 -25 0
-363 4 0
-363 6 0
-363 7 0
-363 9 0
-363 12 0
-363 14 0
-363 16 0
-363 18 0
-363 19 0
-363 21 0
-363 23 0
-363 25 0
363 -4 -6 -7 -9 -12 -14 -16 -18 -19 -21 -23 -25 0
-364 3 0
-364 5 0
-364 7 0
-364 9 0
-364 12 0
-364 14 0
-364 16 0
-364 18 0
-364 19 0
-364 21 0
-364 23 0
-364 25 0
364 -3 -5 -7 -9 -12 -14 -16 -18 -19 -21 -23 -25 0
-365 3 0
-365 5 0
-365 8 0
-365 9 0
-365 11 0
-365 14 0
-365 15 0
-365 18 0
-365 19 0
-365 21 0
-365 23 0
-365 25 0
365 -3 -5 -8 -9 -11 -14 -15 -18 -19 -21 -23 -25 0
-366 3 0
-366 6 0
-366 8 0
-366 9 0
-366 11 0
-366 14 0
-366 15 0
-366 18 0
-366 19 0
-366 21 0
-366 23 0
-366 25 0
366 -3 -6 -8 -9 -11 -14 -15 -18 -19 -21 -23 -25 0
-367 4 0
-367 5 0
-367 8 0
-367 9 0
-367 11 0
-367 14 0
-367 15 0
-367 18 0
-367 19 0
-367 21 0
-367 23 0
-367 25 0
367 -4 -5 -8 -9 -11 -14 -15 -18 -19 -21 -23 -25 0
-368 4 0
-368 5 0
-368 7 0
-368 9 0
-368 12 0
-368 14 0
-368 16 0
-368 18 0
-368 19 0
-368 21 0
-368 23 0
-368 25 0
368 -4 -5 -7 -9 -12 -14 -16 -18 -19 -21 -23 -25 0
-369 3 0
-369 5 0
-369 8 0
-369 9 0
-369 12 0
-369 14 0
-369 16 0
-369 18 0
-369 19 0
-369 21 0
-369 23 0
-369 25 0
369 -3 -5 -8 -9 -12 -14 -16 -18 -19 -21 -23 -25 0
-370 4 0
-370 5 0
-370 8 0
-370 9 0
-370 12 0
-370 14 0
-370 16 0
-370 18 0
-370 19 0
-370 21 0
-370 23 0
-370 25 0
370 -4 -5 -8 -9 -12 -14 -16 -18 -19 -21 -23 -25 0
-371 3 0
-371 6 0
-371 8 0
-371 9 0
-371 12 0
-371 14 0
-371 16 0
-371 18 0
-371 19 0
-371 21 0
-371 23 0
-371 25 0
371 -3 -6 -8 -9 -12 -14 -16 -18 -19 -21 -23 -25 0
-372 3 0
-372 5 0
-372 7 0
-372 10 0
-372 11 0
-372 14 0
-372 15 0
-372 18 0
-372 19 0
-372 21 0
-372 23 0
-372 25 0
372 -3 -5 -7 -10 -11 -14 -15 -18 -19 -21 -23 -25 0
-373 3 0
-373 6 0
-373 7 0
-373 10 0
-373 11 0
-373 14 0
-373 15 0
-373 18 0
-373 19 0
-373 21 0
-373 23 0
-373 25 0
373 -3 -6 -7 -10 -11 -14 -15 -18 -19 -21 -23 -25 0
-374 4 0
-374 5 0
-374 7 0
-374 10 0
-374 11 0
-374 14 0
-374 15 0
-374 18 0
-374 19 0
-374 21 0
-374 23 0
-374 25 0
374 -4 -5 -7 -10 -11 -14 -15 -18 -19 -21 -23 -25 0
-375 4 0
-375 6 0
-375 8 0
-375 9 0
-375 12 0
-375 14 0
-375 16 0
-375 18 0
-375 19 0
-375 21 0
-375 23 0
-375 25 0
375 -4 -6 -8 -9 -12 -14 -16 -18 -19 -21 -23 -25 0
-376 3 0
-376 6 0
-376 8 0
-376 10 0
-376 12 0
-376 14 0
-376 16 0
-376 18 0
-376 19 0
-376 21 0
-376 23 0
-376 25 0
376 -3 -6 -8 -10 -12 -14 -16 -18 -19 -21 -23 -25 0
-377 4 0
-377 6 0
-377 8 0
-377 10 0
-377 12 0
-377 14 0
-377 16 0
-377 18 0
-377 19 0
-377 21 0
-377 23 0
-377 25 0
377 -4 -6 -8 -10 -12 -14 -16 -18 -19 -21 -23 -25 0
-378 3 0
-378 5 0
-378 8 0
-378 10 0
-378 12 0
-378 14 0
-378 16 0
-378 18 0
-378 19 0
-378 21 0
-378 23 0
-378 25 0
378 -3 -5 -8 -10 -12 -14 -16 -18 -19 -21 -23 -25 0
-379 4 0
-379 5 0
-379 8 0
-379 10 0
-379 11 0
-379 14 0
-379 15 0
-379 18 0
-379 19 0
-379 21 0
-379 23 0
-379 25 0
379 -4 -5 -8 -10 -11 -14 -15 -18 -19 -21 -23 -25 0
-380 4 0
-380 6 0
-380 7 0
-380 10 0
-380 11 0
-380 14 0
-380 15 0
-380 18 0
-380 19 0
-380 21 0
-380 23 0
-380 25 0
380 -4 -6 -7 -10 -11 -14 -15 -18 -19 -21 -23 -25 0
-381 4 0
-381 5 0
-381 8 0
-381 10 0
-381 12 0
-381 14 0
-381 16 0
-381 18 0
-381 19 0
-381 21 0
-381 23 0
-381 25 0
381 -4 -5 -8 -10 -12 -14 -16 -18 -19 -21 -23 -25 0
-382 3 0
-382 5 0
-382 7 0
-382 10 0
-382 12 0
-382 14 0
-382 16 0
-382 18 0
-382 19 0
-382 21 0
-382 23 0
-382 25 0
382 -3 -5 -7 -10 -12 -14 -16 -18 -19 -21 -23 -25 0
-383 4 0
-383 5 0
-383 7 0
-383 10 0
-383 12 0
-383 14 0
-383 16 0
-383 18 0
-383 19 0
-383 21 0
-383 23 0
-383 25 0
383 -4 -5 -7 -10 -12 -14 -16 -18 -19 -21 -23 -25 0
-384 3 0
-384 6 0
-384 7 0
-384 10 0
-384 12 0
-384 14 0
-384 16 0
-384 18 0
-384 19 0
-384 21 0
-384 23 0
-384 25 0
384 -3 -6 -7 -10 -12 -14 -16 -18 -19 -21 -23 -25 0
-385 4 0
-385 6 0
-385 7 0
-385 10 0
-385 12 0
-385 14 0
-385 15 0
-385 18 0
-385 19 0
-385 21 0
-385 23 0
-385 25 0
385 -4 -6 -7 -10 -12 -14 -15 -18 -19 -21 -23 -25 0
-386 4 0
-386 6 0
-386 7 0
-386 10 0
-386 12 0
-386 14 0
-386 16 0
-386 18 0
-386 19 0
-386 21 0
-386 23 0
-386 25 0
386 -4 -6 -7 -10 -12 -14 -16 -18 -19 -21 -23 -25 0
-387 3 0
-387 6 0
-387 7 0
-387 10 0
-387 11 0
-387 14 0
-387 16 0
-387 18 0
-387 19 0
-387 21 0
-387 23 0
-387 25 0
387 -3 -6 -7 -10 -11 -14 -16 -18 -19 -21 -23 -25 0
-388 4 0
-388 6 0
-388 7 0
-388 10 0
-388 11 0
-388 14 0
-388 16 0
-388 18 0
-388 19 0
-388 21 0
-388 23 0
-388 25 0
388 -4 -6 -7 -10 -11 -14 -16 -18 -19 -21 -23 -25 0
-389 3 0
-389 5 0
-389 7 0
-389 10 0
-389 11 0
-389 14 0
-389 16 0
-389 18 0
-389 19 0
-389 21 0
-389 23 0
-389 25 0
389 -3 -5 -7 -10 -11 -14 -16 -18 -19 -21 -23 -25 0
-390 4 0
-390 6 0
-390 8 0
-390 9 0
-390 11 0
-390 14 0
-390 15 0
-390 18 0
-390 19 0
-390 21 0
-390 23 0
-390 25 0
390 -4 -6 -8 -9 -11 -14 -15 -18 -19 -21 -23 -25 0
-391 4 0
-391 5 0
-391 7 0
-391 10 0
-391 11 0
-391 14 0
-391 16 0
-391 18 0
-391 19 0
-391 21 0
-391 23 0
-391 25 0
391 -4 -5 -7 -10 -11 -14 -16 -18 -19 -21 -23 -25 0
-392 3 0
-392 5 0
-392 8 0
-392 10 0
-392 11 0
-392 14 0
-392 16 0
-392 18 0
-392 19 0
-392 21 0
-392 23 0
-392 25 0
392 -3 -5 -8 -10 -11 -14 -16 -18 -19 -21 -23 -25 0
-393 4 0
-393 5 0
-393 8 0
-393 10 0
-393 11 0
-393 14 0
-393 16 0
-393 18 0
-393 19 0
-393 21 0
-393 23 0
-393 25 0
393 -4 -5 -8 -10 -11 -14 -16 -18 -19 -21 -23 -25 0
-394 3 0
-394 6 0
-394 8 0
-394 10 0
-394 11 0
-394 14 0
-394 16 0
-394 18 0
-394 19 0
-394 21 0
-394 23 0
-394 25 0
394 -3 -6 -8 -10 -11 -14 -16 -18 -19 -21 -23 -25 0
-395 4 0
-395 6 0
-395 8 0
-395 10 0
-395 11 0
-395 14 0
-395 15 0
-395 18 0
-395 19 0
-395 21 0
-395 23 0
-395 25 0
395 -4 -6 -8 -10 -11 -14 -15 -18 -19 -21 -23 -25 0
-396 4 0
-396 6 0
-396 8 0
-396 10 0
-396 11 0
-396 14 0
-396 16 0
-396 18 0
-396 19 0
-396 21 0
-396 23 0
-396 25 0
396 -4 -6 -8 -10 -11 -14 -16 -18 -19 -21 -23 -25 0
-397 3 0
-397 6 0
-397 8 0
-397 9 0
-397 11 0
-397 14 0
-397 16 0
-397 18 0
-397 19 0
-397 21 0
-397 23 0
-397 25 0
397 -3 -6 -8 -9 -11 -14 -16 -18 -19 -21 -23 -25 0
-398 4 0
-398 6 0
-398 8 0
-398 9 0
-398 11 0
-398 14 0
-398 16 0
-398 18 0
-398 19 0
-398 21 0
-398 23 0
-398 25 0
398 -4 -6 -8 -9 -11 -14 -16 -18 -19 -21 -23 -25 0
-399 3 0
-399 5 0
-399 8 0
-399 9 0
-399 11 0
-399 14 0
-399 16 0
-399 18 0
-399 19 0
-399 21 0
-399 23 0
-399 25 0
399 -3 -5 -8 -9 -11 -14 -16 -18 -19 -21 -23 -25 0
-400 4 0
-400 6 0
-400 7 0
-400 9 0
-400 11 0
-400 14 0
-400 15 0
-400 18 0
-400 19 0
-400 21 0
-400 23 0
-400 25 0
400 -4 -6 -7 -9 -11 -14 -15 -18 -19 -21 -23 -25 0
-401 4 0
-401 5 0
-401 8 0
-401 9 0
-401 11 0
-401 14 0
-401 16 0
-401 18 0
-401 19 0
-401 21 0
-401 23 0
-401 25 0
401 -4 -5 -8 -9 -11 -14 -16 -18 -19 -21 -23 -25 0
-402 3 0
-402 5 0
-402 7 0
-402 9 0
-402 11 0
-402 14 0
-402 16 0
-402 18 0
-402 19 0
-402 21 0
-402 23 0
-402 25 0
402 -3 -5 -7 -9 -11 -14 -16 -18 -19 -21 -23 -25 0
-403 4 0
-403 5 0
-403 7 0
-403 9 0
-403 11 0
-403 14 0
-403 16 0
-403 18 0
-403 19 0
-403 21 0
-403 23 0
-403 25 0
403 -4 -5 -7 -9 -11 -14 -16 -18 -19 -21 -23 -25 0
-404 3 0
-404 6 0
-404 7 0
-404 9 0
-404 11 0
-404 14 0
-404 16 0
-404 18 0
-404 19 0
-404 21 0
-404 23 0
-404 25 0
404 -3 -6 -7 -9 -11 -14 -16 -18 -19 -21 -23 -25 0
-405 4 0
-405 6 0
-405 7 0
-405 9 0
-405 11 0
-405 14 0
-405 16 0
-405 18 0
-405 19 0
-405 21 0
-405 23 0
-405 25 0
405 -4 -6 -7 -9 -11 -14 -16 -18 -19 -21 -23 -25 0
-406 3 0
-406 6 0
-406 8 0
-406 10 0
-406 11 0
-406 14 0
-406 15 0
-406 18 0
-406 19 0
-406 21 0
-406 23 0
-406 25 0
406 -3 -6 -8 -10 -11 -14 -15 -18 -19 -21 -23 -25 0
-407 3 0
-407 5 0
-407 8 0
-407 10 0
-407 11 0
-407 14 0
-407 15 0
-407 18 0
-407 19 0
-407 21 0
-407 23 0
-407 25 0
407 -3 -5 -8 -10 -11 -14 -15 -18 -19 -21 -23 -25 0
-408 3 0
-408 6 0
-408 7 0
-408 10 0
-408 12 0
-408 14 0
-408 15 0
-408 18 0
-408 19 0
-408 21 0
-408 23 0
-408 25 0
408 -3 -6 -7 -10 -12 -14 -15 -18 -19 -21 -23 -25 0
-409 3 0
-409 5 0
-409 7 0
-409 10 0
-409 12 0
-409 14 0
-409 15 0
-409 18 0
-409 19 0
-409 21 0
-409 23 0
-409 25 0
409 -3 -5 -7 -10 -12 -14 -15 -18 -19 -21 -23 -25 0
-410 4 0
-410 6 0
-410 8 0
-410 9 0
-410 12 0
-410 13 0
-410 15 0
-410 18 0
-410 19 0
-410 21 0
-410 23 0
-410 25 0
410 -4 -6 -8 -9 -12 -13 -15 -18 -19 -21 -23 -25 0
-411 4 0
-411 5 0
-411 7 0
-411 10 0
-411 12 0
-411 14 0
-411 15 0
-411 18 0
-411 19 0
-411 21 0
-411 23 0
-411 25 0
411 -4 -5 -7 -10 -12 -14 -15 -18 -19 -21 -23 -25 0
-412 3 0
-412 5 0
-412 8 0
-412 10 0
-412 12 0
-412 14 0
-412 15 0
-412 18 0
-412 19 0
-412 21 0
-412 23 0
-412 25 0
412 -3 -5 -8 -10 -12 -14 -15 -18 -19 -21 -23 -25 0
-413 4 0
-413 5 0
-413 8 0
-413 10 0
-413 12 0
-413 14 0
-413 15 0
-413 18 0
-413 19 0
-413 21 0
-413 23 0
-413 25 0
413 -4 -5 -8 -10 -12 -14 -15 -18 -19 -21 -23 -25 0
-414 3 0
-414 6 0
-414 8 0
-414 10 0
-414 12 0
-414 14 0
-414 15 0
-414 18 0
-414 19 0
-414 21 0
-414 23 0
-414 25 0
414 -3 -6 -8 -10 -12 -14 -15 -18 -19 -21 -23 -25 0
-415 4 0
-415 6 0
-415 8 0
-415 10 0
-415 12 0
-415 13 0
-415 15 0
-415 18 0
-415 19 0
-415 21 0
-415 23 0
-415 25 0
415 -4 -6 -8 -10 -12 -13 -15 -18 -19 -21 -23 -25 0
-416 4 0
-416 6 0
-416 8 0
-416 10 0
-416 12 0
-416 14 0
-416 15 0
-416 18 0
-416 19 0
-416 21 0
-416 23 0
-416 25 0
416 -4 -6 -8 -10 -12 -14 -15 -18 -19 -21 -23 -25 0
-417 3 0
-417 6 0
-417 8 0
-417 9 0
-417 12 0
-417 14 0
-417 15 0
-417 18 0
-417 19 0
-417 21 0
-417 23 0
-417 25 0
417 -3 -6 -8 -9 -12 -14 -15 -18 -19 -21 -23 -25 0
-418 4 0
-418 6 0
-418 8 0
-418 9 0
-418 12 0
-418 14 0
-418 15 0
-418 18 0
-418 19 0
-418 21 0
-418 23 0
-418 25 0
418 -4 -6 -8 -9 -12 -14 -15 -18 -19 -21 -23 -25 0
-419 3 0
-419 5 0
-419 8 0
-419 9 0
-419 12 0
-419 14 0
-419 15 0
-419 18 0
-419 19 0
-419 21 0
-419 23 0
-419 25 0
419 -3 -5 -8 -9 -12 -14 -15 -18 -19 -21 -23 -25 0
-420 4 0
-420 5 0
-420 8 0
-420 9 0
-420 12 0
-420 14 0
-420 15 0
-420 18 0
-420 19 0
-420 21 0
-420 23 0
-420 25 0
420 -4 -5 -8 -9 -12 -14 -15 -18 -19 -21 -23 -25 0
-421 3 0
-421 5 0
-421 7 0
-421 9 0
-421 12 0
-421 14 0
-421 15 0
-421 18 0
-421 19 0
-421 21 0
-421 23 0
-421 25 0
421 -3 -5 -7 -9 -12 -14 -15 -18 -19 -21 -23 -25 0
-422 4 0
-422 5 0
-422 7 0
-422 9 0
-422 12 0
-422 14 0
-422 15 0
-422 18 0
-422 19 0
-422 21 0
-422 23 0
-422 25 0
422 -4 -5 -7 -9 -12 -14 -15 -18 -19 -21 -23 -25 0
-423 3 0
-423 6 0
-423 7 0
-423 9 0
-423 12 0
-423 14 0
-423 15 0
-423 18 0
-423 19 0
-423 21 0
-423 23 0
-423 25 0
423 -3 -6 -7 -9 -12 -14 -15 -18 -19 -21 -23 -25 0
-424 4 0
-424 6 0
-424 7 0
-424 9 0
-424 12 0
-424 14 0
-424 15 0
-424 18 0
-424 19 0
-424 21 0
-424 23 0
-424 25 0
424 -4 -6 -7 -9 -12 -14 -15 -18 -19 -21 -23 -25 0
-425 3 0
-425 6 0
-425 8 0
-425 10 0
-425 12 0
-425 13 0
-425 15 0
-425 18 0
-425 19 0
-425 21 0
-425 23 0
-425 25 0
425 -3 -6 -8 -10 -12 -13 -15 -18 -19 -21 -23 -25 0
-426 3 0
-426 5 0
-426 8 0
-426 10 0
-426 12 0
-426 13 0
-426 15 0
-426 18 0
-426 19 0
-426 21 0
-426 23 0
-426 25 0
426 -3 -5 -8 -10 -12 -13 -15 -18 -19 -21 -23 -25 0
-427 4 0
-427 5 0
-427 8 0
-427 10 0
-427 12 0
-427 13 0
-427 15 0
-427 18 0
-427 19 0
-427 21 0
-427 23 0
-427 25 0
427 -4 -5 -8 -10 -12 -13 -15 -18 -19 -21 -23 -25 0
-428 3 0
-428 5 0
-428 7 0
-428 10 0
-428 12 0
-428 13 0
-428 15 0
-428 18 0
-428 19 0
-428 21 0
-428 23 0
-428 25 0
428 -3 -5 -7 -10 -12 -13 -15 -18 -19 -21 -23 -25 0
-429 4 0
-429 5 0
-429 7 0
-429 10 0
-429 12 0
-429 13 0
-429 15 0
-429 18 0
-429 19 0
-429 21 0
-429 23 0
-429 25 0
429 -4 -5 -7 -10 -12 -13 -15 -18 -19 -21 -23 -25 0
-430 3 0
-430 6 0
-430 7 0
-430 10 0
-430 12 0
-430 13 0
-430 15 0
-430 18 0
-430 19 0
-430 21 0
-430 23 0
-430 25 0
430 -3 -6 -7 -10 -12 -13 -15 -18 -19 -21 -23 -25 0
-431 4 0
-431 6 0
-431 7 0
-431 10 0
-431 12 0
-431 13 0
-431 15 0
-431 18 0
-431 19 0
-431 21 0
-431 23 0
-431 25 0
431 -4 -6 -7 -10 -12 -13 -15 -18 -19 -21 -23 -25 0
-432 3 0
-432 5 0
-432 8 0
-432 10 0
-432 11 0
-432 13 0
-432 15 0
-432 18 0
-432 19 0
-432 21 0
-432 23 0
-432 25 0
432 -3 -5 -8 -10 -11 -13 -15 -18 -19 -21 -23 -25 0
-433 4 0
-433 6 0
-433 8 0
-433 9 0
-433 11 0
-433 13 0
-433 15 0
-433 18 0
-433 19 0
-433 21 0
-433 23 0
-433 25 0
433 -4 -6 -8 -9 -11 -13 -15 -18 -19 -21 -23 -25 0
-434 3 0
-434 6 0
-434 8 0
-434 10 0
-434 11 0
-434 13 0
-434 15 0
-434 18 0
-434 19 0
-434 21 0
-434 23 0
-434 25 0
434 -3 -6 -8 -10 -11 -13 -15 -18 -19 -21 -23 -25 0
-435 4 0
-435 6 0
-435 8 0
-435 10 0
-435 11 0
-435 13 0
-435 15 0
-435 18 0
-435 19 0
-435 21 0
-435 23 0
-435 25 0
435 -4 -6 -8 -10 -11 -13 -15 -18 -19 -21 -23 -25 0
-436 3 0
-436 6 0
-436 7 0
-436 9 0
-436 11 0
-436 13 0
-436 15 0
-436 18 0
-436 20 0
-436 21 0
-436 23 0
-436 25 0
436 -3 -6 -7 -9 -11 -13 -15 -18 -20 -21 -23 -25 0
-437 3 0
-437 5 0
-437 7 0
-437 9 0
-437 11 0
-437 13 0
-437 15 0
-437 17 0
-437 20 0
-437 21 0
-437 23 0
-437 25 0
437 -3 -5 -7 -9 -11 -13 -15 -17 -20 -21 -23 -25 0
-438 4 0
-438 5 0
-438 7 0
-438 9 0
-438 11 0
-438 13 0
-438 15 0
-438 17 0
-438 20 0
-438 21 0
-438 23 0
-438 25 0
438 -4 -5 -7 -9 -11 -13 -15 -17 -20 -21 -23 -25 0
-439 3 0
-439 6 0
-439 7 0
-439 9 0
-439 11 0
-439 13 0
-439 15 0
-439 17 0
-439 20 0
-439 21 0
-439 23 0
-439 25 0
439 -3 -6 -7 -9 -11 -13 -15 -17 -20 -21 -23 -25 0
-440 4 0
-440 6 0
-440 7 0
-440 9 0
-440 11 0
-440 13 0
-440 15 0
-440 17 0
-440 20 0
-440 21 0
-440 23 0
-440 25 0
440 -4 -6 -7 -9 -11 -13 -15 -17 -20 -21 -23 -25 0
-441 4 0
-441 6 0
-441 7 0
-441 9 0
-441 11 0
-441 13 0
-441 15 0
-441 18 0
-441 20 0
-441 21 0
-441 23 0
-441 25 0
441 -4 -6 -7 -9 -11 -13 -15 -18 -20 -21 -23 -25 0
-442 3 0
-442 5 0
-442 7 0
-442 9 0
-442 11 0
-442 13 0
-442 15 0
-442 18 0
-442 20 0
-442 21 0
-442 23 0
-442 25 0
442 -3 -5 -7 -9 -11 -13 -15 -18 -20 -21 -23 -25 0
-443 3 0
-443 5 0
-443 8 0
-443 9 0
-443 11 0
-443 13 0
-443 15 0
-443 17 0
-443 20 0
-443 21 0
-443 23 0
-443 25 0
443 -3 -5 -8 -9 -11 -13 -15 -17 -20 -21 -23 -25 0
-444 3 0
-444 6 0
-444 8 0
-444 9 0
-444 11 0
-444 13 0
-444 15 0
-444 17 0
-444 20 0
-444 21 0
-444 23 0
-444 25 0
444 -3 -6 -8 -9 -11 -13 -15 -17 -20 -21 -23 -25 0
-445 4 0
-445 5 0
-445 8 0
-445 9 0
-445 11 0
-445 13 0
-445 15 0
-445 17 0
-445 20 0
-445 21 0
-445 23 0
-445 25 0
445 -4 -5 -8 -9 -11 -13 -15 -17 -20 -21 -23 -25 0
-446 4 0
-446 5 0
-446 7 0
-446 9 0
-446 11 0
-446 13 0
-446 15 0
-446 18 0
-446 20 0
-446 21 0
-446 23 0
-446 25 0
446 -4 -5 -7 -9 -11 -13 -15 -18 -20 -21 -23 -25 0
-447 3 0
-447 5 0
-447 8 0
-447 9 0
-447 11 0
-447 13 0
-447 15 0
-447 18 0
-447 20 0
-447 21 0
-447 23 0
-447 25 0
447 -3 -5 -8 -9 -11 -13 -15 -18 -20 -21 -23 -25 0
-448 4 0
-448 5 0
-448 8 0
-448 9 0
-448 11 0
-448 13 0
-448 15 0
-448 18 0
-448 20 0
-448 21 0
-448 23 0
-448 25 0
448 -4 -5 -8 -9 -11 -13 -15 -18 -20 -21 -23 -25 0
-449 3 0
-449 6 0
-449 8 0
-449 9 0
-449 11 0
-449 13 0
-449 15 0
-449 18 0
-449 20 0
-449 21 0
-449 23 0
-449 25 0
449 -3 -6 -8 -9 -11 -13 -15 -18 -20 -21 -23 -25 0
-450 3 0
-450 5 0
-450 7 0
-450 10 0
-450 11 0
-450 13 0
-450 15 0
-450 17 0
-450 20 0
-450 21 0
-450 23 0
-450 25 0
450 -3 -5 -7 -10 -11 -13 -15 -17 -20 -21 -23 -25 0
-451 3 0
-451 6 0
-451 7 0
-451 10 0
-451 11 0
-451 13 0
-451 15 0
-451 17 0
-451 20 0
-451 21 0
-451 23 0
-451 25 0
451 -3 -6 -7 -10 -11 -13 -15 -17 -20 -21 -23 -25 0
-452 4 0
-452 5 0
-452 7 0
-452 10 0
-452 11 0
-452 13 0
-452 15 0
-452 17 0
-452 20 0
-452 21 0
-452 23 0
-452 25 0
452 -4 -5 -7 -10 -11 -13 -15 -17 -20 -21 -23 -25 0
-453 4 0
-453 6 0
-453 8 0
-453 9 0
-453 11 0
-453 13 0
-453 15 0
-453 18 0
-453 20 0
-453 21 0
-453 23 0
-453 25 0
453 -4 -6 -8 -9 -11 -13 -15 -18 -20 -21 -23 -25 0
-454 3 0
-454 6 0
-454 8 0
-454 10 0
-454 11 0
-454 13 0
-454 15 0
-454 18 0
-454 20 0
-454 21 0
-454 23 0
-454 25 0
454 -3 -6 -8 -10 -11 -13 -15 -18 -20 -21 -23 -25 0
-455 4 0
-455 6 0
-455 8 0
-455 10 0
-455 11 0
-455 13 0
-455 15 0
-455 18 0
-455 20 0
-455 21 0
-455 23 0
-455 25 0
455 -4 -6 -8 -10 -11 -13 -15 -18 -20 -21 -23 -25 0
-456 3 0
-456 5 0
-456 8 0
-456 10 0
-456 11 0
-456 13 0
-456 15 0
-456 18 0
-456 20 0
-456 21 0
-456 23 0
-456 25 0
456 -3 -5 -8 -10 -11 -13 -15 -18 -20 -21 -23 -25 0
-457 4 0
-457 5 0
-457 8 0
-457 10 0
-457 11 0
-457 13 0
-457 15 0
-457 17 0
-457 20 0
-457 21 0
-457 23 0
-457 25 0
457 -4 -5 -8 -10 -11 -13 -15 -17 -20 -21 -23 -25 0
-458 4 0
-458 6 0
-458 7 0
-458 10 0
-458 11 0
-458 13 0
-458 15 0
-458 17 0
-458 20 0
-458 21 0
-458 23 0
-458 25 0
458 -4 -6 -7 -10 -11 -13 -15 -17 -20 -21 -23 -25 0
-459 4 0
-459 5 0
-459 8 0
-459 10 0
-459 11 0
-459 13 0
-459 15 0
-459 18 0
-459 20 0
-459 21 0
-459 23 0
-459 25 0
459 -4 -5 -8 -10 -11 -13 -15 -18 -20 -21 -23 -25 0
-460 3 0
-460 5 0
-460 7 0
-460 10 0
-460 11 0
-460 13 0
-460 15 0
-460 18 0
-460 20 0
-460 21 0
-460 23 0
-460 25 0
460 -3 -5 -7 -10 -11 -13 -15 -18 -20 -21 -23 -25 0
-461 4 0
-461 5 0
-461 7 0
-461 10 0
-461 11 0
-461 13 0
-461 15 0
-461 18 0
-461 20 0
-461 21 0
-461 23 0
-461 25 0
461 -4 -5 -7 -10 -11 -13 -15 -18 -20 -21 -23 -25 0
-462 3 0
-462 6 0
-462 7 0
-462 10 0
-462 11 0
-462 13 0
-462 15 0
-462 18 0
-462 20 0
-462 21 0
-462 23 0
-462 25 0
462 -3 -6 -7 -10 -11 -13 -15 -18 -20 -21 -23 -25 0
-463 3 0
-463 5 0
-463 7 0
-463 9 0
-463 12 0
-463 13 0
-463 15 0
-463 17 0
-463 20 0
-463 21 0
-463 23 0
-463 25 0
463 -3 -5 -7 -9 -12 -13 -15 -17 -20 -21 -23 -25 0
-464 3 0
-464 6 0
-464 7 0
-464 9 0
-464 12 0
-464 13 0
-464 15 0
-464 17 0
-464 20 0
-464 21 0
-464 23 0
-464 25 0
464 -3 -6 -7 -9 -12 -13 -15 -17 -20 -21 -23 -25 0
-465 4 0
-465 5 0
-465 7 0
-465 9 0
-465 12 0
-465 13 0
-465 15 0
-465 17 0
-465 20 0
-465 21 0
-465 23 0
-465 25 0
465 -4 -5 -7 -9 -12 -13 -15 -17 -20 -21 -23 -25 0
-466 4 0
-466 6 0
-466 7 0
-466 10 0
-466 11 0
-466 13 0
-466 15 0
-466 18 0
-466 20 0
-466 21 0
-466 23 0
-466 25 0
466 -4 -6 -7 -10 -11 -13 -15 -18 -20 -21 -23 -25 0
-467 3 0
-467 6 0
-467 7 0
-467 10 0
-467 12 0
-467 13 0
-467 15 0
-467 18 0
-467 20 0
-467 21 0
-467 23 0
-467 25 0
467 -3 -6 -7 -10 -12 -13 -15 -18 -20 -21 -23 -25 0
-468 4 0
-468 6 0
-468 7 0
-468 10 0
-468 12 0
-468 13 0
-468 15 0
-468 18 0
-468 20 0
-468 21 0
-468 23 0
-468 25 0
468 -4 -6 -7 -10 -12 -13 -15 -18 -20 -21 -23 -25 0
-469 3 0
-469 5 0
-469 7 0
-469 10 0
-469 12 0
-469 13 0
-469 15 0
-469 18 0
-469 20 0
-469 21 0
-469 23 0
-469 25 0
469 -3 -5 -7 -10 -12 -13 -15 -18 -20 -21 -23 -25 0
-470 3 0
-470 5 0
-470 8 0
-470 9 0
-470 12 0
-470 13 0
-470 15 0
-470 17 0
-470 20 0
-470 21 0
-470 23 0
-470 25 0
470 -3 -5 -8 -9 -12 -13 -15 -17 -20 -21 -23 -25 0
-471 3 0
-471 6 0
-471 8 0
-471 9 0
-471 12 0
-471 13 0
-471 15 0
-471 17 0
-471 20 0
-471 21 0
-471 23 0
-471 25 0
471 -3 -6 -8 -9 -12 -13 -15 -17 -20 -21 -23 -25 0
-472 4 0
-472 5 0
-472 8 0
-472 9 0
-472 12 0
-472 13 0
-472 15 0
-472 17 0
-472 20 0
-472 21 0
-472 23 0
-472 25 0
472 -4 -5 -8 -9 -12 -13 -15 -17 -20 -21 -23 -25 0
-473 4 0
-473 5 0
-473 7 0
-473 10 0
-473 12 0
-473 13 0
-473 15 0
-473 18 0
-473 20 0
-473 21 0
-473 23 0
-473 25 0
473 -4 -5 -7 -10 -12 -13 -15 -18 -20 -21 -23 -25 0
-474 3 0
-474 5 0
-474 8 0
-474 10 0
-474 12 0
-474 13 0
-474 15 0
-474 18 0
-474 20 0
-474 21 0
-474 23 0
-474 25 0
474 -3 -5 -8 -10 -12 -13 -15 -18 -20 -21 -23 -25 0
-475 4 0
-475 5 0
-475 8 0
-475 10 0
-475 12 0
-475 13 0
-475 15 0
-475 18 0
-475 20 0
-475 21 0
-475 23 0
-475 25 0
475 -4 -5 -8 -10 -12 -13 -15 -18 -20 -21 -23 -25 0
-476 3 0
-476 6 0
-476 8 0
-476 10 0
-476 12 0
-476 13 0
-476 15 0
-476 18 0
-476 20 0
-476 21 0
-476 23 0
-476 25 0
476 -3 -6 -8 -10 -12 -13 -15 -18 -20 -21 -23 -25 0
-477 4 0
-477 6 0
-477 7 0
-477 9 0
-477 12 0
-477 13 0
-477 15 0
-477 17 0
-477 20 0
-477 21 0
-477 23 0
-477 25 0
477 -4 -6 -7 -9 -12 -13 -15 -17 -20 -21 -23 -25 0
-478 4 0
-478 6 0
-478 8 0
-478 10 0
-478 12 0
-478 13 0
-478 15 0
-478 18 0
-478 20 0
-478 21 0
-478 23 0
-478 25 0
478 -4 -6 -8 -10 -12 -13 -15 -18 -20 -21 -23 -25 0
-479 3 0
-479 6 0
-479 8 0
-479 9 0
-479 12 0
-479 13 0
-479 15 0
-479 18 0
-479 20 0
-479 21 0
-479 23 0
-479 25 0
479 -3 -6 -8 -9 -12 -13 -15 -18 -20 -21 -23 -25 0
-480 4 0
-480 6 0
-480 8 0
-480 9 0
-480 12 0
-480 13 0
-480 15 0
-480 18 0
-480 20 0
-480 21 0
-480 23 0
-480 25 0
480 -4 -6 -8 -9 -12 -13 -15 -18 -20 -21 -23 -25 0
-481 3 0
-481 5 0
-481 8 0
-481 9 0
-481 12 0
-481 13 0
-481 15 0
-481 18 0
-481 20 0
-481 21 0
-481 23 0
-481 25 0
481 -3 -5 -8 -9 -12 -13 -15 -18 -20 -21 -23 -25 0
-482 4 0
-482 5 0
-482 8 0
-482 9 0
-482 12 0
-482 13 0
-482 15 0
-482 18 0
-482 20 0
-482 21 0
-482 23 0
-482 25 0
482 -4 -5 -8 -9 -12 -13 -15 -18 -20 -21 -23 -25 0
-483 3 0
-483 5 0
-483 7 0
-483 9 0
-483 12 0
-483 13 0
-483 15 0
-483 18 0
-483 20 0
-483 21 0
-483 23 0
-483 25 0
483 -3 -5 -7 -9 -12 -13 -15 -18 -20 -21 -23 -25 0
-484 4 0
-484 5 0
-484 7 0
-484 9 0
-484 12 0
-484 13 0
-484 15 0
-484 18 0
-484 20 0
-484 21 0
-484 23 0
-484 25 0
484 -4 -5 -7 -9 -12 -13 -15 -18 -20 -21 -23 -25 0
-485 3 0
-485 6 0
-485 7 0
-485 9 0
-485 12 0
-485 13 0
-485 15 0
-485 18 0
-485 20 0
-485 21 0
-485 23 0
-485 25 0
485 -3 -6 -7 -9 -12 -13 -15 -18 -20 -21 -23 -25 0
-486 3 0
-486 5 0
-486 7 0
-486 9 0
-486 11 0
-486 14 0
-486 15 0
-486 17 0
-486 20 0
-486 21 0
-486 23 0
-486 25 0
486 -3 -5 -7 -9 -11 -14 -15 -17 -20 -21 -23 -25 0
-487 3 0
-487 6 0
-487 7 0
-487 9 0
-487 11 0
-487 14 0
-487 15 0
-487 17 0
-487 20 0
-487 21 0
-487 23 0
-487 25 0
487 -3 -6 -7 -9 -11 -14 -15 -17 -20 -21 -23 -25 0
-488 4 0
-488 5 0
-488 7 0
-488 9 0
-488 11 0
-488 14 0
-488 15 0
-488 17 0
-488 20 0
-488 21 0
-488 23 0
-488 25 0
488 -4 -5 -7 -9 -11 -14 -15 -17 -20 -21 -23 -25 0
-489 4 0
-489 6 0
-489 7 0
-489 9 0
-489 12 0
-489 13 0
-489 15 0
-489 18 0
-489 20 0
-489 21 0
-489 23 0
-489 25 0
489 -4 -6 -7 -9 -12 -13 -15 -18 -20 -21 -23 -25 0
-490 3 0
-490 6 0
-490 7 0
-490 9 0
-490 12 0
-490 14 0
-490 15 0
-490 18 0
-490 20 0
-490 21 0
-490 23 0
-490 25 0
490 -3 -6 -7 -9 -12 -14 -15 -18 -20 -21 -23 -25 0
-491 4 0
-491 6 0
-491 7 0
-491 9 0
-491 12 0
-491 14 0
-491 15 0
-491 18 0
-491 20 0
-491 21 0
-491 23 0
-491 25 0
491 -4 -6 -7 -9 -12 -14 -15 -18 -20 -21 -23 -25 0
-492 3 0
-492 5 0
-492 7 0
-492 9 0
-492 12 0
-492 14 0
-492 15 0
-492 18 0
-492 20 0
-492 21 0
-492 23 0
-492 25 0
492 -3 -5 -7 -9 -12 -14 -15 -18 -20 -21 -23 -25 0
-493 3 0
-493 5 0
-493 8 0
-493 9 0
-493 11 0
-493 14 0
-493 15 0
-493 17 0
-493 20 0
-493 21 0
-493 23 0
-493 25 0
493 -3 -5 -8 -9 -11 -14 -15 -17 -20 -21 -23 -25 0
-494 3 0
-494 6 0
-494 8 0
-494 9 0
-494 11 0
-494 14 0
-494 15 0
-494 17 0
-494 20 0
-494 21 0
-494 23 0
-494 25 0
494 -3 -6 -8 -9 -11 -14 -15 -17 -20 -21 -23 -25 0
-495 4 0
-495 5 0
-495 8 0
-495 9 0
-495 11 0
-495 14 0
-495 15 0
-495 17 0
-495 20 0
-495 21 0
-495 23 0
-495 25 0
495 -4 -5 -8 -9 -11 -14 -15 -17 -20 -21 -23 -25 0
-496 4 0
-496 5 0
-496 7 0
-496 9 0
-496 12 0
-496 14 0
-496 15 0
-496 18 0
-496 20 0
-496 21 0
-496 23 0
-496 25 0
496 -4 -5 -7 -9 -12 -14 -15 -18 -20 -21 -23 -25 0
-497 3 0
-497 5 0
-497 8 0
-497 9 0
-497 12 0
-497 14 0
-497 15 0
-497 18 0
-497 20 0
-497 21 0
-497 23 0
-497 25 0
497 -3 -5 -8 -9 -12 -14 -15 -18 -20 -21 -23 -25 0
-498 4 0
-498 5 0
-498 8 0
-498 9 0
-498 12 0
-498 14 0
-498 15 0
-498 18 0
-498 20 0
-498 21 0
-498 23 0
-498 25 0
498 -4 -5 -8 -9 -12 -14 -15 -18 -20 -21 -23 -25 0
-499 3 0
-499 6 0
-499 8 0
-499 9 0
-499 12 0
-499 14 0
-499 15 0
-499 18 0
-499 20 0
-499 21 0
-499 23 0
-499 25 0
499 -3 -6 -8 -9 -12 -14 -15 -18 -20 -21 -23 -25 0
-500 3 0
-500 5 0
-500 7 0
-500 10 0
-500 11 0
-500 14 0
-500 15 0
-500 17 0
-500 20 0
-500 21 0
-500 23 0
-500 25 0
500 -3 -5 -7 -10 -11 -14 -15 -17 -20 -21 -23 -25 0
-501 3 0
-501 6 0
-501 7 0
-501 10 0
-501 11 0
-501 14 0
-501 15 0
-501 17 0
-501 20 0
-501 21 0
-501 23 0
-501 25 0
501 -3 -6 -7 -10 -11 -14 -15 -17 -20 -21 -23 -25 0
-502 4 0
-502 5 0
-502 7 0
-502 10 0
-502 11 0
-502 14 0
-502 15 0
-502 17 0
-502 20 0
-502 21 0
-502 23 0
-502 25 0
502 -4 -5 -7 -10 -11 -14 -15 -17 -20 -21 -23 -25 0
-503 4 0
-503 6 0
-503 8 0
-503 9 0
-503 12 0
-503 14 0
-503 15 0
-503 18 0
-503 20 0
-503 21 0
-503 23 0
-503 25 0
503 -4 -6 -8 -9 -12 -14 -15 -18 -20 -21 -23 -25 0
-504 3 0
-504 6 0
-504 8 0
-504 10 0
-504 12 0
-504 14 0
-504 15 0
-504 18 0
-504 20 0
-504 21 0
-504 23 0
-504 25 0
504 -3 -6 -8 -10 -12 -14 -15 -18 -20 -21 -23 -25 0
-505 4 0
-505 6 0
-505 8 0
-505 10 0
-505 12 0
-505 14 0
-505 15 0
-505 18 0
-505 20 0
-505 21 0
-505 23 0
-505 25 0
505 -4 -6 -8 -10 -12 -14 -15 -18 -20 -21 -23 -25 0
-506 3 0
-506 5 0
-506 8 0
-506 10 0
-506 12 0
-506 14 0
-506 15 0
-506 18 0
-506 20 0
-506 21 0
-506 23 0
-506 25 0
506 -3 -5 -8 -10 -12 -14 -15 -18 -20 -21 -23 -25 0
-507 4 0
-507 5 0
-507 8 0
-507 10 0
-507 11 0
-507 14 0
-507 15 0
-507 17 0
-507 20 0
-507 21 0
-507 23 0
-507 25 0
507 -4 -5 -8 -10 -11 -14 -15 -17 -20 -21 -23 -25 0
-508 4 0
-508 6 0
-508 7 0
-508 10 0
-508 11 0
-508 14 0
-508 15 0
-508 17 0
-508 20 0
-508 21 0
-508 23 0
-508 25 0
508 -4 -6 -7 -10 -11 -14 -15 -17 -20 -21 -23 -25 0
-509 4 0
-509 5 0
-509 8 0
-509 10 0
-509 12 0
-509 14 0
-509 15 0
-509 18 0
-509 20 0
-509 21 0
-509 23 0
-509 25 0
509 -4 -5 -8 -10 -12 -14 -15 -18 -20 -21 -23 -25 0
-510 3 0
-510 5 0
-510 7 0
-510 10 0
-510 12 0
-510 14 0
-510 15 0
-510 18 0
-510 20 0
-510 21 0
-510 23 0
-510 25 0
510 -3 -5 -7 -10 -12 -14 -15 -18 -20 -21 -23 -25 0
-511 4 0
-511 5 0
-511 7 0
-511 10 0
-511 12 0
-511 14 0
-511 15 0
-511 18 0
-511 20 0
-511 21 0
-511 23 0
-511 25 0
511 -4 -5 -7 -10 -12 -14 -15 -18 -20 -21 -23 -25 0
-512 3 0
-512 6 0
-512 7 0
-512 10 0
-512 12 0
-512 14 0
-512 15 0
-512 18 0
-512 20 0
-512 21 0
-512 23 0
-512 25 0
512 -3 -6 -7 -10 -12 -14 -15 -18 -20 -21 -23 -25 0
-513 4 0
-513 6 0
-513 7 0
-513 10 0
-513 12 0
-513 14 0
-513 15 0
-513 17 0
-513 20 0
-513 21 0
-513 23 0
-513 25 0
513 -4 -6 -7 -10 -12 -14 -15 -17 -20 -21 -23 -25 0
-514 4 0
-514 6 0
-514 7 0
-514 10 0
-514 12 0
-514 14 0
-514 15 0
-514 18 0
-514 20 0
-514 21 0
-514 23 0
-514 25 0
514 -4 -6 -7 -10 -12 -14 -15 -18 -20 -21 -23 -25 0
-515 3 0
-515 6 0
-515 7 0
-515 10 0
-515 11 0
-515 14 0
-515 15 0
-515 18 0
-515 20 0
-515 21 0
-515 23 0
-515 25 0
515 -3 -6 -7 -10 -11 -14 -15 -18 -20 -21 -23 -25 0
-516 4 0
-516 6 0
-516 7 0
-516 10 0
-516 11 0
-516 14 0
-516 15 0
-516 18 0
-516 20 0
-516 21 0
-516 23 0
-516 25 0
516 -4 -6 -7 -10 -11 -14 -15 -18 -20 -21 -23 -25 0
-517 3 0
-517 5 0
-517 7 0
-517 10 0
-517 11 0
-517 14 0
-517 15 0
-517 18 0
-517 20 0
-517 21 0
-517 23 0
-517 25 0
517 -3 -5 -7 -10 -11 -14 -15 -18 -20 -21 -23 -25 0
-518 4 0
-518 6 0
-518 8 0
-518 9 0
-518 11 0
-518 14 0
-518 15 0
-518 17 0
-518 20 0
-518 21 0
-518 23 0
-518 25 0
518 -4 -6 -8 -9 -11 -14 -15 -17 -20 -21 -23 -25 0
-519 4 0
-519 5 0
-519 7 0
-519 10 0
-519 11 0
-519 14 0
-519 15 0
-519 18 0
-519 20 0
-519 21 0
-519 23 0
-519 25 0
519 -4 -5 -7 -10 -11 -14 -15 -18 -20 -21 -23 -25 0
-520 3 0
-520 5 0
-520 8 0
-520 10 0
-520 11 0
-520 14 0
-520 15 0
-520 18 0
-520 20 0
-520 21 0
-520 23 0
-520 25 0
520 -3 -5 -8 -10 -11 -14 -15 -18 -20 -21 -23 -25 0
-521 4 0
-521 5 0
-521 8 0
-521 10 0
-521 11 0
-521 14 0
-521 15 0
-521 18 0
-521 20 0
-521 21 0
-521 23 0
-521 25 0
521 -4 -5 -8 -10 -11 -14 -15 -18 -20 -21 -23 -25 0
-522 3 0
-522 6 0
-522 8 0
-522 10 0
-522 11 0
-522 14 0
-522 15 0
-522 18 0
-522 20 0
-522 21 0
-522 23 0
-522 25 0
522 -3 -6 -8 -10 -11 -14 -15 -18 -20 -21 -23 -25 0
-523 4 0
-523 6 0
-523 8 0
-523 10 0
-523 11 0
-523 14 0
-523 15 0
-523 17 0
-523 20 0
-523 21 0
-523 23 0
-523 25 0
523 -4 -6 -8 -10 -11 -14 -15 -17 -20 -21 -23 -25 0
-524 4 0
-524 6 0
-524 8 0
-524 10 0
-524 11 0
-524 14 0
-524 15 0
-524 18 0
-524 20 0
-524 21 0
-524 23 0
-524 25 0
524 -4 -6 -8 -10 -11 -14 -15 -18 -20 -21 -23 -25 0
-525 3 0
-525 6 0
-525 8 0
-525 9 0
-525 11 0
-525 14 0
-525 15 0
-525 18 0
-525 20 0
-525 21 0
-525 23 0
-525 25 0
525 -3 -6 -8 -9 -11 -14 -15 -18 -20 -21 -23 -25 0
-526 4 0
-526 6 0
-526 8 0
-526 9 0
-526 11 0
-526 14 0
-526 15 0
-526 18 0
-526 20 0
-526 21 0
-526 23 0
-526 25 0
526 -4 -6 -8 -9 -11 -14 -15 -18 -20 -21 -23 -25 0
-527 3 0
-527 5 0
-527 8 0
-527 9 0
-527 11 0
-527 14 0
-527 15 0
-527 18 0
-527 20 0
-527 21 0
-527 23 0
-527 25 0
527 -3 -5 -8 -9 -11 -14 -15 -18 -20 -21 -23 -25 0
-528 4 0
-528 6 0
-528 7 0
-528 9 0
-528 11 0
-528 14 0
-528 15 0
-528 17 0
-528 20 0
-528 21 0
-528 23 0
-528 25 0
528 -4 -6 -7 -9 -11 -14 -15 -17 -20 -21 -23 -25 0
-529 4 0
-529 5 0
-529 8 0
-529 9 0
-529 11 0
-529 14 0
-529 15 0
-529 18 0
-529 20 0
-529 21 0
-529 23 0
-529 25 0
529 -4 -5 -8 -9 -11 -14 -15 -18 -20 -21 -23 -25 0
-530 3 0
-530 5 0
-530 7 0
-530 9 0
-530 11 0
-530 14 0
-530 15 0
-530 18 0
-530 20 0
-530 21 0
-530 23 0
-530 25 0
530 -3 -5 -7 -9 -11 -14 -15 -18 -20 -21 -23 -25 0
-531 4 0
-531 5 0
-531 7 0
-531 9 0
-531 11 0
-531 14 0
-531 15 0
-531 18 0
-531 20 0
-531 21 0
-531 23 0
-531 25 0
531 -4 -5 -7 -9 -11 -14 -15 -18 -20 -21 -23 -25 0
-532 3 0
-532 6 0
-532 7 0
-532 9 0
-532 11 0
-532 14 0
-532 15 0
-532 18 0
-532 20 0
-532 21 0
-532 23 0
-532 25 0
532 -3 -6 -7 -9 -11 -14 -15 -18 -20 -21 -23 -25 0
-533 3 0
-533 5 0
-533 7 0
-533 9 0
-533 11 0
-533 13 0
-533 16 0
-533 17 0
-533 20 0
-533 21 0
-533 23 0
-533 25 0
533 -3 -5 -7 -9 -11 -13 -16 -17 -20 -21 -23 -25 0
-534 3 0
-534 6 0
-534 7 0
-534 9 0
-534 11 0
-534 13 0
-534 16 0
-534 17 0
-534 20 0
-534 21 0
-534 23 0
-534 25 0
534 -3 -6 -7 -9 -11 -13 -16 -17 -20 -21 -23 -25 0
-535 4 0
-535 5 0
-535 7 0
-535 9 0
-535 11 0
-535 13 0
-535 16 0
-535 17 0
-535 20 0
-535 21 0
-535 23 0
-535 25 0
535 -4 -5 -7 -9 -11 -13 -16 -17 -20 -21 -23 -25 0
-536 4 0
-536 6 0
-536 7 0
-536 9 0
-536 11 0
-536 14 0
-536 15 0
-536 18 0
-536 20 0
-536 21 0
-536 23 0
-536 25 0
536 -4 -6 -7 -9 -11 -14 -15 -18 -20 -21 -23 -25 0
-537 3 0
-537 6 0
-537 7 0
-537 9 0
-537 11 0
-537 14 0
-537 16 0
-537 18 0
-537 20 0
-537 21 0
-537 23 0
-537 25 0
537 -3 -6 -7 -9 -11 -14 -16 -18 -20 -21 -23 -25 0
-538 4 0
-538 6 0
-538 7 0
-538 9 0
-538 11 0
-538 14 0
-538 16 0
-538 18 0
-538 20 0
-538 21 0
-538 23 0
-538 25 0
538 -4 -6 -7 -9 -11 -14 -16 -18 -20 -21 -23 -25 0
-539 3 0
-539 5 0
-539 7 0
-539 9 0
-539 11 0
-539 14 0
-539 16 0
-539 18 0
-539 20 0
-539 21 0
-539 23 0
-539 25 0
539 -3 -5 -7 -9 -11 -14 -16 -18 -20 -21 -23 -25 0
-540 3 0
-540 5 0
-540 8 0
-540 9 0
-540 11 0
-540 13 0
-540 16 0
-540 17 0
-540 20 0
-540 21 0
-540 23 0
-540 25 0
540 -3 -5 -8 -9 -11 -13 -16 -17 -20 -21 -23 -25 0
-541 3 0
-541 6 0
-541 8 0
-541 9 0
-541 11 0
-541 13 0
-541 16 0
-541 17 0
-541 20 0
-541 21 0
-541 23 0
-541 25 0
541 -3 -6 -8 -9 -11 -13 -16 -17 -20 -21 -23 -25 0
-542 4 0
-542 5 0
-542 8 0
-542 9 0
-542 11 0
-542 13 0
-542 16 0
-542 17 0
-542 20 0
-542 21 0
-542 23 0
-542 25 0
542 -4 -5 -8 -9 -11 -13 -16 -17 -20 -21 -23 -25 0
-543 4 0
-543 5 0
-543 7 0
-543 9 0
-543 11 0
-543 14 0
-543 16 0
-543 18 0
-543 20 0
-543 21 0
-543 23 0
-543 25 0
543 -4 -5 -7 -9 -11 -14 -16 -18 -20 -21 -23 -25 0
-544 3 0
-544 5 0
-544 8 0
-544 9 0
-544 11 0
-544 14 0
-544 16 0
-544 18 0
-544 20 0
-544 21 0
-544 23 0
-544 25 0
544 -3 -5 -8 -9 -11 -14 -16 -18 -20 -21 -23 -25 0
-545 4 0
-545 5 0
-545 8 0
-545 9 0
-545 11 0
-545 14 0
-545 16 0
-545 18 0
-545 20 0
-545 21 0
-545 23 0
-545 25 0
545 -4 -5 -8 -9 -11 -14 -16 -18 -20 -21 -23 -25 0
-546 3 0
-546 6 0
-546 8 0
-546 9 0
-546 11 0
-546 14 0
-546 16 0
-546 18 0
-546 20 0
-546 21 0
-546 23 0
-546 25 0
546 -3 -6 -8 -9 -11 -14 -16 -18 -20 -21 -23 -25 0
-547 3 0
-547 5 0
-547 7 0
-547 10 0
-547 11 0
-547 13 0
-547 16 0
-547 17 0
-547 20 0
-547 21 0
-547 23 0
-547 25 0
547 -3 -5 -7 -10 -11 -13 -16 -17 -20 -21 -23 -25 0
-548 3 0
-548 6 0
-548 7 0
-548 10 0
-548 11 0
-548 13 0
-548 16 0
-548 17 0
-548 20 0
-548 21 0
-548 23 0
-548 25 0
548 -3 -6 -7 -10 -11 -13 -16 -17 -20 -21 -23 -25 0
-549 4 0
-549 5 0
-549 7 0
-549 10 0
-549 11 0
-549 13 0
-549 16 0
-549 17 0
-549 20 0
-549 21 0
-549 23 0
-549 25 0
549 -4 -5 -7 -10 -11 -13 -16 -17 -20 -21 -23 -25 0
-550 4 0
-550 6 0
-550 8 0
-550 9 0
-550 11 0
-550 14 0
-550 16 0
-550 18 0
-550 20 0
-550 21 0
-550 23 0
-550 25 0
550 -4 -6 -8 -9 -11 -14 -16 -18 -20 -21 -23 -25 0
-551 3 0
-551 6 0
-551 8 0
-551 10 0
-551 11 0
-551 14 0
-551 16 0
-551 18 0
-551 20 0
-551 21 0
-551 23 0
-551 25 0
551 -3 -6 -8 -10 -11 -14 -16 -18 -20 -21 -23 -25 0
-552 4 0
-552 6 0
-552 8 0
-552 10 0
-552 11 0
-552 14 0
-552 16 0
-552 18 0
-552 20 0
-552 21 0
-552 23 0
-552 25 0
552 -4 -6 -8 -10 -11 -14 -16 -18 -20 -21 -23 -25 0
-553 3 0
-553 5 0
-553 8 0
-553 10 0
-553 11 0
-553 14 0
-553 16 0
-553 18 0
-553 20 0
-553 21 0
-553 23 0
-553 25 0
553 -3 -5 -8 -10 -11 -14 -16 -18 -20 -21 -23 -25 0
-554 4 0
-554 5 0
-554 8 0
-554 10 0
-554 11 0
-554 13 0
-554 16 0
-554 17 0
-554 20 0
-554 21 0
-554 23 0
-554 25 0
554 -4 -5 -8 -10 -11 -13 -16 -17 -20 -21 -23 -25 0
-555 4 0
-555 6 0
-555 7 0
-555 10 0
-555 11 0
-555 13 0
-555 16 0
-555 17 0
-555 20 0
-555 21 0
-555 23 0
-555 25 0
555 -4 -6 -7 -10 -11 -13 -16 -17 -20 -21 -23 -25 0
-556 4 0
-556 5 0
-556 8 0
-556 10 0
-556 11 0
-556 14 0
-556 16 0
-556 18 0
-556 20 0
-556 21 0
-556 23 0
-556 25 0
556 -4 -5 -8 -10 -11 -14 -16 -18 -20 -21 -23 -25 0
-557 3 0
-557 5 0
-557 7 0
-557 10 0
-557 11 0
-557 14 0
-557 16 0
-557 18 0
-557 20 0
-557 21 0
-557 23 0
-557 25 0
557 -3 -5 -7 -10 -11 -14 -16 -18 -20 -21 -23 -25 0
-558 4 0
-558 5 0
-558 7 0
-558 10 0
-558 11 0
-558 14 0
-558 16 0
-558 18 0
-558 20 0
-558 21 0
-558 23 0
-558 25 0
558 -4 -5 -7 -10 -11 -14 -16 -18 -20 -21 -23 -25 0
-559 3 0
-559 6 0
-559 7 0
-559 10 0
-559 11 0
-559 14 0
-559 16 0
-559 18 0
-559 20 0
-559 21 0
-559 23 0
-559 25 0
559 -3 -6 -7 -10 -11 -14 -16 -18 -20 -21 -23 -25 0
-560 3 0
-560 5 0
-560 7 0
-560 9 0
-560 12 0
-560 13 0
-560 16 0
-560 17 0
-560 20 0
-560 21 0
-560 23 0
-560 25 0
560 -3 -5 -7 -9 -12 -13 -16 -17 -20 -21 -23 -25 0
-561 3 0
-561 6 0
-561 7 0
-561 9 0
-561 12 0
-561 13 0
-561 16 0
-561 17 0
-561 20 0
-561 21 0
-561 23 0
-561 25 0
561 -3 -6 -7 -9 -12 -13 -16 -17 -20 -21 -23 -25 0
-562 4 0
-562 5 0
-562 7 0
-562 9 0
-562 12 0
-562 13 0
-562 16 0
-562 17 0
-562 20 0
-562 21 0
-562 23 0
-562 25 0
562 -4 -5 -7 -9 -12 -13 -16 -17 -20 -21 -23 -25 0
-563 4 0
-563 6 0
-563 7 0
-563 10 0
-563 11 0
-563 14 0
-563 16 0
-563 18 0
-563 20 0
-563 21 0
-563 23 0
-563 25 0
563 -4 -6 -7 -10 -11 -14 -16 -18 -20 -21 -23 -25 0
-564 3 0
-564 6 0
-564 7 0
-564 10 0
-564 12 0
-564 14 0
-564 16 0
-564 18 0
-564 20 0
-564 21 0
-564 23 0
-564 25 0
564 -3 -6 -7 -10 -12 -14 -16 -18 -20 -21 -23 -25 0
-565 4 0
-565 6 0
-565 7 0
-565 10 0
-565 12 0
-565 14 0
-565 16 0
-565 18 0
-565 20 0
-565 21 0
-565 23 0
-565 25 0
565 -4 -6 -7 -10 -12 -14 -16 -18 -20 -21 -23 -25 0
-566 3 0
-566 5 0
-566 7 0
-566 10 0
-566 12 0
-566 14 0
-566 16 0
-566 18 0
-566 20 0
-566 21 0
-566 23 0
-566 25 0
566 -3 -5 -7 -10 -12 -14 -16 -18 -20 -21 -23 -25 0
-567 3 0
-567 5 0
-567 8 0
-567 9 0
-567 12 0
-567 13 0
-567 16 0
-567 17 0
-567 20 0
-567 21 0
-567 23 0
-567 25 0
567 -3 -5 -8 -9 -12 -13 -16 -17 -20 -21 -23 -25 0
-568 3 0
-568 6 0
-568 8 0
-568 9 0
-568 12 0
-568 13 0
-568 16 0
-568 17 0
-568 20 0
-568 21 0
-568 23 0
-568 25 0
568 -3 -6 -8 -9 -12 -13 -16 -17 -20 -21 -23 -25 0
-569 4 0
-569 5 0
-569 8 0
-569 9 0
-569 12 0
-569 13 0
-569 16 0
-569 17 0
-569 20 0
-569 21 0
-569 23 0
-569 25 0
569 -4 -5 -8 -9 -12 -13 -16 -17 -20 -21 -23 -25 0
-570 4 0
-570 5 0
-570 7 0
-570 10 0
-570 12 0
-570 14 0
-570 16 0
-570 18 0
-570 20 0
-570 21 0
-570 23 0
-570 25 0
570 -4 -5 -7 -10 -12 -14 -16 -18 -20 -21 -23 -25 0
-571 3 0
-571 5 0
-571 8 0
-571 10 0
-571 12 0
-571 14 0
-571 16 0
-571 18 0
-571 20 0
-571 21 0
-571 23 0
-571 25 0
571 -3 -5 -8 -10 -12 -14 -16 -18 -20 -21 -23 -25 0
-572 4 0
-572 5 0
-572 8 0
-572 10 0
-572 12 0
-572 14 0
-572 16 0
-572 18 0
-572 20 0
-572 21 0
-572 23 0
-572 25 0
572 -4 -5 -8 -10 -12 -14 -16 -18 -20 -21 -23 -25 0
-573 3 0
-573 6 0
-573 8 0
-573 10 0
-573 12 0
-573 14 0
-573 16 0
-573 18 0
-573 20 0
-573 21 0
-573 23 0
-573 25 0
573 -3 -6 -8 -10 -12 -14 -16 -18 -20 -21 -23 -25 0
-574 4 0
-574 6 0
-574 7 0
-574 9 0
-574 12 0
-574 13 0
-574 16 0
-574 17 0
-574 20 0
-574 21 0
-574 23 0
-574 25 0
574 -4 -6 -7 -9 -12 -13 -16 -17 -20 -21 -23 -25 0
-575 4 0
-575 6 0
-575 8 0
-575 10 0
-575 12 0
-575 14 0
-575 16 0
-575 18 0
-575 20 0
-575 21 0
-575 23 0
-575 25 0
575 -4 -6 -8 -10 -12 -14 -16 -18 -20 -21 -23 -25 0
-576 3 0
-576 6 0
-576 8 0
-576 9 0
-576 12 0
-576 14 0
-576 16 0
-576 18 0
-576 20 0
-576 21 0
-576 23 0
-576 25 0
576 -3 -6 -8 -9 -12 -14 -16 -18 -20 -21 -23 -25 0
-577 4 0
-577 6 0
-577 8 0
-577 9 0
-577 12 0
-577 14 0
-577 16 0
-577 18 0
-577 20 0
-577 21 0
-577 23 0
-577 25 0
577 -4 -6 -8 -9 -12 -14 -16 -18 -20 -21 -23 -25 0
-578 3 0
-578 5 0
-578 8 0
-578 9 0
-578 12 0
-578 14 0
-578 16 0
-578 18 0
-578 20 0
-578 21 0
-578 23 0
-578 25 0
578 -3 -5 -8 -9 -12 -14 -16 -18 -20 -21 -23 -25 0
-579 4 0
-579 5 0
-579 8 0
-579 9 0
-579 12 0
-579 14 0
-579 16 0
-579 18 0
-579 20 0
-579 21 0
-579 23 0
-579 25 0
579 -4 -5 -8 -9 -12 -14 -16 -18 -20 -21 -23 -25 0
-580 3 0
-580 5 0
-580 7 0
-580 9 0
-580 12 0
-580 14 0
-580 16 0
-580 18 0
-580 20 0
-580 21 0
-580 23 0
-580 25 0
580 -3 -5 -7 -9 -12 -14 -16 -18 -20 -21 -23 -25 0
-581 4 0
-581 5 0
-581 7 0
-581 9 0
-581 12 0
-581 14 0
-581 16 0
-581 18 0
-581 20 0
-581 21 0
-581 23 0
-581 25 0
581 -4 -5 -7 -9 -12 -14 -16 -18 -20 -21 -23 -25 0
-582 3 0
-582 6 0
-582 7 0
-582 9 0
-582 12 0
-582 14 0
-582 16 0
-582 18 0
-582 20 0
-582 21 0
-582 23 0
-582 25 0
582 -3 -6 -7 -9 -12 -14 -16 -18 -20 -21 -23 -25 0
-583 4 0
-583 6 0
-583 7 0
-583 9 0
-583 12 0
-583 14 0
-583 16 0
-583 17 0
-583 20 0
-583 21 0
-583 23 0
-583 25 0
583 -4 -6 -7 -9 -12 -14 -16 -17 -20 -21 -23 -25 0
-584 4 0
-584 6 0
-584 7 0
-584 9 0
-584 12 0
-584 14 0
-584 16 0
-584 18 0
-584 20 0
-584 21 0
-584 23 0
-584 25 0
584 -4 -6 -7 -9 -12 -14 -16 -18 -20 -21 -23 -25 0
-585 3 0
-585 6 0
-585 7 0
-585 9 0
-585 12 0
-585 13 0
-585 16 0
-585 18 0
-585 20 0
-585 21 0
-585 23 0
-585 25 0
585 -3 -6 -7 -9 -12 -13 -16 -18 -20 -21 -23 -25 0
-586 4 0
-586 6 0
-586 7 0
-586 9 0
-586 12 0
-586 13 0
-586 16 0
-586 18 0
-586 20 0
-586 21 0
-586 23 0
-586 25 0
586 -4 -6 -7 -9 -12 -13 -16 -18 -20 -21 -23 -25 0
-587 3 0
-587 5 0
-587 7 0
-587 9 0
-587 12 0
-587 13 0
-587 16 0
-587 18 0
-587 20 0
-587 21 0
-587 23 0
-587 25 0
587 -3 -5 -7 -9 -12 -13 -16 -18 -20 -21 -23 -25 0
-588 4 0
-588 6 0
-588 8 0
-588 9 0
-588 11 0
-588 13 0
-588 16 0
-588 17 0
-588 20 0
-588 21 0
-588 23 0
-588 25 0
588 -4 -6 -8 -9 -11 -13 -16 -17 -20 -21 -23 -25 0
-589 4 0
-589 5 0
-589 7 0
-589 9 0
-589 12 0
-589 13 0
-589 16 0
-589 18 0
-589 20 0
-589 21 0
-589 23 0
-589 25 0
589 -4 -5 -7 -9 -12 -13 -16 -18 -20 -21 -23 -25 0
-590 3 0
-590 5 0
-590 8 0
-590 9 0
-590 12 0
-590 13 0
-590 16 0
-590 18 0
-590 20 0
-590 21 0
-590 23 0
-590 25 0
590 -3 -5 -8 -9 -12 -13 -16 -18 -20 -21 -23 -25 0
-591 4 0
-591 5 0
-591 8 0
-591 9 0
-591 12 0
-591 13 0
-591 16 0
-591 18 0
-591 20 0
-591 21 0
-591 23 0
-591 25 0
591 -4 -5 -8 -9 -12 -13 -16 -18 -20 -21 -23 -25 0
-592 3 0
-592 6 0
-592 8 0
-592 9 0
-592 12 0
-592 13 0
-592 16 0
-592 18 0
-592 20 0
-592 21 0
-592 23 0
-592 25 0
592 -3 -6 -8 -9 -12 -13 -16 -18 -20 -21 -23 -25 0
-593 4 0
-593 6 0
-593 8 0
-593 9 0
-593 12 0
-593 13 0
-593 16 0
-593 18 0
-593 20 0
-593 21 0
-593 23 0
-593 25 0
593 -4 -6 -8 -9 -12 -13 -16 -18 -20 -21 -23 -25 0
-594 3 0
-594 6 0
-594 8 0
-594 10 0
-594 12 0
-594 13 0
-594 16 0
-594 18 0
-594 20 0
-594 21 0
-594 23 0
-594 25 0
594 -3 -6 -8 -10 -12 -13 -16 -18 -20 -21 -23 -25 0
-595 4 0
-595 6 0
-595 8 0
-595 10 0
-595 12 0
-595 13 0
-595 16 0
-595 18 0
-595 20 0
-595 21 0
-595 23 0
-595 25 0
595 -4 -6 -8 -10 -12 -13 -16 -18 -20 -21 -23 -25 0
-596 3 0
-596 5 0
-596 8 0
-596 10 0
-596 12 0
-596 13 0
-596 16 0
-596 18 0
-596 20 0
-596 21 0
-596 23 0
-596 25 0
596 -3 -5 -8 -10 -12 -13 -16 -18 -20 -21 -23 -25 0
-597 4 0
-597 5 0
-597 8 0
-597 10 0
-597 12 0
-597 13 0
-597 16 0
-597 18 0
-597 20 0
-597 21 0
-597 23 0
-597 25 0
597 -4 -5 -8 -10 -12 -13 -16 -18 -20 -21 -23 -25 0
-598 3 0
-598 5 0
-598 7 0
-598 10 0
-598 12 0
-598 13 0
-598 16 0
-598 18 0
-598 20 0
-598 21 0
-598 23 0
-598 25 0
598 -3 -5 -7 -10 -12 -13 -16 -18 -20 -21 -23 -25 0
-599 4 0
-599 5 0
-599 7 0
-599 10 0
-599 12 0
-599 13 0
-599 16 0
-599 18 0
-599 20 0
-599 21 0
-599 23 0
-599 25 0
599 -4 -5 -7 -10 -12 -13 -16 -18 -20 -21 -23 -25 0
-600 3 0
-600 6 0
-600 7 0
-600 10 0
-600 12 0
-600 13 0
-600 16 0
-600 18 0
-600 20 0
-600 21 0
-600 23 0
-600 25 0
600 -3 -6 -7 -10 -12 -13 -16 -18 -20 -21 -23 -25 0
-601 4 0
-601 6 0
-601 7 0
-601 10 0
-601 12 0
-601 13 0
-601 16 0
-601 17 0
-601 20 0
-601 21 0
-601 23 0
-601 25 0
601 -4 -6 -7 -10 -12 -13 -16 -17 -20 -21 -23 -25 0
-602 4 0
-602 6 0
-602 7 0
-602 10 0
-602 12 0
-602 13 0
-602 16 0
-602 18 0
-602 20 0
-602 21 0
-602 23 0
-602 25 0
602 -4 -6 -7 -10 -12 -13 -16 -18 -20 -21 -23 -25 0
-603 3 0
-603 6 0
-603 7 0
-603 10 0
-603 11 0
-603 13 0
-603 16 0
-603 18 0
-603 20 0
-603 21 0
-603 23 0
-603 25 0
603 -3 -6 -7 -10 -11 -13 -16 -18 -20 -21 -23 -25 0
-604 4 0
-604 6 0
-604 7 0
-604 10 0
-604 11 0
-604 13 0
-604 16 0
-604 18 0
-604 20 0
-604 21 0
-604 23 0
-604 25 0
604 -4 -6 -7 -10 -11 -13 -16 -18 -20 -21 -23 -25 0
-605 3 0
-605 5 0
-605 7 0
-605 10 0
-605 11 0
-605 13 0
-605 16 0
-605 18 0
-605 20 0
-605 21 0
-605 23 0
-605 25 0
605 -3 -5 -7 -10 -11 -13 -16 -18 -20 -21 -23 -25 0
-606 4 0
-606 5 0
-606 7 0
-606 10 0
-606 11 0
-606 13 0
-606 16 0
-606 18 0
-606 20 0
-606 21 0
-606 23 0
-606 25 0
606 -4 -5 -7 -10 -11 -13 -16 -18 -20 -21 -23 -25 0
-607 3 0
-607 5 0
-607 8 0
-607 10 0
-607 11 0
-607 13 0
-607 16 0
-607 18 0
-607 20 0
-607 21 0
-607 23 0
-607 25 0
607 -3 -5 -8 -10 -11 -13 -16 -18 -20 -21 -23 -25 0
-608 4 0
-608 5 0
-608 8 0
-608 10 0
-608 11 0
-608 13 0
-608 16 0
-608 18 0
-608 20 0
-608 21 0
-608 23 0
-608 25 0
608 -4 -5 -8 -10 -11 -13 -16 -18 -20 -21 -23 -25 0
-609 3 0
-609 6 0
-609 8 0
-609 10 0
-609 11 0
-609 13 0
-609 16 0
-609 18 0
-609 20 0
-609 21 0
-609 23 0
-609 25 0
609 -3 -6 -8 -10 -11 -13 -16 -18 -20 -21 -23 -25 0
-610 4 0
-610 6 0
-610 8 0
-610 10 0
-610 11 0
-610 13 0
-610 16 0
-610 17 0
-610 20 0
-610 21 0
-610 23 0
-610 25 0
610 -4 -6 -8 -10 -11 -13 -16 -17 -20 -21 -23 -25 0
-611 4 0
-611 6 0
-611 8 0
-611 10 0
-611 11 0
-611 13 0
-611 16 0
-611 18 0
-611 20 0
-611 21 0
-611 23 0
-611 25 0
611 -4 -6 -8 -10 -11 -13 -16 -18 -20 -21 -23 -25 0
-612 3 0
-612 6 0
-612 8 0
-612 9 0
-612 11 0
-612 13 0
-612 16 0
-612 18 0
-612 20 0
-612 21 0
-612 23 0
-612 25 0
612 -3 -6 -8 -9 -11 -13 -16 -18 -20 -21 -23 -25 0
-613 4 0
-613 6 0
-613 8 0
-613 9 0
-613 11 0
-613 13 0
-613 16 0
-613 18 0
-613 20 0
-613 21 0
-613 23 0
-613 25 0
613 -4 -6 -8 -9 -11 -13 -16 -18 -20 -21 -23 -25 0
-614 3 0
-614 5 0
-614 8 0
-614 9 0
-614 11 0
-614 13 0
-614 16 0
-614 18 0
-614 20 0
-614 21 0
-614 23 0
-614 25 0
614 -3 -5 -8 -9 -11 -13 -16 -18 -20 -21 -23 -25 0
-615 4 0
-615 6 0
-615 7 0
-615 9 0
-615 11 0
-615 13 0
-615 16 0
-615 17 0
-615 20 0
-615 21 0
-615 23 0
-615 25 0
615 -4 -6 -7 -9 -11 -13 -16 -17 -20 -21 -23 -25 0
-616 4 0
-616 5 0
-616 8 0
-616 9 0
-616 11 0
-616 13 0
-616 16 0
-616 18 0
-616 20 0
-616 21 0
-616 23 0
-616 25 0
616 -4 -5 -8 -9 -11 -13 -16 -18 -20 -21 -23 -25 0
-617 3 0
-617 5 0
-617 7 0
-617 9 0
-617 11 0
-617 13 0
-617 16 0
-617 18 0
-617 20 0
-617 21 0
-617 23 0
-617 25 0
617 -3 -5 -7 -9 -11 -13 -16 -18 -20 -21 -23 -25 0
-618 4 0
-618 5 0
-618 7 0
-618 9 0
-618 11 0
-618 13 0
-618 16 0
-618 18 0
-618 20 0
-618 21 0
-618 23 0
-618 25 0
618 -4 -5 -7 -9 -11 -13 -16 -18 -20 -21 -23 -25 0
-619 3 0
-619 6 0
-619 7 0
-619 9 0
-619 11 0
-619 13 0
-619 16 0
-619 18 0
-619 20 0
-619 21 0
-619 23 0
-619 25 0
619 -3 -6 -7 -9 -11 -13 -16 -18 -20 -21 -23 -25 0
-620 4 0
-620 6 0
-620 7 0
-620 9 0
-620 11 0
-620 13 0
-620 16 0
-620 18 0
-620 20 0
-620 21 0
-620 23 0
-620 25 0
620 -4 -6 -7 -9 -11 -13 -16 -18 -20 -21 -23 -25 0
-621 3 0
-621 6 0
-621 8 0
-621 10 0
-621 11 0
-621 13 0
-621 16 0
-621 17 0
-621 20 0
-621 21 0
-621 23 0
-621 25 0
621 -3 -6 -8 -10 -11 -13 -16 -17 -20 -21 -23 -25 0
-622 3 0
-622 5 0
-622 8 0
-622 10 0
-622 11 0
-622 13 0
-622 16 0
-622 17 0
-622 20 0
-622 21 0
-622 23 0
-622 25 0
622 -3 -5 -8 -10 -11 -13 -16 -17 -20 -21 -23 -25 0
-623 3 0
-623 6 0
-623 7 0
-623 10 0
-623 12 0
-623 13 0
-623 16 0
-623 17 0
-623 20 0
-623 21 0
-623 23 0
-623 25 0
623 -3 -6 -7 -10 -12 -13 -16 -17 -20 -21 -23 -25 0
-624 3 0
-624 5 0
-624 7 0
-624 10 0
-624 12 0
-624 13 0
-624 16 0
-624 17 0
-624 20 0
-624 21 0
-624 23 0
-624 25 0
624 -3 -5 -7 -10 -12 -13 -16 -17 -20 -21 -23 -25 0
-625 4 0
-625 6 0
-625 8 0
-625 9 0
-625 12 0
-625 13 0
-625 15 0
-625 17 0
-625 20 0
-625 21 0
-625 23 0
-625 25 0
625 -4 -6 -8 -9 -12 -13 -15 -17 -20 -21 -23 -25 0
-626 4 0
-626 5 0
-626 7 0
-626 10 0
-626 12 0
-626 13 0
-626 16 0
-626 17 0
-626 20 0
-626 21 0
-626 23 0
-626 25 0
626 -4 -5 -7 -10 -12 -13 -16 -17 -20 -21 -23 -25 0
-627 3 0
-627 5 0
-627 8 0
-627 10 0
-627 12 0
-627 13 0
-627 16 0
-627 17 0
-627 20 0
-627 21 0
-627 23 0
-627 25 0
627 -3 -5 -8 -10 -12 -13 -16 -17 -20 -21 -23 -25 0
-628 4 0
-628 5 0
-628 8 0
-628 10 0
-628 12 0
-628 13 0
-628 16 0
-628 17 0
-628 20 0
-628 21 0
-628 23 0
-628 25 0
628 -4 -5 -8 -10 -12 -13 -16 -17 -20 -21 -23 -25 0
-629 3 0
-629 6 0
-629 8 0
-629 10 0
-629 12 0
-629 13 0
-629 16 0
-629 17 0
-629 20 0
-629 21 0
-629 23 0
-629 25 0
629 -3 -6 -8 -10 -12 -13 -16 -17 -20 -21 -23 -25 0
-630 4 0
-630 6 0
-630 8 0
-630 10 0
-630 12 0
-630 13 0
-630 15 0
-630 17 0
-630 20 0
-630 21 0
-630 23 0
-630 25 0
630 -4 -6 -8 -10 -12 -13 -15 -17 -20 -21 -23 -25 0
-631 4 0
-631 6 0
-631 8 0
-631 10 0
-631 12 0
-631 13 0
-631 16 0
-631 17 0
-631 20 0
-631 21 0
-631 23 0
-631 25 0
631 -4 -6 -8 -10 -12 -13 -16 -17 -20 -21 -23 -25 0
-632 4 0
-632 6 0
-632 8 0
-632 9 0
-632 12 0
-632 13 0
-632 16 0
-632 17 0
-632 20 0
-632 21 0
-632 23 0
-632 25 0
632 -4 -6 -8 -9 -12 -13 -16 -17 -20 -21 -23 -25 0
-633 3 0
-633 6 0
-633 7 0
-633 9 0
-633 12 0
-633 14 0
-633 16 0
-633 17 0
-633 20 0
-633 21 0
-633 23 0
-633 25 0
633 -3 -6 -7 -9 -12 -14 -16 -17 -20 -21 -23 -25 0
-634 3 0
-634 5 0
-634 7 0
-634 9 0
-634 12 0
-634 14 0
-634 16 0
-634 17 0
-634 20 0
-634 21 0
-634 23 0
-634 25 0
634 -3 -5 -7 -9 -12 -14 -16 -17 -20 -21 -23 -25 0
-635 4 0
-635 5 0
-635 7 0
-635 9 0
-635 12 0
-635 14 0
-635 16 0
-635 17 0
-635 20 0
-635 21 0
-635 23 0
-635 25 0
635 -4 -5 -7 -9 -12 -14 -16 -17 -20 -21 -23 -25 0
-636 3 0
-636 5 0
-636 8 0
-636 9 0
-636 12 0
-636 14 0
-636 16 0
-636 17 0
-636 20 0
-636 21 0
-636 23 0
-636 25 0
636 -3 -5 -8 -9 -12 -14 -16 -17 -20 -21 -23 -25 0
-637 4 0
-637 5 0
-637 8 0
-637 9 0
-637 12 0
-637 14 0
-637 16 0
-637 17 0
-637 20 0
-637 21 0
-637 23 0
-637 25 0
637 -4 -5 -8 -9 -12 -14 -16 -17 -20 -21 -23 -25 0
-638 3 0
-638 6 0
-638 8 0
-638 9 0
-638 12 0
-638 14 0
-638 16 0
-638 17 0
-638 20 0
-638 21 0
-638 23 0
-638 25 0
638 -3 -6 -8 -9 -12 -14 -16 -17 -20 -21 -23 -25 0
-639 4 0
-639 6 0
-639 8 0
-639 9 0
-639 12 0
-639 14 0
-639 16 0
-639 17 0
-639 20 0
-639 21 0
-639 23 0
-639 25 0
639 -4 -6 -8 -9 -12 -14 -16 -17 -20 -21 -23 -25 0
-640 3 0
-640 6 0
-640 8 0
-640 10 0
-640 12 0
-640 14 0
-640 16 0
-640 17 0
-640 20 0
-640 21 0
-640 23 0
-640 25 0
640 -3 -6 -8 -10 -12 -14 -16 -17 -20 -21 -23 -25 0
-641 4 0
-641 6 0
-641 8 0
-641 10 0
-641 12 0
-641 14 0
-641 16 0
-641 17 0
-641 20 0
-641 21 0
-641 23 0
-641 25 0
641 -4 -6 -8 -10 -12 -14 -16 -17 -20 -21 -23 -25 0
-642 3 0
-642 5 0
-642 8 0
-642 10 0
-642 12 0
-642 14 0
-642 16 0
-642 17 0
-642 20 0
-642 21 0
-642 23 0
-642 25 0
642 -3 -5 -8 -10 -12 -14 -16 -17 -20 -21 -23 -25 0
-643 4 0
-643 5 0
-643 8 0
-643 10 0
-643 12 0
-643 14 0
-643 16 0
-643 17 0
-643 20 0
-643 21 0
-643 23 0
-643 25 0
643 -4 -5 -8 -10 -12 -14 -16 -17 -20 -21 -23 -25 0
-644 3 0
-644 5 0
-644 7 0
-644 10 0
-644 12 0
-644 14 0
-644 16 0
-644 17 0
-644 20 0
-644 21 0
-644 23 0
-644 25 0
644 -3 -5 -7 -10 -12 -14 -16 -17 -20 -21 -23 -25 0
-645 4 0
-645 5 0
-645 7 0
-645 10 0
-645 12 0
-645 14 0
-645 16 0
-645 17 0
-645 20 0
-645 21 0
-645 23 0
-645 25 0
645 -4 -5 -7 -10 -12 -14 -16 -17 -20 -21 -23 -25 0
-646 3 0
-646 6 0
-646 7 0
-646 10 0
-646 12 0
-646 14 0
-646 16 0
-646 17 0
-646 20 0
-646 21 0
-646 23 0
-646 25 0
646 -3 -6 -7 -10 -12 -14 -16 -17 -20 -21 -23 -25 0
-647 4 0
-647 6 0
-647 7 0
-647 10 0
-647 12 0
-647 14 0
-647 16 0
-647 17 0
-647 20 0
-647 21 0
-647 23 0
-647 25 0
647 -4 -6 -7 -10 -12 -14 -16 -17 -20 -21 -23 -25 0
-648 3 0
-648 6 0
-648 7 0
-648 10 0
-648 11 0
-648 14 0
-648 16 0
-648 17 0
-648 20 0
-648 21 0
-648 23 0
-648 25 0
648 -3 -6 -7 -10 -11 -14 -16 -17 -20 -21 -23 -25 0
-649 4 0
-649 6 0
-649 7 0
-649 10 0
-649 11 0
-649 14 0
-649 16 0
-649 17 0
-649 20 0
-649 21 0
-649 23 0
-649 25 0
649 -4 -6 -7 -10 -11 -14 -16 -17 -20 -21 -23 -25 0
-650 3 0
-650 5 0
-650 7 0
-650 10 0
-650 11 0
-650 14 0
-650 16 0
-650 17 0
-650 20 0
-650 21 0
-650 23 0
-650 25 0
650 -3 -5 -7 -10 -11 -14 -16 -17 -20 -21 -23 -25 0
-651 4 0
-651 5 0
-651 7 0
-651 10 0
-651 11 0
-651 14 0
-651 16 0
-651 17 0
-651 20 0
-651 21 0
-651 23 0
-651 25 0
651 -4 -5 -7 -10 -11 -14 -16 -17 -20 -21 -23 -25 0
-652 3 0
-652 5 0
-652 8 0
-652 10 0
-652 11 0
-652 14 0
-652 16 0
-652 17 0
-652 20 0
-652 21 0
-652 23 0
-652 25 0
652 -3 -5 -8 -10 -11 -14 -16 -17 -20 -21 -23 -25 0
-653 4 0
-653 5 0
-653 8 0
-653 10 0
-653 11 0
-653 14 0
-653 16 0
-653 17 0
-653 20 0
-653 21 0
-653 23 0
-653 25 0
653 -4 -5 -8 -10 -11 -14 -16 -17 -20 -21 -23 -25 0
-654 3 0
-654 6 0
-654 8 0
-654 10 0
-654 11 0
-654 14 0
-654 16 0
-654 17 0
-654 20 0
-654 21 0
-654 23 0
-654 25 0
654 -3 -6 -8 -10 -11 -14 -16 -17 -20 -21 -23 -25 0
-655 4 0
-655 6 0
-655 8 0
-655 10 0
-655 11 0
-655 14 0
-655 16 0
-655 17 0
-655 20 0
-655 21 0
-655 23 0
-655 25 0
655 -4 -6 -8 -10 -11 -14 -16 -17 -20 -21 -23 -25 0
-656 3 0
-656 6 0
-656 8 0
-656 9 0
-656 11 0
-656 14 0
-656 16 0
-656 17 0
-656 20 0
-656 21 0
-656 23 0
-656 25 0
656 -3 -6 -8 -9 -11 -14 -16 -17 -20 -21 -23 -25 0
-657 4 0
-657 6 0
-657 8 0
-657 9 0
-657 11 0
-657 14 0
-657 16 0
-657 17 0
-657 20 0
-657 21 0
-657 23 0
-657 25 0
657 -4 -6 -8 -9 -11 -14 -16 -17 -20 -21 -23 -25 0
-658 3 0
-658 5 0
-658 8 0
-658 9 0
-658 11 0
-658 14 0
-658 16 0
-658 17 0
-658 20 0
-658 21 0
-658 23 0
-658 25 0
658 -3 -5 -8 -9 -11 -14 -16 -17 -20 -21 -23 -25 0
-659 4 0
-659 5 0
-659 8 0
-659 9 0
-659 11 0
-659 14 0
-659 16 0
-659 17 0
-659 20 0
-659 21 0
-659 23 0
-659 25 0
659 -4 -5 -8 -9 -11 -14 -16 -17 -20 -21 -23 -25 0
-660 3 0
-660 5 0
-660 7 0
-660 9 0
-660 11 0
-660 14 0
-660 16 0
-660 17 0
-660 20 0
-660 21 0
-660 23 0
-660 25 0
660 -3 -5 -7 -9 -11 -14 -16 -17 -20 -21 -23 -25 0
-661 4 0
-661 5 0
-661 7 0
-661 9 0
-661 11 0
-661 14 0
-661 16 0
-661 17 0
-661 20 0
-661 21 0
-661 23 0
-661 25 0
661 -4 -5 -7 -9 -11 -14 -16 -17 -20 -21 -23 -25 0
-662 3 0
-662 6 0
-662 7 0
-662 9 0
-662 11 0
-662 14 0
-662 16 0
-662 17 0
-662 20 0
-662 21 0
-662 23 0
-662 25 0
662 -3 -6 -7 -9 -11 -14 -16 -17 -20 -21 -23 -25 0
-663 4 0
-663 6 0
-663 7 0
-663 9 0
-663 11 0
-663 14 0
-663 16 0
-663 17 0
-663 20 0
-663 21 0
-663 23 0
-663 25 0
663 -4 -6 -7 -9 -11 -14 -16 -17 -20 -21 -23 -25 0
-664 3 0
-664 6 0
-664 8 0
-664 10 0
-664 11 0
-664 14 0
-664 15 0
-664 17 0
-664 20 0
-664 21 0
-664 23 0
-664 25 0
664 -3 -6 -8 -10 -11 -14 -15 -17 -20 -21 -23 -25 0
-665 3 0
-665 5 0
-665 8 0
-665 10 0
-665 11 0
-665 14 0
-665 15 0
-665 17 0
-665 20 0
-665 21 0
-665 23 0
-665 25 0
665 -3 -5 -8 -10 -11 -14 -15 -17 -20 -21 -23 -25 0
-666 3 0
-666 6 0
-666 7 0
-666 10 0
-666 12 0
-666 14 0
-666 15 0
-666 17 0
-666 20 0
-666 21 0
-666 23 0
-666 25 0
666 -3 -6 -7 -10 -12 -14 -15 -17 -20 -21 -23 -25 0
-667 3 0
-667 5 0
-667 7 0
-667 10 0
-667 12 0
-667 14 0
-667 15 0
-667 17 0
-667 20 0
-667 21 0
-667 23 0
-667 25 0
667 -3 -5 -7 -10 -12 -14 -15 -17 -20 -21 -23 -25 0
-668 4 0
-668 5 0
-668 7 0
-668 10 0
-668 12 0
-668 14 0
-668 15 0
-668 17 0
-668 20 0
-668 21 0
-668 23 0
-668 25 0
668 -4 -5 -7 -10 -12 -14 -15 -17 -20 -21 -23 -25 0
-669 3 0
-669 5 0
-669 8 0
-669 10 0
-669 12 0
-669 14 0
-669 15 0
-669 17 0
-669 20 0
-669 21 0
-669 23 0
-669 25 0
669 -3 -5 -8 -10 -12 -14 -15 -17 -20 -21 -23 -25 0
-670 4 0
-670 5 0
-670 8 0
-670 10 0
-670 12 0
-670 14 0
-670 15 0
-670 17 0
-670 20 0
-670 21 0
-670 23 0
-670 25 0
670 -4 -5 -8 -10 -12 -14 -15 -17 -20 -21 -23 -25 0
-671 3 0
-671 6 0
-671 8 0
-671 10 0
-671 12 0
-671 14 0
-671 15 0
-671 17 0
-671 20 0
-671 21 0
-671 23 0
-671 25 0
671 -3 -6 -8 -10 -12 -14 -15 -17 -20 -21 -23 -25 0
-672 4 0
-672 6 0
-672 8 0
-672 10 0
-672 12 0
-672 14 0
-672 15 0
-672 17 0
-672 20 0
-672 21 0
-672 23 0
-672 25 0
672 -4 -6 -8 -10 -12 -14 -15 -17 -20 -21 -23 -25 0
-673 3 0
-673 6 0
-673 8 0
-673 9 0
-673 12 0
-673 14 0
-673 15 0
-673 17 0
-673 20 0
-673 21 0
-673 23 0
-673 25 0
673 -3 -6 -8 -9 -12 -14 -15 -17 -20 -21 -23 -25 0
-674 4 0
-674 6 0
-674 8 0
-674 9 0
-674 12 0
-674 14 0
-674 15 0
-674 17 0
-674 20 0
-674 21 0
-674 23 0
-674 25 0
674 -4 -6 -8 -9 -12 -14 -15 -17 -20 -21 -23 -25 0
-675 3 0
-675 5 0
-675 8 0
-675 9 0
-675 12 0
-675 14 0
-675 15 0
-675 17 0
-675 20 0
-675 21 0
-675 23 0
-675 25 0
675 -3 -5 -8 -9 -12 -14 -15 -17 -20 -21 -23 -25 0
-676 4 0
-676 5 0
-676 8 0
-676 9 0
-676 12 0
-676 14 0
-676 15 0
-676 17 0
-676 20 0
-676 21 0
-676 23 0
-676 25 0
676 -4 -5 -8 -9 -12 -14 -15 -17 -20 -21 -23 -25 0
-677 3 0
-677 5 0
-677 7 0
-677 9 0
-677 12 0
-677 14 0
-677 15 0
-677 17 0
-677 20 0
-677 21 0
-677 23 0
-677 25 0
677 -3 -5 -7 -9 -12 -14 -15 -17 -20 -21 -23 -25 0
-678 4 0
-678 5 0
-678 7 0
-678 9 0
-678 12 0
-678 14 0
-678 15 0
-678 17 0
-678 20 0
-678 21 0
-678 23 0
-678 25 0
678 -4 -5 -7 -9 -12 -14 -15 -17 -20 -21 -23 -25 0
-679 3 0
-679 6 0
-679 7 0
-679 9 0
-679 12 0
-679 14 0
-679 15 0
-679 17 0
-679 20 0
-679 21 0
-679 23 0
-679 25 0
679 -3 -6 -7 -9 -12 -14 -15 -17 -20 -21 -23 -25 0
-680 4 0
-680 6 0
-680 7 0
-680 9 0
-680 12 0
-680 14 0
-680 15 0
-680 17 0
-680 20 0
-680 21 0
-680 23 0
-680 25 0
680 -4 -6 -7 -9 -12 -14 -15 -17 -20 -21 -23 -25 0
-681 3 0
-681 6 0
-681 8 0
-681 10 0
-681 12 0
-681 13 0
-681 15 0
-681 17 0
-681 20 0
-681 21 0
-681 23 0
-681 25 0
681 -3 -6 -8 -10 -12 -13 -15 -17 -20 -21 -23 -25 0
-682 3 0
-682 5 0
-682 8 0
-682 10 0
-682 12 0
-682 13 0
-682 15 0
-682 17 0
-682 20 0
-682 21 0
-682 23 0
-682 25 0
682 -3 -5 -8 -10 -12 -13 -15 -17 -20 -21 -23 -25 0
-683 4 0
-683 5 0
-683 8 0
-683 10 0
-683 12 0
-683 13 0
-683 15 0
-683 17 0
-683 20 0
-683 21 0
-683 23 0
-683 25 0
683 -4 -5 -8 -10 -12 -13 -15 -17 -20 -21 -23 -25 0
-684 3 0
-684 5 0
-684 7 0
-684 10 0
-684 12 0
-684 13 0
-684 15 0
-684 17 0
-684 20 0
-684 21 0
-684 23 0
-684 25 0
684 -3 -5 -7 -10 -12 -13 -15 -17 -20 -21 -23 -25 0
-685 4 0
-685 5 0
-685 7 0
-685 10 0
-685 12 0
-685 13 0
-685 15 0
-685 17 0
-685 20 0
-685 21 0
-685 23 0
-685 25 0
685 -4 -5 -7 -10 -12 -13 -15 -17 -20 -21 -23 -25 0
-686 3 0
-686 6 0
-686 7 0
-686 10 0
-686 12 0
-686 13 0
-686 15 0
-686 17 0
-686 20 0
-686 21 0
-686 23 0
-686 25 0
686 -3 -6 -7 -10 -12 -13 -15 -17 -20 -21 -23 -25 0
-687 4 0
-687 6 0
-687 7 0
-687 10 0
-687 12 0
-687 13 0
-687 15 0
-687 17 0
-687 20 0
-687 21 0
-687 23 0
-687 25 0
687 -4 -6 -7 -10 -12 -13 -15 -17 -20 -21 -23 -25 0
-688 3 0
-688 5 0
-688 8 0
-688 10 0
-688 11 0
-688 13 0
-688 15 0
-688 17 0
-688 20 0
-688 21 0
-688 23 0
-688 25 0
688 -3 -5 -8 -10 -11 -13 -15 -17 -20 -21 -23 -25 0
-689 4 0
-689 6 0
-689 8 0
-689 9 0
-689 11 0
-689 13 0
-689 15 0
-689 17 0
-689 20 0
-689 21 0
-689 23 0
-689 25 0
689 -4 -6 -8 -9 -11 -13 -15 -17 -20 -21 -23 -25 0
-690 3 0
-690 6 0
-690 8 0
-690 10 0
-690 11 0
-690 13 0
-690 15 0
-690 17 0
-690 20 0
-690 21 0
-690 23 0
-690 25 0
690 -3 -6 -8 -10 -11 -13 -15 -17 -20 -21 -23 -25 0
-691 4 0
-691 6 0
-691 8 0
-691 10 0
-691 11 0
-691 13 0
-691 15 0
-691 17 0
-691 20 0
-691 21 0
-691 23 0
-691 25 0
691 -4 -6 -8 -10 -11 -13 -15 -17 -20 -21 -23 -25 0
-692 3 0
-692 6 0
-692 7 0
-692 9 0
-692 11 0
-692 13 0
-692 15 0
-692 17 0
-692 20 0
-692 22 0
-692 23 0
-692 25 0
692 -3 -6 -7 -9 -11 -13 -15 -17 -20 -22 -23 -25 0
-693 3 0
-693 5 0
-693 7 0
-693 9 0
-693 11 0
-693 13 0
-693 15 0
-693 17 0
-693 19 0
-693 22 0
-693 23 0
-693 25 0
693 -3 -5 -7 -9 -11 -13 -15 -17 -19 -22 -23 -25 0
-694 4 0
-694 5 0
-694 7 0
-694 9 0
-694 11 0
-694 13 0
-694 15 0
-694 17 0
-694 19 0
-694 22 0
-694 23 0
-694 25 0
694 -4 -5 -7 -9 -11 -13 -15 -17 -19 -22 -23 -25 0
-695 3 0
-695 6 0
-695 7 0
-695 9 0
-695 11 0
-695 13 0
-695 15 0
-695 17 0
-695 19 0
-695 22 0
-695 23 0
-695 25 0
695 -3 -6 -7 -9 -11 -13 -15 -17 -19 -22 -23 -25 0
-696 4 0
-696 6 0
-696 7 0
-696 9 0
-696 11 0
-696 13 0
-696 15 0
-696 17 0
-696 19 0
-696 22 0
-696 23 0
-696 25 0
696 -4 -6 -7 -9 -11 -13 -15 -17 -19 -22 -23 -25 0
-697 4 0
-697 6 0
-697 7 0
-697 9 0
-697 11 0
-697 13 0
-697 15 0
-697 17 0
-697 20 0
-697 22 0
-697 23 0
-697 25 0
697 -4 -6 -7 -9 -11 -13 -15 -17 -20 -22 -23 -25 0
-698 3 0
-698 5 0
-698 7 0
-698 9 0
-698 11 0
-698 13 0
-698 15 0
-698 17 0
-698 20 0
-698 22 0
-698 23 0
-698 25 0
698 -3 -5 -7 -9 -11 -13 -15 -17 -20 -22 -23 -25 0
-699 3 0
-699 5 0
-699 8 0
-699 9 0
-699 11 0
-699 13 0
-699 15 0
-699 17 0
-699 19 0
-699 22 0
-699 23 0
-699 25 0
699 -3 -5 -8 -9 -11 -13 -15 -17 -19 -22 -23 -25 0
-700 3 0
-700 6 0
-700 8 0
-700 9 0
-700 11 0
-700 13 0
-700 15 0
-700 17 0
-700 19 0
-700 22 0
-700 23 0
-700 25 0
700 -3 -6 -8 -9 -11 -13 -15 -17 -19 -22 -23 -25 0
-701 4 0
-701 5 0
-701 8 0
-701 9 0
-701 11 0
-701 13 0
-701 15 0
-701 17 0
-701 19 0
-701 22 0
-701 23 0
-701 25 0
701 -4 -5 -8 -9 -11 -13 -15 -17 -19 -22 -23 -25 0
-702 4 0
-702 5 0
-702 7 0
-702 9 0
-702 11 0
-702 13 0
-702 15 0
-702 17 0
-702 20 0
-702 22 0
-702 23 0
-702 25 0
702 -4 -5 -7 -9 -11 -13 -15 -17 -20 -22 -23 -25 0
-703 3 0
-703 5 0
-703 8 0
-703 9 0
-703 11 0
-703 13 0
-703 15 0
-703 17 0
-703 20 0
-703 22 0
-703 23 0
-703 25 0
703 -3 -5 -8 -9 -11 -13 -15 -17 -20 -22 -23 -25 0
-704 4 0
-704 5 0
-704 8 0
-704 9 0
-704 11 0
-704 13 0
-704 15 0
-704 17 0
-704 20 0
-704 22 0
-704 23 0
-704 25 0
704 -4 -5 -8 -9 -11 -13 -15 -17 -20 -22 -23 -25 0
-705 3 0
-705 6 0
-705 8 0
-705 9 0
-705 11 0
-705 13 0
-705 15 0
-705 17 0
-705 20 0
-705 22 0
-705 23 0
-705 25 0
705 -3 -6 -8 -9 -11 -13 -15 -17 -20 -22 -23 -25 0
-706 3 0
-706 5 0
-706 7 0
-706 10 0
-706 11 0
-706 13 0
-706 15 0
-706 17 0
-706 19 0
-706 22 0
-706 23 0
-706 25 0
706 -3 -5 -7 -10 -11 -13 -15 -17 -19 -22 -23 -25 0
-707 3 0
-707 6 0
-707 7 0
-707 10 0
-707 11 0
-707 13 0
-707 15 0
-707 17 0
-707 19 0
-707 22 0
-707 23 0
-707 25 0
707 -3 -6 -7 -10 -11 -13 -15 -17 -19 -22 -23 -25 0
-708 4 0
-708 5 0
-708 7 0
-708 10 0
-708 11 0
-708 13 0
-708 15 0
-708 17 0
-708 19 0
-708 22 0
-708 23 0
-708 25 0
708 -4 -5 -7 -10 -11 -13 -15 -17 -19 -22 -23 -25 0
-709 4 0
-709 6 0
-709 8 0
-709 9 0
-709 11 0
-709 13 0
-709 15 0
-709 17 0
-709 20 0
-709 22 0
-709 23 0
-709 25 0
709 -4 -6 -8 -9 -11 -13 -15 -17 -20 -22 -23 -25 0
-710 3 0
-710 6 0
-710 8 0
-710 10 0
-710 11 0
-710 13 0
-710 15 0
-710 17 0
-710 20 0
-710 22 0
-710 23 0
-710 25 0
710 -3 -6 -8 -10 -11 -13 -15 -17 -20 -22 -23 -25 0
-711 4 0
-711 6 0
-711 8 0
-711 10 0
-711 11 0
-711 13 0
-711 15 0
-711 17 0
-711 20 0
-711 22 0
-711 23 0
-711 25 0
711 -4 -6 -8 -10 -11 -13 -15 -17 -20 -22 -23 -25 0
-712 3 0
-712 5 0
-712 8 0
-712 10 0
-712 11 0
-712 13 0
-712 15 0
-712 17 0
-712 20 0
-712 22 0
-712 23 0
-712 25 0
712 -3 -5 -8 -10 -11 -13 -15 -17 -20 -22 -23 -25 0
-713 4 0
-713 5 0
-713 8 0
-713 10 0
-713 11 0
-713 13 0
-713 15 0
-713 17 0
-713 19 0
-713 22 0
-713 23 0
-713 25 0
713 -4 -5 -8 -10 -11 -13 -15 -17 -19 -22 -23 -25 0
-714 4 0
-714 6 0
-714 7 0
-714 10 0
-714 11 0
-714 13 0
-714 15 0
-714 17 0
-714 19 0
-714 22 0
-714 23 0
-714 25 0
714 -4 -6 -7 -10 -11 -13 -15 -17 -19 -22 -23 -25 0
-715 4 0
-715 5 0
-715 8 0
-715 10 0
-715 11 0
-715 13 0
-715 15 0
-715 17 0
-715 20 0
-715 22 0
-715 23 0
-715 25 0
715 -4 -5 -8 -10 -11 -13 -15 -17 -20 -22 -23 -25 0
-716 3 0
-716 5 0
-716 7 0
-716 10 0
-716 11 0
-716 13 0
-716 15 0
-716 17 0
-716 20 0
-716 22 0
-716 23 0
-716 25 0
716 -3 -5 -7 -10 -11 -13 -15 -17 -20 -22 -23 -25 0
-717 4 0
-717 5 0
-717 7 0
-717 10 0
-717 11 0
-717 13 0
-717 15 0
-717 17 0
-717 20 0
-717 22 0
-717 23 0
-717 25 0
717 -4 -5 -7 -10 -11 -13 -15 -17 -20 -22 -23 -25 0
-718 3 0
-718 6 0
-718 7 0
-718 10 0
-718 11 0
-718 13 0
-718 15 0
-718 17 0
-718 20 0
-718 22 0
-718 23 0
-718 25 0
718 -3 -6 -7 -10 -11 -13 -15 -17 -20 -22 -23 -25 0
-719 3 0
-719 5 0
-719 7 0
-719 9 0
-719 12 0
-719 13 0
-719 15 0
-719 17 0
-719 19 0
-719 22 0
-719 23 0
-719 25 0
719 -3 -5 -7 -9 -12 -13 -15 -17 -19 -22 -23 -25 0
-720 3 0
-720 6 0
-720 7 0
-720 9 0
-720 12 0
-720 13 0
-720 15 0
-720 17 0
-720 19 0
-720 22 0
-720 23 0
-720 25 0
720 -3 -6 -7 -9 -12 -13 -15 -17 -19 -22 -23 -25 0
-721 4 0
-721 5 0
-721 7 0
-721 9 0
-721 12 0
-721 13 0
-721 15 0
-721 17 0
-721 19 0
-721 22 0
-721 23 0
-721 25 0
721 -4 -5 -7 -9 -12 -13 -15 -17 -19 -22 -23 -25 0
-722 4 0
-722 6 0
-722 7 0
-722 10 0
-722 11 0
-722 13 0
-722 15 0
-722 17 0
-722 20 0
-722 22 0
-722 23 0
-722 25 0
722 -4 -6 -7 -10 -11 -13 -15 -17 -20 -22 -23 -25 0
-723 3 0
-723 6 0
-723 7 0
-723 10 0
-723 12 0
-723 13 0
-723 15 0
-723 17 0
-723 20 0
-723 22 0
-723 23 0
-723 25 0
723 -3 -6 -7 -10 -12 -13 -15 -17 -20 -22 -23 -25 0
-724 4 0
-724 6 0
-724 7 0
-724 10 0
-724 12 0
-724 13 0
-724 15 0
-724 17 0
-724 20 0
-724 22 0
-724 23 0
-724 25 0
724 -4 -6 -7 -10 -12 -13 -15 -17 -20 -22 -23 -25 0
-725 3 0
-725 5 0
-725 7 0
-725 10 0
-725 12 0
-725 13 0
-725 15 0
-725 17 0
-725 20 0
-725 22 0
-725 23 0
-725 25 0
725 -3 -5 -7 -10 -12 -13 -15 -17 -20 -22 -23 -25 0
-726 3 0
-726 5 0
-726 8 0
-726 9 0
-726 12 0
-726 13 0
-726 15 0
-726 17 0
-726 19 0
-726 22 0
-726 23 0
-726 25 0
726 -3 -5 -8 -9 -12 -13 -15 -17 -19 -22 -23 -25 0
-727 3 0
-727 6 0
-727 8 0
-727 9 0
-727 12 0
-727 13 0
-727 15 0
-727 17 0
-727 19 0
-727 22 0
-727 23 0
-727 25 0
727 -3 -6 -8 -9 -12 -13 -15 -17 -19 -22 -23 -25 0
-728 4 0
-728 5 0
-728 8 0
-728 9 0
-728 12 0
-728 13 0
-728 15 0
-728 17 0
-728 19 0
-728 22 0
-728 23 0
-728 25 0
728 -4 -5 -8 -9 -12 -13 -15 -17 -19 -22 -23 -25 0
-729 4 0
-729 5 0
-729 7 0
-729 10 0
-729 12 0
-729 13 0
-729 15 0
-729 17 0
-729 20 0
-729 22 0
-729 23 0
-729 25 0
729 -4 -5 -7 -10 -12 -13 -15 -17 -20 -22 -23 -25 0
-730 3 0
-730 5 0
-730 8 0
-730 10 0
-730 12 0
-730 13 0
-730 15 0
-730 17 0
-730 20 0
-730 22 0
-730 23 0
-730 25 0
730 -3 -5 -8 -10 -12 -13 -15 -17 -20 -22 -23 -25 0
-731 4 0
-731 5 0
-731 8 0
-731 10 0
-731 12 0
-731 13 0
-731 15 0
-731 17 0
-731 20 0
-731 22 0
-731 23 0
-731 25 0
731 -4 -5 -8 -10 -12 -13 -15 -17 -20 -22 -23 -25 0
-732 3 0
-732 6 0
-732 8 0
-732 10 0
-732 12 0
-732 13 0
-732 15 0
-732 17 0
-732 20 0
-732 22 0
-732 23 0
-732 25 0
732 -3 -6 -8 -10 -12 -13 -15 -17 -20 -22 -23 -25 0
-733 4 0
-733 6 0
-733 7 0
-733 9 0
-733 12 0
-733 13 0
-733 15 0
-733 17 0
-733 19 0
-733 22 0
-733 23 0
-733 25 0
733 -4 -6 -7 -9 -12 -13 -15 -17 -19 -22 -23 -25 0
-734 4 0
-734 6 0
-734 8 0
-734 10 0
-734 12 0
-734 13 0
-734 15 0
-734 17 0
-734 20 0
-734 22 0
-734 23 0
-734 25 0
734 -4 -6 -8 -10 -12 -13 -15 -17 -20 -22 -23 -25 0
-735 3 0
-735 6 0
-735 8 0
-735 9 0
-735 12 0
-735 13 0
-735 15 0
-735 17 0
-735 20 0
-735 22 0
-735 23 0
-735 25 0
735 -3 -6 -8 -9 -12 -13 -15 -17 -20 -22 -23 -25 0
-736 4 0
-736 6 0
-736 8 0
-736 9 0
-736 12 0
-736 13 0
-736 15 0
-736 17 0
-736 20 0
-736 22 0
-736 23 0
-736 25 0
736 -4 -6 -8 -9 -12 -13 -15 -17 -20 -22 -23 -25 0
-737 3 0
-737 5 0
-737 8 0
-737 9 0
-737 12 0
-737 13 0
-737 15 0
-737 17 0
-737 20 0
-737 22 0
-737 23 0
-737 25 0
737 -3 -5 -8 -9 -12 -13 -15 -17 -20 -22 -23 -25 0
-738 4 0
-738 5 0
-738 8 0
-738 9 0
-738 12 0
-738 13 0
-738 15 0
-738 17 0
-738 20 0
-738 22 0
-738 23 0
-738 25 0
738 -4 -5 -8 -9 -12 -13 -15 -17 -20 -22 -23 -25 0
-739 3 0
-739 5 0
-739 7 0
-739 9 0
-739 12 0
-739 13 0
-739 15 0
-739 17 0
-739 20 0
-739 22 0
-739 23 0
-739 25 0
739 -3 -5 -7 -9 -12 -13 -15 -17 -20 -22 -23 -25 0
-740 4 0
-740 5 0
-740 7 0
-740 9 0
-740 12 0
-740 13 0
-740 15 0
-740 17 0
-740 20 0
-740 22 0
-740 23 0
-740 25 0
740 -4 -5 -7 -9 -12 -13 -15 -17 -20 -22 -23 -25 0
-741 3 0
-741 6 0
-741 7 0
-741 9 0
-741 12 0
-741 13 0
-741 15 0
-741 17 0
-741 20 0
-741 22 0
-741 23 0
-741 25 0
741 -3 -6 -7 -9 -12 -13 -15 -17 -20 -22 -23 -25 0
-742 3 0
-742 5 0
-742 7 0
-742 9 0
-742 11 0
-742 14 0
-742 15 0
-742 17 0
-742 19 0
-742 22 0
-742 23 0
-742 25 0
742 -3 -5 -7 -9 -11 -14 -15 -17 -19 -22 -23 -25 0
-743 3 0
-743 6 0
-743 7 0
-743 9 0
-743 11 0
-743 14 0
-743 15 0
-743 17 0
-743 19 0
-743 22 0
-743 23 0
-743 25 0
743 -3 -6 -7 -9 -11 -14 -15 -17 -19 -22 -23 -25 0
-744 4 0
-744 5 0
-744 7 0
-744 9 0
-744 11 0
-744 14 0
-744 15 0
-744 17 0
-744 19 0
-744 22 0
-744 23 0
-744 25 0
744 -4 -5 -7 -9 -11 -14 -15 -17 -19 -22 -23 -25 0
-745 4 0
-745 6 0
-745 7 0
-745 9 0
-745 12 0
-745 13 0
-745 15 0
-745 17 0
-745 20 0
-745 22 0
-745 23 0
-745 25 0
745 -4 -6 -7 -9 -12 -13 -15 -17 -20 -22 -23 -25 0
-746 3 0
-746 6 0
-746 7 0
-746 9 0
-746 12 0
-746 14 0
-746 15 0
-746 17 0
-746 20 0
-746 22 0
-746 23 0
-746 25 0
746 -3 -6 -7 -9 -12 -14 -15 -17 -20 -22 -23 -25 0
-747 4 0
-747 6 0
-747 7 0
-747 9 0
-747 12 0
-747 14 0
-747 15 0
-747 17 0
-747 20 0
-747 22 0
-747 23 0
-747 25 0
747 -4 -6 -7 -9 -12 -14 -15 -17 -20 -22 -23 -25 0
-748 3 0
-748 5 0
-748 7 0
-748 9 0
-748 12 0
-748 14 0
-748 15 0
-748 17 0
-748 20 0
-748 22 0
-748 23 0
-748 25 0
748 -3 -5 -7 -9 -12 -14 -15 -17 -20 -22 -23 -25 0
-749 3 0
-749 5 0
-749 8 0
-749 9 0
-749 11 0
-749 14 0
-749 15 0
-749 17 0
-749 19 0
-749 22 0
-749 23 0
-749 25 0
749 -3 -5 -8 -9 -11 -14 -15 -17 -19 -22 -23 -25 0
-750 3 0
-750 6 0
-750 8 0
-750 9 0
-750 11 0
-750 14 0
-750 15 0
-750 17 0
-750 19 0
-750 22 0
-750 23 0
-750 25 0
750 -3 -6 -8 -9 -11 -14 -15 -17 -19 -22 -23 -25 0
-751 4 0
-751 5 0
-751 8 0
-751 9 0
-751 11 0
-751 14 0
-751 15 0
-751 17 0
-751 19 0
-751 22 0
-751 23 0
-751 25 0
751 -4 -5 -8 -9 -11 -14 -15 -17 -19 -22 -23 -25 0
-752 4 0
-752 5 0
-752 7 0
-752 9 0
-752 12 0
-752 14 0
-752 15 0
-752 17 0
-752 20 0
-752 22 0
-752 23 0
-752 25 0
752 -4 -5 -7 -9 -12 -14 -15 -17 -20 -22 -23 -25 0
-753 3 0
-753 5 0
-753 8 0
-753 9 0
-753 12 0
-753 14 0
-753 15 0
-753 17 0
-753 20 0
-753 22 0
-753 23 0
-753 25 0
753 -3 -5 -8 -9 -12 -14 -15 -17 -20 -22 -23 -25 0
-754 4 0
-754 5 0
-754 8 0
-754 9 0
-754 12 0
-754 14 0
-754 15 0
-754 17 0
-754 20 0
-754 22 0
-754 23 0
-754 25 0
754 -4 -5 -8 -9 -12 -14 -15 -17 -20 -22 -23 -25 0
-755 3 0
-755 6 0
-755 8 0
-755 9 0
-755 12 0
-755 14 0
-755 15 0
-755 17 0
-755 20 0
-755 22 0
-755 23 0
-755 25 0
755 -3 -6 -8 -9 -12 -14 -15 -17 -20 -22 -23 -25 0
-756 3 0
-756 5 0
-756 7 0
-756 10 0
-756 11 0
-756 14 0
-756 15 0
-756 17 0
-756 19 0
-756 22 0
-756 23 0
-756 25 0
756 -3 -5 -7 -10 -11 -14 -15 -17 -19 -22 -23 -25 0
-757 3 0
-757 6 0
-757 7 0
-757 10 0
-757 11 0
-757 14 0
-757 15 0
-757 17 0
-757 19 0
-757 22 0
-757 23 0
-757 25 0
757 -3 -6 -7 -10 -11 -14 -15 -17 -19 -22 -23 -25 0
-758 4 0
-758 5 0
-758 7 0
-758 10 0
-758 11 0
-758 14 0
-758 15 0
-758 17 0
-758 19 0
-758 22 0
-758 23 0
-758 25 0
758 -4 -5 -7 -10 -11 -14 -15 -17 -19 -22 -23 -25 0
-759 4 0
-759 6 0
-759 8 0
-759 9 0
-759 12 0
-759 14 0
-759 15 0
-759 17 0
-759 20 0
-759 22 0
-759 23 0
-759 25 0
759 -4 -6 -8 -9 -12 -14 -15 -17 -20 -22 -23 -25 0
-760 3 0
-760 6 0
-760 8 0
-760 10 0
-760 12 0
-760 14 0
-760 15 0
-760 17 0
-760 20 0
-760 22 0
-760 23 0
-760 25 0
760 -3 -6 -8 -10 -12 -14 -15 -17 -20 -22 -23 -25 0
-761 4 0
-761 6 0
-761 8 0
-761 10 0
-761 12 0
-761 14 0
-761 15 0
-761 17 0
-761 20 0
-761 22 0
-761 23 0
-761 25 0
761 -4 -6 -8 -10 -12 -14 -15 -17 -20 -22 -23 -25 0
-762 3 0
-762 5 0
-762 8 0
-762 10 0
-762 12 0
-762 14 0
-762 15 0
-762 17 0
-762 20 0
-762 22 0
-762 23 0
-762 25 0
762 -3 -5 -8 -10 -12 -14 -15 -17 -20 -22 -23 -25 0
-763 4 0
-763 5 0
-763 8 0
-763 10 0
-763 11 0
-763 14 0
-763 15 0
-763 17 0
-763 19 0
-763 22 0
-763 23 0
-763 25 0
763 -4 -5 -8 -10 -11 -14 -15 -17 -19 -22 -23 -25 0
-764 4 0
-764 6 0
-764 7 0
-764 10 0
-764 11 0
-764 14 0
-764 15 0
-764 17 0
-764 19 0
-764 22 0
-764 23 0
-764 25 0
764 -4 -6 -7 -10 -11 -14 -15 -17 -19 -22 -23 -25 0
-765 4 0
-765 5 0
-765 8 0
-765 10 0
-765 12 0
-765 14 0
-765 15 0
-765 17 0
-765 20 0
-765 22 0
-765 23 0
-765 25 0
765 -4 -5 -8 -10 -12 -14 -15 -17 -20 -22 -23 -25 0
-766 3 0
-766 5 0
-766 7 0
-766 10 0
-766 12 0
-766 14 0
-766 15 0
-766 17 0
-766 20 0
-766 22 0
-766 23 0
-766 25 0
766 -3 -5 -7 -10 -12 -14 -15 -17 -20 -22 -23 -25 0
-767 4 0
-767 5 0
-767 7 0
-767 10 0
-767 12 0
-767 14 0
-767 15 0
-767 17 0
-767 20 0
-767 22 0
-767 23 0
-767 25 0
767 -4 -5 -7 -10 -12 -14 -15 -17 -20 -22 -23 -25 0
-768 3 0
-768 6 0
-768 7 0
-768 10 0
-768 12 0
-768 14 0
-768 15 0
-768 17 0
-768 20 0
-768 22 0
-768 23 0
-768 25 0
768 -3 -6 -7 -10 -12 -14 -15 -17 -20 -22 -23 -25 0
-769 4 0
-769 6 0
-769 7 0
-769 10 0
-769 12 0
-769 14 0
-769 15 0
-769 17 0
-769 19 0
-769 22 0
-769 23 0
-769 25 0
769 -4 -6 -7 -10 -12 -14 -15 -17 -19 -22 -23 -25 0
-770 4 0
-770 6 0
-770 7 0
-770 10 0
-770 12 0
-770 14 0
-770 15 0
-770 17 0
-770 20 0
-770 22 0
-770 23 0
-770 25 0
770 -4 -6 -7 -10 -12 -14 -15 -17 -20 -22 -23 -25 0
-771 3 0
-771 6 0
-771 7 0
-771 10 0
-771 11 0
-771 14 0
-771 15 0
-771 17 0
-771 20 0
-771 22 0
-771 23 0
-771 25 0
771 -3 -6 -7 -10 -11 -14 -15 -17 -20 -22 -23 -25 0
-772 4 0
-772 6 0
-772 7 0
-772 10 0
-772 11 0
-772 14 0
-772 15 0
-772 17 0
-772 20 0
-772 22 0
-772 23 0
-772 25 0
772 -4 -6 -7 -10 -11 -14 -15 -17 -20 -22 -23 -25 0
-773 3 0
-773 5 0
-773 7 0
-773 10 0
-773 11 0
-773 14 0
-773 15 0
-773 17 0
-773 20 0
-773 22 0
-773 23 0
-773 25 0
773 -3 -5 -7 -10 -11 -14 -15 -17 -20 -22 -23 -25 0
-774 4 0
-774 6 0
-774 8 0
-774 9 0
-774 11 0
-774 14 0
-774 15 0
-774 17 0
-774 19 0
-774 22 0
-774 23 0
-774 25 0
774 -4 -6 -8 -9 -11 -14 -15 -17 -19 -22 -23 -25 0
-775 4 0
-775 5 0
-775 7 0
-775 10 0
-775 11 0
-775 14 0
-775 15 0
-775 17 0
-775 20 0
-775 22 0
-775 23 0
-775 25 0
775 -4 -5 -7 -10 -11 -14 -15 -17 -20 -22 -23 -25 0
-776 3 0
-776 5 0
-776 8 0
-776 10 0
-776 11 0
-776 14 0
-776 15 0
-776 17 0
-776 20 0
-776 22 0
-776 23 0
-776 25 0
776 -3 -5 -8 -10 -11 -14 -15 -17 -20 -22 -23 -25 0
-777 4 0
-777 5 0
-777 8 0
-777 10 0
-777 11 0
-777 14 0
-777 15 0
-777 17 0
-777 20 0
-777 22 0
-777 23 0
-777 25 0
777 -4 -5 -8 -10 -11 -14 -15 -17 -20 -22 -23 -25 0
-778 3 0
-778 6 0
-778 8 0
-778 10 0
-778 11 0
-778 14 0
-778 15 0
-778 17 0
-778 20 0
-778 22 0
-778 23 0
-778 25 0
778 -3 -6 -8 -10 -11 -14 -15 -17 -20 -22 -23 -25 0
-779 4 0
-779 6 0
-779 8 0
-779 10 0
-779 11 0
-779 14 0
-779 15 0
-779 17 0
-779 19 0
-779 22 0
-779 23 0
-779 25 0
779 -4 -6 -8 -10 -11 -14 -15 -17 -19 -22 -23 -25 0
-780 4 0
-780 6 0
-780 8 0
-780 10 0
-780 11 0
-780 14 0
-780 15 0
-780 17 0
-780 20 0
-780 22 0
-780 23 0
-780 25 0
780 -4 -6 -8 -10 -11 -14 -15 -17 -20 -22 -23 -25 0
-781 3 0
-781 6 0
-781 8 0
-781 9 0
-781 11 0
-781 14 0
-781 15 0
-781 17 0
-781 20 0
-781 22 0
-781 23 0
-781 25 0
781 -3 -6 -8 -9 -11 -14 -15 -17 -20 -22 -23 -25 0
-782 4 0
-782 6 0
-782 8 0
-782 9 0
-782 11 0
-782 14 0
-782 15 0
-782 17 0
-782 20 0
-782 22 0
-782 23 0
-782 25 0
782 -4 -6 -8 -9 -11 -14 -15 -17 -20 -22 -23 -25 0
-783 3 0
-783 5 0
-783 8 0
-783 9 0
-783 11 0
-783 14 0
-783 15 0
-783 17 0
-783 20 0
-783 22 0
-783 23 0
-783 25 0
783 -3 -5 -8 -9 -11 -14 -15 -17 -20 -22 -23 -25 0
-784 4 0
-784 6 0
-784 7 0
-784 9 0
-784 11 0
-784 14 0
-784 15 0
-784 17 0
-784 19 0
-784 22 0
-784 23 0
-784 25 0
784 -4 -6 -7 -9 -11 -14 -15 -17 -19 -22 -23 -25 0
-785 4 0
-785 5 0
-785 8 0
-785 9 0
-785 11 0
-785 14 0
-785 15 0
-785 17 0
-785 20 0
-785 22 0
-785 23 0
-785 25 0
785 -4 -5 -8 -9 -11 -14 -15 -17 -20 -22 -23 -25 0
-786 3 0
-786 5 0
-786 7 0
-786 9 0
-786 11 0
-786 14 0
-786 15 0
-786 17 0
-786 20 0
-786 22 0
-786 23 0
-786 25 0
786 -3 -5 -7 -9 -11 -14 -15 -17 -20 -22 -23 -25 0
-787 4 0
-787 5 0
-787 7 0
-787 9 0
-787 11 0
-787 14 0
-787 15 0
-787 17 0
-787 20 0
-787 22 0
-787 23 0
-787 25 0
787 -4 -5 -7 -9 -11 -14 -15 -17 -20 -22 -23 -25 0
-788 3 0
-788 6 0
-788 7 0
-788 9 0
-788 11 0
-788 14 0
-788 15 0
-788 17 0
-788 20 0
-788 22 0
-788 23 0
-788 25 0
788 -3 -6 -7 -9 -11 -14 -15 -17 -20 -22 -23 -25 0
-789 3 0
-789 5 0
-789 7 0
-789 9 0
-789 11 0
-789 13 0
-789 16 0
-789 17 0
-789 19 0
-789 22 0
-789 23 0
-789 25 0
789 -3 -5 -7 -9 -11 -13 -16 -17 -19 -22 -23 -25 0
-790 3 0
-790 6 0
-790 7 0
-790 9 0
-790 11 0
-790 13 0
-790 16 0
-790 17 0
-790 19 0
-790 22 0
-790 23 0
-790 25 0
790 -3 -6 -7 -9 -11 -13 -16 -17 -19 -22 -23 -25 0
-791 4 0
-791 5 0
-791 7 0
-791 9 0
-791 11 0
-791 13 0
-791 16 0
-791 17 0
-791 19 0
-791 22 0
-791 23 0
-791 25 0
791 -4 -5 -7 -9 -11 -13 -16 -17 -19 -22 -23 -25 0
-792 4 0
-792 6 0
-792 7 0
-792 9 0
-792 11 0
-792 14 0
-792 15 0
-792 17 0
-792 20 0
-792 22 0
-792 23 0
-792 25 0
792 -4 -6 -7 -9 -11 -14 -15 -17 -20 -22 -23 -25 0
-793 3 0
-793 6 0
-793 7 0
-793 9 0
-793 11 0
-793 14 0
-793 16 0
-793 17 0
-793 20 0
-793 22 0
-793 23 0
-793 25 0
793 -3 -6 -7 -9 -11 -14 -16 -17 -20 -22 -23 -25 0
-794 4 0
-794 6 0
-794 7 0
-794 9 0
-794 11 0
-794 14 0
-794 16 0
-794 17 0
-794 20 0
-794 22 0
-794 23 0
-794 25 0
794 -4 -6 -7 -9 -11 -14 -16 -17 -20 -22 -23 -25 0
-795 3 0
-795 5 0
-795 7 0
-795 9 0
-795 11 0
-795 14 0
-795 16 0
-795 17 0
-795 20 0
-795 22 0
-795 23 0
-795 25 0
795 -3 -5 -7 -9 -11 -14 -16 -17 -20 -22 -23 -25 0
-796 3 0
-796 5 0
-796 8 0
-796 9 0
-796 11 0
-796 13 0
-796 16 0
-796 17 0
-796 19 0
-796 22 0
-796 23 0
-796 25 0
796 -3 -5 -8 -9 -11 -13 -16 -17 -19 -22 -23 -25 0
-797 3 0
-797 6 0
-797 8 0
-797 9 0
-797 11 0
-797 13 0
-797 16 0
-797 17 0
-797 19 0
-797 22 0
-797 23 0
-797 25 0
797 -3 -6 -8 -9 -11 -13 -16 -17 -19 -22 -23 -25 0
-798 4 0
-798 5 0
-798 8 0
-798 9 0
-798 11 0
-798 13 0
-798 16 0
-798 17 0
-798 19 0
-798 22 0
-798 23 0
-798 25 0
798 -4 -5 -8 -9 -11 -13 -16 -17 -19 -22 -23 -25 0
-799 4 0
-799 5 0
-799 7 0
-799 9 0
-799 11 0
-799 14 0
-799 16 0
-799 17 0
-799 20 0
-799 22 0
-799 23 0
-799 25 0
799 -4 -5 -7 -9 -11 -14 -16 -17 -20 -22 -23 -25 0
-800 3 0
-800 5 0
-800 8 0
-800 9 0
-800 11 0
-800 14 0
-800 16 0
-800 17 0
-800 20 0
-800 22 0
-800 23 0
-800 25 0
800 -3 -5 -8 -9 -11 -14 -16 -17 -20 -22 -23 -25 0
-801 4 0
-801 5 0
-801 8 0
-801 9 0
-801 11 0
-801 14 0
-801 16 0
-801 17 0
-801 20 0
-801 22 0
-801 23 0
-801 25 0
801 -4 -5 -8 -9 -11 -14 -16 -17 -20 -22 -23 -25 0
-802 3 0
-802 6 0
-802 8 0
-802 9 0
-802 11 0
-802 14 0
-802 16 0
-802 17 0
-802 20 0
-802 22 0
-802 23 0
-802 25 0
802 -3 -6 -8 -9 -11 -14 -16 -17 -20 -22 -23 -25 0
-803 3 0
-803 5 0
-803 7 0
-803 10 0
-803 11 0
-803 13 0
-803 16 0
-803 17 0
-803 19 0
-803 22 0
-803 23 0
-803 25 0
803 -3 -5 -7 -10 -11 -13 -16 -17 -19 -22 -23 -25 0
-804 3 0
-804 6 0
-804 7 0
-804 10 0
-804 11 0
-804 13 0
-804 16 0
-804 17 0
-804 19 0
-804 22 0
-804 23 0
-804 25 0
804 -3 -6 -7 -10 -11 -13 -16 -17 -19 -22 -23 -25 0
-805 4 0
-805 5 0
-805 7 0
-805 10 0
-805 11 0
-805 13 0
-805 16 0
-805 17 0
-805 19 0
-805 22 0
-805 23 0
-805 25 0
805 -4 -5 -7 -10 -11 -13 -16 -17 -19 -22 -23 -25 0
-806 4 0
-806 6 0
-806 8 0
-806 9 0
-806 11 0
-806 14 0
-806 16 0
-806 17 0
-806 20 0
-806 22 0
-806 23 0
-806 25 0
806 -4 -6 -8 -9 -11 -14 -16 -17 -20 -22 -23 -25 0
-807 3 0
-807 6 0
-807 8 0
-807 10 0
-807 11 0
-807 14 0
-807 16 0
-807 17 0
-807 20 0
-807 22 0
-807 23 0
-807 25 0
807 -3 -6 -8 -10 -11 -14 -16 -17 -20 -22 -23 -25 0
-808 4 0
-808 6 0
-808 8 0
-808 10 0
-808 11 0
-808 14 0
-808 16 0
-808 17 0
-808 20 0
-808 22 0
-808 23 0
-808 25 0
808 -4 -6 -8 -10 -11 -14 -16 -17 -20 -22 -23 -25 0
-809 3 0
-809 5 0
-809 8 0
-809 10 0
-809 11 0
-809 14 0
-809 16 0
-809 17 0
-809 20 0
-809 22 0
-809 23 0
-809 25 0
809 -3 -5 -8 -10 -11 -14 -16 -17 -20 -22 -23 -25 0
-810 4 0
-810 5 0
-810 8 0
-810 10 0
-810 11 0
-810 13 0
-810 16 0
-810 17 0
-810 19 0
-810 22 0
-810 23 0
-810 25 0
810 -4 -5 -8 -10 -11 -13 -16 -17 -19 -22 -23 -25 0
-811 4 0
-811 6 0
-811 7 0
-811 10 0
-811 11 0
-811 13 0
-811 16 0
-811 17 0
-811 19 0
-811 22 0
-811 23 0
-811 25 0
811 -4 -6 -7 -10 -11 -13 -16 -17 -19 -22 -23 -25 0
-812 4 0
-812 5 0
-812 8 0
-812 10 0
-812 11 0
-812 14 0
-812 16 0
-812 17 0
-812 20 0
-812 22 0
-812 23 0
-812 25 0
812 -4 -5 -8 -10 -11 -14 -16 -17 -20 -22 -23 -25 0
-813 3 0
-813 5 0
-813 7 0
-813 10 0
-813 11 0
-813 14 0
-813 16 0
-813 17 0
-813 20 0
-813 22 0
-813 23 0
-813 25 0
813 -3 -5 -7 -10 -11 -14 -16 -17 -20 -22 -23 -25 0
-814 4 0
-814 5 0
-814 7 0
-814 10 0
-814 11 0
-814 14 0
-814 16 0
-814 17 0
-814 20 0
-814 22 0
-814 23 0
-814 25 0
814 -4 -5 -7 -10 -11 -14 -16 -17 -20 -22 -23 -25 0
-815 3 0
-815 6 0
-815 7 0
-815 10 0
-815 11 0
-815 14 0
-815 16 0
-815 17 0
-815 20 0
-815 22 0
-815 23 0
-815 25 0
815 -3 -6 -7 -10 -11 -14 -16 -17 -20 -22 -23 -25 0
-816 3 0
-816 5 0
-816 7 0
-816 9 0
-816 12 0
-816 13 0
-816 16 0
-816 17 0
-816 19 0
-816 22 0
-816 23 0
-816 25 0
816 -3 -5 -7 -9 -12 -13 -16 -17 -19 -22 -23 -25 0
-817 3 0
-817 6 0
-817 7 0
-817 9 0
-817 12 0
-817 13 0
-817 16 0
-817 17 0
-817 19 0
-817 22 0
-817 23 0
-817 25 0
817 -3 -6 -7 -9 -12 -13 -16 -17 -19 -22 -23 -25 0
-818 4 0
-818 5 0
-818 7 0
-818 9 0
-818 12 0
-818 13 0
-818 16 0
-818 17 0
-818 19 0
-818 22 0
-818 23 0
-818 25 0
818 -4 -5 -7 -9 -12 -13 -16 -17 -19 -22 -23 -25 0
-819 4 0
-819 6 0
-819 7 0
-819 10 0
-819 11 0
-819 14 0
-819 16 0
-819 17 0
-819 20 0
-819 22 0
-819 23 0
-819 25 0
819 -4 -6 -7 -10 -11 -14 -16 -17 -20 -22 -23 -25 0
-820 3 0
-820 6 0
-820 7 0
-820 10 0
-820 12 0
-820 14 0
-820 16 0
-820 17 0
-820 20 0
-820 22 0
-820 23 0
-820 25 0
820 -3 -6 -7 -10 -12 -14 -16 -17 -20 -22 -23 -25 0
-821 4 0
-821 6 0
-821 7 0
-821 10 0
-821 12 0
-821 14 0
-821 16 0
-821 17 0
-821 20 0
-821 22 0
-821 23 0
-821 25 0
821 -4 -6 -7 -10 -12 -14 -16 -17 -20 -22 -23 -25 0
-822 3 0
-822 5 0
-822 7 0
-822 10 0
-822 12 0
-822 14 0
-822 16 0
-822 17 0
-822 20 0
-822 22 0
-822 23 0
-822 25 0
822 -3 -5 -7 -10 -12 -14 -16 -17 -20 -22 -23 -25 0
-823 3 0
-823 5 0
-823 8 0
-823 9 0
-823 12 0
-823 13 0
-823 16 0
-823 17 0
-823 19 0
-823 22 0
-823 23 0
-823 25 0
823 -3 -5 -8 -9 -12 -13 -16 -17 -19 -22 -23 -25 0
-824 3 0
-824 6 0
-824 8 0
-824 9 0
-824 12 0
-824 13 0
-824 16 0
-824 17 0
-824 19 0
-824 22 0
-824 23 0
-824 25 0
824 -3 -6 -8 -9 -12 -13 -16 -17 -19 -22 -23 -25 0
-825 4 0
-825 5 0
-825 8 0
-825 9 0
-825 12 0
-825 13 0
-825 16 0
-825 17 0
-825 19 0
-825 22 0
-825 23 0
-825 25 0
825 -4 -5 -8 -9 -12 -13 -16 -17 -19 -22 -23 -25 0
-826 4 0
-826 5 0
-826 7 0
-826 10 0
-826 12 0
-826 14 0
-826 16 0
-826 17 0
-826 20 0
-826 22 0
-826 23 0
-826 25 0
826 -4 -5 -7 -10 -12 -14 -16 -17 -20 -22 -23 -25 0
-827 3 0
-827 5 0
-827 8 0
-827 10 0
-827 12 0
-827 14 0
-827 16 0
-827 17 0
-827 20 0
-827 22 0
-827 23 0
-827 25 0
827 -3 -5 -8 -10 -12 -14 -16 -17 -20 -22 -23 -25 0
-828 4 0
-828 5 0
-828 8 0
-828 10 0
-828 12 0
-828 14 0
-828 16 0
-828 17 0
-828 20 0
-828 22 0
-828 23 0
-828 25 0
828 -4 -5 -8 -10 -12 -14 -16 -17 -20 -22 -23 -25 0
-829 3 0
-829 6 0
-829 8 0
-829 10 0
-829 12 0
-829 14 0
-829 16 0
-829 17 0
-829 20 0
-829 22 0
-829 23 0
-829 25 0
829 -3 -6 -8 -10 -12 -14 -16 -17 -20 -22 -23 -25 0
-830 4 0
-830 6 0
-830 7 0
-830 9 0
-830 12 0
-830 13 0
-830 16 0
-830 17 0
-830 19 0
-830 22 0
-830 23 0
-830 25 0
830 -4 -6 -7 -9 -12 -13 -16 -17 -19 -22 -23 -25 0
-831 4 0
-831 6 0
-831 8 0
-831 10 0
-831 12 0
-831 14 0
-831 16 0
-831 17 0
-831 20 0
-831 22 0
-831 23 0
-831 25 0
831 -4 -6 -8 -10 -12 -14 -16 -17 -20 -22 -23 -25 0
-832 3 0
-832 6 0
-832 8 0
-832 9 0
-832 12 0
-832 14 0
-832 16 0
-832 17 0
-832 20 0
-832 22 0
-832 23 0
-832 25 0
832 -3 -6 -8 -9 -12 -14 -16 -17 -20 -22 -23 -25 0
-833 4 0
-833 6 0
-833 8 0
-833 9 0
-833 12 0
-833 14 0
-833 16 0
-833 17 0
-833 20 0
-833 22 0
-833 23 0
-833 25 0
833 -4 -6 -8 -9 -12 -14 -16 -17 -20 -22 -23 -25 0
-834 3 0
-834 5 0
-834 8 0
-834 9 0
-834 12 0
-834 14 0
-834 16 0
-834 17 0
-834 20 0
-834 22 0
-834 23 0
-834 25 0
834 -3 -5 -8 -9 -12 -14 -16 -17 -20 -22 -23 -25 0
-835 4 0
-835 5 0
-835 8 0
-835 9 0
-835 12 0
-835 14 0
-835 16 0
-835 17 0
-835 20 0
-835 22 0
-835 23 0
-835 25 0
835 -4 -5 -8 -9 -12 -14 -16 -17 -20 -22 -23 -25 0
-836 3 0
-836 5 0
-836 7 0
-836 9 0
-836 12 0
-836 14 0
-836 16 0
-836 17 0
-836 20 0
-836 22 0
-836 23 0
-836 25 0
836 -3 -5 -7 -9 -12 -14 -16 -17 -20 -22 -23 -25 0
-837 4 0
-837 5 0
-837 7 0
-837 9 0
-837 12 0
-837 14 0
-837 16 0
-837 17 0
-837 20 0
-837 22 0
-837 23 0
-837 25 0
837 -4 -5 -7 -9 -12 -14 -16 -17 -20 -22 -23 -25 0
-838 3 0
-838 6 0
-838 7 0
-838 9 0
-838 12 0
-838 14 0
-838 16 0
-838 17 0
-838 20 0
-838 22 0
-838 23 0
-838 25 0
838 -3 -6 -7 -9 -12 -14 -16 -17 -20 -22 -23 -25 0
-839 4 0
-839 6 0
-839 7 0
-839 9 0
-839 12 0
-839 14 0
-839 16 0
-839 17 0
-839 19 0
-839 22 0
-839 23 0
-839 25 0
839 -4 -6 -7 -9 -12 -14 -16 -17 -19 -22 -23 -25 0
-840 4 0
-840 6 0
-840 7 0
-840 9 0
-840 12 0
-840 14 0
-840 16 0
-840 17 0
-840 20 0
-840 22 0
-840 23 0
-840 25 0
840 -4 -6 -7 -9 -12 -14 -16 -17 -20 -22 -23 -25 0
-841 3 0
-841 6 0
-841 7 0
-841 9 0
-841 12 0
-841 13 0
-841 16 0
-841 17 0
-841 20 0
-841 22 0
-841 23 0
-841 25 0
841 -3 -6 -7 -9 -12 -13 -16 -17 -20 -22 -23 -25 0
-842 4 0
-842 6 0
-842 7 0
-842 9 0
-842 12 0
-842 13 0
-842 16 0
-842 17 0
-842 20 0
-842 22 0
-842 23 0
-842 25 0
842 -4 -6 -7 -9 -12 -13 -16 -17 -20 -22 -23 -25 0
-843 3 0
-843 5 0
-843 7 0
-843 9 0
-843 12 0
-843 13 0
-843 16 0
-843 17 0
-843 20 0
-843 22 0
-843 23 0
-843 25 0
843 -3 -5 -7 -9 -12 -13 -16 -17 -20 -22 -23 -25 0
-844 4 0
-844 6 0
-844 8 0
-844 9 0
-844 11 0
-844 13 0
-844 16 0
-844 17 0
-844 19 0
-844 22 0
-844 23 0
-844 25 0
844 -4 -6 -8 -9 -11 -13 -16 -17 -19 -22 -23 -25 0
-845 4 0
-845 5 0
-845 7 0
-845 9 0
-845 12 0
-845 13 0
-845 16 0
-845 17 0
-845 20 0
-845 22 0
-845 23 0
-845 25 0
845 -4 -5 -7 -9 -12 -13 -16 -17 -20 -22 -23 -25 0
-846 3 0
-846 5 0
-846 8 0
-846 9 0
-846 12 0
-846 13 0
-846 16 0
-846 17 0
-846 20 0
-846 22 0
-846 23 0
-846 25 0
846 -3 -5 -8 -9 -12 -13 -16 -17 -20 -22 -23 -25 0
-847 4 0
-847 5 0
-847 8 0
-847 9 0
-847 12 0
-847 13 0
-847 16 0
-847 17 0
-847 20 0
-847 22 0
-847 23 0
-847 25 0
847 -4 -5 -8 -9 -12 -13 -16 -17 -20 -22 -23 -25 0
-848 3 0
-848 6 0
-848 8 0
-848 9 0
-848 12 0
-848 13 0
-848 16 0
-848 17 0
-848 20 0
-848 22 0
-848 23 0
-848 25 0
848 -3 -6 -8 -9 -12 -13 -16 -17 -20 -22 -23 -25 0
-849 4 0
-849 6 0
-849 8 0
-849 9 0
-849 12 0
-849 13 0
-849 16 0
-849 17 0
-849 20 0
-849 22 0
-849 23 0
-849 25 0
849 -4 -6 -8 -9 -12 -13 -16 -17 -20 -22 -23 -25 0
-850 3 0
-850 6 0
-850 8 0
-850 10 0
-850 12 0
-850 13 0
-850 16 0
-850 17 0
-850 20 0
-850 22 0
-850 23 0
-850 25 0
850 -3 -6 -8 -10 -12 -13 -16 -17 -20 -22 -23 -25 0
-851 4 0
-851 6 0
-851 8 0
-851 10 0
-851 12 0
-851 13 0
-851 16 0
-851 17 0
-851 20 0
-851 22 0
-851 23 0
-851 25 0
851 -4 -6 -8 -10 -12 -13 -16 -17 -20 -22 -23 -25 0
-852 3 0
-852 5 0
-852 8 0
-852 10 0
-852 12 0
-852 13 0
-852 16 0
-852 17 0
-852 20 0
-852 22 0
-852 23 0
-852 25 0
852 -3 -5 -8 -10 -12 -13 -16 -17 -20 -22 -23 -25 0
-853 4 0
-853 5 0
-853 8 0
-853 10 0
-853 12 0
-853 13 0
-853 16 0
-853 17 0
-853 20 0
-853 22 0
-853 23 0
-853 25 0
853 -4 -5 -8 -10 -12 -13 -16 -17 -20 -22 -23 -25 0
-854 3 0
-854 5 0
-854 7 0
-854 10 0
-854 12 0
-854 13 0
-854 16 0
-854 17 0
-854 20 0
-854 22 0
-854 23 0
-854 25 0
854 -3 -5 -7 -10 -12 -13 -16 -17 -20 -22 -23 -25 0
-855 4 0
-855 5 0
-855 7 0
-855 10 0
-855 12 0
-855 13 0
-855 16 0
-855 17 0
-855 20 0
-855 22 0
-855 23 0
-855 25 0
855 -4 -5 -7 -10 -12 -13 -16 -17 -20 -22 -23 -25 0
-856 3 0
-856 6 0
-856 7 0
-856 10 0
-856 12 0
-856 13 0
-856 16 0
-856 17 0
-856 20 0
-856 22 0
-856 23 0
-856 25 0
856 -3 -6 -7 -10 -12 -13 -16 -17 -20 -22 -23 -25 0
-857 4 0
-857 6 0
-857 7 0
-857 10 0
-857 12 0
-857 13 0
-857 16 0
-857 17 0
-857 19 0
-857 22 0
-857 23 0
-857 25 0
857 -4 -6 -7 -10 -12 -13 -16 -17 -19 -22 -23 -25 0
-858 4 0
-858 6 0
-858 7 0
-858 10 0
-858 12 0
-858 13 0
-858 16 0
-858 17 0
-858 20 0
-858 22 0
-858 23 0
-858 25 0
858 -4 -6 -7 -10 -12 -13 -16 -17 -20 -22 -23 -25 0
-859 3 0
-859 6 0
-859 7 0
-859 10 0
-859 11 0
-859 13 0
-859 16 0
-859 17 0
-859 20 0
-859 22 0
-859 23 0
-859 25 0
859 -3 -6 -7 -10 -11 -13 -16 -17 -20 -22 -23 -25 0
-860 4 0
-860 6 0
-860 7 0
-860 10 0
-860 11 0
-860 13 0
-860 16 0
-860 17 0
-860 20 0
-860 22 0
-860 23 0
-860 25 0
860 -4 -6 -7 -10 -11 -13 -16 -17 -20 -22 -23 -25 0
-861 3 0
-861 5 0
-861 7 0
-861 10 0
-861 11 0
-861 13 0
-861 16 0
-861 17 0
-861 20 0
-861 22 0
-861 23 0
-861 25 0
861 -3 -5 -7 -10 -11 -13 -16 -17 -20 -22 -23 -25 0
-862 4 0
-862 5 0
-862 7 0
-862 10 0
-862 11 0
-862 13 0
-862 16 0
-862 17 0
-862 20 0
-862 22 0
-862 23 0
-862 25 0
862 -4 -5 -7 -10 -11 -13 -16 -17 -20 -22 -23 -25 0
-863 3 0
-863 5 0
-863 8 0
-863 10 0
-863 11 0
-863 13 0
-863 16 0
-863 17 0
-863 20 0
-863 22 0
-863 23 0
-863 25 0
863 -3 -5 -8 -10 -11 -13 -16 -17 -20 -22 -23 -25 0
-864 4 0
-864 5 0
-864 8 0
-864 10 0
-864 11 0
-864 13 0
-864 16 0
-864 17 0
-864 20 0
-864 22 0
-864 23 0
-864 25 0
864 -4 -5 -8 -10 -11 -13 -16 -17 -20 -22 -23 -25 0
-865 3 0
-865 6 0
-865 8 0
-865 10 0
-865 11 0
-865 13 0
-865 16 0
-865 17 0
-865 20 0
-865 22 0
-865 23 0
-865 25 0
865 -3 -6 -8 -10 -11 -13 -16 -17 -20 -22 -23 -25 0
-866 4 0
-866 6 0
-866 8 0
-866 10 0
-866 11 0
-866 13 0
-866 16 0
-866 17 0
-866 19 0
-866 22 0
-866 23 0
-866 25 0
866 -4 -6 -8 -10 -11 -13 -16 -17 -19 -22 -23 -25 0
-867 4 0
-867 6 0
-867 8 0
-867 10 0
-867 11 0
-867 13 0
-867 16 0
-867 17 0
-867 20 0
-867 22 0
-867 23 0
-867 25 0
867 -4 -6 -8 -10 -11 -13 -16 -17 -20 -22 -23 -25 0
-868 3 0
-868 6 0
-868 8 0
-868 9 0
-868 11 0
-868 13 0
-868 16 0
-868 17 0
-868 20 0
-868 22 0
-868 23 0
-868 25 0
868 -3 -6 -8 -9 -11 -13 -16 -17 -20 -22 -23 -25 0
-869 4 0
-869 6 0
-869 8 0
-869 9 0
-869 11 0
-869 13 0
-869 16 0
-869 17 0
-869 20 0
-869 22 0
-869 23 0
-869 25 0
869 -4 -6 -8 -9 -11 -13 -16 -17 -20 -22 -23 -25 0
-870 3 0
-870 5 0
-870 8 0
-870 9 0
-870 11 0
-870 13 0
-870 16 0
-870 17 0
-870 20 0
-870 22 0
-870 23 0
-870 25 0
870 -3 -5 -8 -9 -11 -13 -16 -17 -20 -22 -23 -25 0
-871 4 0
-871 6 0
-871 7 0
-871 9 0
-871 11 0
-871 13 0
-871 16 0
-871 17 0
-871 19 0
-871 22 0
-871 23 0
-871 25 0
871 -4 -6 -7 -9 -11 -13 -16 -17 -19 -22 -23 -25 0
-872 4 0
-872 5 0
-872 8 0
-872 9 0
-872 11 0
-872 13 0
-872 16 0
-872 17 0
-872 20 0
-872 22 0
-872 23 0
-872 25 0
872 -4 -5 -8 -9 -11 -13 -16 -17 -20 -22 -23 -25 0
-873 3 0
-873 5 0
-873 7 0
-873 9 0
-873 11 0
-873 13 0
-873 16 0
-873 17 0
-873 20 0
-873 22 0
-873 23 0
-873 25 0
873 -3 -5 -7 -9 -11 -13 -16 -17 -20 -22 -23 -25 0
-874 4 0
-874 5 0
-874 7 0
-874 9 0
-874 11 0
-874 13 0
-874 16 0
-874 17 0
-874 20 0
-874 22 0
-874 23 0
-874 25 0
874 -4 -5 -7 -9 -11 -13 -16 -17 -20 -22 -23 -25 0
-875 3 0
-875 6 0
-875 7 0
-875 9 0
-875 11 0
-875 13 0
-875 16 0
-875 17 0
-875 20 0
-875 22 0
-875 23 0
-875 25 0
875 -3 -6 -7 -9 -11 -13 -16 -17 -20 -22 -23 -25 0
-876 3 0
-876 5 0
-876 7 0
-876 9 0
-876 11 0
-876 13 0
-876 15 0
-876 18 0
-876 19 0
-876 22 0
-876 23 0
-876 25 0
876 -3 -5 -7 -9 -11 -13 -15 -18 -19 -22 -23 -25 0
-877 3 0
-877 6 0
-877 7 0
-877 9 0
-877 11 0
-877 13 0
-877 15 0
-877 18 0
-877 19 0
-877 22 0
-877 23 0
-877 25 0
877 -3 -6 -7 -9 -11 -13 -15 -18 -19 -22 -23 -25 0
-878 4 0
-878 5 0
-878 7 0
-878 9 0
-878 11 0
-878 13 0
-878 15 0
-878 18 0
-878 19 0
-878 22 0
-878 23 0
-878 25 0
878 -4 -5 -7 -9 -11 -13 -15 -18 -19 -22 -23 -25 0
-879 4 0
-879 6 0
-879 7 0
-879 9 0
-879 11 0
-879 13 0
-879 16 0
-879 17 0
-879 20 0
-879 22 0
-879 23 0
-879 25 0
879 -4 -6 -7 -9 -11 -13 -16 -17 -20 -22 -23 -25 0
-880 3 0
-880 6 0
-880 7 0
-880 9 0
-880 11 0
-880 13 0
-880 16 0
-880 18 0
-880 20 0
-880 22 0
-880 23 0
-880 25 0
880 -3 -6 -7 -9 -11 -13 -16 -18 -20 -22 -23 -25 0
-881 4 0
-881 6 0
-881 7 0
-881 9 0
-881 11 0
-881 13 0
-881 16 0
-881 18 0
-881 20 0
-881 22 0
-881 23 0
-881 25 0
881 -4 -6 -7 -9 -11 -13 -16 -18 -20 -22 -23 -25 0
-882 3 0
-882 5 0
-882 7 0
-882 9 0
-882 11 0
-882 13 0
-882 16 0
-882 18 0
-882 20 0
-882 22 0
-882 23 0
-882 25 0
882 -3 -5 -7 -9 -11 -13 -16 -18 -20 -22 -23 -25 0
-883 3 0
-883 5 0
-883 8 0
-883 9 0
-883 11 0
-883 13 0
-883 15 0
-883 18 0
-883 19 0
-883 22 0
-883 23 0
-883 25 0
883 -3 -5 -8 -9 -11 -13 -15 -18 -19 -22 -23 -25 0
-884 3 0
-884 6 0
-884 8 0
-884 9 0
-884 11 0
-884 13 0
-884 15 0
-884 18 0
-884 19 0
-884 22 0
-884 23 0
-884 25 0
884 -3 -6 -8 -9 -11 -13 -15 -18 -19 -22 -23 -25 0
-885 4 0
-885 5 0
-885 8 0
-885 9 0
-885 11 0
-885 13 0
-885 15 0
-885 18 0
-885 19 0
-885 22 0
-885 23 0
-885 25 0
885 -4 -5 -8 -9 -11 -13 -15 -18 -19 -22 -23 -25 0
-886 4 0
-886 5 0
-886 7 0
-886 9 0
-886 11 0
-886 13 0
-886 16 0
-886 18 0
-886 20 0
-886 22 0
-886 23 0
-886 25 0
886 -4 -5 -7 -9 -11 -13 -16 -18 -20 -22 -23 -25 0
-887 3 0
-887 5 0
-887 8 0
-887 9 0
-887 11 0
-887 13 0
-887 16 0
-887 18 0
-887 20 0
-887 22 0
-887 23 0
-887 25 0
887 -3 -5 -8 -9 -11 -13 -16 -18 -20 -22 -23 -25 0
-888 4 0
-888 5 0
-888 8 0
-888 9 0
-888 11 0
-888 13 0
-888 16 0
-888 18 0
-888 20 0
-888 22 0
-888 23 0
-888 25 0
888 -4 -5 -8 -9 -11 -13 -16 -18 -20 -22 -23 -25 0
-889 3 0
-889 6 0
-889 8 0
-889 9 0
-889 11 0
-889 13 0
-889 16 0
-889 18 0
-889 20 0
-889 22 0
-889 23 0
-889 25 0
889 -3 -6 -8 -9 -11 -13 -16 -18 -20 -22 -23 -25 0
-890 3 0
-890 5 0
-890 7 0
-890 10 0
-890 11 0
-890 13 0
-890 15 0
-890 18 0
-890 19 0
-890 22 0
-890 23 0
-890 25 0
890 -3 -5 -7 -10 -11 -13 -15 -18 -19 -22 -23 -25 0
-891 3 0
-891 6 0
-891 7 0
-891 10 0
-891 11 0
-891 13 0
-891 15 0
-891 18 0
-891 19 0
-891 22 0
-891 23 0
-891 25 0
891 -3 -6 -7 -10 -11 -13 -15 -18 -19 -22 -23 -25 0
-892 4 0
-892 5 0
-892 7 0
-892 10 0
-892 11 0
-892 13 0
-892 15 0
-892 18 0
-892 19 0
-892 22 0
-892 23 0
-892 25 0
892 -4 -5 -7 -10 -11 -13 -15 -18 -19 -22 -23 -25 0
-893 4 0
-893 6 0
-893 8 0
-893 9 0
-893 11 0
-893 13 0
-893 16 0
-893 18 0
-893 20 0
-893 22 0
-893 23 0
-893 25 0
893 -4 -6 -8 -9 -11 -13 -16 -18 -20 -22 -23 -25 0
-894 3 0
-894 6 0
-894 8 0
-894 10 0
-894 11 0
-894 13 0
-894 16 0
-894 18 0
-894 20 0
-894 22 0
-894 23 0
-894 25 0
894 -3 -6 -8 -10 -11 -13 -16 -18 -20 -22 -23 -25 0
-895 4 0
-895 6 0
-895 8 0
-895 10 0
-895 11 0
-895 13 0
-895 16 0
-895 18 0
-895 20 0
-895 22 0
-895 23 0
-895 25 0
895 -4 -6 -8 -10 -11 -13 -16 -18 -20 -22 -23 -25 0
-896 3 0
-896 5 0
-896 8 0
-896 10 0
-896 11 0
-896 13 0
-896 16 0
-896 18 0
-896 20 0
-896 22 0
-896 23 0
-896 25 0
896 -3 -5 -8 -10 -11 -13 -16 -18 -20 -22 -23 -25 0
-897 4 0
-897 5 0
-897 8 0
-897 10 0
-897 11 0
-897 13 0
-897 15 0
-897 18 0
-897 19 0
-897 22 0
-897 23 0
-897 25 0
897 -4 -5 -8 -10 -11 -13 -15 -18 -19 -22 -23 -25 0
-898 4 0
-898 6 0
-898 7 0
-898 10 0
-898 11 0
-898 13 0
-898 15 0
-898 18 0
-898 19 0
-898 22 0
-898 23 0
-898 25 0
898 -4 -6 -7 -10 -11 -13 -15 -18 -19 -22 -23 -25 0
-899 4 0
-899 5 0
-899 8 0
-899 10 0
-899 11 0
-899 13 0
-899 16 0
-899 18 0
-899 20 0
-899 22 0
-899 23 0
-899 25 0
899 -4 -5 -8 -10 -11 -13 -16 -18 -20 -22 -23 -25 0
-900 3 0
-900 5 0
-900 7 0
-900 10 0
-900 11 0
-900 13 0
-900 16 0
-900 18 0
-900 20 0
-900 22 0
-900 23 0
-900 25 0
900 -3 -5 -7 -10 -11 -13 -16 -18 -20 -22 -23 -25 0
-901 4 0
-901 5 0
-901 7 0
-901 10 0
-901 11 0
-901 13 0
-901 16 0
-901 18 0
-901 20 0
-901 22 0
-901 23 0
-901 25 0
901 -4 -5 -7 -10 -11 -13 -16 -18 -20 -22 -23 -25 0
-902 3 0
-902 6 0
-902 7 0
-902 10 0
-902 11 0
-902 13 0
-902 16 0
-902 18 0
-902 20 0
-902 22 0
-902 23 0
-902 25 0
902 -3 -6 -7 -10 -11 -13 -16 -18 -20 -22 -23 -25 0
-903 3 0
-903 5 0
-903 7 0
-903 9 0
-903 12 0
-903 13 0
-903 15 0
-903 18 0
-903 19 0
-903 22 0
-903 23 0
-903 25 0
903 -3 -5 -7 -9 -12 -13 -15 -18 -19 -22 -23 -25 0
-904 3 0
-904 6 0
-904 7 0
-904 9 0
-904 12 0
-904 13 0
-904 15 0
-904 18 0
-904 19 0
-904 22 0
-904 23 0
-904 25 0
904 -3 -6 -7 -9 -12 -13 -15 -18 -19 -22 -23 -25 0
-905 4 0
-905 5 0
-905 7 0
-905 9 0
-905 12 0
-905 13 0
-905 15 0
-905 18 0
-905 19 0
-905 22 0
-905 23 0
-905 25 0
905 -4 -5 -7 -9 -12 -13 -15 -18 -19 -22 -23 -25 0
-906 4 0
-906 6 0
-906 7 0
-906 10 0
-906 11 0
-906 13 0
-906 16 0
-906 18 0
-906 20 0
-906 22 0
-906 23 0
-906 25 0
906 -4 -6 -7 -10 -11 -13 -16 -18 -20 -22 -23 -25 0
-907 3 0
-907 6 0
-907 7 0
-907 10 0
-907 12 0
-907 13 0
-907 16 0
-907 18 0
-907 20 0
-907 22 0
-907 23 0
-907 25 0
907 -3 -6 -7 -10 -12 -13 -16 -18 -20 -22 -23 -25 0
-908 4 0
-908 6 0
-908 7 0
-908 10 0
-908 12 0
-908 13 0
-908 16 0
-908 18 0
-908 20 0
-908 22 0
-908 23 0
-908 25 0
908 -4 -6 -7 -10 -12 -13 -16 -18 -20 -22 -23 -25 0
-909 3 0
-909 5 0
-909 7 0
-909 10 0
-909 12 0
-909 13 0
-909 16 0
-909 18 0
-909 20 0
-909 22 0
-909 23 0
-909 25 0
909 -3 -5 -7 -10 -12 -13 -16 -18 -20 -22 -23 -25 0
-910 3 0
-910 5 0
-910 8 0
-910 9 0
-910 12 0
-910 13 0
-910 15 0
-910 18 0
-910 19 0
-910 22 0
-910 23 0
-910 25 0
910 -3 -5 -8 -9 -12 -13 -15 -18 -19 -22 -23 -25 0
-911 3 0
-911 6 0
-911 8 0
-911 9 0
-911 12 0
-911 13 0
-911 15 0
-911 18 0
-911 19 0
-911 22 0
-911 23 0
-911 25 0
911 -3 -6 -8 -9 -12 -13 -15 -18 -19 -22 -23 -25 0
-912 4 0
-912 5 0
-912 8 0
-912 9 0
-912 12 0
-912 13 0
-912 15 0
-912 18 0
-912 19 0
-912 22 0
-912 23 0
-912 25 0
912 -4 -5 -8 -9 -12 -13 -15 -18 -19 -22 -23 -25 0
-913 4 0
-913 5 0
-913 7 0
-913 10 0
-913 12 0
-913 13 0
-913 16 0
-913 18 0
-913 20 0
-913 22 0
-913 23 0
-913 25 0
913 -4 -5 -7 -10 -12 -13 -16 -18 -20 -22 -23 -25 0
-914 3 0
-914 5 0
-914 8 0
-914 10 0
-914 12 0
-914 13 0
-914 16 0
-914 18 0
-914 20 0
-914 22 0
-914 23 0
-914 25 0
914 -3 -5 -8 -10 -12 -13 -16 -18 -20 -22 -23 -25 0
-915 4 0
-915 5 0
-915 8 0
-915 10 0
-915 12 0
-915 13 0
-915 16 0
-915 18 0
-915 20 0
-915 22 0
-915 23 0
-915 25 0
915 -4 -5 -8 -10 -12 -13 -16 -18 -20 -22 -23 -25 0
-916 3 0
-916 6 0
-916 8 0
-916 10 0
-916 12 0
-916 13 0
-916 16 0
-916 18 0
-916 20 0
-916 22 0
-916 23 0
-916 25 0
916 -3 -6 -8 -10 -12 -13 -16 -18 -20 -22 -23 -25 0
-917 4 0
-917 6 0
-917 7 0
-917 9 0
-917 12 0
-917 13 0
-917 15 0
-917 18 0
-917 19 0
-917 22 0
-917 23 0
-917 25 0
917 -4 -6 -7 -9 -12 -13 -15 -18 -19 -22 -23 -25 0
-918 4 0
-918 6 0
-918 8 0
-918 10 0
-918 12 0
-918 13 0
-918 16 0
-918 18 0
-918 20 0
-918 22 0
-918 23 0
-918 25 0
918 -4 -6 -8 -10 -12 -13 -16 -18 -20 -22 -23 -25 0
-919 3 0
-919 6 0
-919 8 0
-919 9 0
-919 12 0
-919 13 0
-919 16 0
-919 18 0
-919 20 0
-919 22 0
-919 23 0
-919 25 0
919 -3 -6 -8 -9 -12 -13 -16 -18 -20 -22 -23 -25 0
-920 4 0
-920 6 0
-920 8 0
-920 9 0
-920 12 0
-920 13 0
-920 16 0
-920 18 0
-920 20 0
-920 22 0
-920 23 0
-920 25 0
920 -4 -6 -8 -9 -12 -13 -16 -18 -20 -22 -23 -25 0
-921 3 0
-921 5 0
-921 8 0
-921 9 0
-921 12 0
-921 13 0
-921 16 0
-921 18 0
-921 20 0
-921 22 0
-921 23 0
-921 25 0
921 -3 -5 -8 -9 -12 -13 -16 -18 -20 -22 -23 -25 0
-922 4 0
-922 5 0
-922 8 0
-922 9 0
-922 12 0
-922 13 0
-922 16 0
-922 18 0
-922 20 0
-922 22 0
-922 23 0
-922 25 0
922 -4 -5 -8 -9 -12 -13 -16 -18 -20 -22 -23 -25 0
-923 3 0
-923 5 0
-923 7 0
-923 9 0
-923 12 0
-923 13 0
-923 16 0
-923 18 0
-923 20 0
-923 22 0
-923 23 0
-923 25 0
923 -3 -5 -7 -9 -12 -13 -16 -18 -20 -22 -23 -25 0
-924 4 0
-924 5 0
-924 7 0
-924 9 0
-924 12 0
-924 13 0
-924 16 0
-924 18 0
-924 20 0
-924 22 0
-924 23 0
-924 25 0
924 -4 -5 -7 -9 -12 -13 -16 -18 -20 -22 -23 -25 0
-925 3 0
-925 6 0
-925 7 0
-925 9 0
-925 12 0
-925 13 0
-925 16 0
-925 18 0
-925 20 0
-925 22 0
-925 23 0
-925 25 0
925 -3 -6 -7 -9 -12 -13 -16 -18 -20 -22 -23 -25 0
-926 3 0
-926 5 0
-926 7 0
-926 9 0
-926 11 0
-926 14 0
-926 15 0
-926 18 0
-926 19 0
-926 22 0
-926 23 0
-926 25 0
926 -3 -5 -7 -9 -11 -14 -15 -18 -19 -22 -23 -25 0
-927 3 0
-927 6 0
-927 7 0
-927 9 0
-927 11 0
-927 14 0
-927 15 0
-927 18 0
-927 19 0
-927 22 0
-927 23 0
-927 25 0
927 -3 -6 -7 -9 -11 -14 -15 -18 -19 -22 -23 -25 0
-928 4 0
-928 5 0
-928 7 0
-928 9 0
-928 11 0
-928 14 0
-928 15 0
-928 18 0
-928 19 0
-928 22 0
-928 23 0
-928 25 0
928 -4 -5 -7 -9 -11 -14 -15 -18 -19 -22 -23 -25 0
-929 4 0
-929 6 0
-929 7 0
-929 9 0
-929 12 0
-929 13 0
-929 16 0
-929 18 0
-929 20 0
-929 22 0
-929 23 0
-929 25 0
929 -4 -6 -7 -9 -12 -13 -16 -18 -20 -22 -23 -25 0
-930 3 0
-930 6 0
-930 7 0
-930 9 0
-930 12 0
-930 14 0
-930 16 0
-930 18 0
-930 20 0
-930 22 0
-930 23 0
-930 25 0
930 -3 -6 -7 -9 -12 -14 -16 -18 -20 -22 -23 -25 0
-931 4 0
-931 6 0
-931 7 0
-931 9 0
-931 12 0
-931 14 0
-931 16 0
-931 18 0
-931 20 0
-931 22 0
-931 23 0
-931 25 0
931 -4 -6 -7 -9 -12 -14 -16 -18 -20 -22 -23 -25 0
-932 3 0
-932 5 0
-932 7 0
-932 9 0
-932 12 0
-932 14 0
-932 16 0
-932 18 0
-932 20 0
-932 22 0
-932 23 0
-932 25 0
932 -3 -5 -7 -9 -12 -14 -16 -18 -20 -22 -23 -25 0
-933 3 0
-933 5 0
-933 8 0
-933 9 0
-933 11 0
-933 14 0
-933 15 0
-933 18 0
-933 19 0
-933 22 0
-933 23 0
-933 25 0
933 -3 -5 -8 -9 -11 -14 -15 -18 -19 -22 -23 -25 0
-934 3 0
-934 6 0
-934 8 0
-934 9 0
-934 11 0
-934 14 0
-934 15 0
-934 18 0
-934 19 0
-934 22 0
-934 23 0
-934 25 0
934 -3 -6 -8 -9 -11 -14 -15 -18 -19 -22 -23 -25 0
-935 4 0
-935 5 0
-935 8 0
-935 9 0
-935 11 0
-935 14 0
-935 15 0
-935 18 0
-935 19 0
-935 22 0
-935 23 0
-935 25 0
935 -4 -5 -8 -9 -11 -14 -15 -18 -19 -22 -23 -25 0
-936 4 0
-936 5 0
-936 7 0
-936 9 0
-936 12 0
-936 14 0
-936 16 0
-936 18 0
-936 20 0
-936 22 0
-936 23 0
-936 25 0
936 -4 -5 -7 -9 -12 -14 -16 -18 -20 -22 -23 -25 0
-937 3 0
-937 5 0
-937 8 0
-937 9 0
-937 12 0
-937 14 0
-937 16 0
-937 18 0
-937 20 0
-937 22 0
-937 23 0
-937 25 0
937 -3 -5 -8 -9 -12 -14 -16 -18 -20 -22 -23 -25 0
-938 4 0
-938 5 0
-938 8 0
-938 9 0
-938 12 0
-938 14 0
-938 16 0
-938 18 0
-938 20 0
-938 22 0
-938 23 0
-938 25 0
938 -4 -5 -8 -9 -12 -14 -16 -18 -20 -22 -23 -25 0
-939 3 0
-939 6 0
-939 8 0
-939 9 0
-939 12 0
-939 14 0
-939 16 0
-939 18 0
-939 20 0
-939 22 0
-939 23 0
-939 25 0
939 -3 -6 -8 -9 -12 -14 -16 -18 -20 -22 -23 -25 0
-940 3 0
-940 5 0
-940 7 0
-940 10 0
-940 11 0
-940 14 0
-940 15 0
-940 18 0
-940 19 0
-940 22 0
-940 23 0
-940 25 0
940 -3 -5 -7 -10 -11 -14 -15 -18 -19 -22 -23 -25 0
-941 3 0
-941 6 0
-941 7 0
-941 10 0
-941 11 0
-941 14 0
-941 15 0
-941 18 0
-941 19 0
-941 22 0
-941 23 0
-941 25 0
941 -3 -6 -7 -10 -11 -14 -15 -18 -19 -22 -23 -25 0
-942 4 0
-942 5 0
-942 7 0
-942 10 0
-942 11 0
-942 14 0
-942 15 0
-942 18 0
-942 19 0
-942 22 0
-942 23 0
-942 25 0
942 -4 -5 -7 -10 -11 -14 -15 -18 -19 -22 -23 -25 0
-943 4 0
-943 6 0
-943 8 0
-943 9 0
-943 12 0
-943 14 0
-943 16 0
-943 18 0
-943 20 0
-943 22 0
-943 23 0
-943 25 0
943 -4 -6 -8 -9 -12 -14 -16 -18 -20 -22 -23 -25 0
-944 3 0
-944 6 0
-944 8 0
-944 10 0
-944 12 0
-944 14 0
-944 16 0
-944 18 0
-944 20 0
-944 22 0
-944 23 0
-944 25 0
944 -3 -6 -8 -10 -12 -14 -16 -18 -20 -22 -23 -25 0
-945 3 0
-945 5 0
-945 8 0
-945 10 0
-945 12 0
-945 14 0
-945 16 0
-945 18 0
-945 20 0
-945 22 0
-945 23 0
-945 25 0
945 -3 -5 -8 -10 -12 -14 -16 -18 -20 -22 -23 -25 0
-946 4 0
-946 5 0
-946 8 0
-946 10 0
-946 11 0
-946 14 0
-946 15 0
-946 18 0
-946 19 0
-946 22 0
-946 23 0
-946 25 0
946 -4 -5 -8 -10 -11 -14 -15 -18 -19 -22 -23 -25 0
-947 4 0
-947 6 0
-947 7 0
-947 10 0
-947 11 0
-947 14 0
-947 15 0
-947 18 0
-947 19 0
-947 22 0
-947 23 0
-947 25 0
947 -4 -6 -7 -10 -11 -14 -15 -18 -19 -22 -23 -25 0
-948 4 0
-948 5 0
-948 8 0
-948 10 0
-948 12 0
-948 14 0
-948 16 0
-948 18 0
-948 20 0
-948 22 0
-948 23 0
-948 25 0
948 -4 -5 -8 -10 -12 -14 -16 -18 -20 -22 -23 -25 0
-949 3 0
-949 5 0
-949 7 0
-949 10 0
-949 12 0
-949 14 0
-949 16 0
-949 18 0
-949 20 0
-949 22 0
-949 23 0
-949 25 0
949 -3 -5 -7 -10 -12 -14 -16 -18 -20 -22 -23 -25 0
-950 4 0
-950 5 0
-950 7 0
-950 10 0
-950 12 0
-950 14 0
-950 16 0
-950 18 0
-950 20 0
-950 22 0
-950 23 0
-950 25 0
950 -4 -5 -7 -10 -12 -14 -16 -18 -20 -22 -23 -25 0
-951 3 0
-951 6 0
-951 7 0
-951 10 0
-951 12 0
-951 14 0
-951 16 0
-951 18 0
-951 20 0
-951 22 0
-951 23 0
-951 25 0
951 -3 -6 -7 -10 -12 -14 -16 -18 -20 -22 -23 -25 0
-952 4 0
-952 6 0
-952 7 0
-952 10 0
-952 12 0
-952 14 0
-952 15 0
-952 18 0
-952 19 0
-952 22 0
-952 23 0
-952 25 0
952 -4 -6 -7 -10 -12 -14 -15 -18 -19 -22 -23 -25 0
-953 4 0
-953 6 0
-953 7 0
-953 10 0
-953 12 0
-953 14 0
-953 16 0
-953 18 0
-953 20 0
-953 22 0
-953 23 0
-953 25 0
953 -4 -6 -7 -10 -12 -14 -16 -18 -20 -22 -23 -25 0
-954 3 0
-954 6 0
-954 7 0
-954 10 0
-954 11 0
-954 14 0
-954 16 0
-954 18 0
-954 20 0
-954 22 0
-954 23 0
-954 25 0
954 -3 -6 -7 -10 -11 -14 -16 -18 -20 -22 -23 -25 0
-955 4 0
-955 6 0
-955 7 0
-955 10 0
-955 11 0
-955 14 0
-955 16 0
-955 18 0
-955 20 0
-955 22 0
-955 23 0
-955 25 0
955 -4 -6 -7 -10 -11 -14 -16 -18 -20 -22 -23 -25 0
-956 3 0
-956 5 0
-956 7 0
-956 10 0
-956 11 0
-956 14 0
-956 16 0
-956 18 0
-956 20 0
-956 22 0
-956 23 0
-956 25 0
956 -3 -5 -7 -10 -11 -14 -16 -18 -20 -22 -23 -25 0
-957 4 0
-957 6 0
-957 8 0
-957 9 0
-957 11 0
-957 14 0
-957 15 0
-957 18 0
-957 19 0
-957 22 0
-957 23 0
-957 25 0
957 -4 -6 -8 -9 -11 -14 -15 -18 -19 -22 -23 -25 0
-958 4 0
-958 5 0
-958 7 0
-958 10 0
-958 11 0
-958 14 0
-958 16 0
-958 18 0
-958 20 0
-958 22 0
-958 23 0
-958 25 0
958 -4 -5 -7 -10 -11 -14 -16 -18 -20 -22 -23 -25 0
-959 3 0
-959 5 0
-959 8 0
-959 10 0
-959 11 0
-959 14 0
-959 16 0
-959 18 0
-959 20 0
-959 22 0
-959 23 0
-959 25 0
959 -3 -5 -8 -10 -11 -14 -16 -18 -20 -22 -23 -25 0
-960 4 0
-960 5 0
-960 8 0
-960 10 0
-960 11 0
-960 14 0
-960 16 0
-960 18 0
-960 20 0
-960 22 0
-960 23 0
-960 25 0
960 -4 -5 -8 -10 -11 -14 -16 -18 -20 -22 -23 -25 0
-961 3 0
-961 6 0
-961 8 0
-961 10 0
-961 11 0
-961 14 0
-961 16 0
-961 18 0
-961 20 0
-961 22 0
-961 23 0
-961 25 0
961 -3 -6 -8 -10 -11 -14 -16 -18 -20 -22 -23 -25 0
-962 4 0
-962 6 0
-962 8 0
-962 10 0
-962 11 0
-962 14 0
-962 15 0
-962 18 0
-962 19 0
-962 22 0
-962 23 0
-962 25 0
962 -4 -6 -8 -10 -11 -14 -15 -18 -19 -22 -23 -25 0
-963 4 0
-963 6 0
-963 8 0
-963 10 0
-963 11 0
-963 14 0
-963 16 0
-963 18 0
-963 20 0
-963 22 0
-963 23 0
-963 25 0
963 -4 -6 -8 -10 -11 -14 -16 -18 -20 -22 -23 -25 0
-964 3 0
-964 6 0
-964 8 0
-964 9 0
-964 11 0
-964 14 0
-964 16 0
-964 18 0
-964 20 0
-964 22 0
-964 23 0
-964 25 0
964 -3 -6 -8 -9 -11 -14 -16 -18 -20 -22 -23 -25 0
-965 4 0
-965 6 0
-965 8 0
-965 9 0
-965 11 0
-965 14 0
-965 16 0
-965 18 0
-965 20 0
-965 22 0
-965 23 0
-965 25 0
965 -4 -6 -8 -9 -11 -14 -16 -18 -20 -22 -23 -25 0
-966 3 0
-966 5 0
-966 8 0
-966 9 0
-966 11 0
-966 14 0
-966 16 0
-966 18 0
-966 20 0
-966 22 0
-966 23 0
-966 25 0
966 -3 -5 -8 -9 -11 -14 -16 -18 -20 -22 -23 -25 0
-967 4 0
-967 6 0
-967 7 0
-967 9 0
-967 11 0
-967 14 0
-967 15 0
-967 18 0
-967 19 0
-967 22 0
-967 23 0
-967 25 0
967 -4 -6 -7 -9 -11 -14 -15 -18 -19 -22 -23 -25 0
-968 4 0
-968 5 0
-968 8 0
-968 9 0
-968 11 0
-968 14 0
-968 16 0
-968 18 0
-968 20 0
-968 22 0
-968 23 0
-968 25 0
968 -4 -5 -8 -9 -11 -14 -16 -18 -20 -22 -23 -25 0
-969 3 0
-969 5 0
-969 7 0
-969 9 0
-969 11 0
-969 14 0
-969 16 0
-969 18 0
-969 20 0
-969 22 0
-969 23 0
-969 25 0
969 -3 -5 -7 -9 -11 -14 -16 -18 -20 -22 -23 -25 0
-970 4 0
-970 5 0
-970 7 0
-970 9 0
-970 11 0
-970 14 0
-970 16 0
-970 18 0
-970 20 0
-970 22 0
-970 23 0
-970 25 0
970 -4 -5 -7 -9 -11 -14 -16 -18 -20 -22 -23 -25 0
-971 3 0
-971 6 0
-971 7 0
-971 9 0
-971 11 0
-971 14 0
-971 16 0
-971 18 0
-971 20 0
-971 22 0
-971 23 0
-971 25 0
971 -3 -6 -7 -9 -11 -14 -16 -18 -20 -22 -23 -25 0
-972 4 0
-972 6 0
-972 7 0
-972 9 0
-972 11 0
-972 14 0
-972 16 0
-972 18 0
-972 19 0
-972 22 0
-972 23 0
-972 25 0
972 -4 -6 -7 -9 -11 -14 -16 -18 -19 -22 -23 -25 0
-973 4 0
-973 6 0
-973 7 0
-973 9 0
-973 11 0
-973 14 0
-973 16 0
-973 18 0
-973 20 0
-973 22 0
-973 23 0
-973 25 0
973 -4 -6 -7 -9 -11 -14 -16 -18 -20 -22 -23 -25 0
-974 3 0
-974 6 0
-974 7 0
-974 9 0
-974 11 0
-974 14 0
-974 15 0
-974 18 0
-974 20 0
-974 22 0
-974 23 0
-974 25 0
974 -3 -6 -7 -9 -11 -14 -15 -18 -20 -22 -23 -25 0
-975 4 0
-975 6 0
-975 7 0
-975 9 0
-975 11 0
-975 14 0
-975 15 0
-975 18 0
-975 20 0
-975 22 0
-975 23 0
-975 25 0
975 -4 -6 -7 -9 -11 -14 -15 -18 -20 -22 -23 -25 0
-976 3 0
-976 5 0
-976 7 0
-976 9 0
-976 11 0
-976 14 0
-976 15 0
-976 18 0
-976 20 0
-976 22 0
-976 23 0
-976 25 0
976 -3 -5 -7 -9 -11 -14 -15 -18 -20 -22 -23 -25 0
-977 4 0
-977 5 0
-977 7 0
-977 9 0
-977 11 0
-977 14 0
-977 15 0
-977 18 0
-977 20 0
-977 22 0
-977 23 0
-977 25 0
977 -4 -5 -7 -9 -11 -14 -15 -18 -20 -22 -23 -25 0
-978 3 0
-978 5 0
-978 8 0
-978 9 0
-978 11 0
-978 14 0
-978 15 0
-978 18 0
-978 20 0
-978 22 0
-978 23 0
-978 25 0
978 -3 -5 -8 -9 -11 -14 -15 -18 -20 -22 -23 -25 0
-979 4 0
-979 5 0
-979 8 0
-979 9 0
-979 11 0
-979 14 0
-979 15 0
-979 18 0
-979 20 0
-979 22 0
-979 23 0
-979 25 0
979 -4 -5 -8 -9 -11 -14 -15 -18 -20 -22 -23 -25 0
-980 3 0
-980 6 0
-980 8 0
-980 9 0
-980 11 0
-980 14 0
-980 15 0
-980 18 0
-980 20 0
-980 22 0
-980 23 0
-980 25 0
980 -3 -6 -8 -9 -11 -14 -15 -18 -20 -22 -23 -25 0
-981 4 0
-981 6 0
-981 8 0
-981 9 0
-981 11 0
-981 14 0
-981 15 0
-981 18 0
-981 20 0
-981 22 0
-981 23 0
-981 25 0
981 -4 -6 -8 -9 -11 -14 -15 -18 -20 -22 -23 -25 0
-982 3 0
-982 6 0
-982 8 0
-982 10 0
-982 11 0
-982 14 0
-982 15 0
-982 18 0
-982 20 0
-982 22 0
-982 23 0
-982 25 0
982 -3 -6 -8 -10 -11 -14 -15 -18 -20 -22 -23 -25 0
-983 4 0
-983 6 0
-983 8 0
-983 10 0
-983 11 0
-983 14 0
-983 15 0
-983 18 0
-983 20 0
-983 22 0
-983 23 0
-983 25 0
983 -4 -6 -8 -10 -11 -14 -15 -18 -20 -22 -23 -25 0
-984 3 0
-984 5 0
-984 8 0
-984 10 0
-984 11 0
-984 14 0
-984 15 0
-984 18 0
-984 20 0
-984 22 0
-984 23 0
-984 25 0
984 -3 -5 -8 -10 -11 -14 -15 -18 -20 -22 -23 -25 0
-985 4 0
-985 5 0
-985 8 0
-985 10 0
-985 11 0
-985 14 0
-985 15 0
-985 18 0
-985 20 0
-985 22 0
-985 23 0
-985 25 0
985 -4 -5 -8 -10 -11 -14 -15 -18 -20 -22 -23 -25 0
-986 3 0
-986 5 0
-986 7 0
-986 10 0
-986 11 0
-986 14 0
-986 15 0
-986 18 0
-986 20 0
-986 22 0
-986 23 0
-986 25 0
986 -3 -5 -7 -10 -11 -14 -15 -18 -20 -22 -23 -25 0
-987 4 0
-987 5 0
-987 7 0
-987 10 0
-987 11 0
-987 14 0
-987 15 0
-987 18 0
-987 20 0
-987 22 0
-987 23 0
-987 25 0
987 -4 -5 -7 -10 -11 -14 -15 -18 -20 -22 -23 -25 0
-988 3 0
-988 6 0
-988 7 0
-988 10 0
-988 11 0
-988 14 0
-988 15 0
-988 18 0
-988 20 0
-988 22 0
-988 23 0
-988 25 0
988 -3 -6 -7 -10 -11 -14 -15 -18 -20 -22 -23 -25 0
-989 4 0
-989 6 0
-989 7 0
-989 10 0
-989 11 0
-989 14 0
-989 15 0
-989 18 0
-989 20 0
-989 22 0
-989 23 0
-989 25 0
989 -4 -6 -7 -10 -11 -14 -15 -18 -20 -22 -23 -25 0
-990 3 0
-990 6 0
-990 7 0
-990 10 0
-990 12 0
-990 14 0
-990 15 0
-990 18 0
-990 20 0
-990 22 0
-990 23 0
-990 25 0
990 -3 -6 -7 -10 -12 -14 -15 -18 -20 -22 -23 -25 0
-991 4 0
-991 6 0
-991 7 0
-991 10 0
-991 12 0
-991 14 0
-991 15 0
-991 18 0
-991 20 0
-991 22 0
-991 23 0
-991 25 0
991 -4 -6 -7 -10 -12 -14 -15 -18 -20 -22 -23 -25 0
-992 3 0
-992 5 0
-992 7 0
-992 10 0
-992 12 0
-992 14 0
-992 15 0
-992 18 0
-992 20 0
-992 22 0
-992 23 0
-992 25 0
992 -3 -5 -7 -10 -12 -14 -15 -18 -20 -22 -23 -25 0
-993 4 0
-993 6 0
-993 8 0
-993 9 0
-993 12 0
-993 13 0
-993 15 0
-993 18 0
-993 19 0
-993 22 0
-993 23 0
-993 25 0
993 -4 -6 -8 -9 -12 -13 -15 -18 -19 -22 -23 -25 0
-994 4 0
-994 5 0
-994 7 0
-994 10 0
-994 12 0
-994 14 0
-994 15 0
-994 18 0
-994 20 0
-994 22 0
-994 23 0
-994 25 0
994 -4 -5 -7 -10 -12 -14 -15 -18 -20 -22 -23 -25 0
-995 3 0
-995 5 0
-995 8 0
-995 10 0
-995 12 0
-995 14 0
-995 15 0
-995 18 0
-995 20 0
-995 22 0
-995 23 0
-995 25 0
995 -3 -5 -8 -10 -12 -14 -15 -18 -20 -22 -23 -25 0
-996 4 0
-996 5 0
-996 8 0
-996 10 0
-996 12 0
-996 14 0
-996 15 0
-996 18 0
-996 20 0
-996 22 0
-996 23 0
-996 25 0
996 -4 -5 -8 -10 -12 -14 -15 -18 -20 -22 -23 -25 0
-997 3 0
-997 6 0
-997 8 0
-997 10 0
-997 12 0
-997 14 0
-997 15 0
-997 18 0
-997 20 0
-997 22 0
-997 23 0
-997 25 0
997 -3 -6 -8 -10 -12 -14 -15 -18 -20 -22 -23 -25 0
-998 4 0
-998 6 0
-998 8 0
-998 10 0
-998 12 0
-998 13 0
-998 15 0
-998 18 0
-998 19 0
-998 22 0
-998 23 0
-998 25 0
998 -4 -6 -8 -10 -12 -13 -15 -18 -19 -22 -23 -25 0
-999 4 0
-999 6 0
-999 8 0
-999 10 0
-999 12 0
-999 14 0
-999 15 0
-999 18 0
-999 20 0
-999 22 0
-999 23 0
-999 25 0
999 -4 -6 -8 -10 -12 -14 -15 -18 -20 -22 -23 -25 0
-1000 3 0
-1000 6 0
-1000 8 0
-1000 9 0
-1000 12 0
-1000 14 0
-1000 15 0
-1000 18 0
-1000 20 0
-1000 22 0
-1000 23 0
-1000 25 0
1000 -3 -6 -8 -9 -12 -14 -15 -18 -20 -22 -23 -25 0
-1001 4 0
-1001 6 0
-1001 8 0
-1001 9 0
-1001 12 0
-1001 14 0
-1001 15 0
-1001 18 0
-1001 20 0
-1001 22 0
-1001 23 0
-1001 25 0
1001 -4 -6 -8 -9 -12 -14 -15 -18 -20 -22 -23 -25 0
-1002 3 0
-1002 5 0
-1002 8 0
-1002 9 0
-1002 12 0
-1002 14 0
-1002 15 0
-1002 18 0
-1002 20 0
-1002 22 0
-1002 23 0
-1002 25 0
1002 -3 -5 -8 -9 -12 -14 -15 -18 -20 -22 -23 -25 0
-1003 4 0
-1003 5 0
-1003 8 0
-1003 9 0
-1003 12 0
-1003 14 0
-1003 15 0
-1003 18 0
-1003 20 0
-1003 22 0
-1003 23 0
-1003 25 0
1003 -4 -5 -8 -9 -12 -14 -15 -18 -20 -22 -23 -25 0
-1004 3 0
-1004 5 0
-1004 7 0
-1004 9 0
-1004 12 0
-1004 14 0
-1004 15 0
-1004 18 0
-1004 20 0
-1004 22 0
-1004 23 0
-1004 25 0
1004 -3 -5 -7 -9 -12 -14 -15 -18 -20 -22 -23 -25 0
-1005 4 0
-1005 5 0
-1005 7 0
-1005 9 0
-1005 12 0
-1005 14 0
-1005 15 0
-1005 18 0
-1005 20 0
-1005 22 0
-1005 23 0
-1005 25 0
1005 -4 -5 -7 -9 -12 -14 -15 -18 -20 -22 -23 -25 0
-1006 3 0
-1006 6 0
-1006 7 0
-1006 9 0
-1006 12 0
-1006 14 0
-1006 15 0
-1006 18 0
-1006 20 0
-1006 22 0
-1006 23 0
-1006 25 0
1006 -3 -6 -7 -9 -12 -14 -15 -18 -20 -22 -23 -25 0
-1007 4 0
-1007 6 0
-1007 7 0
-1007 9 0
-1007 12 0
-1007 14 0
-1007 15 0
-1007 18 0
-1007 19 0
-1007 22 0
-1007 23 0
-1007 25 0
1007 -4 -6 -7 -9 -12 -14 -15 -18 -19 -22 -23 -25 0
-1008 4 0
-1008 6 0
-1008 7 0
-1008 9 0
-1008 12 0
-1008 14 0
-1008 15 0
-1008 18 0
-1008 20 0
-1008 22 0
-1008 23 0
-1008 25 0
1008 -4 -6 -7 -9 -12 -14 -15 -18 -20 -22 -23 -25 0
-1009 3 0
-1009 6 0
-1009 7 0
-1009 9 0
-1009 12 0
-1009 13 0
-1009 15 0
-1009 18 0
-1009 20 0
-1009 22 0
-1009 23 0
-1009 25 0
1009 -3 -6 -7 -9 -12 -13 -15 -18 -20 -22 -23 -25 0
-1010 4 0
-1010 6 0
-1010 7 0
-1010 9 0
-1010 12 0
-1010 13 0
-1010 15 0
-1010 18 0
-1010 20 0
-1010 22 0
-1010 23 0
-1010 25 0
1010 -4 -6 -7 -9 -12 -13 -15 -18 -20 -22 -23 -25 0
-1011 3 0
-1011 5 0
-1011 7 0
-1011 9 0
-1011 12 0
-1011 13 0
-1011 15 0
-1011 18 0
-1011 20 0
-1011 22 0
-1011 23 0
-1011 25 0
1011 -3 -5 -7 -9 -12 -13 -15 -18 -20 -22 -23 -25 0
-1012 4 0
-1012 5 0
-1012 7 0
-1012 9 0
-1012 12 0
-1012 13 0
-1012 15 0
-1012 18 0
-1012 20 0
-1012 22 0
-1012 23 0
-1012 25 0
1012 -4 -5 -7 -9 -12 -13 -15 -18 -20 -22 -23 -25 0
-1013 3 0
-1013 5 0
-1013 8 0
-1013 9 0
-1013 12 0
-1013 13 0
-1013 15 0
-1013 18 0
-1013 20 0
-1013 22 0
-1013 23 0
-1013 25 0
1013 -3 -5 -8 -9 -12 -13 -15 -18 -20 -22 -23 -25 0
-1014 4 0
-1014 5 0
-1014 8 0
-1014 9 0
-1014 12 0
-1014 13 0
-1014 15 0
-1014 18 0
-1014 20 0
-1014 22 0
-1014 23 0
-1014 25 0
1014 -4 -5 -8 -9 -12 -13 -15 -18 -20 -22 -23 -25 0
-1015 3 0
-1015 6 0
-1015 8 0
-1015 9 0
-1015 12 0
-1015 13 0
-1015 15 0
-1015 18 0
-1015 20 0
-1015 22 0
-1015 23 0
-1015 25 0
1015 -3 -6 -8 -9 -12 -13 -15 -18 -20 -22 -23 -25 0
-1016 4 0
-1016 6 0
-1016 8 0
-1016 9 0
-1016 12 0
-1016 13 0
-1016 15 0
-1016 18 0
-1016 20 0
-1016 22 0
-1016 23 0
-1016 25 0
1016 -4 -6 -8 -9 -12 -13 -15 -18 -20 -22 -23 -25 0
-1017 3 0
-1017 6 0
-1017 8 0
-1017 10 0
-1017 12 0
-1017 13 0
-1017 15 0
-1017 18 0
-1017 20 0
-1017 22 0
-1017 23 0
-1017 25 0
1017 -3 -6 -8 -10 -12 -13 -15 -18 -20 -22 -23 -25 0
-1018 4 0
-1018 6 0
-1018 8 0
-1018 10 0
-1018 12 0
-1018 13 0
-1018 15 0
-1018 18 0
-1018 20 0
-1018 22 0
-1018 23 0
-1018 25 0
1018 -4 -6 -8 -10 -12 -13 -15 -18 -20 -22 -23 -25 0
-1019 3 0
-1019 5 0
-1019 8 0
-1019 10 0
-1019 12 0
-1019 13 0
-1019 15 0
-1019 18 0
-1019 20 0
-1019 22 0
-1019 23 0
-1019 25 0
1019 -3 -5 -8 -10 -12 -13 -15 -18 -20 -22 -23 -25 0
-1020 4 0
-1020 5 0
-1020 8 0
-1020 10 0
-1020 12 0
-1020 13 0
-1020 15 0
-1020 18 0
-1020 20 0
-1020 22 0
-1020 23 0
-1020 25 0
1020 -4 -5 -8 -10 -12 -13 -15 -18 -20 -22 -23 -25 0
-1021 3 0
-1021 5 0
-1021 7 0
-1021 10 0
-1021 12 0
-1021 13 0
-1021 15 0
-1021 18 0
-1021 20 0
-1021 22 0
-1021 23 0
-1021 25 0
1021 -3 -5 -7 -10 -12 -13 -15 -18 -20 -22 -23 -25 0
-1022 4 0
-1022 5 0
-1022 7 0
-1022 10 0
-1022 12 0
-1022 13 0
-1022 15 0
-1022 18 0
-1022 20 0
-1022 22 0
-1022 23 0
-1022 25 0
1022 -4 -5 -7 -10 -12 -13 -15 -18 -20 -22 -23 -25 0
-1023 3 0
-1023 6 0
-1023 7 0
-1023 10 0
-1023 12 0
-1023 13 0
-1023 15 0
-1023 18 0
-1023 20 0
-1023 22 0
-1023 23 0
-1023 25 0
1023 -3 -6 -7 -10 -12 -13 -15 -18 -20 -22 -23 -25 0
-1024 4 0
-1024 6 0
-1024 7 0
-1024 10 0
-1024 12 0
-1024 13 0
-1024 15 0
-1024 18 0
-1024 19 0
-1024 22 0
-1024 23 0
-1024 25 0
1024 -4 -6 -7 -10 -12 -13 -15 -18 -19 -22 -23 -25 0
-1025 4 0
-1025 6 0
-1025 7 0
-1025 10 0
-1025 12 0
-1025 13 0
-1025 15 0
-1025 18 0
-1025 20 0
-1025 22 0
-1025 23 0
-1025 25 0
1025 -4 -6 -7 -10 -12 -13 -15 -18 -20 -22 -23 -25 0
-1026 3 0
-1026 6 0
-1026 7 0
-1026 10 0
-1026 11 0
-1026 13 0
-1026 15 0
-1026 18 0
-1026 20 0
-1026 22 0
-1026 23 0
-1026 25 0
1026 -3 -6 -7 -10 -11 -13 -15 -18 -20 -22 -23 -25 0
-1027 4 0
-1027 6 0
-1027 7 0
-1027 10 0
-1027 11 0
-1027 13 0
-1027 15 0
-1027 18 0
-1027 20 0
-1027 22 0
-1027 23 0
-1027 25 0
1027 -4 -6 -7 -10 -11 -13 -15 -18 -20 -22 -23 -25 0
-1028 3 0
-1028 5 0
-1028 7 0
-1028 10 0
-1028 11 0
-1028 13 0
-1028 15 0
-1028 18 0
-1028 20 0
-1028 22 0
-1028 23 0
-1028 25 0
1028 -3 -5 -7 -10 -11 -13 -15 -18 -20 -22 -23 -25 0
-1029 4 0
-1029 6 0
-1029 8 0
-1029 9 0
-1029 11 0
-1029 13 0
-1029 15 0
-1029 18 0
-1029 19 0
-1029 22 0
-1029 23 0
-1029 25 0
1029 -4 -6 -8 -9 -11 -13 -15 -18 -19 -22 -23 -25 0
-1030 4 0
-1030 5 0
-1030 7 0
-1030 10 0
-1030 11 0
-1030 13 0
-1030 15 0
-1030 18 0
-1030 20 0
-1030 22 0
-1030 23 0
-1030 25 0
1030 -4 -5 -7 -10 -11 -13 -15 -18 -20 -22 -23 -25 0
-1031 3 0
-1031 5 0
-1031 8 0
-1031 10 0
-1031 11 0
-1031 13 0
-1031 15 0
-1031 18 0
-1031 20 0
-1031 22 0
-1031 23 0
-1031 25 0
1031 -3 -5 -8 -10 -11 -13 -15 -18 -20 -22 -23 -25 0
-1032 4 0
-1032 5 0
-1032 8 0
-1032 10 0
-1032 11 0
-1032 13 0
-1032 15 0
-1032 18 0
-1032 20 0
-1032 22 0
-1032 23 0
-1032 25 0
1032 -4 -5 -8 -10 -11 -13 -15 -18 -20 -22 -23 -25 0
-1033 3 0
-1033 6 0
-1033 8 0
-1033 10 0
-1033 11 0
-1033 13 0
-1033 15 0
-1033 18 0
-1033 20 0
-1033 22 0
-1033 23 0
-1033 25 0
1033 -3 -6 -8 -10 -11 -13 -15 -18 -20 -22 -23 -25 0
-1034 4 0
-1034 6 0
-1034 8 0
-1034 10 0
-1034 11 0
-1034 13 0
-1034 15 0
-1034 18 0
-1034 19 0
-1034 22 0
-1034 23 0
-1034 25 0
1034 -4 -6 -8 -10 -11 -13 -15 -18 -19 -22 -23 -25 0
-1035 4 0
-1035 6 0
-1035 8 0
-1035 10 0
-1035 11 0
-1035 13 0
-1035 15 0
-1035 18 0
-1035 20 0
-1035 22 0
-1035 23 0
-1035 25 0
1035 -4 -6 -8 -10 -11 -13 -15 -18 -20 -22 -23 -25 0
-1036 3 0
-1036 6 0
-1036 8 0
-1036 9 0
-1036 11 0
-1036 13 0
-1036 15 0
-1036 18 0
-1036 20 0
-1036 22 0
-1036 23 0
-1036 25 0
1036 -3 -6 -8 -9 -11 -13 -15 -18 -20 -22 -23 -25 0
-1037 4 0
-1037 6 0
-1037 8 0
-1037 9 0
-1037 11 0
-1037 13 0
-1037 15 0
-1037 18 0
-1037 20 0
-1037 22 0
-1037 23 0
-1037 25 0
1037 -4 -6 -8 -9 -11 -13 -15 -18 -20 -22 -23 -25 0
-1038 3 0
-1038 5 0
-1038 8 0
-1038 9 0
-1038 11 0
-1038 13 0
-1038 15 0
-1038 18 0
-1038 20 0
-1038 22 0
-1038 23 0
-1038 25 0
1038 -3 -5 -8 -9 -11 -13 -15 -18 -20 -22 -23 -25 0
-1039 4 0
-1039 6 0
-1039 7 0
-1039 9 0
-1039 11 0
-1039 13 0
-1039 15 0
-1039 18 0
-1039 19 0
-1039 22 0
-1039 23 0
-1039 25 0
1039 -4 -6 -7 -9 -11 -13 -15 -18 -19 -22 -23 -25 0
-1040 4 0
-1040 5 0
-1040 8 0
-1040 9 0
-1040 11 0
-1040 13 0
-1040 15 0
-1040 18 0
-1040 20 0
-1040 22 0
-1040 23 0
-1040 25 0
1040 -4 -5 -8 -9 -11 -13 -15 -18 -20 -22 -23 -25 0
-1041 3 0
-1041 5 0
-1041 7 0
-1041 9 0
-1041 11 0
-1041 13 0
-1041 15 0
-1041 18 0
-1041 20 0
-1041 22 0
-1041 23 0
-1041 25 0
1041 -3 -5 -7 -9 -11 -13 -15 -18 -20 -22 -23 -25 0
-1042 4 0
-1042 5 0
-1042 7 0
-1042 9 0
-1042 11 0
-1042 13 0
-1042 15 0
-1042 18 0
-1042 20 0
-1042 22 0
-1042 23 0
-1042 25 0
1042 -4 -5 -7 -9 -11 -13 -15 -18 -20 -22 -23 -25 0
-1043 3 0
-1043 6 0
-1043 7 0
-1043 9 0
-1043 11 0
-1043 13 0
-1043 15 0
-1043 18 0
-1043 20 0
-1043 22 0
-1043 23 0
-1043 25 0
1043 -3 -6 -7 -9 -11 -13 -15 -18 -20 -22 -23 -25 0
-1044 4 0
-1044 6 0
-1044 7 0
-1044 9 0
-1044 11 0
-1044 13 0
-1044 15 0
-1044 18 0
-1044 20 0
-1044 22 0
-1044 23 0
-1044 25 0
1044 -4 -6 -7 -9 -11 -13 -15 -18 -20 -22 -23 -25 0
-1045 3 0
-1045 6 0
-1045 8 0
-1045 10 0
-1045 11 0
-1045 13 0
-1045 15 0
-1045 18 0
-1045 19 0
-1045 22 0
-1045 23 0
-1045 25 0
1045 -3 -6 -8 -10 -11 -13 -15 -18 -19 -22 -23 -25 0
-1046 3 0
-1046 5 0
-1046 8 0
-1046 10 0
-1046 11 0
-1046 13 0
-1046 15 0
-1046 18 0
-1046 19 0
-1046 22 0
-1046 23 0
-1046 25 0
1046 -3 -5 -8 -10 -11 -13 -15 -18 -19 -22 -23 -25 0
-1047 3 0
-1047 6 0
-1047 7 0
-1047 10 0
-1047 12 0
-1047 13 0
-1047 15 0
-1047 18 0
-1047 19 0
-1047 22 0
-1047 23 0
-1047 25 0
1047 -3 -6 -7 -10 -12 -13 -15 -18 -19 -22 -23 -25 0
-1048 3 0
-1048 5 0
-1048 7 0
-1048 10 0
-1048 12 0
-1048 13 0
-1048 15 0
-1048 18 0
-1048 19 0
-1048 22 0
-1048 23 0
-1048 25 0
1048 -3 -5 -7 -10 -12 -13 -15 -18 -19 -22 -23 -25 0
-1049 4 0
-1049 5 0
-1049 7 0
-1049 10 0
-1049 12 0
-1049 13 0
-1049 15 0
-1049 18 0
-1049 19 0
-1049 22 0
-1049 23 0
-1049 25 0
1049 -4 -5 -7 -10 -12 -13 -15 -18 -19 -22 -23 -25 0
-1050 3 0
-1050 5 0
-1050 8 0
-1050 10 0
-1050 12 0
-1050 13 0
-1050 15 0
-1050 18 0
-1050 19 0
-1050 22 0
-1050 23 0
-1050 25 0
1050 -3 -5 -8 -10 -12 -13 -15 -18 -19 -22 -23 -25 0
-1051 4 0
-1051 5 0
-1051 8 0
-1051 10 0
-1051 12 0
-1051 13 0
-1051 15 0
-1051 18 0
-1051 19 0
-1051 22 0
-1051 23 0
-1051 25 0
1051 -4 -5 -8 -10 -12 -13 -15 -18 -19 -22 -23 -25 0
-1052 3 0
-1052 6 0
-1052 8 0
-1052 10 0
-1052 12 0
-1052 13 0
-1052 15 0
-1052 18 0
-1052 19 0
-1052 22 0
-1052 23 0
-1052 25 0
1052 -3 -6 -8 -10 -12 -13 -15 -18 -19 -22 -23 -25 0
-1053 3 0
-1053 6 0
-1053 7 0
-1053 9 0
-1053 12 0
-1053 14 0
-1053 15 0
-1053 18 0
-1053 19 0
-1053 22 0
-1053 23 0
-1053 25 0
1053 -3 -6 -7 -9 -12 -14 -15 -18 -19 -22 -23 -25 0
-1054 3 0
-1054 5 0
-1054 7 0
-1054 9 0
-1054 12 0
-1054 14 0
-1054 15 0
-1054 18 0
-1054 19 0
-1054 22 0
-1054 23 0
-1054 25 0
1054 -3 -5 -7 -9 -12 -14 -15 -18 -19 -22 -23 -25 0
-1055 4 0
-1055 5 0
-1055 7 0
-1055 9 0
-1055 12 0
-1055 14 0
-1055 15 0
-1055 18 0
-1055 19 0
-1055 22 0
-1055 23 0
-1055 25 0
1055 -4 -5 -7 -9 -12 -14 -15 -18 -19 -22 -23 -25 0
-1056 3 0
-1056 5 0
-1056 8 0
-1056 9 0
-1056 12 0
-1056 14 0
-1056 15 0
-1056 18 0
-1056 19 0
-1056 22 0
-1056 23 0
-1056 25 0
1056 -3 -5 -8 -9 -12 -14 -15 -18 -19 -22 -23 -25 0
-1057 4 0
-1057 5 0
-1057 8 0
-1057 9 0
-1057 12 0
-1057 14 0
-1057 15 0
-1057 18 0
-1057 19 0
-1057 22 0
-1057 23 0
-1057 25 0
1057 -4 -5 -8 -9 -12 -14 -15 -18 -19 -22 -23 -25 0
-1058 3 0
-1058 6 0
-1058 8 0
-1058 9 0
-1058 12 0
-1058 14 0
-1058 15 0
-1058 18 0
-1058 19 0
-1058 22 0
-1058 23 0
-1058 25 0
1058 -3 -6 -8 -9 -12 -14 -15 -18 -19 -22 -23 -25 0
-1059 4 0
-1059 6 0
-1059 8 0
-1059 9 0
-1059 12 0
-1059 14 0
-1059 15 0
-1059 18 0
-1059 19 0
-1059 22 0
-1059 23 0
-1059 25 0
1059 -4 -6 -8 -9 -12 -14 -15 -18 -19 -22 -23 -25 0
-1060 3 0
-1060 6 0
-1060 8 0
-1060 10 0
-1060 12 0
-1060 14 0
-1060 15 0
-1060 18 0
-1060 19 0
-1060 22 0
-1060 23 0
-1060 25 0
1060 -3 -6 -8 -10 -12 -14 -15 -18 -19 -22 -23 -25 0
-1061 4 0
-1061 6 0
-1061 8 0
-1061 10 0
-1061 12 0
-1061 14 0
-1061 15 0
-1061 18 0
-1061 19 0
-1061 22 0
-1061 23 0
-1061 25 0
1061 -4 -6 -8 -10 -12 -14 -15 -18 -19 -22 -23 -25 0
-1062 3 0
-1062 5 0
-1062 8 0
-1062 10 0
-1062 12 0
-1062 14 0
-1062 15 0
-1062 18 0
-1062 19 0
-1062 22 0
-1062 23 0
-1062 25 0
1062 -3 -5 -8 -10 -12 -14 -15 -18 -19 -22 -23 -25 0
-1063 4 0
-1063 5 0
-1063 8 0
-1063 10 0
-1063 12 0
-1063 14 0
-1063 15 0
-1063 18 0
-1063 19 0
-1063 22 0
-1063 23 0
-1063 25 0
1063 -4 -5 -8 -10 -12 -14 -15 -18 -19 -22 -23 -25 0
-1064 3 0
-1064 5 0
-1064 7 0
-1064 10 0
-1064 12 0
-1064 14 0
-1064 15 0
-1064 18 0
-1064 19 0
-1064 22 0
-1064 23 0
-1064 25 0
1064 -3 -5 -7 -10 -12 -14 -15 -18 -19 -22 -23 -25 0
-1065 4 0
-1065 5 0
-1065 7 0
-1065 10 0
-1065 12 0
-1065 14 0
-1065 15 0
-1065 18 0
-1065 19 0
-1065 22 0
-1065 23 0
-1065 25 0
1065 -4 -5 -7 -10 -12 -14 -15 -18 -19 -22 -23 -25 0
-1066 3 0
-1066 6 0
-1066 7 0
-1066 10 0
-1066 12 0
-1066 14 0
-1066 15 0
-1066 18 0
-1066 19 0
-1066 22 0
-1066 23 0
-1066 25 0
1066 -3 -6 -7 -10 -12 -14 -15 -18 -19 -22 -23 -25 0
-1067 3 0
-1067 5 0
-1067 8 0
-1067 10 0
-1067 11 0
-1067 14 0
-1067 15 0
-1067 18 0
-1067 19 0
-1067 22 0
-1067 23 0
-1067 25 0
1067 -3 -5 -8 -10 -11 -14 -15 -18 -19 -22 -23 -25 0
-1068 3 0
-1068 6 0
-1068 8 0
-1068 10 0
-1068 11 0
-1068 14 0
-1068 15 0
-1068 18 0
-1068 19 0
-1068 22 0
-1068 23 0
-1068 25 0
1068 -3 -6 -8 -10 -11 -14 -15 -18 -19 -22 -23 -25 0
-1069 3 0
-1069 6 0
-1069 7 0
-1069 9 0
-1069 11 0
-1069 14 0
-1069 16 0
-1069 18 0
-1069 19 0
-1069 22 0
-1069 23 0
-1069 25 0
1069 -3 -6 -7 -9 -11 -14 -16 -18 -19 -22 -23 -25 0
-1070 3 0
-1070 5 0
-1070 7 0
-1070 9 0
-1070 11 0
-1070 14 0
-1070 16 0
-1070 18 0
-1070 19 0
-1070 22 0
-1070 23 0
-1070 25 0
1070 -3 -5 -7 -9 -11 -14 -16 -18 -19 -22 -23 -25 0
-1071 4 0
-1071 5 0
-1071 7 0
-1071 9 0
-1071 11 0
-1071 14 0
-1071 16 0
-1071 18 0
-1071 19 0
-1071 22 0
-1071 23 0
-1071 25 0
1071 -4 -5 -7 -9 -11 -14 -16 -18 -19 -22 -23 -25 0
-1072 3 0
-1072 5 0
-1072 8 0
-1072 9 0
-1072 11 0
-1072 14 0
-1072 16 0
-1072 18 0
-1072 19 0
-1072 22 0
-1072 23 0
-1072 25 0
1072 -3 -5 -8 -9 -11 -14 -16 -18 -19 -22 -23 -25 0
-1073 4 0
-1073 5 0
-1073 8 0
-1073 9 0
-1073 11 0
-1073 14 0
-1073 16 0
-1073 18 0
-1073 19 0
-1073 22 0
-1073 23 0
-1073 25 0
1073 -4 -5 -8 -9 -11 -14 -16 -18 -19 -22 -23 -25 0
-1074 3 0
-1074 6 0
-1074 8 0
-1074 9 0
-1074 11 0
-1074 14 0
-1074 16 0
-1074 18 0
-1074 19 0
-1074 22 0
-1074 23 0
-1074 25 0
1074 -3 -6 -8 -9 -11 -14 -16 -18 -19 -22 -23 -25 0
-1075 4 0
-1075 6 0
-1075 8 0
-1075 9 0
-1075 11 0
-1075 14 0
-1075 16 0
-1075 18 0
-1075 19 0
-1075 22 0
-1075 23 0
-1075 25 0
1075 -4 -6 -8 -9 -11 -14 -16 -18 -19 -22 -23 -25 0
-1076 3 0
-1076 6 0
-1076 8 0
-1076 10 0
-1076 11 0
-1076 14 0
-1076 16 0
-1076 18 0
-1076 19 0
-1076 22 0
-1076 23 0
-1076 25 0
1076 -3 -6 -8 -10 -11 -14 -16 -18 -19 -22 -23 -25 0
-1077 4 0
-1077 6 0
-1077 8 0
-1077 10 0
-1077 11 0
-1077 14 0
-1077 16 0
-1077 18 0
-1077 19 0
-1077 22 0
-1077 23 0
-1077 25 0
1077 -4 -6 -8 -10 -11 -14 -16 -18 -19 -22 -23 -25 0
-1078 3 0
-1078 5 0
-1078 8 0
-1078 10 0
-1078 11 0
-1078 14 0
-1078 16 0
-1078 18 0
-1078 19 0
-1078 22 0
-1078 23 0
-1078 25 0
1078 -3 -5 -8 -10 -11 -14 -16 -18 -19 -22 -23 -25 0
-1079 4 0
-1079 5 0
-1079 8 0
-1079 10 0
-1079 11 0
-1079 14 0
-1079 16 0
-1079 18 0
-1079 19 0
-1079 22 0
-1079 23 0
-1079 25 0
1079 -4 -5 -8 -10 -11 -14 -16 -18 -19 -22 -23 -25 0
-1080 3 0
-1080 5 0
-1080 7 0
-1080 10 0
-1080 11 0
-1080 14 0
-1080 16 0
-1080 18 0
-1080 19 0
-1080 22 0
-1080 23 0
-1080 25 0
1080 -3 -5 -7 -10 -11 -14 -16 -18 -19 -22 -23 -25 0
-1081 4 0
-1081 5 0
-1081 7 0
-1081 10 0
-1081 11 0
-1081 14 0
-1081 16 0
-1081 18 0
-1081 19 0
-1081 22 0
-1081 23 0
-1081 25 0
1081 -4 -5 -7 -10 -11 -14 -16 -18 -19 -22 -23 -25 0
-1082 3 0
-1082 6 0
-1082 7 0
-1082 10 0
-1082 11 0
-1082 14 0
-1082 16 0
-1082 18 0
-1082 19 0
-1082 22 0
-1082 23 0
-1082 25 0
1082 -3 -6 -7 -10 -11 -14 -16 -18 -19 -22 -23 -25 0
-1083 4 0
-1083 6 0
-1083 7 0
-1083 10 0
-1083 11 0
-1083 14 0
-1083 16 0
-1083 18 0
-1083 19 0
-1083 22 0
-1083 23 0
-1083 25 0
1083 -4 -6 -7 -10 -11 -14 -16 -18 -19 -22 -23 -25 0
-1084 3 0
-1084 6 0
-1084 7 0
-1084 10 0
-1084 12 0
-1084 14 0
-1084 16 0
-1084 18 0
-1084 19 0
-1084 22 0
-1084 23 0
-1084 25 0
1084 -3 -6 -7 -10 -12 -14 -16 -18 -19 -22 -23 -25 0
-1085 4 0
-1085 6 0
-1085 7 0
-1085 10 0
-1085 12 0
-1085 14 0
-1085 16 0
-1085 18 0
-1085 19 0
-1085 22 0
-1085 23 0
-1085 25 0
1085 -4 -6 -7 -10 -12 -14 -16 -18 -19 -22 -23 -25 0
-1086 3 0
-1086 5 0
-1086 7 0
-1086 10 0
-1086 12 0
-1086 14 0
-1086 16 0
-1086 18 0
-1086 19 0
-1086 22 0
-1086 23 0
-1086 25 0
1086 -3 -5 -7 -10 -12 -14 -16 -18 -19 -22 -23 -25 0
-1087 4 0
-1087 6 0
-1087 8 0
-1087 9 0
-1087 12 0
-1087 13 0
-1087 16 0
-1087 17 0
-1087 19 0
-1087 22 0
-1087 23 0
-1087 25 0
1087 -4 -6 -8 -9 -12 -13 -16 -17 -19 -22 -23 -25 0
-1088 4 0
-1088 5 0
-1088 7 0
-1088 10 0
-1088 12 0
-1088 14 0
-1088 16 0
-1088 18 0
-1088 19 0
-1088 22 0
-1088 23 0
-1088 25 0
1088 -4 -5 -7 -10 -12 -14 -16 -18 -19 -22 -23 -25 0
-1089 3 0
-1089 5 0
-1089 8 0
-1089 10 0
-1089 12 0
-1089 14 0
-1089 16 0
-1089 18 0
-1089 19 0
-1089 22 0
-1089 23 0
-1089 25 0
1089 -3 -5 -8 -10 -12 -14 -16 -18 -19 -22 -23 -25 0
-1090 4 0
-1090 5 0
-1090 8 0
-1090 10 0
-1090 12 0
-1090 14 0
-1090 16 0
-1090 18 0
-1090 19 0
-1090 22 0
-1090 23 0
-1090 25 0
1090 -4 -5 -8 -10 -12 -14 -16 -18 -19 -22 -23 -25 0
-1091 3 0
-1091 6 0
-1091 8 0
-1091 10 0
-1091 12 0
-1091 14 0
-1091 16 0
-1091 18 0
-1091 19 0
-1091 22 0
-1091 23 0
-1091 25 0
1091 -3 -6 -8 -10 -12 -14 -16 -18 -19 -22 -23 -25 0
-1092 4 0
-1092 6 0
-1092 8 0
-1092 10 0
-1092 12 0
-1092 13 0
-1092 16 0
-1092 17 0
-1092 19 0
-1092 22 0
-1092 23 0
-1092 25 0
1092 -4 -6 -8 -10 -12 -13 -16 -17 -19 -22 -23 -25 0
-1093 4 0
-1093 6 0
-1093 8 0
-1093 10 0
-1093 12 0
-1093 14 0
-1093 16 0
-1093 18 0
-1093 19 0
-1093 22 0
-1093 23 0
-1093 25 0
1093 -4 -6 -8 -10 -12 -14 -16 -18 -19 -22 -23 -25 0
-1094 3 0
-1094 6 0
-1094 8 0
-1094 9 0
-1094 12 0
-1094 14 0
-1094 16 0
-1094 18 0
-1094 19 0
-1094 22 0
-1094 23 0
-1094 25 0
1094 -3 -6 -8 -9 -12 -14 -16 -18 -19 -22 -23 -25 0
-1095 4 0
-1095 6 0
-1095 8 0
-1095 9 0
-1095 12 0
-1095 14 0
-1095 16 0
-1095 18 0
-1095 19 0
-1095 22 0
-1095 23 0
-1095 25 0
1095 -4 -6 -8 -9 -12 -14 -16 -18 -19 -22 -23 -25 0
-1096 3 0
-1096 5 0
-1096 8 0
-1096 9 0
-1096 12 0
-1096 14 0
-1096 16 0
-1096 18 0
-1096 19 0
-1096 22 0
-1096 23 0
-1096 25 0
1096 -3 -5 -8 -9 -12 -14 -16 -18 -19 -22 -23 -25 0
-1097 4 0
-1097 5 0
-1097 8 0
-1097 9 0
-1097 12 0
-1097 14 0
-1097 16 0
-1097 18 0
-1097 19 0
-1097 22 0
-1097 23 0
-1097 25 0
1097 -4 -5 -8 -9 -12 -14 -16 -18 -19 -22 -23 -25 0
-1098 3 0
-1098 5 0
-1098 7 0
-1098 9 0
-1098 12 0
-1098 14 0
-1098 16 0
-1098 18 0
-1098 19 0
-1098 22 0
-1098 23 0
-1098 25 0
1098 -3 -5 -7 -9 -12 -14 -16 -18 -19 -22 -23 -25 0
-1099 4 0
-1099 5 0
-1099 7 0
-1099 9 0
-1099 12 0
-1099 14 0
-1099 16 0
-1099 18 0
-1099 19 0
-1099 22 0
-1099 23 0
-1099 25 0
1099 -4 -5 -7 -9 -12 -14 -16 -18 -19 -22 -23 -25 0
-1100 3 0
-1100 6 0
-1100 7 0
-1100 9 0
-1100 12 0
-1100 14 0
-1100 16 0
-1100 18 0
-1100 19 0
-1100 22 0
-1100 23 0
-1100 25 0
1100 -3 -6 -7 -9 -12 -14 -16 -18 -19 -22 -23 -25 0
-1101 4 0
-1101 6 0
-1101 7 0
-1101 9 0
-1101 12 0
-1101 14 0
-1101 16 0
-1101 18 0
-1101 19 0
-1101 22 0
-1101 23 0
-1101 25 0
1101 -4 -6 -7 -9 -12 -14 -16 -18 -19 -22 -23 -25 0
-1102 3 0
-1102 6 0
-1102 7 0
-1102 9 0
-1102 12 0
-1102 13 0
-1102 16 0
-1102 18 0
-1102 19 0
-1102 22 0
-1102 23 0
-1102 25 0
1102 -3 -6 -7 -9 -12 -13 -16 -18 -19 -22 -23 -25 0
-1103 4 0
-1103 6 0
-1103 7 0
-1103 9 0
-1103 12 0
-1103 13 0
-1103 16 0
-1103 18 0
-1103 19 0
-1103 22 0
-1103 23 0
-1103 25 0
1103 -4 -6 -7 -9 -12 -13 -16 -18 -19 -22 -23 -25 0
-1104 3 0
-1104 5 0
-1104 7 0
-1104 9 0
-1104 12 0
-1104 13 0
-1104 16 0
-1104 18 0
-1104 19 0
-1104 22 0
-1104 23 0
-1104 25 0
1104 -3 -5 -7 -9 -12 -13 -16 -18 -19 -22 -23 -25 0
-1105 4 0
-1105 5 0
-1105 7 0
-1105 9 0
-1105 12 0
-1105 13 0
-1105 16 0
-1105 18 0
-1105 19 0
-1105 22 0
-1105 23 0
-1105 25 0
1105 -4 -5 -7 -9 -12 -13 -16 -18 -19 -22 -23 -25 0
-1106 3 0
-1106 5 0
-1106 8 0
-1106 9 0
-1106 12 0
-1106 13 0
-1106 16 0
-1106 18 0
-1106 19 0
-1106 22 0
-1106 23 0
-1106 25 0
1106 -3 -5 -8 -9 -12 -13 -16 -18 -19 -22 -23 -25 0
-1107 4 0
-1107 5 0
-1107 8 0
-1107 9 0
-1107 12 0
-1107 13 0
-1107 16 0
-1107 18 0
-1107 19 0
-1107 22 0
-1107 23 0
-1107 25 0
1107 -4 -5 -8 -9 -12 -13 -16 -18 -19 -22 -23 -25 0
-1108 3 0
-1108 6 0
-1108 8 0
-1108 9 0
-1108 12 0
-1108 13 0
-1108 16 0
-1108 18 0
-1108 19 0
-1108 22 0
-1108 23 0
-1108 25 0
1108 -3 -6 -8 -9 -12 -13 -16 -18 -19 -22 -23 -25 0
-1109 4 0
-1109 6 0
-1109 8 0
-1109 9 0
-1109 12 0
-1109 13 0
-1109 16 0
-1109 18 0
-1109 19 0
-1109 22 0
-1109 23 0
-1109 25 0
1109 -4 -6 -8 -9 -12 -13 -16 -18 -19 -22 -23 -25 0
-1110 3 0
-1110 6 0
-1110 8 0
-1110 10 0
-1110 12 0
-1110 13 0
-1110 16 0
-1110 18 0
-1110 19 0
-1110 22 0
-1110 23 0
-1110 25 0
1110 -3 -6 -8 -10 -12 -13 -16 -18 -19 -22 -23 -25 0
-1111 4 0
-1111 6 0
-1111 8 0
-1111 10 0
-1111 12 0
-1111 13 0
-1111 16 0
-1111 18 0
-1111 19 0
-1111 22 0
-1111 23 0
-1111 25 0
1111 -4 -6 -8 -10 -12 -13 -16 -18 -19 -22 -23 -25 0
-1112 3 0
-1112 5 0
-1112 8 0
-1112 10 0
-1112 12 0
-1112 13 0
-1112 16 0
-1112 18 0
-1112 19 0
-1112 22 0
-1112 23 0
-1112 25 0
1112 -3 -5 -8 -10 -12 -13 -16 -18 -19 -22 -23 -25 0
-1113 4 0
-1113 5 0
-1113 8 0
-1113 10 0
-1113 12 0
-1113 13 0
-1113 16 0
-1113 18 0
-1113 19 0
-1113 22 0
-1113 23 0
-1113 25 0
1113 -4 -5 -8 -10 -12 -13 -16 -18 -19 -22 -23 -25 0
-1114 3 0
-1114 5 0
-1114 7 0
-1114 10 0
-1114 12 0
-1114 13 0
-1114 16 0
-1114 18 0
-1114 19 0
-1114 22 0
-1114 23 0
-1114 25 0
1114 -3 -5 -7 -10 -12 -13 -16 -18 -19 -22 -23 -25 0
-1115 4 0
-1115 5 0
-1115 7 0
-1115 10 0
-1115 12 0
-1115 13 0
-1115 16 0
-1115 18 0
-1115 19 0
-1115 22 0
-1115 23 0
-1115 25 0
1115 -4 -5 -7 -10 -12 -13 -16 -18 -19 -22 -23 -25 0
-1116 3 0
-1116 6 0
-1116 7 0
-1116 10 0
-1116 12 0
-1116 13 0
-1116 16 0
-1116 18 0
-1116 19 0
-1116 22 0
-1116 23 0
-1116 25 0
1116 -3 -6 -7 -10 -12 -13 -16 -18 -19 -22 -23 -25 0
-1117 4 0
-1117 6 0
-1117 7 0
-1117 10 0
-1117 12 0
-1117 13 0
-1117 16 0
-1117 18 0
-1117 19 0
-1117 22 0
-1117 23 0
-1117 25 0
1117 -4 -6 -7 -10 -12 -13 -16 -18 -19 -22 -23 -25 0
-1118 3 0
-1118 6 0
-1118 7 0
-1118 10 0
-1118 11 0
-1118 13 0
-1118 16 0
-1118 18 0
-1118 19 0
-1118 22 0
-1118 23 0
-1118 25 0
1118 -3 -6 -7 -10 -11 -13 -16 -18 -19 -22 -23 -25 0
-1119 4 0
-1119 6 0
-1119 7 0
-1119 10 0
-1119 11 0
-1119 13 0
-1119 16 0
-1119 18 0
-1119 19 0
-1119 22 0
-1119 23 0
-1119 25 0
1119 -4 -6 -7 -10 -11 -13 -16 -18 -19 -22 -23 -25 0
-1120 3 0
-1120 5 0
-1120 7 0
-1120 10 0
-1120 11 0
-1120 13 0
-1120 16 0
-1120 18 0
-1120 19 0
-1120 22 0
-1120 23 0
-1120 25 0
1120 -3 -5 -7 -10 -11 -13 -16 -18 -19 -22 -23 -25 0
-1121 4 0
-1121 5 0
-1121 7 0
-1121 10 0
-1121 11 0
-1121 13 0
-1121 16 0
-1121 18 0
-1121 19 0
-1121 22 0
-1121 23 0
-1121 25 0
1121 -4 -5 -7 -10 -11 -13 -16 -18 -19 -22 -23 -25 0
-1122 3 0
-1122 5 0
-1122 8 0
-1122 10 0
-1122 11 0
-1122 13 0
-1122 16 0
-1122 18 0
-1122 19 0
-1122 22 0
-1122 23 0
-1122 25 0
1122 -3 -5 -8 -10 -11 -13 -16 -18 -19 -22 -23 -25 0
-1123 4 0
-1123 5 0
-1123 8 0
-1123 10 0
-1123 11 0
-1123 13 0
-1123 16 0
-1123 18 0
-1123 19 0
-1123 22 0
-1123 23 0
-1123 25 0
1123 -4 -5 -8 -10 -11 -13 -16 -18 -19 -22 -23 -25 0
-1124 3 0
-1124 6 0
-1124 8 0
-1124 10 0
-1124 11 0
-1124 13 0
-1124 16 0
-1124 18 0
-1124 19 0
-1124 22 0
-1124 23 0
-1124 25 0
1124 -3 -6 -8 -10 -11 -13 -16 -18 -19 -22 -23 -25 0
-1125 4 0
-1125 6 0
-1125 8 0
-1125 10 0
-1125 11 0
-1125 13 0
-1125 16 0
-1125 18 0
-1125 19 0
-1125 22 0
-1125 23 0
-1125 25 0
1125 -4 -6 -8 -10 -11 -13 -16 -18 -19 -22 -23 -25 0
-1126 3 0
-1126 6 0
-1126 8 0
-1126 9 0
-1126 11 0
-1126 13 0
-1126 16 0
-1126 18 0
-1126 19 0
-1126 22 0
-1126 23 0
-1126 25 0
1126 -3 -6 -8 -9 -11 -13 -16 -18 -19 -22 -23 -25 0
-1127 4 0
-1127 6 0
-1127 8 0
-1127 9 0
-1127 11 0
-1127 13 0
-1127 16 0
-1127 18 0
-1127 19 0
-1127 22 0
-1127 23 0
-1127 25 0
1127 -4 -6 -8 -9 -11 -13 -16 -18 -19 -22 -23 -25 0
-1128 3 0
-1128 5 0
-1128 8 0
-1128 9 0
-1128 11 0
-1128 13 0
-1128 16 0
-1128 18 0
-1128 19 0
-1128 22 0
-1128 23 0
-1128 25 0
1128 -3 -5 -8 -9 -11 -13 -16 -18 -19 -22 -23 -25 0
-1129 4 0
-1129 5 0
-1129 8 0
-1129 9 0
-1129 11 0
-1129 13 0
-1129 16 0
-1129 18 0
-1129 19 0
-1129 22 0
-1129 23 0
-1129 25 0
1129 -4 -5 -8 -9 -11 -13 -16 -18 -19 -22 -23 -25 0
-1130 3 0
-1130 5 0
-1130 7 0
-1130 9 0
-1130 11 0
-1130 13 0
-1130 16 0
-1130 18 0
-1130 19 0
-1130 22 0
-1130 23 0
-1130 25 0
1130 -3 -5 -7 -9 -11 -13 -16 -18 -19 -22 -23 -25 0
-1131 4 0
-1131 5 0
-1131 7 0
-1131 9 0
-1131 11 0
-1131 13 0
-1131 16 0
-1131 18 0
-1131 19 0
-1131 22 0
-1131 23 0
-1131 25 0
1131 -4 -5 -7 -9 -11 -13 -16 -18 -19 -22 -23 -25 0
-1132 3 0
-1132 6 0
-1132 7 0
-1132 9 0
-1132 11 0
-1132 13 0
-1132 16 0
-1132 18 0
-1132 19 0
-1132 22 0
-1132 23 0
-1132 25 0
1132 -3 -6 -7 -9 -11 -13 -16 -18 -19 -22 -23 -25 0
-1133 4 0
-1133 6 0
-1133 7 0
-1133 9 0
-1133 11 0
-1133 13 0
-1133 16 0
-1133 18 0
-1133 19 0
-1133 22 0
-1133 23 0
-1133 25 0
1133 -4 -6 -7 -9 -11 -13 -16 -18 -19 -22 -23 -25 0
-1134 3 0
-1134 6 0
-1134 8 0
-1134 10 0
-1134 11 0
-1134 13 0
-1134 16 0
-1134 17 0
-1134 19 0
-1134 22 0
-1134 23 0
-1134 25 0
1134 -3 -6 -8 -10 -11 -13 -16 -17 -19 -22 -23 -25 0
-1135 3 0
-1135 5 0
-1135 8 0
-1135 10 0
-1135 11 0
-1135 13 0
-1135 16 0
-1135 17 0
-1135 19 0
-1135 22 0
-1135 23 0
-1135 25 0
1135 -3 -5 -8 -10 -11 -13 -16 -17 -19 -22 -23 -25 0
-1136 3 0
-1136 6 0
-1136 7 0
-1136 10 0
-1136 12 0
-1136 13 0
-1136 16 0
-1136 17 0
-1136 19 0
-1136 22 0
-1136 23 0
-1136 25 0
1136 -3 -6 -7 -10 -12 -13 -16 -17 -19 -22 -23 -25 0
-1137 3 0
-1137 5 0
-1137 7 0
-1137 10 0
-1137 12 0
-1137 13 0
-1137 16 0
-1137 17 0
-1137 19 0
-1137 22 0
-1137 23 0
-1137 25 0
1137 -3 -5 -7 -10 -12 -13 -16 -17 -19 -22 -23 -25 0
-1138 4 0
-1138 5 0
-1138 7 0
-1138 10 0
-1138 12 0
-1138 13 0
-1138 16 0
-1138 17 0
-1138 19 0
-1138 22 0
-1138 23 0
-1138 25 0
1138 -4 -5 -7 -10 -12 -13 -16 -17 -19 -22 -23 -25 0
-1139 3 0
-1139 5 0
-1139 8 0
-1139 10 0
-1139 12 0
-1139 13 0
-1139 16 0
-1139 17 0
-1139 19 0
-1139 22 0
-1139 23 0
-1139 25 0
1139 -3 -5 -8 -10 -12 -13 -16 -17 -19 -22 -23 -25 0
-1140 4 0
-1140 5 0
-1140 8 0
-1140 10 0
-1140 12 0
-1140 13 0
-1140 16 0
-1140 17 0
-1140 19 0
-1140 22 0
-1140 23 0
-1140 25 0
1140 -4 -5 -8 -10 -12 -13 -16 -17 -19 -22 -23 -25 0
-1141 3 0
-1141 6 0
-1141 8 0
-1141 10 0
-1141 12 0
-1141 13 0
-1141 16 0
-1141 17 0
-1141 19 0
-1141 22 0
-1141 23 0
-1141 25 0
1141 -3 -6 -8 -10 -12 -13 -16 -17 -19 -22 -23 -25 0
-1142 3 0
-1142 6 0
-1142 7 0
-1142 9 0
-1142 12 0
-1142 14 0
-1142 16 0
-1142 17 0
-1142 19 0
-1142 22 0
-1142 23 0
-1142 25 0
1142 -3 -6 -7 -9 -12 -14 -16 -17 -19 -22 -23 -25 0
-1143 3 0
-1143 5 0
-1143 7 0
-1143 9 0
-1143 12 0
-1143 14 0
-1143 16 0
-1143 17 0
-1143 19 0
-1143 22 0
-1143 23 0
-1143 25 0
1143 -3 -5 -7 -9 -12 -14 -16 -17 -19 -22 -23 -25 0
-1144 4 0
-1144 5 0
-1144 7 0
-1144 9 0
-1144 12 0
-1144 14 0
-1144 16 0
-1144 17 0
-1144 19 0
-1144 22 0
-1144 23 0
-1144 25 0
1144 -4 -5 -7 -9 -12 -14 -16 -17 -19 -22 -23 -25 0
-1145 3 0
-1145 5 0
-1145 8 0
-1145 9 0
-1145 12 0
-1145 14 0
-1145 16 0
-1145 17 0
-1145 19 0
-1145 22 0
-1145 23 0
-1145 25 0
1145 -3 -5 -8 -9 -12 -14 -16 -17 -19 -22 -23 -25 0
-1146 4 0
-1146 5 0
-1146 8 0
-1146 9 0
-1146 12 0
-1146 14 0
-1146 16 0
-1146 17 0
-1146 19 0
-1146 22 0
-1146 23 0
-1146 25 0
1146 -4 -5 -8 -9 -12 -14 -16 -17 -19 -22 -23 -25 0
-1147 3 0
-1147 6 0
-1147 8 0
-1147 9 0
-1147 12 0
-1147 14 0
-1147 16 0
-1147 17 0
-1147 19 0
-1147 22 0
-1147 23 0
-1147 25 0
1147 -3 -6 -8 -9 -12 -14 -16 -17 -19 -22 -23 -25 0
-1148 4 0
-1148 6 0
-1148 8 0
-1148 9 0
-1148 12 0
-1148 14 0
-1148 16 0
-1148 17 0
-1148 19 0
-1148 22 0
-1148 23 0
-1148 25 0
1148 -4 -6 -8 -9 -12 -14 -16 -17 -19 -22 -23 -25 0
-1149 3 0
-1149 6 0
-1149 8 0
-1149 10 0
-1149 12 0
-1149 14 0
-1149 16 0
-1149 17 0
-1149 19 0
-1149 22 0
-1149 23 0
-1149 25 0
1149 -3 -6 -8 -10 -12 -14 -16 -17 -19 -22 -23 -25 0
-1150 4 0
-1150 6 0
-1150 8 0
-1150 10 0
-1150 12 0
-1150 14 0
-1150 16 0
-1150 17 0
-1150 19 0
-1150 22 0
-1150 23 0
-1150 25 0
1150 -4 -6 -8 -10 -12 -14 -16 -17 -19 -22 -23 -25 0
-1151 3 0
-1151 5 0
-1151 8 0
-1151 10 0
-1151 12 0
-1151 14 0
-1151 16 0
-1151 17 0
-1151 19 0
-1151 22 0
-1151 23 0
-1151 25 0
1151 -3 -5 -8 -10 -12 -14 -16 -17 -19 -22 -23 -25 0
-1152 4 0
-1152 5 0
-1152 8 0
-1152 10 0
-1152 12 0
-1152 14 0
-1152 16 0
-1152 17 0
-1152 19 0
-1152 22 0
-1152 23 0
-1152 25 0
1152 -4 -5 -8 -10 -12 -14 -16 -17 -19 -22 -23 -25 0
-1153 3 0
-1153 5 0
-1153 7 0
-1153 10 0
-1153 12 0
-1153 14 0
-1153 16 0
-1153 17 0
-1153 19 0
-1153 22 0
-1153 23 0
-1153 25 0
1153 -3 -5 -7 -10 -12 -14 -16 -17 -19 -22 -23 -25 0
-1154 4 0
-1154 5 0
-1154 7 0
-1154 10 0
-1154 12 0
-1154 14 0
-1154 16 0
-1154 17 0
-1154 19 0
-1154 22 0
-1154 23 0
-1154 25 0
1154 -4 -5 -7 -10 -12 -14 -16 -17 -19 -22 -23 -25 0
-1155 3 0
-1155 6 0
-1155 7 0
-1155 10 0
-1155 12 0
-1155 14 0
-1155 16 0
-1155 17 0
-1155 19 0
-1155 22 0
-1155 23 0
-1155 25 0
1155 -3 -6 -7 -10 -12 -14 -16 -17 -19 -22 -23 -25 0
-1156 4 0
-1156 6 0
-1156 7 0
-1156 10 0
-1156 12 0
-1156 14 0
-1156 16 0
-1156 17 0
-1156 19 0
-1156 22 0
-1156 23 0
-1156 25 0
1156 -4 -6 -7 -10 -12 -14 -16 -17 -19 -22 -23 -25 0
-1157 3 0
-1157 6 0
-1157 7 0
-1157 10 0
-1157 11 0
-1157 14 0
-1157 16 0
-1157 17 0
-1157 19 0
-1157 22 0
-1157 23 0
-1157 25 0
1157 -3 -6 -7 -10 -11 -14 -16 -17 -19 -22 -23 -25 0
-1158 4 0
-1158 6 0
-1158 7 0
-1158 10 0
-1158 11 0
-1158 14 0
-1158 16 0
-1158 17 0
-1158 19 0
-1158 22 0
-1158 23 0
-1158 25 0
1158 -4 -6 -7 -10 -11 -14 -16 -17 -19 -22 -23 -25 0
-1159 3 0
-1159 5 0
-1159 7 0
-1159 10 0
-1159 11 0
-1159 14 0
-1159 16 0
-1159 17 0
-1159 19 0
-1159 22 0
-1159 23 0
-1159 25 0
1159 -3 -5 -7 -10 -11 -14 -16 -17 -19 -22 -23 -25 0
-1160 4 0
-1160 5 0
-1160 7 0
-1160 10 0
-1160 11 0
-1160 14 0
-1160 16 0
-1160 17 0
-1160 19 0
-1160 22 0
-1160 23 0
-1160 25 0
1160 -4 -5 -7 -10 -11 -14 -16 -17 -19 -22 -23 -25 0
-1161 3 0
-1161 5 0
-1161 8 0
-1161 10 0
-1161 11 0
-1161 14 0
-1161 16 0
-1161 17 0
-1161 19 0
-1161 22 0
-1161 23 0
-1161 25 0
1161 -3 -5 -8 -10 -11 -14 -16 -17 -19 -22 -23 -25 0
-1162 4 0
-1162 5 0
-1162 8 0
-1162 10 0
-1162 11 0
-1162 14 0
-1162 16 0
-1162 17 0
-1162 19 0
-1162 22 0
-1162 23 0
-1162 25 0
1162 -4 -5 -8 -10 -11 -14 -16 -17 -19 -22 -23 -25 0
-1163 3 0
-1163 6 0
-1163 8 0
-1163 10 0
-1163 11 0
-1163 14 0
-1163 16 0
-1163 17 0
-1163 19 0
-1163 22 0
-1163 23 0
-1163 25 0
1163 -3 -6 -8 -10 -11 -14 -16 -17 -19 -22 -23 -25 0
-1164 4 0
-1164 6 0
-1164 8 0
-1164 10 0
-1164 11 0
-1164 14 0
-1164 16 0
-1164 17 0
-1164 19 0
-1164 22 0
-1164 23 0
-1164 25 0
1164 -4 -6 -8 -10 -11 -14 -16 -17 -19 -22 -23 -25 0
-1165 3 0
-1165 6 0
-1165 8 0
-1165 9 0
-1165 11 0
-1165 14 0
-1165 16 0
-1165 17 0
-1165 19 0
-1165 22 0
-1165 23 0
-1165 25 0
1165 -3 -6 -8 -9 -11 -14 -16 -17 -19 -22 -23 -25 0
-1166 4 0
-1166 6 0
-1166 8 0
-1166 9 0
-1166 11 0
-1166 14 0
-1166 16 0
-1166 17 0
-1166 19 0
-1166 22 0
-1166 23 0
-1166 25 0
1166 -4 -6 -8 -9 -11 -14 -16 -17 -19 -22 -23 -25 0
-1167 3 0
-1167 5 0
-1167 8 0
-1167 9 0
-1167 11 0
-1167 14 0
-1167 16 0
-1167 17 0
-1167 19 0
-1167 22 0
-1167 23 0
-1167 25 0
1167 -3 -5 -8 -9 -11 -14 -16 -17 -19 -22 -23 -25 0
-1168 4 0
-1168 5 0
-1168 8 0
-1168 9 0
-1168 11 0
-1168 14 0
-1168 16 0
-1168 17 0
-1168 19 0
-1168 22 0
-1168 23 0
-1168 25 0
1168 -4 -5 -8 -9 -11 -14 -16 -17 -19 -22 -23 -25 0
-1169 3 0
-1169 5 0
-1169 7 0
-1169 9 0
-1169 11 0
-1169 14 0
-1169 16 0
-1169 17 0
-1169 19 0
-1169 22 0
-1169 23 0
-1169 25 0
1169 -3 -5 -7 -9 -11 -14 -16 -17 -19 -22 -23 -25 0
-1170 4 0
-1170 5 0
-1170 7 0
-1170 9 0
-1170 11 0
-1170 14 0
-1170 16 0
-1170 17 0
-1170 19 0
-1170 22 0
-1170 23 0
-1170 25 0
1170 -4 -5 -7 -9 -11 -14 -16 -17 -19 -22 -23 -25 0
-1171 3 0
-1171 6 0
-1171 7 0
-1171 9 0
-1171 11 0
-1171 14 0
-1171 16 0
-1171 17 0
-1171 19 0
-1171 22 0
-1171 23 0
-1171 25 0
1171 -3 -6 -7 -9 -11 -14 -16 -17 -19 -22 -23 -25 0
-1172 4 0
-1172 6 0
-1172 7 0
-1172 9 0
-1172 11 0
-1172 14 0
-1172 16 0
-1172 17 0
-1172 19 0
-1172 22 0
-1172 23 0
-1172 25 0
1172 -4 -6 -7 -9 -11 -14 -16 -17 -19 -22 -23 -25 0
-1173 3 0
-1173 6 0
-1173 8 0
-1173 10 0
-1173 11 0
-1173 14 0
-1173 15 0
-1173 17 0
-1173 19 0
-1173 22 0
-1173 23 0
-1173 25 0
1173 -3 -6 -8 -10 -11 -14 -15 -17 -19 -22 -23 -25 0
-1174 3 0
-1174 5 0
-1174 8 0
-1174 10 0
-1174 11 0
-1174 14 0
-1174 15 0
-1174 17 0
-1174 19 0
-1174 22 0
-1174 23 0
-1174 25 0
1174 -3 -5 -8 -10 -11 -14 -15 -17 -19 -22 -23 -25 0
-1175 3 0
-1175 6 0
-1175 7 0
-1175 10 0
-1175 12 0
-1175 14 0
-1175 15 0
-1175 17 0
-1175 19 0
-1175 22 0
-1175 23 0
-1175 25 0
1175 -3 -6 -7 -10 -12 -14 -15 -17 -19 -22 -23 -25 0
-1176 3 0
-1176 5 0
-1176 7 0
-1176 10 0
-1176 12 0
-1176 14 0
-1176 15 0
-1176 17 0
-1176 19 0
-1176 22 0
-1176 23 0
-1176 25 0
1176 -3 -5 -7 -10 -12 -14 -15 -17 -19 -22 -23 -25 0
-1177 4 0
-1177 6 0
-1177 8 0
-1177 9 0
-1177 12 0
-1177 13 0
-1177 15 0
-1177 17 0
-1177 19 0
-1177 22 0
-1177 23 0
-1177 25 0
1177 -4 -6 -8 -9 -12 -13 -15 -17 -19 -22 -23 -25 0
-1178 4 0
-1178 5 0
-1178 7 0
-1178 10 0
-1178 12 0
-1178 14 0
-1178 15 0
-1178 17 0
-1178 19 0
-1178 22 0
-1178 23 0
-1178 25 0
1178 -4 -5 -7 -10 -12 -14 -15 -17 -19 -22 -23 -25 0
-1179 3 0
-1179 5 0
-1179 8 0
-1179 10 0
-1179 12 0
-1179 14 0
-1179 15 0
-1179 17 0
-1179 19 0
-1179 22 0
-1179 23 0
-1179 25 0
1179 -3 -5 -8 -10 -12 -14 -15 -17 -19 -22 -23 -25 0
-1180 4 0
-1180 5 0
-1180 8 0
-1180 10 0
-1180 12 0
-1180 14 0
-1180 15 0
-1180 17 0
-1180 19 0
-1180 22 0
-1180 23 0
-1180 25 0
1180 -4 -5 -8 -10 -12 -14 -15 -17 -19 -22 -23 -25 0
-1181 3 0
-1181 6 0
-1181 8 0
-1181 10 0
-1181 12 0
-1181 14 0
-1181 15 0
-1181 17 0
-1181 19 0
-1181 22 0
-1181 23 0
-1181 25 0
1181 -3 -6 -8 -10 -12 -14 -15 -17 -19 -22 -23 -25 0
-1182 4 0
-1182 6 0
-1182 8 0
-1182 10 0
-1182 12 0
-1182 13 0
-1182 15 0
-1182 17 0
-1182 19 0
-1182 22 0
-1182 23 0
-1182 25 0
1182 -4 -6 -8 -10 -12 -13 -15 -17 -19 -22 -23 -25 0
-1183 4 0
-1183 6 0
-1183 8 0
-1183 10 0
-1183 12 0
-1183 14 0
-1183 15 0
-1183 17 0
-1183 19 0
-1183 22 0
-1183 23 0
-1183 25 0
1183 -4 -6 -8 -10 -12 -14 -15 -17 -19 -22 -23 -25 0
-1184 3 0
-1184 6 0
-1184 8 0
-1184 9 0
-1184 12 0
-1184 14 0
-1184 15 0
-1184 17 0
-1184 19 0
-1184 22 0
-1184 23 0
-1184 25 0
1184 -3 -6 -8 -9 -12 -14 -15 -17 -19 -22 -23 -25 0
-1185 4 0
-1185 6 0
-1185 8 0
-1185 9 0
-1185 12 0
-1185 14 0
-1185 15 0
-1185 17 0
-1185 19 0
-1185 22 0
-1185 23 0
-1185 25 0
1185 -4 -6 -8 -9 -12 -14 -15 -17 -19 -22 -23 -25 0
-1186 3 0
-1186 5 0
-1186 8 0
-1186 9 0
-1186 12 0
-1186 14 0
-1186 15 0
-1186 17 0
-1186 19 0
-1186 22 0
-1186 23 0
-1186 25 0
1186 -3 -5 -8 -9 -12 -14 -15 -17 -19 -22 -23 -25 0
-1187 4 0
-1187 5 0
-1187 8 0
-1187 9 0
-1187 12 0
-1187 14 0
-1187 15 0
-1187 17 0
-1187 19 0
-1187 22 0
-1187 23 0
-1187 25 0
1187 -4 -5 -8 -9 -12 -14 -15 -17 -19 -22 -23 -25 0
-1188 3 0
-1188 5 0
-1188 7 0
-1188 9 0
-1188 12 0
-1188 14 0
-1188 15 0
-1188 17 0
-1188 19 0
-1188 22 0
-1188 23 0
-1188 25 0
1188 -3 -5 -7 -9 -12 -14 -15 -17 -19 -22 -23 -25 0
-1189 4 0
-1189 5 0
-1189 7 0
-1189 9 0
-1189 12 0
-1189 14 0
-1189 15 0
-1189 17 0
-1189 19 0
-1189 22 0
-1189 23 0
-1189 25 0
1189 -4 -5 -7 -9 -12 -14 -15 -17 -19 -22 -23 -25 0
-1190 3 0
-1190 6 0
-1190 7 0
-1190 9 0
-1190 12 0
-1190 14 0
-1190 15 0
-1190 17 0
-1190 19 0
-1190 22 0
-1190 23 0
-1190 25 0
1190 -3 -6 -7 -9 -12 -14 -15 -17 -19 -22 -23 -25 0
-1191 4 0
-1191 6 0
-1191 7 0
-1191 9 0
-1191 12 0
-1191 14 0
-1191 15 0
-1191 17 0
-1191 19 0
-1191 22 0
-1191 23 0
-1191 25 0
1191 -4 -6 -7 -9 -12 -14 -15 -17 -19 -22 -23 -25 0
-1192 3 0
-1192 6 0
-1192 8 0
-1192 10 0
-1192 12 0
-1192 13 0
-1192 15 0
-1192 17 0
-1192 19 0
-1192 22 0
-1192 23 0
-1192 25 0
1192 -3 -6 -8 -10 -12 -13 -15 -17 -19 -22 -23 -25 0
-1193 3 0
-1193 5 0
-1193 8 0
-1193 10 0
-1193 12 0
-1193 13 0
-1193 15 0
-1193 17 0
-1193 19 0
-1193 22 0
-1193 23 0
-1193 25 0
1193 -3 -5 -8 -10 -12 -13 -15 -17 -19 -22 -23 -25 0
-1194 4 0
-1194 5 0
-1194 8 0
-1194 10 0
-1194 12 0
-1194 13 0
-1194 15 0
-1194 17 0
-1194 19 0
-1194 22 0
-1194 23 0
-1194 25 0
1194 -4 -5 -8 -10 -12 -13 -15 -17 -19 -22 -23 -25 0
-1195 3 0
-1195 5 0
-1195 7 0
-1195 10 0
-1195 12 0
-1195 13 0
-1195 15 0
-1195 17 0
-1195 19 0
-1195 22 0
-1195 23 0
-1195 25 0
1195 -3 -5 -7 -10 -12 -13 -15 -17 -19 -22 -23 -25 0
-1196 4 0
-1196 5 0
-1196 7 0
-1196 10 0
-1196 12 0
-1196 13 0
-1196 15 0
-1196 17 0
-1196 19 0
-1196 22 0
-1196 23 0
-1196 25 0
1196 -4 -5 -7 -10 -12 -13 -15 -17 -19 -22 -23 -25 0
-1197 3 0
-1197 6 0
-1197 7 0
-1197 10 0
-1197 12 0
-1197 13 0
-1197 15 0
-1197 17 0
-1197 19 0
-1197 22 0
-1197 23 0
-1197 25 0
1197 -3 -6 -7 -10 -12 -13 -15 -17 -19 -22 -23 -25 0
-1198 4 0
-1198 6 0
-1198 7 0
-1198 10 0
-1198 12 0
-1198 13 0
-1198 15 0
-1198 17 0
-1198 19 0
-1198 22 0
-1198 23 0
-1198 25 0
1198 -4 -6 -7 -10 -12 -13 -15 -17 -19 -22 -23 -25 0
-1199 3 0
-1199 5 0
-1199 8 0
-1199 10 0
-1199 11 0
-1199 13 0
-1199 15 0
-1199 17 0
-1199 19 0
-1199 22 0
-1199 23 0
-1199 25 0
1199 -3 -5 -8 -10 -11 -13 -15 -17 -19 -22 -23 -25 0
-1200 4 0
-1200 6 0
-1200 8 0
-1200 9 0
-1200 11 0
-1200 13 0
-1200 15 0
-1200 17 0
-1200 19 0
-1200 22 0
-1200 23 0
-1200 25 0
1200 -4 -6 -8 -9 -11 -13 -15 -17 -19 -22 -23 -25 0
-1201 3 0
-1201 6 0
-1201 8 0
-1201 10 0
-1201 11 0
-1201 13 0
-1201 15 0
-1201 17 0
-1201 19 0
-1201 22 0
-1201 23 0
-1201 25 0
1201 -3 -6 -8 -10 -11 -13 -15 -17 -19 -22 -23 -25 0
-1202 4 0
-1202 6 0
-1202 8 0
-1202 10 0
-1202 11 0
-1202 13 0
-1202 15 0
-1202 17 0
-1202 19 0
-1202 22 0
-1202 23 0
-1202 25 0
1202 -4 -6 -8 -10 -11 -13 -15 -17 -19 -22 -23 -25 0
-1203 3 0
-1203 6 0
-1203 7 0
-1203 9 0
-1203 11 0
-1203 13 0
-1203 15 0
-1203 17 0
-1203 19 0
-1203 22 0
-1203 24 0
-1203 25 0
1203 -3 -6 -7 -9 -11 -13 -15 -17 -19 -22 -24 -25 0
-1204 3 0
-1204 5 0
-1204 7 0
-1204 9 0
-1204 11 0
-1204 13 0
-1204 15 0
-1204 17 0
-1204 19 0
-1204 21 0
-1204 24 0
-1204 25 0
1204 -3 -5 -7 -9 -11 -13 -15 -17 -19 -21 -24 -25 0
-1205 4 0
-1205 5 0
-1205 7 0
-1205 9 0
-1205 11 0
-1205 13 0
-1205 15 0
-1205 17 0
-1205 19 0
-1205 21 0
-1205 24 0
-1205 25 0
1205 -4 -5 -7 -9 -11 -13 -15 -17 -19 -21 -24 -25 0
-1206 3 0
-1206 6 0
-1206 7 0
-1206 9 0
-1206 11 0
-1206 13 0
-1206 15 0
-1206 17 0
-1206 19 0
-1206 21 0
-1206 24 0
-1206 25 0
1206 -3 -6 -7 -9 -11 -13 -15 -17 -19 -21 -24 -25 0
-1207 4 0
-1207 6 0
-1207 7 0
-1207 9 0
-1207 11 0
-1207 13 0
-1207 15 0
-1207 17 0
-1207 19 0
-1207 21 0
-1207 24 0
-1207 25 0
1207 -4 -6 -7 -9 -11 -13 -15 -17 -19 -21 -24 -25 0
-1208 4 0
-1208 6 0
-1208 7 0
-1208 9 0
-1208 11 0
-1208 13 0
-1208 15 0
-1208 17 0
-1208 19 0
-1208 22 0
-1208 24 0
-1208 25 0
1208 -4 -6 -7 -9 -11 -13 -15 -17 -19 -22 -24 -25 0
-1209 3 0
-1209 5 0
-1209 7 0
-1209 9 0
-1209 11 0
-1209 13 0
-1209 15 0
-1209 17 0
-1209 19 0
-1209 22 0
-1209 24 0
-1209 25 0
1209 -3 -5 -7 -9 -11 -13 -15 -17 -19 -22 -24 -25 0
-1210 3 0
-1210 5 0
-1210 8 0
-1210 9 0
-1210 11 0
-1210 13 0
-1210 15 0
-1210 17 0
-1210 19 0
-1210 21 0
-1210 24 0
-1210 25 0
1210 -3 -5 -8 -9 -11 -13 -15 -17 -19 -21 -24 -25 0
-1211 3 0
-1211 6 0
-1211 8 0
-1211 9 0
-1211 11 0
-1211 13 0
-1211 15 0
-1211 17 0
-1211 19 0
-1211 21 0
-1211 24 0
-1211 25 0
1211 -3 -6 -8 -9 -11 -13 -15 -17 -19 -21 -24 -25 0
-1212 4 0
-1212 5 0
-1212 8 0
-1212 9 0
-1212 11 0
-1212 13 0
-1212 15 0
-1212 17 0
-1212 19 0
-1212 21 0
-1212 24 0
-1212 25 0
1212 -4 -5 -8 -9 -11 -13 -15 -17 -19 -21 -24 -25 0
-1213 4 0
-1213 5 0
-1213 7 0
-1213 9 0
-1213 11 0
-1213 13 0
-1213 15 0
-1213 17 0
-1213 19 0
-1213 22 0
-1213 24 0
-1213 25 0
1213 -4 -5 -7 -9 -11 -13 -15 -17 -19 -22 -24 -25 0
-1214 3 0
-1214 5 0
-1214 8 0
-1214 9 0
-1214 11 0
-1214 13 0
-1214 15 0
-1214 17 0
-1214 19 0
-1214 22 0
-1214 24 0
-1214 25 0
1214 -3 -5 -8 -9 -11 -13 -15 -17 -19 -22 -24 -25 0
-1215 4 0
-1215 5 0
-1215 8 0
-1215 9 0
-1215 11 0
-1215 13 0
-1215 15 0
-1215 17 0
-1215 19 0
-1215 22 0
-1215 24 0
-1215 25 0
1215 -4 -5 -8 -9 -11 -13 -15 -17 -19 -22 -24 -25 0
-1216 3 0
-1216 6 0
-1216 8 0
-1216 9 0
-1216 11 0
-1216 13 0
-1216 15 0
-1216 17 0
-1216 19 0
-1216 22 0
-1216 24 0
-1216 25 0
1216 -3 -6 -8 -9 -11 -13 -15 -17 -19 -22 -24 -25 0
-1217 3 0
-1217 5 0
-1217 7 0
-1217 10 0
-1217 11 0
-1217 13 0
-1217 15 0
-1217 17 0
-1217 19 0
-1217 21 0
-1217 24 0
-1217 25 0
1217 -3 -5 -7 -10 -11 -13 -15 -17 -19 -21 -24 -25 0
-1218 3 0
-1218 6 0
-1218 7 0
-1218 10 0
-1218 11 0
-1218 13 0
-1218 15 0
-1218 17 0
-1218 19 0
-1218 21 0
-1218 24 0
-1218 25 0
1218 -3 -6 -7 -10 -11 -13 -15 -17 -19 -21 -24 -25 0
-1219 4 0
-1219 5 0
-1219 7 0
-1219 10 0
-1219 11 0
-1219 13 0
-1219 15 0
-1219 17 0
-1219 19 0
-1219 21 0
-1219 24 0
-1219 25 0
1219 -4 -5 -7 -10 -11 -13 -15 -17 -19 -21 -24 -25 0
-1220 4 0
-1220 6 0
-1220 8 0
-1220 9 0
-1220 11 0
-1220 13 0
-1220 15 0
-1220 17 0
-1220 19 0
-1220 22 0
-1220 24 0
-1220 25 0
1220 -4 -6 -8 -9 -11 -13 -15 -17 -19 -22 -24 -25 0
-1221 3 0
-1221 6 0
-1221 8 0
-1221 10 0
-1221 11 0
-1221 13 0
-1221 15 0
-1221 17 0
-1221 19 0
-1221 22 0
-1221 24 0
-1221 25 0
1221 -3 -6 -8 -10 -11 -13 -15 -17 -19 -22 -24 -25 0
-1222 4 0
-1222 6 0
-1222 8 0
-1222 10 0
-1222 11 0
-1222 13 0
-1222 15 0
-1222 17 0
-1222 19 0
-1222 22 0
-1222 24 0
-1222 25 0
1222 -4 -6 -8 -10 -11 -13 -15 -17 -19 -22 -24 -25 0
-1223 3 0
-1223 5 0
-1223 8 0
-1223 10 0
-1223 11 0
-1223 13 0
-1223 15 0
-1223 17 0
-1223 19 0
-1223 22 0
-1223 24 0
-1223 25 0
1223 -3 -5 -8 -10 -11 -13 -15 -17 -19 -22 -24 -25 0
-1224 4 0
-1224 5 0
-1224 8 0
-1224 10 0
-1224 11 0
-1224 13 0
-1224 15 0
-1224 17 0
-1224 19 0
-1224 21 0
-1224 24 0
-1224 25 0
1224 -4 -5 -8 -10 -11 -13 -15 -17 -19 -21 -24 -25 0
-1225 4 0
-1225 6 0
-1225 7 0
-1225 10 0
-1225 11 0
-1225 13 0
-1225 15 0
-1225 17 0
-1225 19 0
-1225 21 0
-1225 24 0
-1225 25 0
1225 -4 -6 -7 -10 -11 -13 -15 -17 -19 -21 -24 -25 0
-1226 4 0
-1226 5 0
-1226 8 0
-1226 10 0
-1226 11 0
-1226 13 0
-1226 15 0
-1226 17 0
-1226 19 0
-1226 22 0
-1226 24 0
-1226 25 0
1226 -4 -5 -8 -10 -11 -13 -15 -17 -19 -22 -24 -25 0
-1227 3 0
-1227 5 0
-1227 7 0
-1227 10 0
-1227 11 0
-1227 13 0
-1227 15 0
-1227 17 0
-1227 19 0
-1227 22 0
-1227 24 0
-1227 25 0
1227 -3 -5 -7 -10 -11 -13 -15 -17 -19 -22 -24 -25 0
-1228 4 0
-1228 5 0
-1228 7 0
-1228 10 0
-1228 11 0
-1228 13 0
-1228 15 0
-1228 17 0
-1228 19 0
-1228 22 0
-1228 24 0
-1228 25 0
1228 -4 -5 -7 -10 -11 -13 -15 -17 -19 -22 -24 -25 0
-1229 3 0
-1229 6 0
-1229 7 0
-1229 10 0
-1229 11 0
-1229 13 0
-1229 15 0
-1229 17 0
-1229 19 0
-1229 22 0
-1229 24 0
-1229 25 0
1229 -3 -6 -7 -10 -11 -13 -15 -17 -19 -22 -24 -25 0
-1230 3 0
-1230 5 0
-1230 7 0
-1230 9 0
-1230 12 0
-1230 13 0
-1230 15 0
-1230 17 0
-1230 19 0
-1230 21 0
-1230 24 0
-1230 25 0
1230 -3 -5 -7 -9 -12 -13 -15 -17 -19 -21 -24 -25 0
-1231 3 0
-1231 6 0
-1231 7 0
-1231 9 0
-1231 12 0
-1231 13 0
-1231 15 0
-1231 17 0
-1231 19 0
-1231 21 0
-1231 24 0
-1231 25 0
1231 -3 -6 -7 -9 -12 -13 -15 -17 -19 -21 -24 -25 0
-1232 4 0
-1232 5 0
-1232 7 0
-1232 9 0
-1232 12 0
-1232 13 0
-1232 15 0
-1232 17 0
-1232 19 0
-1232 21 0
-1232 24 0
-1232 25 0
1232 -4 -5 -7 -9 -12 -13 -15 -17 -19 -21 -24 -25 0
-1233 4 0
-1233 6 0
-1233 7 0
-1233 10 0
-1233 11 0
-1233 13 0
-1233 15 0
-1233 17 0
-1233 19 0
-1233 22 0
-1233 24 0
-1233 25 0
1233 -4 -6 -7 -10 -11 -13 -15 -17 -19 -22 -24 -25 0
-1234 3 0
-1234 6 0
-1234 7 0
-1234 10 0
-1234 12 0
-1234 13 0
-1234 15 0
-1234 17 0
-1234 19 0
-1234 22 0
-1234 24 0
-1234 25 0
1234 -3 -6 -7 -10 -12 -13 -15 -17 -19 -22 -24 -25 0
-1235 4 0
-1235 6 0
-1235 7 0
-1235 10 0
-1235 12 0
-1235 13 0
-1235 15 0
-1235 17 0
-1235 19 0
-1235 22 0
-1235 24 0
-1235 25 0
1235 -4 -6 -7 -10 -12 -13 -15 -17 -19 -22 -24 -25 0
-1236 3 0
-1236 5 0
-1236 7 0
-1236 10 0
-1236 12 0
-1236 13 0
-1236 15 0
-1236 17 0
-1236 19 0
-1236 22 0
-1236 24 0
-1236 25 0
1236 -3 -5 -7 -10 -12 -13 -15 -17 -19 -22 -24 -25 0
-1237 3 0
-1237 5 0
-1237 8 0
-1237 9 0
-1237 12 0
-1237 13 0
-1237 15 0
-1237 17 0
-1237 19 0
-1237 21 0
-1237 24 0
-1237 25 0
1237 -3 -5 -8 -9 -12 -13 -15 -17 -19 -21 -24 -25 0
-1238 3 0
-1238 6 0
-1238 8 0
-1238 9 0
-1238 12 0
-1238 13 0
-1238 15 0
-1238 17 0
-1238 19 0
-1238 21 0
-1238 24 0
-1238 25 0
1238 -3 -6 -8 -9 -12 -13 -15 -17 -19 -21 -24 -25 0
-1239 4 0
-1239 5 0
-1239 8 0
-1239 9 0
-1239 12 0
-1239 13 0
-1239 15 0
-1239 17 0
-1239 19 0
-1239 21 0
-1239 24 0
-1239 25 0
1239 -4 -5 -8 -9 -12 -13 -15 -17 -19 -21 -24 -25 0
-1240 4 0
-1240 5 0
-1240 7 0
-1240 10 0
-1240 12 0
-1240 13 0
-1240 15 0
-1240 17 0
-1240 19 0
-1240 22 0
-1240 24 0
-1240 25 0
1240 -4 -5 -7 -10 -12 -13 -15 -17 -19 -22 -24 -25 0
-1241 3 0
-1241 5 0
-1241 8 0
-1241 10 0
-1241 12 0
-1241 13 0
-1241 15 0
-1241 17 0
-1241 19 0
-1241 22 0
-1241 24 0
-1241 25 0
1241 -3 -5 -8 -10 -12 -13 -15 -17 -19 -22 -24 -25 0
-1242 4 0
-1242 5 0
-1242 8 0
-1242 10 0
-1242 12 0
-1242 13 0
-1242 15 0
-1242 17 0
-1242 19 0
-1242 22 0
-1242 24 0
-1242 25 0
1242 -4 -5 -8 -10 -12 -13 -15 -17 -19 -22 -24 -25 0
-1243 3 0
-1243 6 0
-1243 8 0
-1243 10 0
-1243 12 0
-1243 13 0
-1243 15 0
-1243 17 0
-1243 19 0
-1243 22 0
-1243 24 0
-1243 25 0
1243 -3 -6 -8 -10 -12 -13 -15 -17 -19 -22 -24 -25 0
-1244 4 0
-1244 6 0
-1244 7 0
-1244 9 0
-1244 12 0
-1244 13 0
-1244 15 0
-1244 17 0
-1244 19 0
-1244 21 0
-1244 24 0
-1244 25 0
1244 -4 -6 -7 -9 -12 -13 -15 -17 -19 -21 -24 -25 0
-1245 4 0
-1245 6 0
-1245 8 0
-1245 10 0
-1245 12 0
-1245 13 0
-1245 15 0
-1245 17 0
-1245 19 0
-1245 22 0
-1245 24 0
-1245 25 0
1245 -4 -6 -8 -10 -12 -13 -15 -17 -19 -22 -24 -25 0
-1246 3 0
-1246 6 0
-1246 8 0
-1246 9 0
-1246 12 0
-1246 13 0
-1246 15 0
-1246 17 0
-1246 19 0
-1246 22 0
-1246 24 0
-1246 25 0
1246 -3 -6 -8 -9 -12 -13 -15 -17 -19 -22 -24 -25 0
-1247 4 0
-1247 6 0
-1247 8 0
-1247 9 0
-1247 12 0
-1247 13 0
-1247 15 0
-1247 17 0
-1247 19 0
-1247 22 0
-1247 24 0
-1247 25 0
1247 -4 -6 -8 -9 -12 -13 -15 -17 -19 -22 -24 -25 0
-1248 3 0
-1248 5 0
-1248 8 0
-1248 9 0
-1248 12 0
-1248 13 0
-1248 15 0
-1248 17 0
-1248 19 0
-1248 22 0
-1248 24 0
-1248 25 0
1248 -3 -5 -8 -9 -12 -13 -15 -17 -19 -22 -24 -25 0
-1249 4 0
-1249 5 0
-1249 8 0
-1249 9 0
-1249 12 0
-1249 13 0
-1249 15 0
-1249 17 0
-1249 19 0
-1249 22 0
-1249 24 0
-1249 25 0
1249 -4 -5 -8 -9 -12 -13 -15 -17 -19 -22 -24 -25 0
-1250 3 0
-1250 5 0
-1250 7 0
-1250 9 0
-1250 12 0
-1250 13 0
-1250 15 0
-1250 17 0
-1250 19 0
-1250 22 0
-1250 24 0
-1250 25 0
1250 -3 -5 -7 -9 -12 -13 -15 -17 -19 -22 -24 -25 0
-1251 4 0
-1251 5 0
-1251 7 0
-1251 9 0
-1251 12 0
-1251 13 0
-1251 15 0
-1251 17 0
-1251 19 0
-1251 22 0
-1251 24 0
-1251 25 0
1251 -4 -5 -7 -9 -12 -13 -15 -17 -19 -22 -24 -25 0
-1252 3 0
-1252 6 0
-1252 7 0
-1252 9 0
-1252 12 0
-1252 13 0
-1252 15 0
-1252 17 0
-1252 19 0
-1252 22 0
-1252 24 0
-1252 25 0
1252 -3 -6 -7 -9 -12 -13 -15 -17 -19 -22 -24 -25 0
-1253 3 0
-1253 5 0
-1253 7 0
-1253 9 0
-1253 11 0
-1253 14 0
-1253 15 0
-1253 17 0
-1253 19 0
-1253 21 0
-1253 24 0
-1253 25 0
1253 -3 -5 -7 -9 -11 -14 -15 -17 -19 -21 -24 -25 0
-1254 3 0
-1254 6 0
-1254 7 0
-1254 9 0
-1254 11 0
-1254 14 0
-1254 15 0
-1254 17 0
-1254 19 0
-1254 21 0
-1254 24 0
-1254 25 0
1254 -3 -6 -7 -9 -11 -14 -15 -17 -19 -21 -24 -25 0
-1255 4 0
-1255 5 0
-1255 7 0
-1255 9 0
-1255 11 0
-1255 14 0
-1255 15 0
-1255 17 0
-1255 19 0
-1255 21 0
-1255 24 0
-1255 25 0
1255 -4 -5 -7 -9 -11 -14 -15 -17 -19 -21 -24 -25 0
-1256 4 0
-1256 6 0
-1256 7 0
-1256 9 0
-1256 12 0
-1256 13 0
-1256 15 0
-1256 17 0
-1256 19 0
-1256 22 0
-1256 24 0
-1256 25 0
1256 -4 -6 -7 -9 -12 -13 -15 -17 -19 -22 -24 -25 0
-1257 3 0
-1257 6 0
-1257 7 0
-1257 9 0
-1257 12 0
-1257 14 0
-1257 15 0
-1257 17 0
-1257 19 0
-1257 22 0
-1257 24 0
-1257 25 0
1257 -3 -6 -7 -9 -12 -14 -15 -17 -19 -22 -24 -25 0
-1258 4 0
-1258 6 0
-1258 7 0
-1258 9 0
-1258 12 0
-1258 14 0
-1258 15 0
-1258 17 0
-1258 19 0
-1258 22 0
-1258 24 0
-1258 25 0
1258 -4 -6 -7 -9 -12 -14 -15 -17 -19 -22 -24 -25 0
-1259 3 0
-1259 5 0
-1259 7 0
-1259 9 0
-1259 12 0
-1259 14 0
-1259 15 0
-1259 17 0
-1259 19 0
-1259 22 0
-1259 24 0
-1259 25 0
1259 -3 -5 -7 -9 -12 -14 -15 -17 -19 -22 -24 -25 0
-1260 3 0
-1260 5 0
-1260 8 0
-1260 9 0
-1260 11 0
-1260 14 0
-1260 15 0
-1260 17 0
-1260 19 0
-1260 21 0
-1260 24 0
-1260 25 0
1260 -3 -5 -8 -9 -11 -14 -15 -17 -19 -21 -24 -25 0
-1261 3 0
-1261 6 0
-1261 8 0
-1261 9 0
-1261 11 0
-1261 14 0
-1261 15 0
-1261 17 0
-1261 19 0
-1261 21 0
-1261 24 0
-1261 25 0
1261 -3 -6 -8 -9 -11 -14 -15 -17 -19 -21 -24 -25 0
-1262 4 0
-1262 5 0
-1262 8 0
-1262 9 0
-1262 11 0
-1262 14 0
-1262 15 0
-1262 17 0
-1262 19 0
-1262 21 0
-1262 24 0
-1262 25 0
1262 -4 -5 -8 -9 -11 -14 -15 -17 -19 -21 -24 -25 0
-1263 4 0
-1263 5 0
-1263 7 0
-1263 9 0
-1263 12 0
-1263 14 0
-1263 15 0
-1263 17 0
-1263 19 0
-1263 22 0
-1263 24 0
-1263 25 0
1263 -4 -5 -7 -9 -12 -14 -15 -17 -19 -22 -24 -25 0
-1264 3 0
-1264 5 0
-1264 8 0
-1264 9 0
-1264 12 0
-1264 14 0
-1264 15 0
-1264 17 0
-1264 19 0
-1264 22 0
-1264 24 0
-1264 25 0
1264 -3 -5 -8 -9 -12 -14 -15 -17 -19 -22 -24 -25 0
-1265 4 0
-1265 5 0
-1265 8 0
-1265 9 0
-1265 12 0
-1265 14 0
-1265 15 0
-1265 17 0
-1265 19 0
-1265 22 0
-1265 24 0
-1265 25 0
1265 -4 -5 -8 -9 -12 -14 -15 -17 -19 -22 -24 -25 0
-1266 3 0
-1266 6 0
-1266 8 0
-1266 9 0
-1266 12 0
-1266 14 0
-1266 15 0
-1266 17 0
-1266 19 0
-1266 22 0
-1266 24 0
-1266 25 0
1266 -3 -6 -8 -9 -12 -14 -15 -17 -19 -22 -24 -25 0
-1267 3 0
-1267 5 0
-1267 7 0
-1267 10 0
-1267 11 0
-1267 14 0
-1267 15 0
-1267 17 0
-1267 19 0
-1267 21 0
-1267 24 0
-1267 25 0
1267 -3 -5 -7 -10 -11 -14 -15 -17 -19 -21 -24 -25 0
-1268 3 0
-1268 6 0
-1268 7 0
-1268 10 0
-1268 11 0
-1268 14 0
-1268 15 0
-1268 17 0
-1268 19 0
-1268 21 0
-1268 24 0
-1268 25 0
1268 -3 -6 -7 -10 -11 -14 -15 -17 -19 -21 -24 -25 0
-1269 4 0
-1269 5 0
-1269 7 0
-1269 10 0
-1269 11 0
-1269 14 0
-1269 15 0
-1269 17 0
-1269 19 0
-1269 21 0
-1269 24 0
-1269 25 0
1269 -4 -5 -7 -10 -11 -14 -15 -17 -19 -21 -24 -25 0
-1270 4 0
-1270 6 0
-1270 8 0
-1270 9 0
-1270 12 0
-1270 14 0
-1270 15 0
-1270 17 0
-1270 19 0
-1270 22 0
-1270 24 0
-1270 25 0
1270 -4 -6 -8 -9 -12 -14 -15 -17 -19 -22 -24 -25 0
-1271 3 0
-1271 6 0
-1271 8 0
-1271 10 0
-1271 12 0
-1271 14 0
-1271 15 0
-1271 17 0
-1271 19 0
-1271 22 0
-1271 24 0
-1271 25 0
1271 -3 -6 -8 -10 -12 -14 -15 -17 -19 -22 -24 -25 0
-1272 4 0
-1272 6 0
-1272 8 0
-1272 10 0
-1272 12 0
-1272 14 0
-1272 15 0
-1272 17 0
-1272 19 0
-1272 22 0
-1272 24 0
-1272 25 0
1272 -4 -6 -8 -10 -12 -14 -15 -17 -19 -22 -24 -25 0
-1273 3 0
-1273 5 0
-1273 8 0
-1273 10 0
-1273 12 0
-1273 14 0
-1273 15 0
-1273 17 0
-1273 19 0
-1273 22 0
-1273 24 0
-1273 25 0
1273 -3 -5 -8 -10 -12 -14 -15 -17 -19 -22 -24 -25 0
-1274 4 0
-1274 5 0
-1274 8 0
-1274 10 0
-1274 11 0
-1274 14 0
-1274 15 0
-1274 17 0
-1274 19 0
-1274 21 0
-1274 24 0
-1274 25 0
1274 -4 -5 -8 -10 -11 -14 -15 -17 -19 -21 -24 -25 0
-1275 4 0
-1275 6 0
-1275 7 0
-1275 10 0
-1275 11 0
-1275 14 0
-1275 15 0
-1275 17 0
-1275 19 0
-1275 21 0
-1275 24 0
-1275 25 0
1275 -4 -6 -7 -10 -11 -14 -15 -17 -19 -21 -24 -25 0
-1276 4 0
-1276 5 0
-1276 8 0
-1276 10 0
-1276 12 0
-1276 14 0
-1276 15 0
-1276 17 0
-1276 19 0
-1276 22 0
-1276 24 0
-1276 25 0
1276 -4 -5 -8 -10 -12 -14 -15 -17 -19 -22 -24 -25 0
-1277 3 0
-1277 5 0
-1277 7 0
-1277 10 0
-1277 12 0
-1277 14 0
-1277 15 0
-1277 17 0
-1277 19 0
-1277 22 0
-1277 24 0
-1277 25 0
1277 -3 -5 -7 -10 -12 -14 -15 -17 -19 -22 -24 -25 0
-1278 4 0
-1278 5 0
-1278 7 0
-1278 10 0
-1278 12 0
-1278 14 0
-1278 15 0
-1278 17 0
-1278 19 0
-1278 22 0
-1278 24 0
-1278 25 0
1278 -4 -5 -7 -10 -12 -14 -15 -17 -19 -22 -24 -25 0
-1279 3 0
-1279 6 0
-1279 7 0
-1279 10 0
-1279 12 0
-1279 14 0
-1279 15 0
-1279 17 0
-1279 19 0
-1279 22 0
-1279 24 0
-1279 25 0
1279 -3 -6 -7 -10 -12 -14 -15 -17 -19 -22 -24 -25 0
-1280 4 0
-1280 6 0
-1280 7 0
-1280 10 0
-1280 12 0
-1280 14 0
-1280 15 0
-1280 17 0
-1280 19 0
-1280 21 0
-1280 24 0
-1280 25 0
1280 -4 -6 -7 -10 -12 -14 -15 -17 -19 -21 -24 -25 0
-1281 4 0
-1281 6 0
-1281 7 0
-1281 10 0
-1281 12 0
-1281 14 0
-1281 15 0
-1281 17 0
-1281 19 0
-1281 22 0
-1281 24 0
-1281 25 0
1281 -4 -6 -7 -10 -12 -14 -15 -17 -19 -22 -24 -25 0
-1282 3 0
-1282 6 0
-1282 7 0
-1282 10 0
-1282 11 0
-1282 14 0
-1282 15 0
-1282 17 0
-1282 19 0
-1282 22 0
-1282 24 0
-1282 25 0
1282 -3 -6 -7 -10 -11 -14 -15 -17 -19 -22 -24 -25 0
-1283 4 0
-1283 6 0
-1283 7 0
-1283 10 0
-1283 11 0
-1283 14 0
-1283 15 0
-1283 17 0
-1283 19 0
-1283 22 0
-1283 24 0
-1283 25 0
1283 -4 -6 -7 -10 -11 -14 -15 -17 -19 -22 -24 -25 0
-1284 3 0
-1284 5 0
-1284 7 0
-1284 10 0
-1284 11 0
-1284 14 0
-1284 15 0
-1284 17 0
-1284 19 0
-1284 22 0
-1284 24 0
-1284 25 0
1284 -3 -5 -7 -10 -11 -14 -15 -17 -19 -22 -24 -25 0
-1285 4 0
-1285 6 0
-1285 8 0
-1285 9 0
-1285 11 0
-1285 14 0
-1285 15 0
-1285 17 0
-1285 19 0
-1285 21 0
-1285 24 0
-1285 25 0
1285 -4 -6 -8 -9 -11 -14 -15 -17 -19 -21 -24 -25 0
-1286 4 0
-1286 5 0
-1286 7 0
-1286 10 0
-1286 11 0
-1286 14 0
-1286 15 0
-1286 17 0
-1286 19 0
-1286 22 0
-1286 24 0
-1286 25 0
1286 -4 -5 -7 -10 -11 -14 -15 -17 -19 -22 -24 -25 0
-1287 3 0
-1287 5 0
-1287 8 0
-1287 10 0
-1287 11 0
-1287 14 0
-1287 15 0
-1287 17 0
-1287 19 0
-1287 22 0
-1287 24 0
-1287 25 0
1287 -3 -5 -8 -10 -11 -14 -15 -17 -19 -22 -24 -25 0
-1288 4 0
-1288 5 0
-1288 8 0
-1288 10 0
-1288 11 0
-1288 14 0
-1288 15 0
-1288 17 0
-1288 19 0
-1288 22 0
-1288 24 0
-1288 25 0
1288 -4 -5 -8 -10 -11 -14 -15 -17 -19 -22 -24 -25 0
-1289 3 0
-1289 6 0
-1289 8 0
-1289 10 0
-1289 11 0
-1289 14 0
-1289 15 0
-1289 17 0
-1289 19 0
-1289 22 0
-1289 24 0
-1289 25 0
1289 -3 -6 -8 -10 -11 -14 -15 -17 -19 -22 -24 -25 0
-1290 4 0
-1290 6 0
-1290 8 0
-1290 10 0
-1290 11 0
-1290 14 0
-1290 15 0
-1290 17 0
-1290 19 0
-1290 21 0
-1290 24 0
-1290 25 0
1290 -4 -6 -8 -10 -11 -14 -15 -17 -19 -21 -24 -25 0
-1291 4 0
-1291 6 0
-1291 8 0
-1291 10 0
-1291 11 0
-1291 14 0
-1291 15 0
-1291 17 0
-1291 19 0
-1291 22 0
-1291 24 0
-1291 25 0
1291 -4 -6 -8 -10 -11 -14 -15 -17 -19 -22 -24 -25 0
-1292 3 0
-1292 6 0
-1292 8 0
-1292 9 0
-1292 11 0
-1292 14 0
-1292 15 0
-1292 17 0
-1292 19 0
-1292 22 0
-1292 24 0
-1292 25 0
1292 -3 -6 -8 -9 -11 -14 -15 -17 -19 -22 -24 -25 0
-1293 4 0
-1293 6 0
-1293 8 0
-1293 9 0
-1293 11 0
-1293 14 0
-1293 15 0
-1293 17 0
-1293 19 0
-1293 22 0
-1293 24 0
-1293 25 0
1293 -4 -6 -8 -9 -11 -14 -15 -17 -19 -22 -24 -25 0
-1294 3 0
-1294 5 0
-1294 8 0
-1294 9 0
-1294 11 0
-1294 14 0
-1294 15 0
-1294 17 0
-1294 19 0
-1294 22 0
-1294 24 0
-1294 25 0
1294 -3 -5 -8 -9 -11 -14 -15 -17 -19 -22 -24 -25 0
-1295 4 0
-1295 6 0
-1295 7 0
-1295 9 0
-1295 11 0
-1295 14 0
-1295 15 0
-1295 17 0
-1295 19 0
-1295 21 0
-1295 24 0
-1295 25 0
1295 -4 -6 -7 -9 -11 -14 -15 -17 -19 -21 -24 -25 0
-1296 4 0
-1296 5 0
-1296 8 0
-1296 9 0
-1296 11 0
-1296 14 0
-1296 15 0
-1296 17 0
-1296 19 0
-1296 22 0
-1296 24 0
-1296 25 0
1296 -4 -5 -8 -9 -11 -14 -15 -17 -19 -22 -24 -25 0
-1297 3 0
-1297 5 0
-1297 7 0
-1297 9 0
-1297 11 0
-1297 14 0
-1297 15 0
-1297 17 0
-1297 19 0
-1297 22 0
-1297 24 0
-1297 25 0
1297 -3 -5 -7 -9 -11 -14 -15 -17 -19 -22 -24 -25 0
-1298 4 0
-1298 5 0
-1298 7 0
-1298 9 0
-1298 11 0
-1298 14 0
-1298 15 0
-1298 17 0
-1298 19 0
-1298 22 0
-1298 24 0
-1298 25 0
1298 -4 -5 -7 -9 -11 -14 -15 -17 -19 -22 -24 -25 0
-1299 3 0
-1299 6 0
-1299 7 0
-1299 9 0
-1299 11 0
-1299 14 0
-1299 15 0
-1299 17 0
-1299 19 0
-1299 22 0
-1299 24 0
-1299 25 0
1299 -3 -6 -7 -9 -11 -14 -15 -17 -19 -22 -24 -25 0
-1300 3 0
-1300 5 0
-1300 7 0
-1300 9 0
-1300 11 0
-1300 13 0
-1300 16 0
-1300 17 0
-1300 19 0
-1300 21 0
-1300 24 0
-1300 25 0
1300 -3 -5 -7 -9 -11 -13 -16 -17 -19 -21 -24 -25 0
-1301 3 0
-1301 6 0
-1301 7 0
-1301 9 0
-1301 11 0
-1301 13 0
-1301 16 0
-1301 17 0
-1301 19 0
-1301 21 0
-1301 24 0
-1301 25 0
1301 -3 -6 -7 -9 -11 -13 -16 -17 -19 -21 -24 -25 0
-1302 4 0
-1302 5 0
-1302 7 0
-1302 9 0
-1302 11 0
-1302 13 0
-1302 16 0
-1302 17 0
-1302 19 0
-1302 21 0
-1302 24 0
-1302 25 0
1302 -4 -5 -7 -9 -11 -13 -16 -17 -19 -21 -24 -25 0
-1303 4 0
-1303 6 0
-1303 7 0
-1303 9 0
-1303 11 0
-1303 14 0
-1303 15 0
-1303 17 0
-1303 19 0
-1303 22 0
-1303 24 0
-1303 25 0
1303 -4 -6 -7 -9 -11 -14 -15 -17 -19 -22 -24 -25 0
-1304 3 0
-1304 6 0
-1304 7 0
-1304 9 0
-1304 11 0
-1304 14 0
-1304 16 0
-1304 17 0
-1304 19 0
-1304 22 0
-1304 24 0
-1304 25 0
1304 -3 -6 -7 -9 -11 -14 -16 -17 -19 -22 -24 -25 0
-1305 4 0
-1305 6 0
-1305 7 0
-1305 9 0
-1305 11 0
-1305 14 0
-1305 16 0
-1305 17 0
-1305 19 0
-1305 22 0
-1305 24 0
-1305 25 0
1305 -4 -6 -7 -9 -11 -14 -16 -17 -19 -22 -24 -25 0
-1306 3 0
-1306 5 0
-1306 7 0
-1306 9 0
-1306 11 0
-1306 14 0
-1306 16 0
-1306 17 0
-1306 19 0
-1306 22 0
-1306 24 0
-1306 25 0
1306 -3 -5 -7 -9 -11 -14 -16 -17 -19 -22 -24 -25 0
-1307 3 0
-1307 5 0
-1307 8 0
-1307 9 0
-1307 11 0
-1307 13 0
-1307 16 0
-1307 17 0
-1307 19 0
-1307 21 0
-1307 24 0
-1307 25 0
1307 -3 -5 -8 -9 -11 -13 -16 -17 -19 -21 -24 -25 0
-1308 3 0
-1308 6 0
-1308 8 0
-1308 9 0
-1308 11 0
-1308 13 0
-1308 16 0
-1308 17 0
-1308 19 0
-1308 21 0
-1308 24 0
-1308 25 0
1308 -3 -6 -8 -9 -11 -13 -16 -17 -19 -21 -24 -25 0
-1309 4 0
-1309 5 0
-1309 8 0
-1309 9 0
-1309 11 0
-1309 13 0
-1309 16 0
-1309 17 0
-1309 19 0
-1309 21 0
-1309 24 0
-1309 25 0
1309 -4 -5 -8 -9 -11 -13 -16 -17 -19 -21 -24 -25 0
-1310 4 0
-1310 5 0
-1310 7 0
-1310 9 0
-1310 11 0
-1310 14 0
-1310 16 0
-1310 17 0
-1310 19 0
-1310 22 0
-1310 24 0
-1310 25 0
1310 -4 -5 -7 -9 -11 -14 -16 -17 -19 -22 -24 -25 0
-1311 3 0
-1311 5 0
-1311 8 0
-1311 9 0
-1311 11 0
-1311 14 0
-1311 16 0
-1311 17 0
-1311 19 0
-1311 22 0
-1311 24 0
-1311 25 0
1311 -3 -5 -8 -9 -11 -14 -16 -17 -19 -22 -24 -25 0
-1312 4 0
-1312 5 0
-1312 8 0
-1312 9 0
-1312 11 0
-1312 14 0
-1312 16 0
-1312 17 0
-1312 19 0
-1312 22 0
-1312 24 0
-1312 25 0
1312 -4 -5 -8 -9 -11 -14 -16 -17 -19 -22 -24 -25 0
-1313 3 0
-1313 6 0
-1313 8 0
-1313 9 0
-1313 11 0
-1313 14 0
-1313 16 0
-1313 17 0
-1313 19 0
-1313 22 0
-1313 24 0
-1313 25 0
1313 -3 -6 -8 -9 -11 -14 -16 -17 -19 -22 -24 -25 0
-1314 3 0
-1314 5 0
-1314 7 0
-1314 10 0
-1314 11 0
-1314 13 0
-1314 16 0
-1314 17 0
-1314 19 0
-1314 21 0
-1314 24 0
-1314 25 0
1314 -3 -5 -7 -10 -11 -13 -16 -17 -19 -21 -24 -25 0
-1315 3 0
-1315 6 0
-1315 7 0
-1315 10 0
-1315 11 0
-1315 13 0
-1315 16 0
-1315 17 0
-1315 19 0
-1315 21 0
-1315 24 0
-1315 25 0
1315 -3 -6 -7 -10 -11 -13 -16 -17 -19 -21 -24 -25 0
-1316 4 0
-1316 5 0
-1316 7 0
-1316 10 0
-1316 11 0
-1316 13 0
-1316 16 0
-1316 17 0
-1316 19 0
-1316 21 0
-1316 24 0
-1316 25 0
1316 -4 -5 -7 -10 -11 -13 -16 -17 -19 -21 -24 -25 0
-1317 4 0
-1317 6 0
-1317 8 0
-1317 9 0
-1317 11 0
-1317 14 0
-1317 16 0
-1317 17 0
-1317 19 0
-1317 22 0
-1317 24 0
-1317 25 0
1317 -4 -6 -8 -9 -11 -14 -16 -17 -19 -22 -24 -25 0
-1318 3 0
-1318 6 0
-1318 8 0
-1318 10 0
-1318 11 0
-1318 14 0
-1318 16 0
-1318 17 0
-1318 19 0
-1318 22 0
-1318 24 0
-1318 25 0
1318 -3 -6 -8 -10 -11 -14 -16 -17 -19 -22 -24 -25 0
-1319 4 0
-1319 6 0
-1319 8 0
-1319 10 0
-1319 11 0
-1319 14 0
-1319 16 0
-1319 17 0
-1319 19 0
-1319 22 0
-1319 24 0
-1319 25 0
1319 -4 -6 -8 -10 -11 -14 -16 -17 -19 -22 -24 -25 0
-1320 3 0
-1320 5 0
-1320 8 0
-1320 10 0
-1320 11 0
-1320 14 0
-1320 16 0
-1320 17 0
-1320 19 0
-1320 22 0
-1320 24 0
-1320 25 0
1320 -3 -5 -8 -10 -11 -14 -16 -17 -19 -22 -24 -25 0
-1321 4 0
-1321 5 0
-1321 8 0
-1321 10 0
-1321 11 0
-1321 13 0
-1321 16 0
-1321 17 0
-1321 19 0
-1321 21 0
-1321 24 0
-1321 25 0
1321 -4 -5 -8 -10 -11 -13 -16 -17 -19 -21 -24 -25 0
-1322 4 0
-1322 6 0
-1322 7 0
-1322 10 0
-1322 11 0
-1322 13 0
-1322 16 0
-1322 17 0
-1322 19 0
-1322 21 0
-1322 24 0
-1322 25 0
1322 -4 -6 -7 -10 -11 -13 -16 -17 -19 -21 -24 -25 0
-1323 4 0
-1323 5 0
-1323 8 0
-1323 10 0
-1323 11 0
-1323 14 0
-1323 16 0
-1323 17 0
-1323 19 0
-1323 22 0
-1323 24 0
-1323 25 0
1323 -4 -5 -8 -10 -11 -14 -16 -17 -19 -22 -24 -25 0
-1324 3 0
-1324 5 0
-1324 7 0
-1324 10 0
-1324 11 0
-1324 14 0
-1324 16 0
-1324 17 0
-1324 19 0
-1324 22 0
-1324 24 0
-1324 25 0
1324 -3 -5 -7 -10 -11 -14 -16 -17 -19 -22 -24 -25 0
-1325 4 0
-1325 5 0
-1325 7 0
-1325 10 0
-1325 11 0
-1325 14 0
-1325 16 0
-1325 17 0
-1325 19 0
-1325 22 0
-1325 24 0
-1325 25 0
1325 -4 -5 -7 -10 -11 -14 -16 -17 -19 -22 -24 -25 0
-1326 3 0
-1326 6 0
-1326 7 0
-1326 10 0
-1326 11 0
-1326 14 0
-1326 16 0
-1326 17 0
-1326 19 0
-1326 22 0
-1326 24 0
-1326 25 0
1326 -3 -6 -7 -10 -11 -14 -16 -17 -19 -22 -24 -25 0
-1327 3 0
-1327 5 0
-1327 7 0
-1327 9 0
-1327 12 0
-1327 13 0
-1327 16 0
-1327 17 0
-1327 19 0
-1327 21 0
-1327 24 0
-1327 25 0
1327 -3 -5 -7 -9 -12 -13 -16 -17 -19 -21 -24 -25 0
-1328 3 0
-1328 6 0
-1328 7 0
-1328 9 0
-1328 12 0
-1328 13 0
-1328 16 0
-1328 17 0
-1328 19 0
-1328 21 0
-1328 24 0
-1328 25 0
1328 -3 -6 -7 -9 -12 -13 -16 -17 -19 -21 -24 -25 0
-1329 4 0
-1329 5 0
-1329 7 0
-1329 9 0
-1329 12 0
-1329 13 0
-1329 16 0
-1329 17 0
-1329 19 0
-1329 21 0
-1329 24 0
-1329 25 0
1329 -4 -5 -7 -9 -12 -13 -16 -17 -19 -21 -24 -25 0
-1330 4 0
-1330 6 0
-1330 7 0
-1330 10 0
-1330 11 0
-1330 14 0
-1330 16 0
-1330 17 0
-1330 19 0
-1330 22 0
-1330 24 0
-1330 25 0
1330 -4 -6 -7 -10 -11 -14 -16 -17 -19 -22 -24 -25 0
-1331 3 0
-1331 6 0
-1331 7 0
-1331 10 0
-1331 12 0
-1331 14 0
-1331 16 0
-1331 17 0
-1331 19 0
-1331 22 0
-1331 24 0
-1331 25 0
1331 -3 -6 -7 -10 -12 -14 -16 -17 -19 -22 -24 -25 0
-1332 4 0
-1332 6 0
-1332 7 0
-1332 10 0
-1332 12 0
-1332 14 0
-1332 16 0
-1332 17 0
-1332 19 0
-1332 22 0
-1332 24 0
-1332 25 0
1332 -4 -6 -7 -10 -12 -14 -16 -17 -19 -22 -24 -25 0
-1333 3 0
-1333 5 0
-1333 7 0
-1333 10 0
-1333 12 0
-1333 14 0
-1333 16 0
-1333 17 0
-1333 19 0
-1333 22 0
-1333 24 0
-1333 25 0
1333 -3 -5 -7 -10 -12 -14 -16 -17 -19 -22 -24 -25 0
-1334 3 0
-1334 5 0
-1334 8 0
-1334 9 0
-1334 12 0
-1334 13 0
-1334 16 0
-1334 17 0
-1334 19 0
-1334 21 0
-1334 24 0
-1334 25 0
1334 -3 -5 -8 -9 -12 -13 -16 -17 -19 -21 -24 -25 0
-1335 3 0
-1335 6 0
-1335 8 0
-1335 9 0
-1335 12 0
-1335 13 0
-1335 16 0
-1335 17 0
-1335 19 0
-1335 21 0
-1335 24 0
-1335 25 0
1335 -3 -6 -8 -9 -12 -13 -16 -17 -19 -21 -24 -25 0
-1336 4 0
-1336 5 0
-1336 8 0
-1336 9 0
-1336 12 0
-1336 13 0
-1336 16 0
-1336 17 0
-1336 19 0
-1336 21 0
-1336 24 0
-1336 25 0
1336 -4 -5 -8 -9 -12 -13 -16 -17 -19 -21 -24 -25 0
-1337 4 0
-1337 5 0
-1337 7 0
-1337 10 0
-1337 12 0
-1337 14 0
-1337 16 0
-1337 17 0
-1337 19 0
-1337 22 0
-1337 24 0
-1337 25 0
1337 -4 -5 -7 -10 -12 -14 -16 -17 -19 -22 -24 -25 0
-1338 3 0
-1338 5 0
-1338 8 0
-1338 10 0
-1338 12 0
-1338 14 0
-1338 16 0
-1338 17 0
-1338 19 0
-1338 22 0
-1338 24 0
-1338 25 0
1338 -3 -5 -8 -10 -12 -14 -16 -17 -19 -22 -24 -25 0
-1339 4 0
-1339 5 0
-1339 8 0
-1339 10 0
-1339 12 0
-1339 14 0
-1339 16 0
-1339 17 0
-1339 19 0
-1339 22 0
-1339 24 0
-1339 25 0
1339 -4 -5 -8 -10 -12 -14 -16 -17 -19 -22 -24 -25 0
-1340 3 0
-1340 6 0
-1340 8 0
-1340 10 0
-1340 12 0
-1340 14 0
-1340 16 0
-1340 17 0
-1340 19 0
-1340 22 0
-1340 24 0
-1340 25 0
1340 -3 -6 -8 -10 -12 -14 -16 -17 -19 -22 -24 -25 0
-1341 4 0
-1341 6 0
-1341 7 0
-1341 9 0
-1341 12 0
-1341 13 0
-1341 16 0
-1341 17 0
-1341 19 0
-1341 21 0
-1341 24 0
-1341 25 0
1341 -4 -6 -7 -9 -12 -13 -16 -17 -19 -21 -24 -25 0
-1342 4 0
-1342 6 0
-1342 8 0
-1342 10 0
-1342 12 0
-1342 14 0
-1342 16 0
-1342 17 0
-1342 19 0
-1342 22 0
-1342 24 0
-1342 25 0
1342 -4 -6 -8 -10 -12 -14 -16 -17 -19 -22 -24 -25 0
-1343 3 0
-1343 6 0
-1343 8 0
-1343 9 0
-1343 12 0
-1343 14 0
-1343 16 0
-1343 17 0
-1343 19 0
-1343 22 0
-1343 24 0
-1343 25 0
1343 -3 -6 -8 -9 -12 -14 -16 -17 -19 -22 -24 -25 0
-1344 4 0
-1344 6 0
-1344 8 0
-1344 9 0
-1344 12 0
-1344 14 0
-1344 16 0
-1344 17 0
-1344 19 0
-1344 22 0
-1344 24 0
-1344 25 0
1344 -4 -6 -8 -9 -12 -14 -16 -17 -19 -22 -24 -25 0
-1345 3 0
-1345 5 0
-1345 8 0
-1345 9 0
-1345 12 0
-1345 14 0
-1345 16 0
-1345 17 0
-1345 19 0
-1345 22 0
-1345 24 0
-1345 25 0
1345 -3 -5 -8 -9 -12 -14 -16 -17 -19 -22 -24 -25 0
-1346 4 0
-1346 5 0
-1346 8 0
-1346 9 0
-1346 12 0
-1346 14 0
-1346 16 0
-1346 17 0
-1346 19 0
-1346 22 0
-1346 24 0
-1346 25 0
1346 -4 -5 -8 -9 -12 -14 -16 -17 -19 -22 -24 -25 0
-1347 3 0
-1347 5 0
-1347 7 0
-1347 9 0
-1347 12 0
-1347 14 0
-1347 16 0
-1347 17 0
-1347 19 0
-1347 22 0
-1347 24 0
-1347 25 0
1347 -3 -5 -7 -9 -12 -14 -16 -17 -19 -22 -24 -25 0
-1348 4 0
-1348 5 0
-1348 7 0
-1348 9 0
-1348 12 0
-1348 14 0
-1348 16 0
-1348 17 0
-1348 19 0
-1348 22 0
-1348 24 0
-1348 25 0
1348 -4 -5 -7 -9 -12 -14 -16 -17 -19 -22 -24 -25 0
-1349 3 0
-1349 6 0
-1349 7 0
-1349 9 0
-1349 12 0
-1349 14 0
-1349 16 0
-1349 17 0
-1349 19 0
-1349 22 0
-1349 24 0
-1349 25 0
1349 -3 -6 -7 -9 -12 -14 -16 -17 -19 -22 -24 -25 0
-1350 4 0
-1350 6 0
-1350 7 0
-1350 9 0
-1350 12 0
-1350 14 0
-1350 16 0
-1350 17 0
-1350 19 0
-1350 21 0
-1350 24 0
-1350 25 0
1350 -4 -6 -7 -9 -12 -14 -16 -17 -19 -21 -24 -25 0
-1351 4 0
-1351 6 0
-1351 7 0
-1351 9 0
-1351 12 0
-1351 14 0
-1351 16 0
-1351 17 0
-1351 19 0
-1351 22 0
-1351 24 0
-1351 25 0
1351 -4 -6 -7 -9 -12 -14 -16 -17 -19 -22 -24 -25 0
-1352 3 0
-1352 6 0
-1352 7 0
-1352 9 0
-1352 12 0
-1352 13 0
-1352 16 0
-1352 17 0
-1352 19 0
-1352 22 0
-1352 24 0
-1352 25 0
1352 -3 -6 -7 -9 -12 -13 -16 -17 -19 -22 -24 -25 0
-1353 4 0
-1353 6 0
-1353 7 0
-1353 9 0
-1353 12 0
-1353 13 0
-1353 16 0
-1353 17 0
-1353 19 0
-1353 22 0
-1353 24 0
-1353 25 0
1353 -4 -6 -7 -9 -12 -13 -16 -17 -19 -22 -24 -25 0
-1354 3 0
-1354 5 0
-1354 7 0
-1354 9 0
-1354 12 0
-1354 13 0
-1354 16 0
-1354 17 0
-1354 19 0
-1354 22 0
-1354 24 0
-1354 25 0
1354 -3 -5 -7 -9 -12 -13 -16 -17 -19 -22 -24 -25 0
-1355 4 0
-1355 6 0
-1355 8 0
-1355 9 0
-1355 11 0
-1355 13 0
-1355 16 0
-1355 17 0
-1355 19 0
-1355 21 0
-1355 24 0
-1355 25 0
1355 -4 -6 -8 -9 -11 -13 -16 -17 -19 -21 -24 -25 0
-1356 4 0
-1356 5 0
-1356 7 0
-1356 9 0
-1356 12 0
-1356 13 0
-1356 16 0
-1356 17 0
-1356 19 0
-1356 22 0
-1356 24 0
-1356 25 0
1356 -4 -5 -7 -9 -12 -13 -16 -17 -19 -22 -24 -25 0
-1357 3 0
-1357 5 0
-1357 8 0
-1357 9 0
-1357 12 0
-1357 13 0
-1357 16 0
-1357 17 0
-1357 19 0
-1357 22 0
-1357 24 0
-1357 25 0
1357 -3 -5 -8 -9 -12 -13 -16 -17 -19 -22 -24 -25 0
-1358 4 0
-1358 5 0
-1358 8 0
-1358 9 0
-1358 12 0
-1358 13 0
-1358 16 0
-1358 17 0
-1358 19 0
-1358 22 0
-1358 24 0
-1358 25 0
1358 -4 -5 -8 -9 -12 -13 -16 -17 -19 -22 -24 -25 0
-1359 3 0
-1359 6 0
-1359 8 0
-1359 9 0
-1359 12 0
-1359 13 0
-1359 16 0
-1359 17 0
-1359 19 0
-1359 22 0
-1359 24 0
-1359 25 0
1359 -3 -6 -8 -9 -12 -13 -16 -17 -19 -22 -24 -25 0
-1360 4 0
-1360 6 0
-1360 8 0
-1360 9 0
-1360 12 0
-1360 13 0
-1360 16 0
-1360 17 0
-1360 19 0
-1360 22 0
-1360 24 0
-1360 25 0
1360 -4 -6 -8 -9 -12 -13 -16 -17 -19 -22 -24 -25 0
-1361 3 0
-1361 6 0
-1361 8 0
-1361 10 0
-1361 12 0
-1361 13 0
-1361 16 0
-1361 17 0
-1361 19 0
-1361 22 0
-1361 24 0
-1361 25 0
1361 -3 -6 -8 -10 -12 -13 -16 -17 -19 -22 -24 -25 0
-1362 4 0
-1362 6 0
-1362 8 0
-1362 10 0
-1362 12 0
-1362 13 0
-1362 16 0
-1362 17 0
-1362 19 0
-1362 22 0
-1362 24 0
-1362 25 0
1362 -4 -6 -8 -10 -12 -13 -16 -17 -19 -22 -24 -25 0
-1363 3 0
-1363 5 0
-1363 8 0
-1363 10 0
-1363 12 0
-1363 13 0
-1363 16 0
-1363 17 0
-1363 19 0
-1363 22 0
-1363 24 0
-1363 25 0
1363 -3 -5 -8 -10 -12 -13 -16 -17 -19 -22 -24 -25 0
-1364 4 0
-1364 5 0
-1364 8 0
-1364 10 0
-1364 12 0
-1364 13 0
-1364 16 0
-1364 17 0
-1364 19 0
-1364 22 0
-1364 24 0
-1364 25 0
1364 -4 -5 -8 -10 -12 -13 -16 -17 -19 -22 -24 -25 0
-1365 3 0
-1365 5 0
-1365 7 0
-1365 10 0
-1365 12 0
-1365 13 0
-1365 16 0
-1365 17 0
-1365 19 0
-1365 22 0
-1365 24 0
-1365 25 0
1365 -3 -5 -7 -10 -12 -13 -16 -17 -19 -22 -24 -25 0
-1366 4 0
-1366 5 0
-1366 7 0
-1366 10 0
-1366 12 0
-1366 13 0
-1366 16 0
-1366 17 0
-1366 19 0
-1366 22 0
-1366 24 0
-1366 25 0
1366 -4 -5 -7 -10 -12 -13 -16 -17 -19 -22 -24 -25 0
-1367 3 0
-1367 6 0
-1367 7 0
-1367 10 0
-1367 12 0
-1367 13 0
-1367 16 0
-1367 17 0
-1367 19 0
-1367 22 0
-1367 24 0
-1367 25 0
1367 -3 -6 -7 -10 -12 -13 -16 -17 -19 -22 -24 -25 0
-1368 4 0
-1368 6 0
-1368 7 0
-1368 10 0
-1368 12 0
-1368 13 0
-1368 16 0
-1368 17 0
-1368 19 0
-1368 21 0
-1368 24 0
-1368 25 0
1368 -4 -6 -7 -10 -12 -13 -16 -17 -19 -21 -24 -25 0
-1369 4 0
-1369 6 0
-1369 7 0
-1369 10 0
-1369 12 0
-1369 13 0
-1369 16 0
-1369 17 0
-1369 19 0
-1369 22 0
-1369 24 0
-1369 25 0
1369 -4 -6 -7 -10 -12 -13 -16 -17 -19 -22 -24 -25 0
-1370 3 0
-1370 6 0
-1370 7 0
-1370 10 0
-1370 11 0
-1370 13 0
-1370 16 0
-1370 17 0
-1370 19 0
-1370 22 0
-1370 24 0
-1370 25 0
1370 -3 -6 -7 -10 -11 -13 -16 -17 -19 -22 -24 -25 0
-1371 4 0
-1371 6 0
-1371 7 0
-1371 10 0
-1371 11 0
-1371 13 0
-1371 16 0
-1371 17 0
-1371 19 0
-1371 22 0
-1371 24 0
-1371 25 0
1371 -4 -6 -7 -10 -11 -13 -16 -17 -19 -22 -24 -25 0
-1372 3 0
-1372 5 0
-1372 7 0
-1372 10 0
-1372 11 0
-1372 13 0
-1372 16 0
-1372 17 0
-1372 19 0
-1372 22 0
-1372 24 0
-1372 25 0
1372 -3 -5 -7 -10 -11 -13 -16 -17 -19 -22 -24 -25 0
-1373 4 0
-1373 5 0
-1373 7 0
-1373 10 0
-1373 11 0
-1373 13 0
-1373 16 0
-1373 17 0
-1373 19 0
-1373 22 0
-1373 24 0
-1373 25 0
1373 -4 -5 -7 -10 -11 -13 -16 -17 -19 -22 -24 -25 0
-1374 3 0
-1374 5 0
-1374 8 0
-1374 10 0
-1374 11 0
-1374 13 0
-1374 16 0
-1374 17 0
-1374 19 0
-1374 22 0
-1374 24 0
-1374 25 0
1374 -3 -5 -8 -10 -11 -13 -16 -17 -19 -22 -24 -25 0
-1375 4 0
-1375 5 0
-1375 8 0
-1375 10 0
-1375 11 0
-1375 13 0
-1375 16 0
-1375 17 0
-1375 19 0
-1375 22 0
-1375 24 0
-1375 25 0
1375 -4 -5 -8 -10 -11 -13 -16 -17 -19 -22 -24 -25 0
-1376 3 0
-1376 6 0
-1376 8 0
-1376 10 0
-1376 11 0
-1376 13 0
-1376 16 0
-1376 17 0
-1376 19 0
-1376 22 0
-1376 24 0
-1376 25 0
1376 -3 -6 -8 -10 -11 -13 -16 -17 -19 -22 -24 -25 0
-1377 4 0
-1377 6 0
-1377 8 0
-1377 10 0
-1377 11 0
-1377 13 0
-1377 16 0
-1377 17 0
-1377 19 0
-1377 21 0
-1377 24 0
-1377 25 0
1377 -4 -6 -8 -10 -11 -13 -16 -17 -19 -21 -24 -25 0
-1378 4 0
-1378 6 0
-1378 8 0
-1378 10 0
-1378 11 0
-1378 13 0
-1378 16 0
-1378 17 0
-1378 19 0
-1378 22 0
-1378 24 0
-1378 25 0
1378 -4 -6 -8 -10 -11 -13 -16 -17 -19 -22 -24 -25 0
-1379 3 0
-1379 6 0
-1379 8 0
-1379 9 0
-1379 11 0
-1379 13 0
-1379 16 0
-1379 17 0
-1379 19 0
-1379 22 0
-1379 24 0
-1379 25 0
1379 -3 -6 -8 -9 -11 -13 -16 -17 -19 -22 -24 -25 0
-1380 4 0
-1380 6 0
-1380 8 0
-1380 9 0
-1380 11 0
-1380 13 0
-1380 16 0
-1380 17 0
-1380 19 0
-1380 22 0
-1380 24 0
-1380 25 0
1380 -4 -6 -8 -9 -11 -13 -16 -17 -19 -22 -24 -25 0
-1381 3 0
-1381 5 0
-1381 8 0
-1381 9 0
-1381 11 0
-1381 13 0
-1381 16 0
-1381 17 0
-1381 19 0
-1381 22 0
-1381 24 0
-1381 25 0
1381 -3 -5 -8 -9 -11 -13 -16 -17 -19 -22 -24 -25 0
-1382 4 0
-1382 6 0
-1382 7 0
-1382 9 0
-1382 11 0
-1382 13 0
-1382 16 0
-1382 17 0
-1382 19 0
-1382 21 0
-1382 24 0
-1382 25 0
1382 -4 -6 -7 -9 -11 -13 -16 -17 -19 -21 -24 -25 0
-1383 4 0
-1383 5 0
-1383 8 0
-1383 9 0
-1383 11 0
-1383 13 0
-1383 16 0
-1383 17 0
-1383 19 0
-1383 22 0
-1383 24 0
-1383 25 0
1383 -4 -5 -8 -9 -11 -13 -16 -17 -19 -22 -24 -25 0
-1384 3 0
-1384 5 0
-1384 7 0
-1384 9 0
-1384 11 0
-1384 13 0
-1384 16 0
-1384 17 0
-1384 19 0
-1384 22 0
-1384 24 0
-1384 25 0
1384 -3 -5 -7 -9 -11 -13 -16 -17 -19 -22 -24 -25 0
-1385 4 0
-1385 5 0
-1385 7 0
-1385 9 0
-1385 11 0
-1385 13 0
-1385 16 0
-1385 17 0
-1385 19 0
-1385 22 0
-1385 24 0
-1385 25 0
1385 -4 -5 -7 -9 -11 -13 -16 -17 -19 -22 -24 -25 0
-1386 3 0
-1386 6 0
-1386 7 0
-1386 9 0
-1386 11 0
-1386 13 0
-1386 16 0
-1386 17 0
-1386 19 0
-1386 22 0
-1386 24 0
-1386 25 0
1386 -3 -6 -7 -9 -11 -13 -16 -17 -19 -22 -24 -25 0
-1387 3 0
-1387 5 0
-1387 7 0
-1387 9 0
-1387 11 0
-1387 13 0
-1387 15 0
-1387 18 0
-1387 19 0
-1387 21 0
-1387 24 0
-1387 25 0
1387 -3 -5 -7 -9 -11 -13 -15 -18 -19 -21 -24 -25 0
-1388 3 0
-1388 6 0
-1388 7 0
-1388 9 0
-1388 11 0
-1388 13 0
-1388 15 0
-1388 18 0
-1388 19 0
-1388 21 0
-1388 24 0
-1388 25 0
1388 -3 -6 -7 -9 -11 -13 -15 -18 -19 -21 -24 -25 0
-1389 4 0
-1389 5 0
-1389 7 0
-1389 9 0
-1389 11 0
-1389 13 0
-1389 15 0
-1389 18 0
-1389 19 0
-1389 21 0
-1389 24 0
-1389 25 0
1389 -4 -5 -7 -9 -11 -13 -15 -18 -19 -21 -24 -25 0
-1390 4 0
-1390 6 0
-1390 7 0
-1390 9 0
-1390 11 0
-1390 13 0
-1390 16 0
-1390 17 0
-1390 19 0
-1390 22 0
-1390 24 0
-1390 25 0
1390 -4 -6 -7 -9 -11 -13 -16 -17 -19 -22 -24 -25 0
-1391 3 0
-1391 6 0
-1391 7 0
-1391 9 0
-1391 11 0
-1391 13 0
-1391 16 0
-1391 18 0
-1391 19 0
-1391 22 0
-1391 24 0
-1391 25 0
1391 -3 -6 -7 -9 -11 -13 -16 -18 -19 -22 -24 -25 0
-1392 4 0
-1392 6 0
-1392 7 0
-1392 9 0
-1392 11 0
-1392 13 0
-1392 16 0
-1392 18 0
-1392 19 0
-1392 22 0
-1392 24 0
-1392 25 0
1392 -4 -6 -7 -9 -11 -13 -16 -18 -19 -22 -24 -25 0
-1393 3 0
-1393 5 0
-1393 7 0
-1393 9 0
-1393 11 0
-1393 13 0
-1393 16 0
-1393 18 0
-1393 19 0
-1393 22 0
-1393 24 0
-1393 25 0
1393 -3 -5 -7 -9 -11 -13 -16 -18 -19 -22 -24 -25 0
-1394 3 0
-1394 5 0
-1394 8 0
-1394 9 0
-1394 11 0
-1394 13 0
-1394 15 0
-1394 18 0
-1394 19 0
-1394 21 0
-1394 24 0
-1394 25 0
1394 -3 -5 -8 -9 -11 -13 -15 -18 -19 -21 -24 -25 0
-1395 3 0
-1395 6 0
-1395 8 0
-1395 9 0
-1395 11 0
-1395 13 0
-1395 15 0
-1395 18 0
-1395 19 0
-1395 21 0
-1395 24 0
-1395 25 0
1395 -3 -6 -8 -9 -11 -13 -15 -18 -19 -21 -24 -25 0
-1396 4 0
-1396 5 0
-1396 8 0
-1396 9 0
-1396 11 0
-1396 13 0
-1396 15 0
-1396 18 0
-1396 19 0
-1396 21 0
-1396 24 0
-1396 25 0
1396 -4 -5 -8 -9 -11 -13 -15 -18 -19 -21 -24 -25 0
-1397 4 0
-1397 5 0
-1397 7 0
-1397 9 0
-1397 11 0
-1397 13 0
-1397 16 0
-1397 18 0
-1397 19 0
-1397 22 0
-1397 24 0
-1397 25 0
1397 -4 -5 -7 -9 -11 -13 -16 -18 -19 -22 -24 -25 0
-1398 3 0
-1398 5 0
-1398 8 0
-1398 9 0
-1398 11 0
-1398 13 0
-1398 16 0
-1398 18 0
-1398 19 0
-1398 22 0
-1398 24 0
-1398 25 0
1398 -3 -5 -8 -9 -11 -13 -16 -18 -19 -22 -24 -25 0
-1399 4 0
-1399 5 0
-1399 8 0
-1399 9 0
-1399 11 0
-1399 13 0
-1399 16 0
-1399 18 0
-1399 19 0
-1399 22 0
-1399 24 0
-1399 25 0
1399 -4 -5 -8 -9 -11 -13 -16 -18 -19 -22 -24 -25 0
-1400 3 0
-1400 6 0
-1400 8 0
-1400 9 0
-1400 11 0
-1400 13 0
-1400 16 0
-1400 18 0
-1400 19 0
-1400 22 0
-1400 24 0
-1400 25 0
1400 -3 -6 -8 -9 -11 -13 -16 -18 -19 -22 -24 -25 0
-1401 3 0
-1401 5 0
-1401 7 0
-1401 10 0
-1401 11 0
-1401 13 0
-1401 15 0
-1401 18 0
-1401 19 0
-1401 21 0
-1401 24 0
-1401 25 0
1401 -3 -5 -7 -10 -11 -13 -15 -18 -19 -21 -24 -25 0
-1402 3 0
-1402 6 0
-1402 7 0
-1402 10 0
-1402 11 0
-1402 13 0
-1402 15 0
-1402 18 0
-1402 19 0
-1402 21 0
-1402 24 0
-1402 25 0
1402 -3 -6 -7 -10 -11 -13 -15 -18 -19 -21 -24 -25 0
-1403 4 0
-1403 5 0
-1403 7 0
-1403 10 0
-1403 11 0
-1403 13 0
-1403 15 0
-1403 18 0
-1403 19 0
-1403 21 0
-1403 24 0
-1403 25 0
1403 -4 -5 -7 -10 -11 -13 -15 -18 -19 -21 -24 -25 0
-1404 4 0
-1404 6 0
-1404 8 0
-1404 9 0
-1404 11 0
-1404 13 0
-1404 16 0
-1404 18 0
-1404 19 0
-1404 22 0
-1404 24 0
-1404 25 0
1404 -4 -6 -8 -9 -11 -13 -16 -18 -19 -22 -24 -25 0
-1405 3 0
-1405 6 0
-1405 8 0
-1405 10 0
-1405 11 0
-1405 13 0
-1405 16 0
-1405 18 0
-1405 19 0
-1405 22 0
-1405 24 0
-1405 25 0
1405 -3 -6 -8 -10 -11 -13 -16 -18 -19 -22 -24 -25 0
-1406 4 0
-1406 6 0
-1406 8 0
-1406 10 0
-1406 11 0
-1406 13 0
-1406 16 0
-1406 18 0
-1406 19 0
-1406 22 0
-1406 24 0
-1406 25 0
1406 -4 -6 -8 -10 -11 -13 -16 -18 -19 -22 -24 -25 0
-1407 3 0
-1407 5 0
-1407 8 0
-1407 10 0
-1407 11 0
-1407 13 0
-1407 16 0
-1407 18 0
-1407 19 0
-1407 22 0
-1407 24 0
-1407 25 0
1407 -3 -5 -8 -10 -11 -13 -16 -18 -19 -22 -24 -25 0
-1408 4 0
-1408 5 0
-1408 8 0
-1408 10 0
-1408 11 0
-1408 13 0
-1408 15 0
-1408 18 0
-1408 19 0
-1408 21 0
-1408 24 0
-1408 25 0
1408 -4 -5 -8 -10 -11 -13 -15 -18 -19 -21 -24 -25 0
-1409 4 0
-1409 6 0
-1409 7 0
-1409 10 0
-1409 11 0
-1409 13 0
-1409 15 0
-1409 18 0
-1409 19 0
-1409 21 0
-1409 24 0
-1409 25 0
1409 -4 -6 -7 -10 -11 -13 -15 -18 -19 -21 -24 -25 0
-1410 4 0
-1410 5 0
-1410 8 0
-1410 10 0
-1410 11 0
-1410 13 0
-1410 16 0
-1410 18 0
-1410 19 0
-1410 22 0
-1410 24 0
-1410 25 0
1410 -4 -5 -8 -10 -11 -13 -16 -18 -19 -22 -24 -25 0
-1411 3 0
-1411 5 0
-1411 7 0
-1411 10 0
-1411 11 0
-1411 13 0
-1411 16 0
-1411 18 0
-1411 19 0
-1411 22 0
-1411 24 0
-1411 25 0
1411 -3 -5 -7 -10 -11 -13 -16 -18 -19 -22 -24 -25 0
-1412 4 0
-1412 5 0
-1412 7 0
-1412 10 0
-1412 11 0
-1412 13 0
-1412 16 0
-1412 18 0
-1412 19 0
-1412 22 0
-1412 24 0
-1412 25 0
1412 -4 -5 -7 -10 -11 -13 -16 -18 -19 -22 -24 -25 0
-1413 3 0
-1413 6 0
-1413 7 0
-1413 10 0
-1413 11 0
-1413 13 0
-1413 16 0
-1413 18 0
-1413 19 0
-1413 22 0
-1413 24 0
-1413 25 0
1413 -3 -6 -7 -10 -11 -13 -16 -18 -19 -22 -24 -25 0
-1414 3 0
-1414 5 0
-1414 7 0
-1414 9 0
-1414 12 0
-1414 13 0
-1414 15 0
-1414 18 0
-1414 19 0
-1414 21 0
-1414 24 0
-1414 25 0
1414 -3 -5 -7 -9 -12 -13 -15 -18 -19 -21 -24 -25 0
-1415 3 0
-1415 6 0
-1415 7 0
-1415 9 0
-1415 12 0
-1415 13 0
-1415 15 0
-1415 18 0
-1415 19 0
-1415 21 0
-1415 24 0
-1415 25 0
1415 -3 -6 -7 -9 -12 -13 -15 -18 -19 -21 -24 -25 0
-1416 4 0
-1416 5 0
-1416 7 0
-1416 9 0
-1416 12 0
-1416 13 0
-1416 15 0
-1416 18 0
-1416 19 0
-1416 21 0
-1416 24 0
-1416 25 0
1416 -4 -5 -7 -9 -12 -13 -15 -18 -19 -21 -24 -25 0
-1417 4 0
-1417 6 0
-1417 7 0
-1417 10 0
-1417 11 0
-1417 13 0
-1417 16 0
-1417 18 0
-1417 19 0
-1417 22 0
-1417 24 0
-1417 25 0
1417 -4 -6 -7 -10 -11 -13 -16 -18 -19 -22 -24 -25 0
-1418 3 0
-1418 6 0
-1418 7 0
-1418 10 0
-1418 12 0
-1418 13 0
-1418 16 0
-1418 18 0
-1418 19 0
-1418 22 0
-1418 24 0
-1418 25 0
1418 -3 -6 -7 -10 -12 -13 -16 -18 -19 -22 -24 -25 0
-1419 4 0
-1419 6 0
-1419 7 0
-1419 10 0
-1419 12 0
-1419 13 0
-1419 16 0
-1419 18 0
-1419 19 0
-1419 22 0
-1419 24 0
-1419 25 0
1419 -4 -6 -7 -10 -12 -13 -16 -18 -19 -22 -24 -25 0
-1420 3 0
-1420 5 0
-1420 7 0
-1420 10 0
-1420 12 0
-1420 13 0
-1420 16 0
-1420 18 0
-1420 19 0
-1420 22 0
-1420 24 0
-1420 25 0
1420 -3 -5 -7 -10 -12 -13 -16 -18 -19 -22 -24 -25 0
-1421 3 0
-1421 5 0
-1421 8 0
-1421 9 0
-1421 12 0
-1421 13 0
-1421 15 0
-1421 18 0
-1421 19 0
-1421 21 0
-1421 24 0
-1421 25 0
1421 -3 -5 -8 -9 -12 -13 -15 -18 -19 -21 -24 -25 0
-1422 3 0
-1422 6 0
-1422 8 0
-1422 9 0
-1422 12 0
-1422 13 0
-1422 15 0
-1422 18 0
-1422 19 0
-1422 21 0
-1422 24 0
-1422 25 0
1422 -3 -6 -8 -9 -12 -13 -15 -18 -19 -21 -24 -25 0
-1423 4 0
-1423 5 0
-1423 8 0
-1423 9 0
-1423 12 0
-1423 13 0
-1423 15 0
-1423 18 0
-1423 19 0
-1423 21 0
-1423 24 0
-1423 25 0
1423 -4 -5 -8 -9 -12 -13 -15 -18 -19 -21 -24 -25 0
-1424 4 0
-1424 5 0
-1424 7 0
-1424 10 0
-1424 12 0
-1424 13 0
-1424 16 0
-1424 18 0
-1424 19 0
-1424 22 0
-1424 24 0
-1424 25 0
1424 -4 -5 -7 -10 -12 -13 -16 -18 -19 -22 -24 -25 0
-1425 3 0
-1425 5 0
-1425 8 0
-1425 10 0
-1425 12 0
-1425 13 0
-1425 16 0
-1425 18 0
-1425 19 0
-1425 22 0
-1425 24 0
-1425 25 0
1425 -3 -5 -8 -10 -12 -13 -16 -18 -19 -22 -24 -25 0
-1426 4 0
-1426 5 0
-1426 8 0
-1426 10 0
-1426 12 0
-1426 13 0
-1426 16 0
-1426 18 0
-1426 19 0
-1426 22 0
-1426 24 0
-1426 25 0
1426 -4 -5 -8 -10 -12 -13 -16 -18 -19 -22 -24 -25 0
-1427 3 0
-1427 6 0
-1427 8 0
-1427 10 0
-1427 12 0
-1427 13 0
-1427 16 0
-1427 18 0
-1427 19 0
-1427 22 0
-1427 24 0
-1427 25 0
1427 -3 -6 -8 -10 -12 -13 -16 -18 -19 -22 -24 -25 0
-1428 4 0
-1428 6 0
-1428 7 0
-1428 9 0
-1428 12 0
-1428 13 0
-1428 15 0
-1428 18 0
-1428 19 0
-1428 21 0
-1428 24 0
-1428 25 0
1428 -4 -6 -7 -9 -12 -13 -15 -18 -19 -21 -24 -25 0
-1429 4 0
-1429 6 0
-1429 8 0
-1429 10 0
-1429 12 0
-1429 13 0
-1429 16 0
-1429 18 0
-1429 19 0
-1429 22 0
-1429 24 0
-1429 25 0
1429 -4 -6 -8 -10 -12 -13 -16 -18 -19 -22 -24 -25 0
-1430 3 0
-1430 6 0
-1430 8 0
-1430 9 0
-1430 12 0
-1430 13 0
-1430 16 0
-1430 18 0
-1430 19 0
-1430 22 0
-1430 24 0
-1430 25 0
1430 -3 -6 -8 -9 -12 -13 -16 -18 -19 -22 -24 -25 0
-1431 4 0
-1431 6 0
-1431 8 0
-1431 9 0
-1431 12 0
-1431 13 0
-1431 16 0
-1431 18 0
-1431 19 0
-1431 22 0
-1431 24 0
-1431 25 0
1431 -4 -6 -8 -9 -12 -13 -16 -18 -19 -22 -24 -25 0
-1432 3 0
-1432 5 0
-1432 8 0
-1432 9 0
-1432 12 0
-1432 13 0
-1432 16 0
-1432 18 0
-1432 19 0
-1432 22 0
-1432 24 0
-1432 25 0
1432 -3 -5 -8 -9 -12 -13 -16 -18 -19 -22 -24 -25 0
-1433 4 0
-1433 5 0
-1433 8 0
-1433 9 0
-1433 12 0
-1433 13 0
-1433 16 0
-1433 18 0
-1433 19 0
-1433 22 0
-1433 24 0
-1433 25 0
1433 -4 -5 -8 -9 -12 -13 -16 -18 -19 -22 -24 -25 0
-1434 3 0
-1434 5 0
-1434 7 0
-1434 9 0
-1434 12 0
-1434 13 0
-1434 16 0
-1434 18 0
-1434 19 0
-1434 22 0
-1434 24 0
-1434 25 0
1434 -3 -5 -7 -9 -12 -13 -16 -18 -19 -22 -24 -25 0
-1435 4 0
-1435 5 0
-1435 7 0
-1435 9 0
-1435 12 0
-1435 13 0
-1435 16 0
-1435 18 0
-1435 19 0
-1435 22 0
-1435 24 0
-1435 25 0
1435 -4 -5 -7 -9 -12 -13 -16 -18 -19 -22 -24 -25 0
-1436 3 0
-1436 6 0
-1436 7 0
-1436 9 0
-1436 12 0
-1436 13 0
-1436 16 0
-1436 18 0
-1436 19 0
-1436 22 0
-1436 24 0
-1436 25 0
1436 -3 -6 -7 -9 -12 -13 -16 -18 -19 -22 -24 -25 0
-1437 3 0
-1437 5 0
-1437 7 0
-1437 9 0
-1437 11 0
-1437 14 0
-1437 15 0
-1437 18 0
-1437 19 0
-1437 21 0
-1437 24 0
-1437 25 0
1437 -3 -5 -7 -9 -11 -14 -15 -18 -19 -21 -24 -25 0
-1438 3 0
-1438 6 0
-1438 7 0
-1438 9 0
-1438 11 0
-1438 14 0
-1438 15 0
-1438 18 0
-1438 19 0
-1438 21 0
-1438 24 0
-1438 25 0
1438 -3 -6 -7 -9 -11 -14 -15 -18 -19 -21 -24 -25 0
-1439 4 0
-1439 5 0
-1439 7 0
-1439 9 0
-1439 11 0
-1439 14 0
-1439 15 0
-1439 18 0
-1439 19 0
-1439 21 0
-1439 24 0
-1439 25 0
1439 -4 -5 -7 -9 -11 -14 -15 -18 -19 -21 -24 -25 0
-1440 4 0
-1440 6 0
-1440 7 0
-1440 9 0
-1440 12 0
-1440 13 0
-1440 16 0
-1440 18 0
-1440 19 0
-1440 22 0
-1440 24 0
-1440 25 0
1440 -4 -6 -7 -9 -12 -13 -16 -18 -19 -22 -24 -25 0
-1441 3 0
-1441 6 0
-1441 7 0
-1441 9 0
-1441 12 0
-1441 14 0
-1441 16 0
-1441 18 0
-1441 19 0
-1441 22 0
-1441 24 0
-1441 25 0
1441 -3 -6 -7 -9 -12 -14 -16 -18 -19 -22 -24 -25 0
-1442 4 0
-1442 6 0
-1442 7 0
-1442 9 0
-1442 12 0
-1442 14 0
-1442 16 0
-1442 18 0
-1442 19 0
-1442 22 0
-1442 24 0
-1442 25 0
1442 -4 -6 -7 -9 -12 -14 -16 -18 -19 -22 -24 -25 0
-1443 3 0
-1443 5 0
-1443 7 0
-1443 9 0
-1443 12 0
-1443 14 0
-1443 16 0
-1443 18 0
-1443 19 0
-1443 22 0
-1443 24 0
-1443 25 0
1443 -3 -5 -7 -9 -12 -14 -16 -18 -19 -22 -24 -25 0
-1444 3 0
-1444 5 0
-1444 8 0
-1444 9 0
-1444 11 0
-1444 14 0
-1444 15 0
-1444 18 0
-1444 19 0
-1444 21 0
-1444 24 0
-1444 25 0
1444 -3 -5 -8 -9 -11 -14 -15 -18 -19 -21 -24 -25 0
-1445 3 0
-1445 6 0
-1445 8 0
-1445 9 0
-1445 11 0
-1445 14 0
-1445 15 0
-1445 18 0
-1445 19 0
-1445 21 0
-1445 24 0
-1445 25 0
1445 -3 -6 -8 -9 -11 -14 -15 -18 -19 -21 -24 -25 0
-1446 4 0
-1446 5 0
-1446 8 0
-1446 9 0
-1446 11 0
-1446 14 0
-1446 15 0
-1446 18 0
-1446 19 0
-1446 21 0
-1446 24 0
-1446 25 0
1446 -4 -5 -8 -9 -11 -14 -15 -18 -19 -21 -24 -25 0
-1447 4 0
-1447 5 0
-1447 7 0
-1447 9 0
-1447 12 0
-1447 14 0
-1447 16 0
-1447 18 0
-1447 19 0
-1447 22 0
-1447 24 0
-1447 25 0
1447 -4 -5 -7 -9 -12 -14 -16 -18 -19 -22 -24 -25 0
-1448 3 0
-1448 5 0
-1448 8 0
-1448 9 0
-1448 12 0
-1448 14 0
-1448 16 0
-1448 18 0
-1448 19 0
-1448 22 0
-1448 24 0
-1448 25 0
1448 -3 -5 -8 -9 -12 -14 -16 -18 -19 -22 -24 -25 0
-1449 4 0
-1449 5 0
-1449 8 0
-1449 9 0
-1449 12 0
-1449 14 0
-1449 16 0
-1449 18 0
-1449 19 0
-1449 22 0
-1449 24 0
-1449 25 0
1449 -4 -5 -8 -9 -12 -14 -16 -18 -19 -22 -24 -25 0
-1450 3 0
-1450 6 0
-1450 8 0
-1450 9 0
-1450 12 0
-1450 14 0
-1450 16 0
-1450 18 0
-1450 19 0
-1450 22 0
-1450 24 0
-1450 25 0
1450 -3 -6 -8 -9 -12 -14 -16 -18 -19 -22 -24 -25 0
-1451 3 0
-1451 5 0
-1451 7 0
-1451 10 0
-1451 11 0
-1451 14 0
-1451 15 0
-1451 18 0
-1451 19 0
-1451 21 0
-1451 24 0
-1451 25 0
1451 -3 -5 -7 -10 -11 -14 -15 -18 -19 -21 -24 -25 0
-1452 3 0
-1452 6 0
-1452 7 0
-1452 10 0
-1452 11 0
-1452 14 0
-1452 15 0
-1452 18 0
-1452 19 0
-1452 21 0
-1452 24 0
-1452 25 0
1452 -3 -6 -7 -10 -11 -14 -15 -18 -19 -21 -24 -25 0
-1453 4 0
-1453 5 0
-1453 7 0
-1453 10 0
-1453 11 0
-1453 14 0
-1453 15 0
-1453 18 0
-1453 19 0
-1453 21 0
-1453 24 0
-1453 25 0
1453 -4 -5 -7 -10 -11 -14 -15 -18 -19 -21 -24 -25 0
-1454 4 0
-1454 6 0
-1454 8 0
-1454 9 0
-1454 12 0
-1454 14 0
-1454 16 0
-1454 18 0
-1454 19 0
-1454 22 0
-1454 24 0
-1454 25 0
1454 -4 -6 -8 -9 -12 -14 -16 -18 -19 -22 -24 -25 0
-1455 3 0
-1455 6 0
-1455 8 0
-1455 10 0
-1455 12 0
-1455 14 0
-1455 16 0
-1455 18 0
-1455 19 0
-1455 22 0
-1455 24 0
-1455 25 0
1455 -3 -6 -8 -10 -12 -14 -16 -18 -19 -22 -24 -25 0
-1456 4 0
-1456 6 0
-1456 8 0
-1456 10 0
-1456 12 0
-1456 14 0
-1456 16 0
-1456 18 0
-1456 19 0
-1456 22 0
-1456 24 0
-1456 25 0
1456 -4 -6 -8 -10 -12 -14 -16 -18 -19 -22 -24 -25 0
-1457 3 0
-1457 5 0
-1457 8 0
-1457 10 0
-1457 12 0
-1457 14 0
-1457 16 0
-1457 18 0
-1457 19 0
-1457 22 0
-1457 24 0
-1457 25 0
1457 -3 -5 -8 -10 -12 -14 -16 -18 -19 -22 -24 -25 0
-1458 4 0
-1458 5 0
-1458 8 0
-1458 10 0
-1458 11 0
-1458 14 0
-1458 15 0
-1458 18 0
-1458 19 0
-1458 21 0
-1458 24 0
-1458 25 0
1458 -4 -5 -8 -10 -11 -14 -15 -18 -19 -21 -24 -25 0
-1459 4 0
-1459 6 0
-1459 7 0
-1459 10 0
-1459 11 0
-1459 14 0
-1459 15 0
-1459 18 0
-1459 19 0
-1459 21 0
-1459 24 0
-1459 25 0
1459 -4 -6 -7 -10 -11 -14 -15 -18 -19 -21 -24 -25 0
-1460 4 0
-1460 5 0
-1460 8 0
-1460 10 0
-1460 12 0
-1460 14 0
-1460 16 0
-1460 18 0
-1460 19 0
-1460 22 0
-1460 24 0
-1460 25 0
1460 -4 -5 -8 -10 -12 -14 -16 -18 -19 -22 -24 -25 0
-1461 3 0
-1461 5 0
-1461 7 0
-1461 10 0
-1461 12 0
-1461 14 0
-1461 16 0
-1461 18 0
-1461 19 0
-1461 22 0
-1461 24 0
-1461 25 0
1461 -3 -5 -7 -10 -12 -14 -16 -18 -19 -22 -24 -25 0
-1462 4 0
-1462 5 0
-1462 7 0
-1462 10 0
-1462 12 0
-1462 14 0
-1462 16 0
-1462 18 0
-1462 19 0
-1462 22 0
-1462 24 0
-1462 25 0
1462 -4 -5 -7 -10 -12 -14 -16 -18 -19 -22 -24 -25 0
-1463 3 0
-1463 6 0
-1463 7 0
-1463 10 0
-1463 12 0
-1463 14 0
-1463 16 0
-1463 18 0
-1463 19 0
-1463 22 0
-1463 24 0
-1463 25 0
1463 -3 -6 -7 -10 -12 -14 -16 -18 -19 -22 -24 -25 0
-1464 4 0
-1464 6 0
-1464 7 0
-1464 10 0
-1464 12 0
-1464 14 0
-1464 15 0
-1464 18 0
-1464 19 0
-1464 21 0
-1464 24 0
-1464 25 0
1464 -4 -6 -7 -10 -12 -14 -15 -18 -19 -21 -24 -25 0
-1465 4 0
-1465 6 0
-1465 7 0
-1465 10 0
-1465 12 0
-1465 14 0
-1465 16 0
-1465 18 0
-1465 19 0
-1465 22 0
-1465 24 0
-1465 25 0
1465 -4 -6 -7 -10 -12 -14 -16 -18 -19 -22 -24 -25 0
-1466 3 0
-1466 6 0
-1466 7 0
-1466 10 0
-1466 11 0
-1466 14 0
-1466 16 0
-1466 18 0
-1466 19 0
-1466 22 0
-1466 24 0
-1466 25 0
1466 -3 -6 -7 -10 -11 -14 -16 -18 -19 -22 -24 -25 0
-1467 4 0
-1467 6 0
-1467 7 0
-1467 10 0
-1467 11 0
-1467 14 0
-1467 16 0
-1467 18 0
-1467 19 0
-1467 22 0
-1467 24 0
-1467 25 0
1467 -4 -6 -7 -10 -11 -14 -16 -18 -19 -22 -24 -25 0
-1468 3 0
-1468 5 0
-1468 7 0
-1468 10 0
-1468 11 0
-1468 14 0
-1468 16 0
-1468 18 0
-1468 19 0
-1468 22 0
-1468 24 0
-1468 25 0
1468 -3 -5 -7 -10 -11 -14 -16 -18 -19 -22 -24 -25 0
-1469 4 0
-1469 6 0
-1469 8 0
-1469 9 0
-1469 11 0
-1469 14 0
-1469 15 0
-1469 18 0
-1469 19 0
-1469 21 0
-1469 24 0
-1469 25 0
1469 -4 -6 -8 -9 -11 -14 -15 -18 -19 -21 -24 -25 0
-1470 4 0
-1470 5 0
-1470 7 0
-1470 10 0
-1470 11 0
-1470 14 0
-1470 16 0
-1470 18 0
-1470 19 0
-1470 22 0
-1470 24 0
-1470 25 0
1470 -4 -5 -7 -10 -11 -14 -16 -18 -19 -22 -24 -25 0
-1471 3 0
-1471 5 0
-1471 8 0
-1471 10 0
-1471 11 0
-1471 14 0
-1471 16 0
-1471 18 0
-1471 19 0
-1471 22 0
-1471 24 0
-1471 25 0
1471 -3 -5 -8 -10 -11 -14 -16 -18 -19 -22 -24 -25 0
-1472 4 0
-1472 5 0
-1472 8 0
-1472 10 0
-1472 11 0
-1472 14 0
-1472 16 0
-1472 18 0
-1472 19 0
-1472 22 0
-1472 24 0
-1472 25 0
1472 -4 -5 -8 -10 -11 -14 -16 -18 -19 -22 -24 -25 0
-1473 3 0
-1473 6 0
-1473 8 0
-1473 10 0
-1473 11 0
-1473 14 0
-1473 16 0
-1473 18 0
-1473 19 0
-1473 22 0
-1473 24 0
-1473 25 0
1473 -3 -6 -8 -10 -11 -14 -16 -18 -19 -22 -24 -25 0
-1474 4 0
-1474 6 0
-1474 8 0
-1474 10 0
-1474 11 0
-1474 14 0
-1474 15 0
-1474 18 0
-1474 19 0
-1474 21 0
-1474 24 0
-1474 25 0
1474 -4 -6 -8 -10 -11 -14 -15 -18 -19 -21 -24 -25 0
-1475 4 0
-1475 6 0
-1475 8 0
-1475 10 0
-1475 11 0
-1475 14 0
-1475 16 0
-1475 18 0
-1475 19 0
-1475 22 0
-1475 24 0
-1475 25 0
1475 -4 -6 -8 -10 -11 -14 -16 -18 -19 -22 -24 -25 0
-1476 3 0
-1476 6 0
-1476 8 0
-1476 9 0
-1476 11 0
-1476 14 0
-1476 16 0
-1476 18 0
-1476 19 0
-1476 22 0
-1476 24 0
-1476 25 0
1476 -3 -6 -8 -9 -11 -14 -16 -18 -19 -22 -24 -25 0
-1477 4 0
-1477 6 0
-1477 8 0
-1477 9 0
-1477 11 0
-1477 14 0
-1477 16 0
-1477 18 0
-1477 19 0
-1477 22 0
-1477 24 0
-1477 25 0
1477 -4 -6 -8 -9 -11 -14 -16 -18 -19 -22 -24 -25 0
-1478 3 0
-1478 5 0
-1478 8 0
-1478 9 0
-1478 11 0
-1478 14 0
-1478 16 0
-1478 18 0
-1478 19 0
-1478 22 0
-1478 24 0
-1478 25 0
1478 -3 -5 -8 -9 -11 -14 -16 -18 -19 -22 -24 -25 0
-1479 4 0
-1479 6 0
-1479 7 0
-1479 9 0
-1479 11 0
-1479 14 0
-1479 15 0
-1479 18 0
-1479 19 0
-1479 21 0
-1479 24 0
-1479 25 0
1479 -4 -6 -7 -9 -11 -14 -15 -18 -19 -21 -24 -25 0
-1480 4 0
-1480 5 0
-1480 8 0
-1480 9 0
-1480 11 0
-1480 14 0
-1480 16 0
-1480 18 0
-1480 19 0
-1480 22 0
-1480 24 0
-1480 25 0
1480 -4 -5 -8 -9 -11 -14 -16 -18 -19 -22 -24 -25 0
-1481 3 0
-1481 5 0
-1481 7 0
-1481 9 0
-1481 11 0
-1481 14 0
-1481 16 0
-1481 18 0
-1481 19 0
-1481 22 0
-1481 24 0
-1481 25 0
1481 -3 -5 -7 -9 -11 -14 -16 -18 -19 -22 -24 -25 0
-1482 4 0
-1482 5 0
-1482 7 0
-1482 9 0
-1482 11 0
-1482 14 0
-1482 16 0
-1482 18 0
-1482 19 0
-1482 22 0
-1482 24 0
-1482 25 0
1482 -4 -5 -7 -9 -11 -14 -16 -18 -19 -22 -24 -25 0
-1483 3 0
-1483 6 0
-1483 7 0
-1483 9 0
-1483 11 0
-1483 14 0
-1483 16 0
-1483 18 0
-1483 19 0
-1483 22 0
-1483 24 0
-1483 25 0
1483 -3 -6 -7 -9 -11 -14 -16 -18 -19 -22 -24 -25 0
-1484 4 0
-1484 6 0
-1484 7 0
-1484 9 0
-1484 11 0
-1484 14 0
-1484 16 0
-1484 18 0
-1484 19 0
-1484 21 0
-1484 24 0
-1484 25 0
1484 -4 -6 -7 -9 -11 -14 -16 -18 -19 -21 -24 -25 0
-1485 4 0
-1485 6 0
-1485 7 0
-1485 9 0
-1485 11 0
-1485 14 0
-1485 16 0
-1485 18 0
-1485 19 0
-1485 22 0
-1485 24 0
-1485 25 0
1485 -4 -6 -7 -9 -11 -14 -16 -18 -19 -22 -24 -25 0
-1486 3 0
-1486 6 0
-1486 7 0
-1486 9 0
-1486 11 0
-1486 14 0
-1486 15 0
-1486 18 0
-1486 19 0
-1486 22 0
-1486 24 0
-1486 25 0
1486 -3 -6 -7 -9 -11 -14 -15 -18 -19 -22 -24 -25 0
-1487 4 0
-1487 6 0
-1487 7 0
-1487 9 0
-1487 11 0
-1487 14 0
-1487 15 0
-1487 18 0
-1487 19 0
-1487 22 0
-1487 24 0
-1487 25 0
1487 -4 -6 -7 -9 -11 -14 -15 -18 -19 -22 -24 -25 0
-1488 3 0
-1488 5 0
-1488 7 0
-1488 9 0
-1488 11 0
-1488 14 0
-1488 15 0
-1488 18 0
-1488 19 0
-1488 22 0
-1488 24 0
-1488 25 0
1488 -3 -5 -7 -9 -11 -14 -15 -18 -19 -22 -24 -25 0
-1489 4 0
-1489 5 0
-1489 7 0
-1489 9 0
-1489 11 0
-1489 14 0
-1489 15 0
-1489 18 0
-1489 19 0
-1489 22 0
-1489 24 0
-1489 25 0
1489 -4 -5 -7 -9 -11 -14 -15 -18 -19 -22 -24 -25 0
-1490 3 0
-1490 5 0
-1490 8 0
-1490 9 0
-1490 11 0
-1490 14 0
-1490 15 0
-1490 18 0
-1490 19 0
-1490 22 0
-1490 24 0
-1490 25 0
1490 -3 -5 -8 -9 -11 -14 -15 -18 -19 -22 -24 -25 0
-1491 4 0
-1491 5 0
-1491 8 0
-1491 9 0
-1491 11 0
-1491 14 0
-1491 15 0
-1491 18 0
-1491 19 0
-1491 22 0
-1491 24 0
-1491 25 0
1491 -4 -5 -8 -9 -11 -14 -15 -18 -19 -22 -24 -25 0
-1492 3 0
-1492 6 0
-1492 8 0
-1492 9 0
-1492 11 0
-1492 14 0
-1492 15 0
-1492 18 0
-1492 19 0
-1492 22 0
-1492 24 0
-1492 25 0
1492 -3 -6 -8 -9 -11 -14 -15 -18 -19 -22 -24 -25 0
-1493 4 0
-1493 6 0
-1493 8 0
-1493 9 0
-1493 11 0
-1493 14 0
-1493 15 0
-1493 18 0
-1493 19 0
-1493 22 0
-1493 24 0
-1493 25 0
1493 -4 -6 -8 -9 -11 -14 -15 -18 -19 -22 -24 -25 0
-1494 3 0
-1494 6 0
-1494 8 0
-1494 10 0
-1494 11 0
-1494 14 0
-1494 15 0
-1494 18 0
-1494 19 0
-1494 22 0
-1494 24 0
-1494 25 0
1494 -3 -6 -8 -10 -11 -14 -15 -18 -19 -22 -24 -25 0
-1495 4 0
-1495 6 0
-1495 8 0
-1495 10 0
-1495 11 0
-1495 14 0
-1495 15 0
-1495 18 0
-1495 19 0
-1495 22 0
-1495 24 0
-1495 25 0
1495 -4 -6 -8 -10 -11 -14 -15 -18 -19 -22 -24 -25 0
-1496 3 0
-1496 5 0
-1496 8 0
-1496 10 0
-1496 11 0
-1496 14 0
-1496 15 0
-1496 18 0
-1496 19 0
-1496 22 0
-1496 24 0
-1496 25 0
1496 -3 -5 -8 -10 -11 -14 -15 -18 -19 -22 -24 -25 0
-1497 4 0
-1497 5 0
-1497 8 0
-1497 10 0
-1497 11 0
-1497 14 0
-1497 15 0
-1497 18 0
-1497 19 0
-1497 22 0
-1497 24 0
-1497 25 0
1497 -4 -5 -8 -10 -11 -14 -15 -18 -19 -22 -24 -25 0
-1498 3 0
-1498 5 0
-1498 7 0
-1498 10 0
-1498 11 0
-1498 14 0
-1498 15 0
-1498 18 0
-1498 19 0
-1498 22 0
-1498 24 0
-1498 25 0
1498 -3 -5 -7 -10 -11 -14 -15 -18 -19 -22 -24 -25 0
-1499 4 0
-1499 5 0
-1499 7 0
-1499 10 0
-1499 11 0
-1499 14 0
-1499 15 0
-1499 18 0
-1499 19 0
-1499 22 0
-1499 24 0
-1499 25 0
1499 -4 -5 -7 -10 -11 -14 -15 -18 -19 -22 -24 -25 0
-1500 3 0
-1500 6 0
-1500 7 0
-1500 10 0
-1500 11 0
-1500 14 0
-1500 15 0
-1500 18 0
-1500 19 0
-1500 22 0
-1500 24 0
-1500 25 0
1500 -3 -6 -7 -10 -11 -14 -15 -18 -19 -22 -24 -25 0
-1501 4 0
-1501 6 0
-1501 7 0
-1501 10 0
-1501 11 0
-1501 14 0
-1501 15 0
-1501 18 0
-1501 19 0
-1501 22 0
-1501 24 0
-1501 25 0
1501 -4 -6 -7 -10 -11 -14 -15 -18 -19 -22 -24 -25 0
-1502 3 0
-1502 6 0
-1502 7 0
-1502 10 0
-1502 12 0
-1502 14 0
-1502 15 0
-1502 18 0
-1502 19 0
-1502 22 0
-1502 24 0
-1502 25 0
1502 -3 -6 -7 -10 -12 -14 -15 -18 -19 -22 -24 -25 0
-1503 4 0
-1503 6 0
-1503 7 0
-1503 10 0
-1503 12 0
-1503 14 0
-1503 15 0
-1503 18 0
-1503 19 0
-1503 22 0
-1503 24 0
-1503 25 0
1503 -4 -6 -7 -10 -12 -14 -15 -18 -19 -22 -24 -25 0
-1504 3 0
-1504 5 0
-1504 7 0
-1504 10 0
-1504 12 0
-1504 14 0
-1504 15 0
-1504 18 0
-1504 19 0
-1504 22 0
-1504 24 0
-1504 25 0
1504 -3 -5 -7 -10 -12 -14 -15 -18 -19 -22 -24 -25 0
-1505 4 0
-1505 6 0
-1505 8 0
-1505 9 0
-1505 12 0
-1505 13 0
-1505 15 0
-1505 18 0
-1505 19 0
-1505 21 0
-1505 24 0
-1505 25 0
1505 -4 -6 -8 -9 -12 -13 -15 -18 -19 -21 -24 -25 0
-1506 4 0
-1506 5 0
-1506 7 0
-1506 10 0
-1506 12 0
-1506 14 0
-1506 15 0
-1506 18 0
-1506 19 0
-1506 22 0
-1506 24 0
-1506 25 0
1506 -4 -5 -7 -10 -12 -14 -15 -18 -19 -22 -24 -25 0
-1507 3 0
-1507 5 0
-1507 8 0
-1507 10 0
-1507 12 0
-1507 14 0
-1507 15 0
-1507 18 0
-1507 19 0
-1507 22 0
-1507 24 0
-1507 25 0
1507 -3 -5 -8 -10 -12 -14 -15 -18 -19 -22 -24 -25 0
-1508 4 0
-1508 5 0
-1508 8 0
-1508 10 0
-1508 12 0
-1508 14 0
-1508 15 0
-1508 18 0
-1508 19 0
-1508 22 0
-1508 24 0
-1508 25 0
1508 -4 -5 -8 -10 -12 -14 -15 -18 -19 -22 -24 -25 0
-1509 3 0
-1509 6 0
-1509 8 0
-1509 10 0
-1509 12 0
-1509 14 0
-1509 15 0
-1509 18 0
-1509 19 0
-1509 22 0
-1509 24 0
-1509 25 0
1509 -3 -6 -8 -10 -12 -14 -15 -18 -19 -22 -24 -25 0
-1510 4 0
-1510 6 0
-1510 8 0
-1510 10 0
-1510 12 0
-1510 13 0
-1510 15 0
-1510 18 0
-1510 19 0
-1510 21 0
-1510 24 0
-1510 25 0
1510 -4 -6 -8 -10 -12 -13 -15 -18 -19 -21 -24 -25 0
-1511 4 0
-1511 6 0
-1511 8 0
-1511 10 0
-1511 12 0
-1511 14 0
-1511 15 0
-1511 18 0
-1511 19 0
-1511 22 0
-1511 24 0
-1511 25 0
1511 -4 -6 -8 -10 -12 -14 -15 -18 -19 -22 -24 -25 0
-1512 3 0
-1512 6 0
-1512 8 0
-1512 9 0
-1512 12 0
-1512 14 0
-1512 15 0
-1512 18 0
-1512 19 0
-1512 22 0
-1512 24 0
-1512 25 0
1512 -3 -6 -8 -9 -12 -14 -15 -18 -19 -22 -24 -25 0
-1513 4 0
-1513 6 0
-1513 8 0
-1513 9 0
-1513 12 0
-1513 14 0
-1513 15 0
-1513 18 0
-1513 19 0
-1513 22 0
-1513 24 0
-1513 25 0
1513 -4 -6 -8 -9 -12 -14 -15 -18 -19 -22 -24 -25 0
-1514 3 0
-1514 5 0
-1514 8 0
-1514 9 0
-1514 12 0
-1514 14 0
-1514 15 0
-1514 18 0
-1514 19 0
-1514 22 0
-1514 24 0
-1514 25 0
1514 -3 -5 -8 -9 -12 -14 -15 -18 -19 -22 -24 -25 0
-1515 4 0
-1515 5 0
-1515 8 0
-1515 9 0
-1515 12 0
-1515 14 0
-1515 15 0
-1515 18 0
-1515 19 0
-1515 22 0
-1515 24 0
-1515 25 0
1515 -4 -5 -8 -9 -12 -14 -15 -18 -19 -22 -24 -25 0
-1516 3 0
-1516 5 0
-1516 7 0
-1516 9 0
-1516 12 0
-1516 14 0
-1516 15 0
-1516 18 0
-1516 19 0
-1516 22 0
-1516 24 0
-1516 25 0
1516 -3 -5 -7 -9 -12 -14 -15 -18 -19 -22 -24 -25 0
-1517 4 0
-1517 5 0
-1517 7 0
-1517 9 0
-1517 12 0
-1517 14 0
-1517 15 0
-1517 18 0
-1517 19 0
-1517 22 0
-1517 24 0
-1517 25 0
1517 -4 -5 -7 -9 -12 -14 -15 -18 -19 -22 -24 -25 0
-1518 3 0
-1518 6 0
-1518 7 0
-1518 9 0
-1518 12 0
-1518 14 0
-1518 15 0
-1518 18 0
-1518 19 0
-1518 22 0
-1518 24 0
-1518 25 0
1518 -3 -6 -7 -9 -12 -14 -15 -18 -19 -22 -24 -25 0
-1519 4 0
-1519 6 0
-1519 7 0
-1519 9 0
-1519 12 0
-1519 14 0
-1519 15 0
-1519 18 0
-1519 19 0
-1519 21 0
-1519 24 0
-1519 25 0
1519 -4 -6 -7 -9 -12 -14 -15 -18 -19 -21 -24 -25 0
-1520 4 0
-1520 6 0
-1520 7 0
-1520 9 0
-1520 12 0
-1520 14 0
-1520 15 0
-1520 18 0
-1520 19 0
-1520 22 0
-1520 24 0
-1520 25 0
1520 -4 -6 -7 -9 -12 -14 -15 -18 -19 -22 -24 -25 0
-1521 3 0
-1521 6 0
-1521 7 0
-1521 9 0
-1521 12 0
-1521 13 0
-1521 15 0
-1521 18 0
-1521 19 0
-1521 22 0
-1521 24 0
-1521 25 0
1521 -3 -6 -7 -9 -12 -13 -15 -18 -19 -22 -24 -25 0
-1522 4 0
-1522 6 0
-1522 7 0
-1522 9 0
-1522 12 0
-1522 13 0
-1522 15 0
-1522 18 0
-1522 19 0
-1522 22 0
-1522 24 0
-1522 25 0
1522 -4 -6 -7 -9 -12 -13 -15 -18 -19 -22 -24 -25 0
-1523 3 0
-1523 5 0
-1523 7 0
-1523 9 0
-1523 12 0
-1523 13 0
-1523 15 0
-1523 18 0
-1523 19 0
-1523 22 0
-1523 24 0
-1523 25 0
1523 -3 -5 -7 -9 -12 -13 -15 -18 -19 -22 -24 -25 0
-1524 4 0
-1524 5 0
-1524 7 0
-1524 9 0
-1524 12 0
-1524 13 0
-1524 15 0
-1524 18 0
-1524 19 0
-1524 22 0
-1524 24 0
-1524 25 0
1524 -4 -5 -7 -9 -12 -13 -15 -18 -19 -22 -24 -25 0
-1525 3 0
-1525 5 0
-1525 8 0
-1525 9 0
-1525 12 0
-1525 13 0
-1525 15 0
-1525 18 0
-1525 19 0
-1525 22 0
-1525 24 0
-1525 25 0
1525 -3 -5 -8 -9 -12 -13 -15 -18 -19 -22 -24 -25 0
-1526 4 0
-1526 5 0
-1526 8 0
-1526 9 0
-1526 12 0
-1526 13 0
-1526 15 0
-1526 18 0
-1526 19 0
-1526 22 0
-1526 24 0
-1526 25 0
1526 -4 -5 -8 -9 -12 -13 -15 -18 -19 -22 -24 -25 0
-1527 3 0
-1527 6 0
-1527 8 0
-1527 9 0
-1527 12 0
-1527 13 0
-1527 15 0
-1527 18 0
-1527 19 0
-1527 22 0
-1527 24 0
-1527 25 0
1527 -3 -6 -8 -9 -12 -13 -15 -18 -19 -22 -24 -25 0
-1528 4 0
-1528 6 0
-1528 8 0
-1528 9 0
-1528 12 0
-1528 13 0
-1528 15 0
-1528 18 0
-1528 19 0
-1528 22 0
-1528 24 0
-1528 25 0
1528 -4 -6 -8 -9 -12 -13 -15 -18 -19 -22 -24 -25 0
-1529 3 0
-1529 6 0
-1529 8 0
-1529 10 0
-1529 12 0
-1529 13 0
-1529 15 0
-1529 18 0
-1529 19 0
-1529 22 0
-1529 24 0
-1529 25 0
1529 -3 -6 -8 -10 -12 -13 -15 -18 -19 -22 -24 -25 0
-1530 4 0
-1530 6 0
-1530 8 0
-1530 10 0
-1530 12 0
-1530 13 0
-1530 15 0
-1530 18 0
-1530 19 0
-1530 22 0
-1530 24 0
-1530 25 0
1530 -4 -6 -8 -10 -12 -13 -15 -18 -19 -22 -24 -25 0
-1531 3 0
-1531 5 0
-1531 8 0
-1531 10 0
-1531 12 0
-1531 13 0
-1531 15 0
-1531 18 0
-1531 19 0
-1531 22 0
-1531 24 0
-1531 25 0
1531 -3 -5 -8 -10 -12 -13 -15 -18 -19 -22 -24 -25 0
-1532 4 0
-1532 5 0
-1532 8 0
-1532 10 0
-1532 12 0
-1532 13 0
-1532 15 0
-1532 18 0
-1532 19 0
-1532 22 0
-1532 24 0
-1532 25 0
1532 -4 -5 -8 -10 -12 -13 -15 -18 -19 -22 -24 -25 0
-1533 3 0
-1533 5 0
-1533 7 0
-1533 10 0
-1533 12 0
-1533 13 0
-1533 15 0
-1533 18 0
-1533 19 0
-1533 22 0
-1533 24 0
-1533 25 0
1533 -3 -5 -7 -10 -12 -13 -15 -18 -19 -22 -24 -25 0
-1534 4 0
-1534 5 0
-1534 7 0
-1534 10 0
-1534 12 0
-1534 13 0
-1534 15 0
-1534 18 0
-1534 19 0
-1534 22 0
-1534 24 0
-1534 25 0
1534 -4 -5 -7 -10 -12 -13 -15 -18 -19 -22 -24 -25 0
-1535 3 0
-1535 6 0
-1535 7 0
-1535 10 0
-1535 12 0
-1535 13 0
-1535 15 0
-1535 18 0
-1535 19 0
-1535 22 0
-1535 24 0
-1535 25 0
1535 -3 -6 -7 -10 -12 -13 -15 -18 -19 -22 -24 -25 0
-1536 4 0
-1536 6 0
-1536 7 0
-1536 10 0
-1536 12 0
-1536 13 0
-1536 15 0
-1536 18 0
-1536 19 0
-1536 21 0
-1536 24 0
-1536 25 0
1536 -4 -6 -7 -10 -12 -13 -15 -18 -19 -21 -24 -25 0
-1537 4 0
-1537 6 0
-1537 7 0
-1537 10 0
-1537 12 0
-1537 13 0
-1537 15 0
-1537 18 0
-1537 19 0
-1537 22 0
-1537 24 0
-1537 25 0
1537 -4 -6 -7 -10 -12 -13 -15 -18 -19 -22 -24 -25 0
-1538 3 0
-1538 6 0
-1538 7 0
-1538 10 0
-1538 11 0
-1538 13 0
-1538 15 0
-1538 18 0
-1538 19 0
-1538 22 0
-1538 24 0
-1538 25 0
1538 -3 -6 -7 -10 -11 -13 -15 -18 -19 -22 -24 -25 0
-1539 4 0
-1539 6 0
-1539 7 0
-1539 10 0
-1539 11 0
-1539 13 0
-1539 15 0
-1539 18 0
-1539 19 0
-1539 22 0
-1539 24 0
-1539 25 0
1539 -4 -6 -7 -10 -11 -13 -15 -18 -19 -22 -24 -25 0
-1540 3 0
-1540 5 0
-1540 7 0
-1540 10 0
-1540 11 0
-1540 13 0
-1540 15 0
-1540 18 0
-1540 19 0
-1540 22 0
-1540 24 0
-1540 25 0
1540 -3 -5 -7 -10 -11 -13 -15 -18 -19 -22 -24 -25 0
-1541 4 0
-1541 6 0
-1541 8 0
-1541 9 0
-1541 11 0
-1541 13 0
-1541 15 0
-1541 18 0
-1541 19 0
-1541 21 0
-1541 24 0
-1541 25 0
1541 -4 -6 -8 -9 -11 -13 -15 -18 -19 -21 -24 -25 0
-1542 4 0
-1542 5 0
-1542 7 0
-1542 10 0
-1542 11 0
-1542 13 0
-1542 15 0
-1542 18 0
-1542 19 0
-1542 22 0
-1542 24 0
-1542 25 0
1542 -4 -5 -7 -10 -11 -13 -15 -18 -19 -22 -24 -25 0
-1543 3 0
-1543 5 0
-1543 8 0
-1543 10 0
-1543 11 0
-1543 13 0
-1543 15 0
-1543 18 0
-1543 19 0
-1543 22 0
-1543 24 0
-1543 25 0
1543 -3 -5 -8 -10 -11 -13 -15 -18 -19 -22 -24 -25 0
-1544 4 0
-1544 5 0
-1544 8 0
-1544 10 0
-1544 11 0
-1544 13 0
-1544 15 0
-1544 18 0
-1544 19 0
-1544 22 0
-1544 24 0
-1544 25 0
1544 -4 -5 -8 -10 -11 -13 -15 -18 -19 -22 -24 -25 0
-1545 3 0
-1545 6 0
-1545 8 0
-1545 10 0
-1545 11 0
-1545 13 0
-1545 15 0
-1545 18 0
-1545 19 0
-1545 22 0
-1545 24 0
-1545 25 0
1545 -3 -6 -8 -10 -11 -13 -15 -18 -19 -22 -24 -25 0
-1546 4 0
-1546 6 0
-1546 8 0
-1546 10 0
-1546 11 0
-1546 13 0
-1546 15 0
-1546 18 0
-1546 19 0
-1546 21 0
-1546 24 0
-1546 25 0
1546 -4 -6 -8 -10 -11 -13 -15 -18 -19 -21 -24 -25 0
-1547 4 0
-1547 6 0
-1547 8 0
-1547 10 0
-1547 11 0
-1547 13 0
-1547 15 0
-1547 18 0
-1547 19 0
-1547 22 0
-1547 24 0
-1547 25 0
1547 -4 -6 -8 -10 -11 -13 -15 -18 -19 -22 -24 -25 0
-1548 3 0
-1548 6 0
-1548 8 0
-1548 9 0
-1548 11 0
-1548 13 0
-1548 15 0
-1548 18 0
-1548 19 0
-1548 22 0
-1548 24 0
-1548 25 0
1548 -3 -6 -8 -9 -11 -13 -15 -18 -19 -22 -24 -25 0
-1549 4 0
-1549 6 0
-1549 8 0
-1549 9 0
-1549 11 0
-1549 13 0
-1549 15 0
-1549 18 0
-1549 19 0
-1549 22 0
-1549 24 0
-1549 25 0
1549 -4 -6 -8 -9 -11 -13 -15 -18 -19 -22 -24 -25 0
-1550 3 0
-1550 5 0
-1550 8 0
-1550 9 0
-1550 11 0
-1550 13 0
-1550 15 0
-1550 18 0
-1550 19 0
-1550 22 0
-1550 24 0
-1550 25 0
1550 -3 -5 -8 -9 -11 -13 -15 -18 -19 -22 -24 -25 0
-1551 4 0
-1551 6 0
-1551 7 0
-1551 9 0
-1551 11 0
-1551 13 0
-1551 15 0
-1551 18 0
-1551 19 0
-1551 21 0
-1551 24 0
-1551 25 0
1551 -4 -6 -7 -9 -11 -13 -15 -18 -19 -21 -24 -25 0
-1552 4 0
-1552 5 0
-1552 8 0
-1552 9 0
-1552 11 0
-1552 13 0
-1552 15 0
-1552 18 0
-1552 19 0
-1552 22 0
-1552 24 0
-1552 25 0
1552 -4 -5 -8 -9 -11 -13 -15 -18 -19 -22 -24 -25 0
-1553 3 0
-1553 5 0
-1553 7 0
-1553 9 0
-1553 11 0
-1553 13 0
-1553 15 0
-1553 18 0
-1553 19 0
-1553 22 0
-1553 24 0
-1553 25 0
1553 -3 -5 -7 -9 -11 -13 -15 -18 -19 -22 -24 -25 0
-1554 4 0
-1554 5 0
-1554 7 0
-1554 9 0
-1554 11 0
-1554 13 0
-1554 15 0
-1554 18 0
-1554 19 0
-1554 22 0
-1554 24 0
-1554 25 0
1554 -4 -5 -7 -9 -11 -13 -15 -18 -19 -22 -24 -25 0
-1555 3 0
-1555 6 0
-1555 7 0
-1555 9 0
-1555 11 0
-1555 13 0
-1555 15 0
-1555 18 0
-1555 19 0
-1555 22 0
-1555 24 0
-1555 25 0
1555 -3 -6 -7 -9 -11 -13 -15 -18 -19 -22 -24 -25 0
-1556 3 0
-1556 5 0
-1556 7 0
-1556 9 0
-1556 11 0
-1556 13 0
-1556 15 0
-1556 17 0
-1556 20 0
-1556 21 0
-1556 24 0
-1556 25 0
1556 -3 -5 -7 -9 -11 -13 -15 -17 -20 -21 -24 -25 0
-1557 3 0
-1557 6 0
-1557 7 0
-1557 9 0
-1557 11 0
-1557 13 0
-1557 15 0
-1557 17 0
-1557 20 0
-1557 21 0
-1557 24 0
-1557 25 0
1557 -3 -6 -7 -9 -11 -13 -15 -17 -20 -21 -24 -25 0
-1558 4 0
-1558 5 0
-1558 7 0
-1558 9 0
-1558 11 0
-1558 13 0
-1558 15 0
-1558 17 0
-1558 20 0
-1558 21 0
-1558 24 0
-1558 25 0
1558 -4 -5 -7 -9 -11 -13 -15 -17 -20 -21 -24 -25 0
-1559 4 0
-1559 6 0
-1559 7 0
-1559 9 0
-1559 11 0
-1559 13 0
-1559 15 0
-1559 18 0
-1559 19 0
-1559 22 0
-1559 24 0
-1559 25 0
1559 -4 -6 -7 -9 -11 -13 -15 -18 -19 -22 -24 -25 0
-1560 3 0
-1560 6 0
-1560 7 0
-1560 9 0
-1560 11 0
-1560 13 0
-1560 15 0
-1560 18 0
-1560 20 0
-1560 22 0
-1560 24 0
-1560 25 0
1560 -3 -6 -7 -9 -11 -13 -15 -18 -20 -22 -24 -25 0
-1561 4 0
-1561 6 0
-1561 7 0
-1561 9 0
-1561 11 0
-1561 13 0
-1561 15 0
-1561 18 0
-1561 20 0
-1561 22 0
-1561 24 0
-1561 25 0
1561 -4 -6 -7 -9 -11 -13 -15 -18 -20 -22 -24 -25 0
-1562 3 0
-1562 5 0
-1562 7 0
-1562 9 0
-1562 11 0
-1562 13 0
-1562 15 0
-1562 18 0
-1562 20 0
-1562 22 0
-1562 24 0
-1562 25 0
1562 -3 -5 -7 -9 -11 -13 -15 -18 -20 -22 -24 -25 0
-1563 3 0
-1563 5 0
-1563 8 0
-1563 9 0
-1563 11 0
-1563 13 0
-1563 15 0
-1563 17 0
-1563 20 0
-1563 21 0
-1563 24 0
-1563 25 0
1563 -3 -5 -8 -9 -11 -13 -15 -17 -20 -21 -24 -25 0
-1564 3 0
-1564 6 0
-1564 8 0
-1564 9 0
-1564 11 0
-1564 13 0
-1564 15 0
-1564 17 0
-1564 20 0
-1564 21 0
-1564 24 0
-1564 25 0
1564 -3 -6 -8 -9 -11 -13 -15 -17 -20 -21 -24 -25 0
-1565 4 0
-1565 5 0
-1565 8 0
-1565 9 0
-1565 11 0
-1565 13 0
-1565 15 0
-1565 17 0
-1565 20 0
-1565 21 0
-1565 24 0
-1565 25 0
1565 -4 -5 -8 -9 -11 -13 -15 -17 -20 -21 -24 -25 0
-1566 4 0
-1566 5 0
-1566 7 0
-1566 9 0
-1566 11 0
-1566 13 0
-1566 15 0
-1566 18 0
-1566 20 0
-1566 22 0
-1566 24 0
-1566 25 0
1566 -4 -5 -7 -9 -11 -13 -15 -18 -20 -22 -24 -25 0
-1567 3 0
-1567 5 0
-1567 8 0
-1567 9 0
-1567 11 0
-1567 13 0
-1567 15 0
-1567 18 0
-1567 20 0
-1567 22 0
-1567 24 0
-1567 25 0
1567 -3 -5 -8 -9 -11 -13 -15 -18 -20 -22 -24 -25 0
-1568 4 0
-1568 5 0
-1568 8 0
-1568 9 0
-1568 11 0
-1568 13 0
-1568 15 0
-1568 18 0
-1568 20 0
-1568 22 0
-1568 24 0
-1568 25 0
1568 -4 -5 -8 -9 -11 -13 -15 -18 -20 -22 -24 -25 0
-1569 3 0
-1569 6 0
-1569 8 0
-1569 9 0
-1569 11 0
-1569 13 0
-1569 15 0
-1569 18 0
-1569 20 0
-1569 22 0
-1569 24 0
-1569 25 0
1569 -3 -6 -8 -9 -11 -13 -15 -18 -20 -22 -24 -25 0
-1570 3 0
-1570 5 0
-1570 7 0
-1570 10 0
-1570 11 0
-1570 13 0
-1570 15 0
-1570 17 0
-1570 20 0
-1570 21 0
-1570 24 0
-1570 25 0
1570 -3 -5 -7 -10 -11 -13 -15 -17 -20 -21 -24 -25 0
-1571 3 0
-1571 6 0
-1571 7 0
-1571 10 0
-1571 11 0
-1571 13 0
-1571 15 0
-1571 17 0
-1571 20 0
-1571 21 0
-1571 24 0
-1571 25 0
1571 -3 -6 -7 -10 -11 -13 -15 -17 -20 -21 -24 -25 0
-1572 4 0
-1572 5 0
-1572 7 0
-1572 10 0
-1572 11 0
-1572 13 0
-1572 15 0
-1572 17 0
-1572 20 0
-1572 21 0
-1572 24 0
-1572 25 0
1572 -4 -5 -7 -10 -11 -13 -15 -17 -20 -21 -24 -25 0
-1573 4 0
-1573 6 0
-1573 8 0
-1573 9 0
-1573 11 0
-1573 13 0
-1573 15 0
-1573 18 0
-1573 20 0
-1573 22 0
-1573 24 0
-1573 25 0
1573 -4 -6 -8 -9 -11 -13 -15 -18 -20 -22 -24 -25 0
-1574 3 0
-1574 6 0
-1574 8 0
-1574 10 0
-1574 11 0
-1574 13 0
-1574 15 0
-1574 18 0
-1574 20 0
-1574 22 0
-1574 24 0
-1574 25 0
1574 -3 -6 -8 -10 -11 -13 -15 -18 -20 -22 -24 -25 0
-1575 4 0
-1575 6 0
-1575 8 0
-1575 10 0
-1575 11 0
-1575 13 0
-1575 15 0
-1575 18 0
-1575 20 0
-1575 22 0
-1575 24 0
-1575 25 0
1575 -4 -6 -8 -10 -11 -13 -15 -18 -20 -22 -24 -25 0
-1576 3 0
-1576 5 0
-1576 8 0
-1576 10 0
-1576 11 0
-1576 13 0
-1576 15 0
-1576 18 0
-1576 20 0
-1576 22 0
-1576 24 0
-1576 25 0
1576 -3 -5 -8 -10 -11 -13 -15 -18 -20 -22 -24 -25 0
-1577 4 0
-1577 5 0
-1577 8 0
-1577 10 0
-1577 11 0
-1577 13 0
-1577 15 0
-1577 17 0
-1577 20 0
-1577 21 0
-1577 24 0
-1577 25 0
1577 -4 -5 -8 -10 -11 -13 -15 -17 -20 -21 -24 -25 0
-1578 4 0
-1578 6 0
-1578 7 0
-1578 10 0
-1578 11 0
-1578 13 0
-1578 15 0
-1578 17 0
-1578 20 0
-1578 21 0
-1578 24 0
-1578 25 0
1578 -4 -6 -7 -10 -11 -13 -15 -17 -20 -21 -24 -25 0
-1579 4 0
-1579 5 0
-1579 8 0
-1579 10 0
-1579 11 0
-1579 13 0
-1579 15 0
-1579 18 0
-1579 20 0
-1579 22 0
-1579 24 0
-1579 25 0
1579 -4 -5 -8 -10 -11 -13 -15 -18 -20 -22 -24 -25 0
-1580 3 0
-1580 5 0
-1580 7 0
-1580 10 0
-1580 11 0
-1580 13 0
-1580 15 0
-1580 18 0
-1580 20 0
-1580 22 0
-1580 24 0
-1580 25 0
1580 -3 -5 -7 -10 -11 -13 -15 -18 -20 -22 -24 -25 0
-1581 4 0
-1581 5 0
-1581 7 0
-1581 10 0
-1581 11 0
-1581 13 0
-1581 15 0
-1581 18 0
-1581 20 0
-1581 22 0
-1581 24 0
-1581 25 0
1581 -4 -5 -7 -10 -11 -13 -15 -18 -20 -22 -24 -25 0
-1582 3 0
-1582 6 0
-1582 7 0
-1582 10 0
-1582 11 0
-1582 13 0
-1582 15 0
-1582 18 0
-1582 20 0
-1582 22 0
-1582 24 0
-1582 25 0
1582 -3 -6 -7 -10 -11 -13 -15 -18 -20 -22 -24 -25 0
-1583 3 0
-1583 5 0
-1583 7 0
-1583 9 0
-1583 12 0
-1583 13 0
-1583 15 0
-1583 17 0
-1583 20 0
-1583 21 0
-1583 24 0
-1583 25 0
1583 -3 -5 -7 -9 -12 -13 -15 -17 -20 -21 -24 -25 0
-1584 3 0
-1584 6 0
-1584 7 0
-1584 9 0
-1584 12 0
-1584 13 0
-1584 15 0
-1584 17 0
-1584 20 0
-1584 21 0
-1584 24 0
-1584 25 0
1584 -3 -6 -7 -9 -12 -13 -15 -17 -20 -21 -24 -25 0
-1585 4 0
-1585 5 0
-1585 7 0
-1585 9 0
-1585 12 0
-1585 13 0
-1585 15 0
-1585 17 0
-1585 20 0
-1585 21 0
-1585 24 0
-1585 25 0
1585 -4 -5 -7 -9 -12 -13 -15 -17 -20 -21 -24 -25 0
-1586 4 0
-1586 6 0
-1586 7 0
-1586 10 0
-1586 11 0
-1586 13 0
-1586 15 0
-1586 18 0
-1586 20 0
-1586 22 0
-1586 24 0
-1586 25 0
1586 -4 -6 -7 -10 -11 -13 -15 -18 -20 -22 -24 -25 0
-1587 3 0
-1587 6 0
-1587 7 0
-1587 10 0
-1587 12 0
-1587 13 0
-1587 15 0
-1587 18 0
-1587 20 0
-1587 22 0
-1587 24 0
-1587 25 0
1587 -3 -6 -7 -10 -12 -13 -15 -18 -20 -22 -24 -25 0
-1588 4 0
-1588 6 0
-1588 7 0
-1588 10 0
-1588 12 0
-1588 13 0
-1588 15 0
-1588 18 0
-1588 20 0
-1588 22 0
-1588 24 0
-1588 25 0
1588 -4 -6 -7 -10 -12 -13 -15 -18 -20 -22 -24 -25 0
-1589 3 0
-1589 5 0
-1589 7 0
-1589 10 0
-1589 12 0
-1589 13 0
-1589 15 0
-1589 18 0
-1589 20 0
-1589 22 0
-1589 24 0
-1589 25 0
1589 -3 -5 -7 -10 -12 -13 -15 -18 -20 -22 -24 -25 0
-1590 3 0
-1590 5 0
-1590 8 0
-1590 9 0
-1590 12 0
-1590 13 0
-1590 15 0
-1590 17 0
-1590 20 0
-1590 21 0
-1590 24 0
-1590 25 0
1590 -3 -5 -8 -9 -12 -13 -15 -17 -20 -21 -24 -25 0
-1591 3 0
-1591 6 0
-1591 8 0
-1591 9 0
-1591 12 0
-1591 13 0
-1591 15 0
-1591 17 0
-1591 20 0
-1591 21 0
-1591 24 0
-1591 25 0
1591 -3 -6 -8 -9 -12 -13 -15 -17 -20 -21 -24 -25 0
-1592 4 0
-1592 5 0
-1592 8 0
-1592 9 0
-1592 12 0
-1592 13 0
-1592 15 0
-1592 17 0
-1592 20 0
-1592 21 0
-1592 24 0
-1592 25 0
1592 -4 -5 -8 -9 -12 -13 -15 -17 -20 -21 -24 -25 0
-1593 4 0
-1593 5 0
-1593 7 0
-1593 10 0
-1593 12 0
-1593 13 0
-1593 15 0
-1593 18 0
-1593 20 0
-1593 22 0
-1593 24 0
-1593 25 0
1593 -4 -5 -7 -10 -12 -13 -15 -18 -20 -22 -24 -25 0
-1594 3 0
-1594 5 0
-1594 8 0
-1594 10 0
-1594 12 0
-1594 13 0
-1594 15 0
-1594 18 0
-1594 20 0
-1594 22 0
-1594 24 0
-1594 25 0
1594 -3 -5 -8 -10 -12 -13 -15 -18 -20 -22 -24 -25 0
-1595 4 0
-1595 5 0
-1595 8 0
-1595 10 0
-1595 12 0
-1595 13 0
-1595 15 0
-1595 18 0
-1595 20 0
-1595 22 0
-1595 24 0
-1595 25 0
1595 -4 -5 -8 -10 -12 -13 -15 -18 -20 -22 -24 -25 0
-1596 3 0
-1596 6 0
-1596 8 0
-1596 10 0
-1596 12 0
-1596 13 0
-1596 15 0
-1596 18 0
-1596 20 0
-1596 22 0
-1596 24 0
-1596 25 0
1596 -3 -6 -8 -10 -12 -13 -15 -18 -20 -22 -24 -25 0
-1597 4 0
-1597 6 0
-1597 7 0
-1597 9 0
-1597 12 0
-1597 13 0
-1597 15 0
-1597 17 0
-1597 20 0
-1597 21 0
-1597 24 0
-1597 25 0
1597 -4 -6 -7 -9 -12 -13 -15 -17 -20 -21 -24 -25 0
-1598 4 0
-1598 6 0
-1598 8 0
-1598 10 0
-1598 12 0
-1598 13 0
-1598 15 0
-1598 18 0
-1598 20 0
-1598 22 0
-1598 24 0
-1598 25 0
1598 -4 -6 -8 -10 -12 -13 -15 -18 -20 -22 -24 -25 0
-1599 3 0
-1599 6 0
-1599 8 0
-1599 9 0
-1599 12 0
-1599 13 0
-1599 15 0
-1599 18 0
-1599 20 0
-1599 22 0
-1599 24 0
-1599 25 0
1599 -3 -6 -8 -9 -12 -13 -15 -18 -20 -22 -24 -25 0
-1600 4 0
-1600 6 0
-1600 8 0
-1600 9 0
-1600 12 0
-1600 13 0
-1600 15 0
-1600 18 0
-1600 20 0
-1600 22 0
-1600 24 0
-1600 25 0
1600 -4 -6 -8 -9 -12 -13 -15 -18 -20 -22 -24 -25 0
-1601 3 0
-1601 5 0
-1601 8 0
-1601 9 0
-1601 12 0
-1601 13 0
-1601 15 0
-1601 18 0
-1601 20 0
-1601 22 0
-1601 24 0
-1601 25 0
1601 -3 -5 -8 -9 -12 -13 -15 -18 -20 -22 -24 -25 0
-1602 4 0
-1602 5 0
-1602 8 0
-1602 9 0
-1602 12 0
-1602 13 0
-1602 15 0
-1602 18 0
-1602 20 0
-1602 22 0
-1602 24 0
-1602 25 0
1602 -4 -5 -8 -9 -12 -13 -15 -18 -20 -22 -24 -25 0
-1603 3 0
-1603 5 0
-1603 7 0
-1603 9 0
-1603 12 0
-1603 13 0
-1603 15 0
-1603 18 0
-1603 20 0
-1603 22 0
-1603 24 0
-1603 25 0
1603 -3 -5 -7 -9 -12 -13 -15 -18 -20 -22 -24 -25 0
-1604 4 0
-1604 5 0
-1604 7 0
-1604 9 0
-1604 12 0
-1604 13 0
-1604 15 0
-1604 18 0
-1604 20 0
-1604 22 0
-1604 24 0
-1604 25 0
1604 -4 -5 -7 -9 -12 -13 -15 -18 -20 -22 -24 -25 0
-1605 3 0
-1605 6 0
-1605 7 0
-1605 9 0
-1605 12 0
-1605 13 0
-1605 15 0
-1605 18 0
-1605 20 0
-1605 22 0
-1605 24 0
-1605 25 0
1605 -3 -6 -7 -9 -12 -13 -15 -18 -20 -22 -24 -25 0
-1606 3 0
-1606 5 0
-1606 7 0
-1606 9 0
-1606 11 0
-1606 14 0
-1606 15 0
-1606 17 0
-1606 20 0
-1606 21 0
-1606 24 0
-1606 25 0
1606 -3 -5 -7 -9 -11 -14 -15 -17 -20 -21 -24 -25 0
-1607 3 0
-1607 6 0
-1607 7 0
-1607 9 0
-1607 11 0
-1607 14 0
-1607 15 0
-1607 17 0
-1607 20 0
-1607 21 0
-1607 24 0
-1607 25 0
1607 -3 -6 -7 -9 -11 -14 -15 -17 -20 -21 -24 -25 0
-1608 4 0
-1608 5 0
-1608 7 0
-1608 9 0
-1608 11 0
-1608 14 0
-1608 15 0
-1608 17 0
-1608 20 0
-1608 21 0
-1608 24 0
-1608 25 0
1608 -4 -5 -7 -9 -11 -14 -15 -17 -20 -21 -24 -25 0
-1609 4 0
-1609 6 0
-1609 7 0
-1609 9 0
-1609 12 0
-1609 13 0
-1609 15 0
-1609 18 0
-1609 20 0
-1609 22 0
-1609 24 0
-1609 25 0
1609 -4 -6 -7 -9 -12 -13 -15 -18 -20 -22 -24 -25 0
-1610 3 0
-1610 6 0
-1610 7 0
-1610 9 0
-1610 12 0
-1610 14 0
-1610 15 0
-1610 18 0
-1610 20 0
-1610 22 0
-1610 24 0
-1610 25 0
1610 -3 -6 -7 -9 -12 -14 -15 -18 -20 -22 -24 -25 0
-1611 4 0
-1611 6 0
-1611 7 0
-1611 9 0
-1611 12 0
-1611 14 0
-1611 15 0
-1611 18 0
-1611 20 0
-1611 22 0
-1611 24 0
-1611 25 0
1611 -4 -6 -7 -9 -12 -14 -15 -18 -20 -22 -24 -25 0
-1612 3 0
-1612 5 0
-1612 7 0
-1612 9 0
-1612 12 0
-1612 14 0
-1612 15 0
-1612 18 0
-1612 20 0
-1612 22 0
-1612 24 0
-1612 25 0
1612 -3 -5 -7 -9 -12 -14 -15 -18 -20 -22 -24 -25 0
-1613 3 0
-1613 5 0
-1613 8 0
-1613 9 0
-1613 11 0
-1613 14 0
-1613 15 0
-1613 17 0
-1613 20 0
-1613 21 0
-1613 24 0
-1613 25 0
1613 -3 -5 -8 -9 -11 -14 -15 -17 -20 -21 -24 -25 0
-1614 3 0
-1614 6 0
-1614 8 0
-1614 9 0
-1614 11 0
-1614 14 0
-1614 15 0
-1614 17 0
-1614 20 0
-1614 21 0
-1614 24 0
-1614 25 0
1614 -3 -6 -8 -9 -11 -14 -15 -17 -20 -21 -24 -25 0
-1615 4 0
-1615 5 0
-1615 8 0
-1615 9 0
-1615 11 0
-1615 14 0
-1615 15 0
-1615 17 0
-1615 20 0
-1615 21 0
-1615 24 0
-1615 25 0
1615 -4 -5 -8 -9 -11 -14 -15 -17 -20 -21 -24 -25 0
-1616 4 0
-1616 5 0
-1616 7 0
-1616 9 0
-1616 12 0
-1616 14 0
-1616 15 0
-1616 18 0
-1616 20 0
-1616 22 0
-1616 24 0
-1616 25 0
1616 -4 -5 -7 -9 -12 -14 -15 -18 -20 -22 -24 -25 0
-1617 3 0
-1617 5 0
-1617 8 0
-1617 9 0
-1617 12 0
-1617 14 0
-1617 15 0
-1617 18 0
-1617 20 0
-1617 22 0
-1617 24 0
-1617 25 0
1617 -3 -5 -8 -9 -12 -14 -15 -18 -20 -22 -24 -25 0
-1618 4 0
-1618 5 0
-1618 8 0
-1618 9 0
-1618 12 0
-1618 14 0
-1618 15 0
-1618 18 0
-1618 20 0
-1618 22 0
-1618 24 0
-1618 25 0
1618 -4 -5 -8 -9 -12 -14 -15 -18 -20 -22 -24 -25 0
-1619 3 0
-1619 6 0
-1619 8 0
-1619 9 0
-1619 12 0
-1619 14 0
-1619 15 0
-1619 18 0
-1619 20 0
-1619 22 0
-1619 24 0
-1619 25 0
1619 -3 -6 -8 -9 -12 -14 -15 -18 -20 -22 -24 -25 0
-1620 3 0
-1620 5 0
-1620 7 0
-1620 10 0
-1620 11 0
-1620 14 0
-1620 15 0
-1620 17 0
-1620 20 0
-1620 21 0
-1620 24 0
-1620 25 0
1620 -3 -5 -7 -10 -11 -14 -15 -17 -20 -21 -24 -25 0
-1621 3 0
-1621 6 0
-1621 7 0
-1621 10 0
-1621 11 0
-1621 14 0
-1621 15 0
-1621 17 0
-1621 20 0
-1621 21 0
-1621 24 0
-1621 25 0
1621 -3 -6 -7 -10 -11 -14 -15 -17 -20 -21 -24 -25 0
-1622 4 0
-1622 5 0
-1622 7 0
-1622 10 0
-1622 11 0
-1622 14 0
-1622 15 0
-1622 17 0
-1622 20 0
-1622 21 0
-1622 24 0
-1622 25 0
1622 -4 -5 -7 -10 -11 -14 -15 -17 -20 -21 -24 -25 0
-1623 4 0
-1623 6 0
-1623 8 0
-1623 9 0
-1623 12 0
-1623 14 0
-1623 15 0
-1623 18 0
-1623 20 0
-1623 22 0
-1623 24 0
-1623 25 0
1623 -4 -6 -8 -9 -12 -14 -15 -18 -20 -22 -24 -25 0
-1624 3 0
-1624 6 0
-1624 8 0
-1624 10 0
-1624 12 0
-1624 14 0
-1624 15 0
-1624 18 0
-1624 20 0
-1624 22 0
-1624 24 0
-1624 25 0
1624 -3 -6 -8 -10 -12 -14 -15 -18 -20 -22 -24 -25 0
-1625 4 0
-1625 6 0
-1625 8 0
-1625 10 0
-1625 12 0
-1625 14 0
-1625 15 0
-1625 18 0
-1625 20 0
-1625 22 0
-1625 24 0
-1625 25 0
1625 -4 -6 -8 -10 -12 -14 -15 -18 -20 -22 -24 -25 0
-1626 3 0
-1626 5 0
-1626 8 0
-1626 10 0
-1626 12 0
-1626 14 0
-1626 15 0
-1626 18 0
-1626 20 0
-1626 22 0
-1626 24 0
-1626 25 0
1626 -3 -5 -8 -10 -12 -14 -15 -18 -20 -22 -24 -25 0
-1627 4 0
-1627 5 0
-1627 8 0
-1627 10 0
-1627 11 0
-1627 14 0
-1627 15 0
-1627 17 0
-1627 20 0
-1627 21 0
-1627 24 0
-1627 25 0
1627 -4 -5 -8 -10 -11 -14 -15 -17 -20 -21 -24 -25 0
-1628 4 0
-1628 6 0
-1628 7 0
-1628 10 0
-1628 11 0
-1628 14 0
-1628 15 0
-1628 17 0
-1628 20 0
-1628 21 0
-1628 24 0
-1628 25 0
1628 -4 -6 -7 -10 -11 -14 -15 -17 -20 -21 -24 -25 0
-1629 4 0
-1629 5 0
-1629 8 0
-1629 10 0
-1629 12 0
-1629 14 0
-1629 15 0
-1629 18 0
-1629 20 0
-1629 22 0
-1629 24 0
-1629 25 0
1629 -4 -5 -8 -10 -12 -14 -15 -18 -20 -22 -24 -25 0
-1630 3 0
-1630 5 0
-1630 7 0
-1630 10 0
-1630 12 0
-1630 14 0
-1630 15 0
-1630 18 0
-1630 20 0
-1630 22 0
-1630 24 0
-1630 25 0
1630 -3 -5 -7 -10 -12 -14 -15 -18 -20 -22 -24 -25 0
-1631 4 0
-1631 5 0
-1631 7 0
-1631 10 0
-1631 12 0
-1631 14 0
-1631 15 0
-1631 18 0
-1631 20 0
-1631 22 0
-1631 24 0
-1631 25 0
1631 -4 -5 -7 -10 -12 -14 -15 -18 -20 -22 -24 -25 0
-1632 3 0
-1632 6 0
-1632 7 0
-1632 10 0
-1632 12 0
-1632 14 0
-1632 15 0
-1632 18 0
-1632 20 0
-1632 22 0
-1632 24 0
-1632 25 0
1632 -3 -6 -7 -10 -12 -14 -15 -18 -20 -22 -24 -25 0
-1633 4 0
-1633 6 0
-1633 7 0
-1633 10 0
-1633 12 0
-1633 14 0
-1633 15 0
-1633 17 0
-1633 20 0
-1633 21 0
-1633 24 0
-1633 25 0
1633 -4 -6 -7 -10 -12 -14 -15 -17 -20 -21 -24 -25 0
-1634 4 0
-1634 6 0
-1634 7 0
-1634 10 0
-1634 12 0
-1634 14 0
-1634 15 0
-1634 18 0
-1634 20 0
-1634 22 0
-1634 24 0
-1634 25 0
1634 -4 -6 -7 -10 -12 -14 -15 -18 -20 -22 -24 -25 0
-1635 3 0
-1635 6 0
-1635 7 0
-1635 10 0
-1635 11 0
-1635 14 0
-1635 15 0
-1635 18 0
-1635 20 0
-1635 22 0
-1635 24 0
-1635 25 0
1635 -3 -6 -7 -10 -11 -14 -15 -18 -20 -22 -24 -25 0
-1636 4 0
-1636 6 0
-1636 7 0
-1636 10 0
-1636 11 0
-1636 14 0
-1636 15 0
-1636 18 0
-1636 20 0
-1636 22 0
-1636 24 0
-1636 25 0
1636 -4 -6 -7 -10 -11 -14 -15 -18 -20 -22 -24 -25 0
-1637 3 0
-1637 5 0
-1637 7 0
-1637 10 0
-1637 11 0
-1637 14 0
-1637 15 0
-1637 18 0
-1637 20 0
-1637 22 0
-1637 24 0
-1637 25 0
1637 -3 -5 -7 -10 -11 -14 -15 -18 -20 -22 -24 -25 0
-1638 4 0
-1638 6 0
-1638 8 0
-1638 9 0
-1638 11 0
-1638 14 0
-1638 15 0
-1638 17 0
-1638 20 0
-1638 21 0
-1638 24 0
-1638 25 0
1638 -4 -6 -8 -9 -11 -14 -15 -17 -20 -21 -24 -25 0
-1639 4 0
-1639 5 0
-1639 7 0
-1639 10 0
-1639 11 0
-1639 14 0
-1639 15 0
-1639 18 0
-1639 20 0
-1639 22 0
-1639 24 0
-1639 25 0
1639 -4 -5 -7 -10 -11 -14 -15 -18 -20 -22 -24 -25 0
-1640 3 0
-1640 5 0
-1640 8 0
-1640 10 0
-1640 11 0
-1640 14 0
-1640 15 0
-1640 18 0
-1640 20 0
-1640 22 0
-1640 24 0
-1640 25 0
1640 -3 -5 -8 -10 -11 -14 -15 -18 -20 -22 -24 -25 0
-1641 4 0
-1641 5 0
-1641 8 0
-1641 10 0
-1641 11 0
-1641 14 0
-1641 15 0
-1641 18 0
-1641 20 0
-1641 22 0
-1641 24 0
-1641 25 0
1641 -4 -5 -8 -10 -11 -14 -15 -18 -20 -22 -24 -25 0
-1642 3 0
-1642 6 0
-1642 8 0
-1642 10 0
-1642 11 0
-1642 14 0
-1642 15 0
-1642 18 0
-1642 20 0
-1642 22 0
-1642 24 0
-1642 25 0
1642 -3 -6 -8 -10 -11 -14 -15 -18 -20 -22 -24 -25 0
-1643 4 0
-1643 6 0
-1643 8 0
-1643 10 0
-1643 11 0
-1643 14 0
-1643 15 0
-1643 17 0
-1643 20 0
-1643 21 0
-1643 24 0
-1643 25 0
1643 -4 -6 -8 -10 -11 -14 -15 -17 -20 -21 -24 -25 0
-1644 4 0
-1644 6 0
-1644 8 0
-1644 10 0
-1644 11 0
-1644 14 0
-1644 15 0
-1644 18 0
-1644 20 0
-1644 22 0
-1644 24 0
-1644 25 0
1644 -4 -6 -8 -10 -11 -14 -15 -18 -20 -22 -24 -25 0
-1645 3 0
-1645 6 0
-1645 8 0
-1645 9 0
-1645 11 0
-1645 14 0
-1645 15 0
-1645 18 0
-1645 20 0
-1645 22 0
-1645 24 0
-1645 25 0
1645 -3 -6 -8 -9 -11 -14 -15 -18 -20 -22 -24 -25 0
-1646 4 0
-1646 6 0
-1646 8 0
-1646 9 0
-1646 11 0
-1646 14 0
-1646 15 0
-1646 18 0
-1646 20 0
-1646 22 0
-1646 24 0
-1646 25 0
1646 -4 -6 -8 -9 -11 -14 -15 -18 -20 -22 -24 -25 0
-1647 3 0
-1647 5 0
-1647 8 0
-1647 9 0
-1647 11 0
-1647 14 0
-1647 15 0
-1647 18 0
-1647 20 0
-1647 22 0
-1647 24 0
-1647 25 0
1647 -3 -5 -8 -9 -11 -14 -15 -18 -20 -22 -24 -25 0
-1648 4 0
-1648 6 0
-1648 7 0
-1648 9 0
-1648 11 0
-1648 14 0
-1648 15 0
-1648 17 0
-1648 20 0
-1648 21 0
-1648 24 0
-1648 25 0
1648 -4 -6 -7 -9 -11 -14 -15 -17 -20 -21 -24 -25 0
-1649 4 0
-1649 5 0
-1649 8 0
-1649 9 0
-1649 11 0
-1649 14 0
-1649 15 0
-1649 18 0
-1649 20 0
-1649 22 0
-1649 24 0
-1649 25 0
1649 -4 -5 -8 -9 -11 -14 -15 -18 -20 -22 -24 -25 0
-1650 3 0
-1650 5 0
-1650 7 0
-1650 9 0
-1650 11 0
-1650 14 0
-1650 15 0
-1650 18 0
-1650 20 0
-1650 22 0
-1650 24 0
-1650 25 0
1650 -3 -5 -7 -9 -11 -14 -15 -18 -20 -22 -24 -25 0
-1651 4 0
-1651 5 0
-1651 7 0
-1651 9 0
-1651 11 0
-1651 14 0
-1651 15 0
-1651 18 0
-1651 20 0
-1651 22 0
-1651 24 0
-1651 25 0
1651 -4 -5 -7 -9 -11 -14 -15 -18 -20 -22 -24 -25 0
-1652 3 0
-1652 6 0
-1652 7 0
-1652 9 0
-1652 11 0
-1652 14 0
-1652 15 0
-1652 18 0
-1652 20 0
-1652 22 0
-1652 24 0
-1652 25 0
1652 -3 -6 -7 -9 -11 -14 -15 -18 -20 -22 -24 -25 0
-1653 3 0
-1653 5 0
-1653 7 0
-1653 9 0
-1653 11 0
-1653 13 0
-1653 16 0
-1653 17 0
-1653 20 0
-1653 21 0
-1653 24 0
-1653 25 0
1653 -3 -5 -7 -9 -11 -13 -16 -17 -20 -21 -24 -25 0
-1654 3 0
-1654 6 0
-1654 7 0
-1654 9 0
-1654 11 0
-1654 13 0
-1654 16 0
-1654 17 0
-1654 20 0
-1654 21 0
-1654 24 0
-1654 25 0
1654 -3 -6 -7 -9 -11 -13 -16 -17 -20 -21 -24 -25 0
-1655 4 0
-1655 5 0
-1655 7 0
-1655 9 0
-1655 11 0
-1655 13 0
-1655 16 0
-1655 17 0
-1655 20 0
-1655 21 0
-1655 24 0
-1655 25 0
1655 -4 -5 -7 -9 -11 -13 -16 -17 -20 -21 -24 -25 0
-1656 4 0
-1656 6 0
-1656 7 0
-1656 9 0
-1656 11 0
-1656 14 0
-1656 15 0
-1656 18 0
-1656 20 0
-1656 22 0
-1656 24 0
-1656 25 0
1656 -4 -6 -7 -9 -11 -14 -15 -18 -20 -22 -24 -25 0
-1657 3 0
-1657 6 0
-1657 7 0
-1657 9 0
-1657 11 0
-1657 14 0
-1657 16 0
-1657 18 0
-1657 20 0
-1657 22 0
-1657 24 0
-1657 25 0
1657 -3 -6 -7 -9 -11 -14 -16 -18 -20 -22 -24 -25 0
-1658 4 0
-1658 6 0
-1658 7 0
-1658 9 0
-1658 11 0
-1658 14 0
-1658 16 0
-1658 18 0
-1658 20 0
-1658 22 0
-1658 24 0
-1658 25 0
1658 -4 -6 -7 -9 -11 -14 -16 -18 -20 -22 -24 -25 0
-1659 3 0
-1659 5 0
-1659 7 0
-1659 9 0
-1659 11 0
-1659 14 0
-1659 16 0
-1659 18 0
-1659 20 0
-1659 22 0
-1659 24 0
-1659 25 0
1659 -3 -5 -7 -9 -11 -14 -16 -18 -20 -22 -24 -25 0
-1660 3 0
-1660 5 0
-1660 8 0
-1660 9 0
-1660 11 0
-1660 13 0
-1660 16 0
-1660 17 0
-1660 20 0
-1660 21 0
-1660 24 0
-1660 25 0
1660 -3 -5 -8 -9 -11 -13 -16 -17 -20 -21 -24 -25 0
-1661 3 0
-1661 6 0
-1661 8 0
-1661 9 0
-1661 11 0
-1661 13 0
-1661 16 0
-1661 17 0
-1661 20 0
-1661 21 0
-1661 24 0
-1661 25 0
1661 -3 -6 -8 -9 -11 -13 -16 -17 -20 -21 -24 -25 0
-1662 4 0
-1662 5 0
-1662 8 0
-1662 9 0
-1662 11 0
-1662 13 0
-1662 16 0
-1662 17 0
-1662 20 0
-1662 21 0
-1662 24 0
-1662 25 0
1662 -4 -5 -8 -9 -11 -13 -16 -17 -20 -21 -24 -25 0
-1663 4 0
-1663 5 0
-1663 7 0
-1663 9 0
-1663 11 0
-1663 14 0
-1663 16 0
-1663 18 0
-1663 20 0
-1663 22 0
-1663 24 0
-1663 25 0
1663 -4 -5 -7 -9 -11 -14 -16 -18 -20 -22 -24 -25 0
-1664 3 0
-1664 5 0
-1664 8 0
-1664 9 0
-1664 11 0
-1664 14 0
-1664 16 0
-1664 18 0
-1664 20 0
-1664 22 0
-1664 24 0
-1664 25 0
1664 -3 -5 -8 -9 -11 -14 -16 -18 -20 -22 -24 -25 0
-1665 4 0
-1665 5 0
-1665 8 0
-1665 9 0
-1665 11 0
-1665 14 0
-1665 16 0
-1665 18 0
-1665 20 0
-1665 22 0
-1665 24 0
-1665 25 0
1665 -4 -5 -8 -9 -11 -14 -16 -18 -20 -22 -24 -25 0
-1666 3 0
-1666 6 0
-1666 8 0
-1666 9 0
-1666 11 0
-1666 14 0
-1666 16 0
-1666 18 0
-1666 20 0
-1666 22 0
-1666 24 0
-1666 25 0
1666 -3 -6 -8 -9 -11 -14 -16 -18 -20 -22 -24 -25 0
-1667 3 0
-1667 5 0
-1667 7 0
-1667 10 0
-1667 11 0
-1667 13 0
-1667 16 0
-1667 17 0
-1667 20 0
-1667 21 0
-1667 24 0
-1667 25 0
1667 -3 -5 -7 -10 -11 -13 -16 -17 -20 -21 -24 -25 0
-1668 3 0
-1668 6 0
-1668 7 0
-1668 10 0
-1668 11 0
-1668 13 0
-1668 16 0
-1668 17 0
-1668 20 0
-1668 21 0
-1668 24 0
-1668 25 0
1668 -3 -6 -7 -10 -11 -13 -16 -17 -20 -21 -24 -25 0
-1669 4 0
-1669 5 0
-1669 7 0
-1669 10 0
-1669 11 0
-1669 13 0
-1669 16 0
-1669 17 0
-1669 20 0
-1669 21 0
-1669 24 0
-1669 25 0
1669 -4 -5 -7 -10 -11 -13 -16 -17 -20 -21 -24 -25 0
-1670 4 0
-1670 6 0
-1670 8 0
-1670 9 0
-1670 11 0
-1670 14 0
-1670 16 0
-1670 18 0
-1670 20 0
-1670 22 0
-1670 24 0
-1670 25 0
1670 -4 -6 -8 -9 -11 -14 -16 -18 -20 -22 -24 -25 0
-1671 3 0
-1671 6 0
-1671 8 0
-1671 10 0
-1671 11 0
-1671 14 0
-1671 16 0
-1671 18 0
-1671 20 0
-1671 22 0
-1671 24 0
-1671 25 0
1671 -3 -6 -8 -10 -11 -14 -16 -18 -20 -22 -24 -25 0
-1672 4 0
-1672 6 0
-1672 8 0
-1672 10 0
-1672 11 0
-1672 14 0
-1672 16 0
-1672 18 0
-1672 20 0
-1672 22 0
-1672 24 0
-1672 25 0
1672 -4 -6 -8 -10 -11 -14 -16 -18 -20 -22 -24 -25 0
-1673 3 0
-1673 5 0
-1673 8 0
-1673 10 0
-1673 11 0
-1673 14 0
-1673 16 0
-1673 18 0
-1673 20 0
-1673 22 0
-1673 24 0
-1673 25 0
1673 -3 -5 -8 -10 -11 -14 -16 -18 -20 -22 -24 -25 0
-1674 4 0
-1674 5 0
-1674 8 0
-1674 10 0
-1674 11 0
-1674 13 0
-1674 16 0
-1674 17 0
-1674 20 0
-1674 21 0
-1674 24 0
-1674 25 0
1674 -4 -5 -8 -10 -11 -13 -16 -17 -20 -21 -24 -25 0
-1675 4 0
-1675 6 0
-1675 7 0
-1675 10 0
-1675 11 0
-1675 13 0
-1675 16 0
-1675 17 0
-1675 20 0
-1675 21 0
-1675 24 0
-1675 25 0
1675 -4 -6 -7 -10 -11 -13 -16 -17 -20 -21 -24 -25 0
-1676 4 0
-1676 5 0
-1676 8 0
-1676 10 0
-1676 11 0
-1676 14 0
-1676 16 0
-1676 18 0
-1676 20 0
-1676 22 0
-1676 24 0
-1676 25 0
1676 -4 -5 -8 -10 -11 -14 -16 -18 -20 -22 -24 -25 0
-1677 3 0
-1677 5 0
-1677 7 0
-1677 10 0
-1677 11 0
-1677 14 0
-1677 16 0
-1677 18 0
-1677 20 0
-1677 22 0
-1677 24 0
-1677 25 0
1677 -3 -5 -7 -10 -11 -14 -16 -18 -20 -22 -24 -25 0
-1678 4 0
-1678 5 0
-1678 7 0
-1678 10 0
-1678 11 0
-1678 14 0
-1678 16 0
-1678 18 0
-1678 20 0
-1678 22 0
-1678 24 0
-1678 25 0
1678 -4 -5 -7 -10 -11 -14 -16 -18 -20 -22 -24 -25 0
-1679 3 0
-1679 6 0
-1679 7 0
-1679 10 0
-1679 11 0
-1679 14 0
-1679 16 0
-1679 18 0
-1679 20 0
-1679 22 0
-1679 24 0
-1679 25 0
1679 -3 -6 -7 -10 -11 -14 -16 -18 -20 -22 -24 -25 0
-1680 3 0
-1680 5 0
-1680 7 0
-1680 9 0
-1680 12 0
-1680 13 0
-1680 16 0
-1680 17 0
-1680 20 0
-1680 21 0
-1680 24 0
-1680 25 0
1680 -3 -5 -7 -9 -12 -13 -16 -17 -20 -21 -24 -25 0
-1681 3 0
-1681 6 0
-1681 7 0
-1681 9 0
-1681 12 0
-1681 13 0
-1681 16 0
-1681 17 0
-1681 20 0
-1681 21 0
-1681 24 0
-1681 25 0
1681 -3 -6 -7 -9 -12 -13 -16 -17 -20 -21 -24 -25 0
-1682 4 0
-1682 5 0
-1682 7 0
-1682 9 0
-1682 12 0
-1682 13 0
-1682 16 0
-1682 17 0
-1682 20 0
-1682 21 0
-1682 24 0
-1682 25 0
1682 -4 -5 -7 -9 -12 -13 -16 -17 -20 -21 -24 -25 0
-1683 4 0
-1683 6 0
-1683 7 0
-1683 10 0
-1683 11 0
-1683 14 0
-1683 16 0
-1683 18 0
-1683 20 0
-1683 22 0
-1683 24 0
-1683 25 0
1683 -4 -6 -7 -10 -11 -14 -16 -18 -20 -22 -24 -25 0
-1684 3 0
-1684 6 0
-1684 7 0
-1684 10 0
-1684 12 0
-1684 14 0
-1684 16 0
-1684 18 0
-1684 20 0
-1684 22 0
-1684 24 0
-1684 25 0
1684 -3 -6 -7 -10 -12 -14 -16 -18 -20 -22 -24 -25 0
-1685 4 0
-1685 6 0
-1685 7 0
-1685 10 0
-1685 12 0
-1685 14 0
-1685 16 0
-1685 18 0
-1685 20 0
-1685 22 0
-1685 24 0
-1685 25 0
1685 -4 -6 -7 -10 -12 -14 -16 -18 -20 -22 -24 -25 0
-1686 3 0
-1686 5 0
-1686 7 0
-1686 10 0
-1686 12 0
-1686 14 0
-1686 16 0
-1686 18 0
-1686 20 0
-1686 22 0
-1686 24 0
-1686 25 0
1686 -3 -5 -7 -10 -12 -14 -16 -18 -20 -22 -24 -25 0
-1687 3 0
-1687 5 0
-1687 8 0
-1687 9 0
-1687 12 0
-1687 13 0
-1687 16 0
-1687 17 0
-1687 20 0
-1687 21 0
-1687 24 0
-1687 25 0
1687 -3 -5 -8 -9 -12 -13 -16 -17 -20 -21 -24 -25 0
-1688 3 0
-1688 6 0
-1688 8 0
-1688 9 0
-1688 12 0
-1688 13 0
-1688 16 0
-1688 17 0
-1688 20 0
-1688 21 0
-1688 24 0
-1688 25 0
1688 -3 -6 -8 -9 -12 -13 -16 -17 -20 -21 -24 -25 0
-1689 4 0
-1689 5 0
-1689 8 0
-1689 9 0
-1689 12 0
-1689 13 0
-1689 16 0
-1689 17 0
-1689 20 0
-1689 21 0
-1689 24 0
-1689 25 0
1689 -4 -5 -8 -9 -12 -13 -16 -17 -20 -21 -24 -25 0
-1690 4 0
-1690 5 0
-1690 7 0
-1690 10 0
-1690 12 0
-1690 14 0
-1690 16 0
-1690 18 0
-1690 20 0
-1690 22 0
-1690 24 0
-1690 25 0
1690 -4 -5 -7 -10 -12 -14 -16 -18 -20 -22 -24 -25 0
-1691 3 0
-1691 5 0
-1691 8 0
-1691 10 0
-1691 12 0
-1691 14 0
-1691 16 0
-1691 18 0
-1691 20 0
-1691 22 0
-1691 24 0
-1691 25 0
1691 -3 -5 -8 -10 -12 -14 -16 -18 -20 -22 -24 -25 0
-1692 4 0
-1692 5 0
-1692 8 0
-1692 10 0
-1692 12 0
-1692 14 0
-1692 16 0
-1692 18 0
-1692 20 0
-1692 22 0
-1692 24 0
-1692 25 0
1692 -4 -5 -8 -10 -12 -14 -16 -18 -20 -22 -24 -25 0
-1693 3 0
-1693 6 0
-1693 8 0
-1693 10 0
-1693 12 0
-1693 14 0
-1693 16 0
-1693 18 0
-1693 20 0
-1693 22 0
-1693 24 0
-1693 25 0
1693 -3 -6 -8 -10 -12 -14 -16 -18 -20 -22 -24 -25 0
-1694 4 0
-1694 6 0
-1694 7 0
-1694 9 0
-1694 12 0
-1694 13 0
-1694 16 0
-1694 17 0
-1694 20 0
-1694 21 0
-1694 24 0
-1694 25 0
1694 -4 -6 -7 -9 -12 -13 -16 -17 -20 -21 -24 -25 0
-1695 3 0
-1695 6 0
-1695 8 0
-1695 9 0
-1695 12 0
-1695 14 0
-1695 16 0
-1695 18 0
-1695 20 0
-1695 22 0
-1695 24 0
-1695 25 0
1695 -3 -6 -8 -9 -12 -14 -16 -18 -20 -22 -24 -25 0
-1696 4 0
-1696 6 0
-1696 8 0
-1696 9 0
-1696 12 0
-1696 14 0
-1696 16 0
-1696 18 0
-1696 20 0
-1696 22 0
-1696 24 0
-1696 25 0
1696 -4 -6 -8 -9 -12 -14 -16 -18 -20 -22 -24 -25 0
-1697 3 0
-1697 5 0
-1697 8 0
-1697 9 0
-1697 12 0
-1697 14 0
-1697 16 0
-1697 18 0
-1697 20 0
-1697 22 0
-1697 24 0
-1697 25 0
1697 -3 -5 -8 -9 -12 -14 -16 -18 -20 -22 -24 -25 0
-1698 4 0
-1698 5 0
-1698 8 0
-1698 9 0
-1698 12 0
-1698 14 0
-1698 16 0
-1698 18 0
-1698 20 0
-1698 22 0
-1698 24 0
-1698 25 0
1698 -4 -5 -8 -9 -12 -14 -16 -18 -20 -22 -24 -25 0
-1699 3 0
-1699 5 0
-1699 7 0
-1699 9 0
-1699 12 0
-1699 14 0
-1699 16 0
-1699 18 0
-1699 20 0
-1699 22 0
-1699 24 0
-1699 25 0
1699 -3 -5 -7 -9 -12 -14 -16 -18 -20 -22 -24 -25 0
-1700 4 0
-1700 5 0
-1700 7 0
-1700 9 0
-1700 12 0
-1700 14 0
-1700 16 0
-1700 18 0
-1700 20 0
-1700 22 0
-1700 24 0
-1700 25 0
1700 -4 -5 -7 -9 -12 -14 -16 -18 -20 -22 -24 -25 0
-1701 3 0
-1701 6 0
-1701 7 0
-1701 9 0
-1701 12 0
-1701 14 0
-1701 16 0
-1701 18 0
-1701 20 0
-1701 22 0
-1701 24 0
-1701 25 0
1701 -3 -6 -7 -9 -12 -14 -16 -18 -20 -22 -24 -25 0
-1702 4 0
-1702 6 0
-1702 7 0
-1702 9 0
-1702 12 0
-1702 14 0
-1702 16 0
-1702 17 0
-1702 20 0
-1702 21 0
-1702 24 0
-1702 25 0
1702 -4 -6 -7 -9 -12 -14 -16 -17 -20 -21 -24 -25 0
-1703 4 0
-1703 6 0
-1703 7 0
-1703 9 0
-1703 12 0
-1703 14 0
-1703 16 0
-1703 18 0
-1703 20 0
-1703 22 0
-1703 24 0
-1703 25 0
1703 -4 -6 -7 -9 -12 -14 -16 -18 -20 -22 -24 -25 0
-1704 3 0
-1704 6 0
-1704 7 0
-1704 9 0
-1704 12 0
-1704 13 0
-1704 16 0
-1704 18 0
-1704 20 0
-1704 22 0
-1704 24 0
-1704 25 0
1704 -3 -6 -7 -9 -12 -13 -16 -18 -20 -22 -24 -25 0
-1705 4 0
-1705 6 0
-1705 7 0
-1705 9 0
-1705 12 0
-1705 13 0
-1705 16 0
-1705 18 0
-1705 20 0
-1705 22 0
-1705 24 0
-1705 25 0
1705 -4 -6 -7 -9 -12 -13 -16 -18 -20 -22 -24 -25 0
-1706 3 0
-1706 5 0
-1706 7 0
-1706 9 0
-1706 12 0
-1706 13 0
-1706 16 0
-1706 18 0
-1706 20 0
-1706 22 0
-1706 24 0
-1706 25 0
1706 -3 -5 -7 -9 -12 -13 -16 -18 -20 -22 -24 -25 0
-1707 4 0
-1707 6 0
-1707 8 0
-1707 9 0
-1707 11 0
-1707 13 0
-1707 16 0
-1707 17 0
-1707 20 0
-1707 21 0
-1707 24 0
-1707 25 0
1707 -4 -6 -8 -9 -11 -13 -16 -17 -20 -21 -24 -25 0
-1708 4 0
-1708 5 0
-1708 7 0
-1708 9 0
-1708 12 0
-1708 13 0
-1708 16 0
-1708 18 0
-1708 20 0
-1708 22 0
-1708 24 0
-1708 25 0
1708 -4 -5 -7 -9 -12 -13 -16 -18 -20 -22 -24 -25 0
-1709 3 0
-1709 5 0
-1709 8 0
-1709 9 0
-1709 12 0
-1709 13 0
-1709 16 0
-1709 18 0
-1709 20 0
-1709 22 0
-1709 24 0
-1709 25 0
1709 -3 -5 -8 -9 -12 -13 -16 -18 -20 -22 -24 -25 0
-1710 4 0
-1710 5 0
-1710 8 0
-1710 9 0
-1710 12 0
-1710 13 0
-1710 16 0
-1710 18 0
-1710 20 0
-1710 22 0
-1710 24 0
-1710 25 0
1710 -4 -5 -8 -9 -12 -13 -16 -18 -20 -22 -24 -25 0
-1711 3 0
-1711 6 0
-1711 8 0
-1711 9 0
-1711 12 0
-1711 13 0
-1711 16 0
-1711 18 0
-1711 20 0
-1711 22 0
-1711 24 0
-1711 25 0
1711 -3 -6 -8 -9 -12 -13 -16 -18 -20 -22 -24 -25 0
-1712 4 0
-1712 6 0
-1712 8 0
-1712 9 0
-1712 12 0
-1712 13 0
-1712 16 0
-1712 18 0
-1712 20 0
-1712 22 0
-1712 24 0
-1712 25 0
1712 -4 -6 -8 -9 -12 -13 -16 -18 -20 -22 -24 -25 0
-1713 3 0
-1713 6 0
-1713 8 0
-1713 10 0
-1713 12 0
-1713 13 0
-1713 16 0
-1713 18 0
-1713 20 0
-1713 22 0
-1713 24 0
-1713 25 0
1713 -3 -6 -8 -10 -12 -13 -16 -18 -20 -22 -24 -25 0
-1714 4 0
-1714 6 0
-1714 8 0
-1714 10 0
-1714 12 0
-1714 13 0
-1714 16 0
-1714 18 0
-1714 20 0
-1714 22 0
-1714 24 0
-1714 25 0
1714 -4 -6 -8 -10 -12 -13 -16 -18 -20 -22 -24 -25 0
-1715 3 0
-1715 5 0
-1715 8 0
-1715 10 0
-1715 12 0
-1715 13 0
-1715 16 0
-1715 18 0
-1715 20 0
-1715 22 0
-1715 24 0
-1715 25 0
1715 -3 -5 -8 -10 -12 -13 -16 -18 -20 -22 -24 -25 0
-1716 4 0
-1716 5 0
-1716 8 0
-1716 10 0
-1716 12 0
-1716 13 0
-1716 16 0
-1716 18 0
-1716 20 0
-1716 22 0
-1716 24 0
-1716 25 0
1716 -4 -5 -8 -10 -12 -13 -16 -18 -20 -22 -24 -25 0
-1717 3 0
-1717 5 0
-1717 7 0
-1717 10 0
-1717 12 0
-1717 13 0
-1717 16 0
-1717 18 0
-1717 20 0
-1717 22 0
-1717 24 0
-1717 25 0
1717 -3 -5 -7 -10 -12 -13 -16 -18 -20 -22 -24 -25 0
-1718 4 0
-1718 5 0
-1718 7 0
-1718 10 0
-1718 12 0
-1718 13 0
-1718 16 0
-1718 18 0
-1718 20 0
-1718 22 0
-1718 24 0
-1718 25 0
1718 -4 -5 -7 -10 -12 -13 -16 -18 -20 -22 -24 -25 0
-1719 3 0
-1719 6 0
-1719 7 0
-1719 10 0
-1719 12 0
-1719 13 0
-1719 16 0
-1719 18 0
-1719 20 0
-1719 22 0
-1719 24 0
-1719 25 0
1719 -3 -6 -7 -10 -12 -13 -16 -18 -20 -22 -24 -25 0
-1720 4 0
-1720 6 0
-1720 7 0
-1720 10 0
-1720 12 0
-1720 13 0
-1720 16 0
-1720 17 0
-1720 20 0
-1720 21 0
-1720 24 0
-1720 25 0
1720 -4 -6 -7 -10 -12 -13 -16 -17 -20 -21 -24 -25 0
-1721 4 0
-1721 6 0
-1721 7 0
-1721 10 0
-1721 12 0
-1721 13 0
-1721 16 0
-1721 18 0
-1721 20 0
-1721 22 0
-1721 24 0
-1721 25 0
1721 -4 -6 -7 -10 -12 -13 -16 -18 -20 -22 -24 -25 0
-1722 3 0
-1722 6 0
-1722 7 0
-1722 10 0
-1722 11 0
-1722 13 0
-1722 16 0
-1722 18 0
-1722 20 0
-1722 22 0
-1722 24 0
-1722 25 0
1722 -3 -6 -7 -10 -11 -13 -16 -18 -20 -22 -24 -25 0
-1723 4 0
-1723 6 0
-1723 7 0
-1723 10 0
-1723 11 0
-1723 13 0
-1723 16 0
-1723 18 0
-1723 20 0
-1723 22 0
-1723 24 0
-1723 25 0
1723 -4 -6 -7 -10 -11 -13 -16 -18 -20 -22 -24 -25 0
-1724 3 0
-1724 5 0
-1724 7 0
-1724 10 0
-1724 11 0
-1724 13 0
-1724 16 0
-1724 18 0
-1724 20 0
-1724 22 0
-1724 24 0
-1724 25 0
1724 -3 -5 -7 -10 -11 -13 -16 -18 -20 -22 -24 -25 0
-1725 4 0
-1725 5 0
-1725 7 0
-1725 10 0
-1725 11 0
-1725 13 0
-1725 16 0
-1725 18 0
-1725 20 0
-1725 22 0
-1725 24 0
-1725 25 0
1725 -4 -5 -7 -10 -11 -13 -16 -18 -20 -22 -24 -25 0
-1726 3 0
-1726 5 0
-1726 8 0
-1726 10 0
-1726 11 0
-1726 13 0
-1726 16 0
-1726 18 0
-1726 20 0
-1726 22 0
-1726 24 0
-1726 25 0
1726 -3 -5 -8 -10 -11 -13 -16 -18 -20 -22 -24 -25 0
-1727 4 0
-1727 5 0
-1727 8 0
-1727 10 0
-1727 11 0
-1727 13 0
-1727 16 0
-1727 18 0
-1727 20 0
-1727 22 0
-1727 24 0
-1727 25 0
1727 -4 -5 -8 -10 -11 -13 -16 -18 -20 -22 -24 -25 0
-1728 3 0
-1728 6 0
-1728 8 0
-1728 10 0
-1728 11 0
-1728 13 0
-1728 16 0
-1728 18 0
-1728 20 0
-1728 22 0
-1728 24 0
-1728 25 0
1728 -3 -6 -8 -10 -11 -13 -16 -18 -20 -22 -24 -25 0
-1729 4 0
-1729 6 0
-1729 8 0
-1729 10 0
-1729 11 0
-1729 13 0
-1729 16 0
-1729 17 0
-1729 20 0
-1729 21 0
-1729 24 0
-1729 25 0
1729 -4 -6 -8 -10 -11 -13 -16 -17 -20 -21 -24 -25 0
-1730 4 0
-1730 6 0
-1730 8 0
-1730 10 0
-1730 11 0
-1730 13 0
-1730 16 0
-1730 18 0
-1730 20 0
-1730 22 0
-1730 24 0
-1730 25 0
1730 -4 -6 -8 -10 -11 -13 -16 -18 -20 -22 -24 -25 0
-1731 3 0
-1731 6 0
-1731 8 0
-1731 9 0
-1731 11 0
-1731 13 0
-1731 16 0
-1731 18 0
-1731 20 0
-1731 22 0
-1731 24 0
-1731 25 0
1731 -3 -6 -8 -9 -11 -13 -16 -18 -20 -22 -24 -25 0
-1732 4 0
-1732 6 0
-1732 8 0
-1732 9 0
-1732 11 0
-1732 13 0
-1732 16 0
-1732 18 0
-1732 20 0
-1732 22 0
-1732 24 0
-1732 25 0
1732 -4 -6 -8 -9 -11 -13 -16 -18 -20 -22 -24 -25 0
-1733 3 0
-1733 5 0
-1733 8 0
-1733 9 0
-1733 11 0
-1733 13 0
-1733 16 0
-1733 18 0
-1733 20 0
-1733 22 0
-1733 24 0
-1733 25 0
1733 -3 -5 -8 -9 -11 -13 -16 -18 -20 -22 -24 -25 0
-1734 4 0
-1734 6 0
-1734 7 0
-1734 9 0
-1734 11 0
-1734 13 0
-1734 16 0
-1734 17 0
-1734 20 0
-1734 21 0
-1734 24 0
-1734 25 0
1734 -4 -6 -7 -9 -11 -13 -16 -17 -20 -21 -24 -25 0
-1735 4 0
-1735 5 0
-1735 8 0
-1735 9 0
-1735 11 0
-1735 13 0
-1735 16 0
-1735 18 0
-1735 20 0
-1735 22 0
-1735 24 0
-1735 25 0
1735 -4 -5 -8 -9 -11 -13 -16 -18 -20 -22 -24 -25 0
-1736 3 0
-1736 5 0
-1736 7 0
-1736 9 0
-1736 11 0
-1736 13 0
-1736 16 0
-1736 18 0
-1736 20 0
-1736 22 0
-1736 24 0
-1736 25 0
1736 -3 -5 -7 -9 -11 -13 -16 -18 -20 -22 -24 -25 0
-1737 4 0
-1737 5 0
-1737 7 0
-1737 9 0
-1737 11 0
-1737 13 0
-1737 16 0
-1737 18 0
-1737 20 0
-1737 22 0
-1737 24 0
-1737 25 0
1737 -4 -5 -7 -9 -11 -13 -16 -18 -20 -22 -24 -25 0
-1738 3 0
-1738 6 0
-1738 7 0
-1738 9 0
-1738 11 0
-1738 13 0
-1738 16 0
-1738 18 0
-1738 20 0
-1738 22 0
-1738 24 0
-1738 25 0
1738 -3 -6 -7 -9 -11 -13 -16 -18 -20 -22 -24 -25 0
-1739 4 0
-1739 6 0
-1739 7 0
-1739 9 0
-1739 11 0
-1739 13 0
-1739 16 0
-1739 18 0
-1739 20 0
-1739 21 0
-1739 24 0
-1739 25 0
1739 -4 -6 -7 -9 -11 -13 -16 -18 -20 -21 -24 -25 0
-1740 4 0
-1740 6 0
-1740 7 0
-1740 9 0
-1740 11 0
-1740 13 0
-1740 16 0
-1740 18 0
-1740 20 0
-1740 22 0
-1740 24 0
-1740 25 0
1740 -4 -6 -7 -9 -11 -13 -16 -18 -20 -22 -24 -25 0
-1741 3 0
-1741 6 0
-1741 7 0
-1741 9 0
-1741 11 0
-1741 13 0
-1741 16 0
-1741 17 0
-1741 20 0
-1741 22 0
-1741 24 0
-1741 25 0
1741 -3 -6 -7 -9 -11 -13 -16 -17 -20 -22 -24 -25 0
-1742 4 0
-1742 6 0
-1742 7 0
-1742 9 0
-1742 11 0
-1742 13 0
-1742 16 0
-1742 17 0
-1742 20 0
-1742 22 0
-1742 24 0
-1742 25 0
1742 -4 -6 -7 -9 -11 -13 -16 -17 -20 -22 -24 -25 0
-1743 3 0
-1743 5 0
-1743 7 0
-1743 9 0
-1743 11 0
-1743 13 0
-1743 16 0
-1743 17 0
-1743 20 0
-1743 22 0
-1743 24 0
-1743 25 0
1743 -3 -5 -7 -9 -11 -13 -16 -17 -20 -22 -24 -25 0
-1744 4 0
-1744 5 0
-1744 7 0
-1744 9 0
-1744 11 0
-1744 13 0
-1744 16 0
-1744 17 0
-1744 20 0
-1744 22 0
-1744 24 0
-1744 25 0
1744 -4 -5 -7 -9 -11 -13 -16 -17 -20 -22 -24 -25 0
-1745 3 0
-1745 5 0
-1745 8 0
-1745 9 0
-1745 11 0
-1745 13 0
-1745 16 0
-1745 17 0
-1745 20 0
-1745 22 0
-1745 24 0
-1745 25 0
1745 -3 -5 -8 -9 -11 -13 -16 -17 -20 -22 -24 -25 0
-1746 4 0
-1746 5 0
-1746 8 0
-1746 9 0
-1746 11 0
-1746 13 0
-1746 16 0
-1746 17 0
-1746 20 0
-1746 22 0
-1746 24 0
-1746 25 0
1746 -4 -5 -8 -9 -11 -13 -16 -17 -20 -22 -24 -25 0
-1747 3 0
-1747 6 0
-1747 8 0
-1747 9 0
-1747 11 0
-1747 13 0
-1747 16 0
-1747 17 0
-1747 20 0
-1747 22 0
-1747 24 0
-1747 25 0
1747 -3 -6 -8 -9 -11 -13 -16 -17 -20 -22 -24 -25 0
-1748 4 0
-1748 6 0
-1748 8 0
-1748 9 0
-1748 11 0
-1748 13 0
-1748 16 0
-1748 17 0
-1748 20 0
-1748 22 0
-1748 24 0
-1748 25 0
1748 -4 -6 -8 -9 -11 -13 -16 -17 -20 -22 -24 -25 0
-1749 3 0
-1749 6 0
-1749 8 0
-1749 10 0
-1749 11 0
-1749 13 0
-1749 16 0
-1749 17 0
-1749 20 0
-1749 22 0
-1749 24 0
-1749 25 0
1749 -3 -6 -8 -10 -11 -13 -16 -17 -20 -22 -24 -25 0
-1750 4 0
-1750 6 0
-1750 8 0
-1750 10 0
-1750 11 0
-1750 13 0
-1750 16 0
-1750 17 0
-1750 20 0
-1750 22 0
-1750 24 0
-1750 25 0
1750 -4 -6 -8 -10 -11 -13 -16 -17 -20 -22 -24 -25 0
-1751 3 0
-1751 5 0
-1751 8 0
-1751 10 0
-1751 11 0
-1751 13 0
-1751 16 0
-1751 17 0
-1751 20 0
-1751 22 0
-1751 24 0
-1751 25 0
1751 -3 -5 -8 -10 -11 -13 -16 -17 -20 -22 -24 -25 0
-1752 4 0
-1752 5 0
-1752 8 0
-1752 10 0
-1752 11 0
-1752 13 0
-1752 16 0
-1752 17 0
-1752 20 0
-1752 22 0
-1752 24 0
-1752 25 0
1752 -4 -5 -8 -10 -11 -13 -16 -17 -20 -22 -24 -25 0
-1753 3 0
-1753 5 0
-1753 7 0
-1753 10 0
-1753 11 0
-1753 13 0
-1753 16 0
-1753 17 0
-1753 20 0
-1753 22 0
-1753 24 0
-1753 25 0
1753 -3 -5 -7 -10 -11 -13 -16 -17 -20 -22 -24 -25 0
-1754 4 0
-1754 5 0
-1754 7 0
-1754 10 0
-1754 11 0
-1754 13 0
-1754 16 0
-1754 17 0
-1754 20 0
-1754 22 0
-1754 24 0
-1754 25 0
1754 -4 -5 -7 -10 -11 -13 -16 -17 -20 -22 -24 -25 0
-1755 3 0
-1755 6 0
-1755 7 0
-1755 10 0
-1755 11 0
-1755 13 0
-1755 16 0
-1755 17 0
-1755 20 0
-1755 22 0
-1755 24 0
-1755 25 0
1755 -3 -6 -7 -10 -11 -13 -16 -17 -20 -22 -24 -25 0
-1756 4 0
-1756 6 0
-1756 7 0
-1756 10 0
-1756 11 0
-1756 13 0
-1756 16 0
-1756 17 0
-1756 20 0
-1756 22 0
-1756 24 0
-1756 25 0
1756 -4 -6 -7 -10 -11 -13 -16 -17 -20 -22 -24 -25 0
-1757 3 0
-1757 6 0
-1757 7 0
-1757 10 0
-1757 12 0
-1757 13 0
-1757 16 0
-1757 17 0
-1757 20 0
-1757 22 0
-1757 24 0
-1757 25 0
1757 -3 -6 -7 -10 -12 -13 -16 -17 -20 -22 -24 -25 0
-1758 4 0
-1758 6 0
-1758 7 0
-1758 10 0
-1758 12 0
-1758 13 0
-1758 16 0
-1758 17 0
-1758 20 0
-1758 22 0
-1758 24 0
-1758 25 0
1758 -4 -6 -7 -10 -12 -13 -16 -17 -20 -22 -24 -25 0
-1759 3 0
-1759 5 0
-1759 7 0
-1759 10 0
-1759 12 0
-1759 13 0
-1759 16 0
-1759 17 0
-1759 20 0
-1759 22 0
-1759 24 0
-1759 25 0
1759 -3 -5 -7 -10 -12 -13 -16 -17 -20 -22 -24 -25 0
-1760 4 0
-1760 6 0
-1760 8 0
-1760 9 0
-1760 12 0
-1760 13 0
-1760 15 0
-1760 17 0
-1760 20 0
-1760 21 0
-1760 24 0
-1760 25 0
1760 -4 -6 -8 -9 -12 -13 -15 -17 -20 -21 -24 -25 0
-1761 4 0
-1761 5 0
-1761 7 0
-1761 10 0
-1761 12 0
-1761 13 0
-1761 16 0
-1761 17 0
-1761 20 0
-1761 22 0
-1761 24 0
-1761 25 0
1761 -4 -5 -7 -10 -12 -13 -16 -17 -20 -22 -24 -25 0
-1762 3 0
-1762 5 0
-1762 8 0
-1762 10 0
-1762 12 0
-1762 13 0
-1762 16 0
-1762 17 0
-1762 20 0
-1762 22 0
-1762 24 0
-1762 25 0
1762 -3 -5 -8 -10 -12 -13 -16 -17 -20 -22 -24 -25 0
-1763 4 0
-1763 5 0
-1763 8 0
-1763 10 0
-1763 12 0
-1763 13 0
-1763 16 0
-1763 17 0
-1763 20 0
-1763 22 0
-1763 24 0
-1763 25 0
1763 -4 -5 -8 -10 -12 -13 -16 -17 -20 -22 -24 -25 0
-1764 3 0
-1764 6 0
-1764 8 0
-1764 10 0
-1764 12 0
-1764 13 0
-1764 16 0
-1764 17 0
-1764 20 0
-1764 22 0
-1764 24 0
-1764 25 0
1764 -3 -6 -8 -10 -12 -13 -16 -17 -20 -22 -24 -25 0
-1765 4 0
-1765 6 0
-1765 8 0
-1765 10 0
-1765 12 0
-1765 13 0
-1765 15 0
-1765 17 0
-1765 20 0
-1765 21 0
-1765 24 0
-1765 25 0
1765 -4 -6 -8 -10 -12 -13 -15 -17 -20 -21 -24 -25 0
-1766 4 0
-1766 6 0
-1766 8 0
-1766 10 0
-1766 12 0
-1766 13 0
-1766 16 0
-1766 17 0
-1766 20 0
-1766 22 0
-1766 24 0
-1766 25 0
1766 -4 -6 -8 -10 -12 -13 -16 -17 -20 -22 -24 -25 0
-1767 3 0
-1767 6 0
-1767 8 0
-1767 9 0
-1767 12 0
-1767 13 0
-1767 16 0
-1767 17 0
-1767 20 0
-1767 22 0
-1767 24 0
-1767 25 0
1767 -3 -6 -8 -9 -12 -13 -16 -17 -20 -22 -24 -25 0
-1768 4 0
-1768 6 0
-1768 8 0
-1768 9 0
-1768 12 0
-1768 13 0
-1768 16 0
-1768 17 0
-1768 20 0
-1768 22 0
-1768 24 0
-1768 25 0
1768 -4 -6 -8 -9 -12 -13 -16 -17 -20 -22 -24 -25 0
-1769 3 0
-1769 5 0
-1769 8 0
-1769 9 0
-1769 12 0
-1769 13 0
-1769 16 0
-1769 17 0
-1769 20 0
-1769 22 0
-1769 24 0
-1769 25 0
1769 -3 -5 -8 -9 -12 -13 -16 -17 -20 -22 -24 -25 0
-1770 4 0
-1770 5 0
-1770 8 0
-1770 9 0
-1770 12 0
-1770 13 0
-1770 16 0
-1770 17 0
-1770 20 0
-1770 22 0
-1770 24 0
-1770 25 0
1770 -4 -5 -8 -9 -12 -13 -16 -17 -20 -22 -24 -25 0
-1771 3 0
-1771 5 0
-1771 7 0
-1771 9 0
-1771 12 0
-1771 13 0
-1771 16 0
-1771 17 0
-1771 20 0
-1771 22 0
-1771 24 0
-1771 25 0
1771 -3 -5 -7 -9 -12 -13 -16 -17 -20 -22 -24 -25 0
-1772 4 0
-1772 5 0
-1772 7 0
-1772 9 0
-1772 12 0
-1772 13 0
-1772 16 0
-1772 17 0
-1772 20 0
-1772 22 0
-1772 24 0
-1772 25 0
1772 -4 -5 -7 -9 -12 -13 -16 -17 -20 -22 -24 -25 0
-1773 3 0
-1773 6 0
-1773 7 0
-1773 9 0
-1773 12 0
-1773 13 0
-1773 16 0
-1773 17 0
-1773 20 0
-1773 22 0
-1773 24 0
-1773 25 0
1773 -3 -6 -7 -9 -12 -13 -16 -17 -20 -22 -24 -25 0
-1774 4 0
-1774 6 0
-1774 7 0
-1774 9 0
-1774 12 0
-1774 13 0
-1774 16 0
-1774 17 0
-1774 20 0
-1774 22 0
-1774 24 0
-1774 25 0
1774 -4 -6 -7 -9 -12 -13 -16 -17 -20 -22 -24 -25 0
-1775 3 0
-1775 6 0
-1775 7 0
-1775 9 0
-1775 12 0
-1775 14 0
-1775 16 0
-1775 17 0
-1775 20 0
-1775 22 0
-1775 24 0
-1775 25 0
1775 -3 -6 -7 -9 -12 -14 -16 -17 -20 -22 -24 -25 0
-1776 4 0
-1776 6 0
-1776 7 0
-1776 9 0
-1776 12 0
-1776 14 0
-1776 16 0
-1776 17 0
-1776 20 0
-1776 22 0
-1776 24 0
-1776 25 0
1776 -4 -6 -7 -9 -12 -14 -16 -17 -20 -22 -24 -25 0
-1777 3 0
-1777 5 0
-1777 7 0
-1777 9 0
-1777 12 0
-1777 14 0
-1777 16 0
-1777 17 0
-1777 20 0
-1777 22 0
-1777 24 0
-1777 25 0
1777 -3 -5 -7 -9 -12 -14 -16 -17 -20 -22 -24 -25 0
-1778 4 0
-1778 5 0
-1778 7 0
-1778 9 0
-1778 12 0
-1778 14 0
-1778 16 0
-1778 17 0
-1778 20 0
-1778 22 0
-1778 24 0
-1778 25 0
1778 -4 -5 -7 -9 -12 -14 -16 -17 -20 -22 -24 -25 0
-1779 3 0
-1779 5 0
-1779 8 0
-1779 9 0
-1779 12 0
-1779 14 0
-1779 16 0
-1779 17 0
-1779 20 0
-1779 22 0
-1779 24 0
-1779 25 0
1779 -3 -5 -8 -9 -12 -14 -16 -17 -20 -22 -24 -25 0
-1780 4 0
-1780 5 0
-1780 8 0
-1780 9 0
-1780 12 0
-1780 14 0
-1780 16 0
-1780 17 0
-1780 20 0
-1780 22 0
-1780 24 0
-1780 25 0
1780 -4 -5 -8 -9 -12 -14 -16 -17 -20 -22 -24 -25 0
-1781 3 0
-1781 6 0
-1781 8 0
-1781 9 0
-1781 12 0
-1781 14 0
-1781 16 0
-1781 17 0
-1781 20 0
-1781 22 0
-1781 24 0
-1781 25 0
1781 -3 -6 -8 -9 -12 -14 -16 -17 -20 -22 -24 -25 0
-1782 4 0
-1782 6 0
-1782 8 0
-1782 9 0
-1782 12 0
-1782 14 0
-1782 16 0
-1782 17 0
-1782 20 0
-1782 22 0
-1782 24 0
-1782 25 0
1782 -4 -6 -8 -9 -12 -14 -16 -17 -20 -22 -24 -25 0
-1783 3 0
-1783 6 0
-1783 8 0
-1783 10 0
-1783 12 0
-1783 14 0
-1783 16 0
-1783 17 0
-1783 20 0
-1783 22 0
-1783 24 0
-1783 25 0
1783 -3 -6 -8 -10 -12 -14 -16 -17 -20 -22 -24 -25 0
-1784 4 0
-1784 6 0
-1784 8 0
-1784 10 0
-1784 12 0
-1784 14 0
-1784 16 0
-1784 17 0
-1784 20 0
-1784 22 0
-1784 24 0
-1784 25 0
1784 -4 -6 -8 -10 -12 -14 -16 -17 -20 -22 -24 -25 0
-1785 3 0
-1785 5 0
-1785 8 0
-1785 10 0
-1785 12 0
-1785 14 0
-1785 16 0
-1785 17 0
-1785 20 0
-1785 22 0
-1785 24 0
-1785 25 0
1785 -3 -5 -8 -10 -12 -14 -16 -17 -20 -22 -24 -25 0
-1786 4 0
-1786 5 0
-1786 8 0
-1786 10 0
-1786 12 0
-1786 14 0
-1786 16 0
-1786 17 0
-1786 20 0
-1786 22 0
-1786 24 0
-1786 25 0
1786 -4 -5 -8 -10 -12 -14 -16 -17 -20 -22 -24 -25 0
-1787 3 0
-1787 5 0
-1787 7 0
-1787 10 0
-1787 12 0
-1787 14 0
-1787 16 0
-1787 17 0
-1787 20 0
-1787 22 0
-1787 24 0
-1787 25 0
1787 -3 -5 -7 -10 -12 -14 -16 -17 -20 -22 -24 -25 0
-1788 4 0
-1788 5 0
-1788 7 0
-1788 10 0
-1788 12 0
-1788 14 0
-1788 16 0
-1788 17 0
-1788 20 0
-1788 22 0
-1788 24 0
-1788 25 0
1788 -4 -5 -7 -10 -12 -14 -16 -17 -20 -22 -24 -25 0
-1789 3 0
-1789 6 0
-1789 7 0
-1789 10 0
-1789 12 0
-1789 14 0
-1789 16 0
-1789 17 0
-1789 20 0
-1789 22 0
-1789 24 0
-1789 25 0
1789 -3 -6 -7 -10 -12 -14 -16 -17 -20 -22 -24 -25 0
-1790 4 0
-1790 6 0
-1790 7 0
-1790 10 0
-1790 12 0
-1790 14 0
-1790 16 0
-1790 17 0
-1790 20 0
-1790 22 0
-1790 24 0
-1790 25 0
1790 -4 -6 -7 -10 -12 -14 -16 -17 -20 -22 -24 -25 0
-1791 3 0
-1791 6 0
-1791 7 0
-1791 10 0
-1791 11 0
-1791 14 0
-1791 16 0
-1791 17 0
-1791 20 0
-1791 22 0
-1791 24 0
-1791 25 0
1791 -3 -6 -7 -10 -11 -14 -16 -17 -20 -22 -24 -25 0
-1792 4 0
-1792 6 0
-1792 7 0
-1792 10 0
-1792 11 0
-1792 14 0
-1792 16 0
-1792 17 0
-1792 20 0
-1792 22 0
-1792 24 0
-1792 25 0
1792 -4 -6 -7 -10 -11 -14 -16 -17 -20 -22 -24 -25 0
-1793 3 0
-1793 5 0
-1793 7 0
-1793 10 0
-1793 11 0
-1793 14 0
-1793 16 0
-1793 17 0
-1793 20 0
-1793 22 0
-1793 24 0
-1793 25 0
1793 -3 -5 -7 -10 -11 -14 -16 -17 -20 -22 -24 -25 0
-1794 4 0
-1794 5 0
-1794 7 0
-1794 10 0
-1794 11 0
-1794 14 0
-1794 16 0
-1794 17 0
-1794 20 0
-1794 22 0
-1794 24 0
-1794 25 0
1794 -4 -5 -7 -10 -11 -14 -16 -17 -20 -22 -24 -25 0
-1795 3 0
-1795 5 0
-1795 8 0
-1795 10 0
-1795 11 0
-1795 14 0
-1795 16 0
-1795 17 0
-1795 20 0
-1795 22 0
-1795 24 0
-1795 25 0
1795 -3 -5 -8 -10 -11 -14 -16 -17 -20 -22 -24 -25 0
-1796 4 0
-1796 5 0
-1796 8 0
-1796 10 0
-1796 11 0
-1796 14 0
-1796 16 0
-1796 17 0
-1796 20 0
-1796 22 0
-1796 24 0
-1796 25 0
1796 -4 -5 -8 -10 -11 -14 -16 -17 -20 -22 -24 -25 0
-1797 3 0
-1797 6 0
-1797 8 0
-1797 10 0
-1797 11 0
-1797 14 0
-1797 16 0
-1797 17 0
-1797 20 0
-1797 22 0
-1797 24 0
-1797 25 0
1797 -3 -6 -8 -10 -11 -14 -16 -17 -20 -22 -24 -25 0
-1798 4 0
-1798 6 0
-1798 8 0
-1798 10 0
-1798 11 0
-1798 14 0
-1798 16 0
-1798 17 0
-1798 20 0
-1798 22 0
-1798 24 0
-1798 25 0
1798 -4 -6 -8 -10 -11 -14 -16 -17 -20 -22 -24 -25 0
-1799 3 0
-1799 6 0
-1799 8 0
-1799 9 0
-1799 11 0
-1799 14 0
-1799 16 0
-1799 17 0
-1799 20 0
-1799 22 0
-1799 24 0
-1799 25 0
1799 -3 -6 -8 -9 -11 -14 -16 -17 -20 -22 -24 -25 0
-1800 4 0
-1800 6 0
-1800 8 0
-1800 9 0
-1800 11 0
-1800 14 0
-1800 16 0
-1800 17 0
-1800 20 0
-1800 22 0
-1800 24 0
-1800 25 0
1800 -4 -6 -8 -9 -11 -14 -16 -17 -20 -22 -24 -25 0
-1801 3 0
-1801 5 0
-1801 8 0
-1801 9 0
-1801 11 0
-1801 14 0
-1801 16 0
-1801 17 0
-1801 20 0
-1801 22 0
-1801 24 0
-1801 25 0
1801 -3 -5 -8 -9 -11 -14 -16 -17 -20 -22 -24 -25 0
-1802 4 0
-1802 5 0
-1802 8 0
-1802 9 0
-1802 11 0
-1802 14 0
-1802 16 0
-1802 17 0
-1802 20 0
-1802 22 0
-1802 24 0
-1802 25 0
1802 -4 -5 -8 -9 -11 -14 -16 -17 -20 -22 -24 -25 0
-1803 3 0
-1803 5 0
-1803 7 0
-1803 9 0
-1803 11 0
-1803 14 0
-1803 16 0
-1803 17 0
-1803 20 0
-1803 22 0
-1803 24 0
-1803 25 0
1803 -3 -5 -7 -9 -11 -14 -16 -17 -20 -22 -24 -25 0
-1804 4 0
-1804 5 0
-1804 7 0
-1804 9 0
-1804 11 0
-1804 14 0
-1804 16 0
-1804 17 0
-1804 20 0
-1804 22 0
-1804 24 0
-1804 25 0
1804 -4 -5 -7 -9 -11 -14 -16 -17 -20 -22 -24 -25 0
-1805 3 0
-1805 6 0
-1805 7 0
-1805 9 0
-1805 11 0
-1805 14 0
-1805 16 0
-1805 17 0
-1805 20 0
-1805 22 0
-1805 24 0
-1805 25 0
1805 -3 -6 -7 -9 -11 -14 -16 -17 -20 -22 -24 -25 0
-1806 4 0
-1806 6 0
-1806 7 0
-1806 9 0
-1806 11 0
-1806 14 0
-1806 16 0
-1806 17 0
-1806 20 0
-1806 21 0
-1806 24 0
-1806 25 0
1806 -4 -6 -7 -9 -11 -14 -16 -17 -20 -21 -24 -25 0
-1807 4 0
-1807 6 0
-1807 7 0
-1807 9 0
-1807 11 0
-1807 14 0
-1807 16 0
-1807 17 0
-1807 20 0
-1807 22 0
-1807 24 0
-1807 25 0
1807 -4 -6 -7 -9 -11 -14 -16 -17 -20 -22 -24 -25 0
-1808 3 0
-1808 6 0
-1808 7 0
-1808 9 0
-1808 11 0
-1808 14 0
-1808 15 0
-1808 17 0
-1808 20 0
-1808 22 0
-1808 24 0
-1808 25 0
1808 -3 -6 -7 -9 -11 -14 -15 -17 -20 -22 -24 -25 0
-1809 4 0
-1809 6 0
-1809 7 0
-1809 9 0
-1809 11 0
-1809 14 0
-1809 15 0
-1809 17 0
-1809 20 0
-1809 22 0
-1809 24 0
-1809 25 0
1809 -4 -6 -7 -9 -11 -14 -15 -17 -20 -22 -24 -25 0
-1810 3 0
-1810 5 0
-1810 7 0
-1810 9 0
-1810 11 0
-1810 14 0
-1810 15 0
-1810 17 0
-1810 20 0
-1810 22 0
-1810 24 0
-1810 25 0
1810 -3 -5 -7 -9 -11 -14 -15 -17 -20 -22 -24 -25 0
-1811 4 0
-1811 5 0
-1811 7 0
-1811 9 0
-1811 11 0
-1811 14 0
-1811 15 0
-1811 17 0
-1811 20 0
-1811 22 0
-1811 24 0
-1811 25 0
1811 -4 -5 -7 -9 -11 -14 -15 -17 -20 -22 -24 -25 0
-1812 3 0
-1812 5 0
-1812 8 0
-1812 9 0
-1812 11 0
-1812 14 0
-1812 15 0
-1812 17 0
-1812 20 0
-1812 22 0
-1812 24 0
-1812 25 0
1812 -3 -5 -8 -9 -11 -14 -15 -17 -20 -22 -24 -25 0
-1813 4 0
-1813 5 0
-1813 8 0
-1813 9 0
-1813 11 0
-1813 14 0
-1813 15 0
-1813 17 0
-1813 20 0
-1813 22 0
-1813 24 0
-1813 25 0
1813 -4 -5 -8 -9 -11 -14 -15 -17 -20 -22 -24 -25 0
-1814 3 0
-1814 6 0
-1814 8 0
-1814 9 0
-1814 11 0
-1814 14 0
-1814 15 0
-1814 17 0
-1814 20 0
-1814 22 0
-1814 24 0
-1814 25 0
1814 -3 -6 -8 -9 -11 -14 -15 -17 -20 -22 -24 -25 0
-1815 4 0
-1815 6 0
-1815 8 0
-1815 9 0
-1815 11 0
-1815 14 0
-1815 15 0
-1815 17 0
-1815 20 0
-1815 22 0
-1815 24 0
-1815 25 0
1815 -4 -6 -8 -9 -11 -14 -15 -17 -20 -22 -24 -25 0
-1816 3 0
-1816 6 0
-1816 8 0
-1816 10 0
-1816 11 0
-1816 14 0
-1816 15 0
-1816 17 0
-1816 20 0
-1816 22 0
-1816 24 0
-1816 25 0
1816 -3 -6 -8 -10 -11 -14 -15 -17 -20 -22 -24 -25 0
-1817 4 0
-1817 6 0
-1817 8 0
-1817 10 0
-1817 11 0
-1817 14 0
-1817 15 0
-1817 17 0
-1817 20 0
-1817 22 0
-1817 24 0
-1817 25 0
1817 -4 -6 -8 -10 -11 -14 -15 -17 -20 -22 -24 -25 0
-1818 3 0
-1818 5 0
-1818 8 0
-1818 10 0
-1818 11 0
-1818 14 0
-1818 15 0
-1818 17 0
-1818 20 0
-1818 22 0
-1818 24 0
-1818 25 0
1818 -3 -5 -8 -10 -11 -14 -15 -17 -20 -22 -24 -25 0
-1819 4 0
-1819 5 0
-1819 8 0
-1819 10 0
-1819 11 0
-1819 14 0
-1819 15 0
-1819 17 0
-1819 20 0
-1819 22 0
-1819 24 0
-1819 25 0
1819 -4 -5 -8 -10 -11 -14 -15 -17 -20 -22 -24 -25 0
-1820 3 0
-1820 5 0
-1820 7 0
-1820 10 0
-1820 11 0
-1820 14 0
-1820 15 0
-1820 17 0
-1820 20 0
-1820 22 0
-1820 24 0
-1820 25 0
1820 -3 -5 -7 -10 -11 -14 -15 -17 -20 -22 -24 -25 0
-1821 4 0
-1821 5 0
-1821 7 0
-1821 10 0
-1821 11 0
-1821 14 0
-1821 15 0
-1821 17 0
-1821 20 0
-1821 22 0
-1821 24 0
-1821 25 0
1821 -4 -5 -7 -10 -11 -14 -15 -17 -20 -22 -24 -25 0
-1822 3 0
-1822 6 0
-1822 7 0
-1822 10 0
-1822 11 0
-1822 14 0
-1822 15 0
-1822 17 0
-1822 20 0
-1822 22 0
-1822 24 0
-1822 25 0
1822 -3 -6 -7 -10 -11 -14 -15 -17 -20 -22 -24 -25 0
-1823 4 0
-1823 6 0
-1823 7 0
-1823 10 0
-1823 11 0
-1823 14 0
-1823 15 0
-1823 17 0
-1823 20 0
-1823 22 0
-1823 24 0
-1823 25 0
1823 -4 -6 -7 -10 -11 -14 -15 -17 -20 -22 -24 -25 0
-1824 3 0
-1824 6 0
-1824 7 0
-1824 10 0
-1824 12 0
-1824 14 0
-1824 15 0
-1824 17 0
-1824 20 0
-1824 22 0
-1824 24 0
-1824 25 0
1824 -3 -6 -7 -10 -12 -14 -15 -17 -20 -22 -24 -25 0
-1825 4 0
-1825 6 0
-1825 7 0
-1825 10 0
-1825 12 0
-1825 14 0
-1825 15 0
-1825 17 0
-1825 20 0
-1825 22 0
-1825 24 0
-1825 25 0
1825 -4 -6 -7 -10 -12 -14 -15 -17 -20 -22 -24 -25 0
-1826 3 0
-1826 5 0
-1826 7 0
-1826 10 0
-1826 12 0
-1826 14 0
-1826 15 0
-1826 17 0
-1826 20 0
-1826 22 0
-1826 24 0
-1826 25 0
1826 -3 -5 -7 -10 -12 -14 -15 -17 -20 -22 -24 -25 0
-1827 4 0
-1827 5 0
-1827 7 0
-1827 10 0
-1827 12 0
-1827 14 0
-1827 15 0
-1827 17 0
-1827 20 0
-1827 22 0
-1827 24 0
-1827 25 0
1827 -4 -5 -7 -10 -12 -14 -15 -17 -20 -22 -24 -25 0
-1828 3 0
-1828 5 0
-1828 8 0
-1828 10 0
-1828 12 0
-1828 14 0
-1828 15 0
-1828 17 0
-1828 20 0
-1828 22 0
-1828 24 0
-1828 25 0
1828 -3 -5 -8 -10 -12 -14 -15 -17 -20 -22 -24 -25 0
-1829 4 0
-1829 5 0
-1829 8 0
-1829 10 0
-1829 12 0
-1829 14 0
-1829 15 0
-1829 17 0
-1829 20 0
-1829 22 0
-1829 24 0
-1829 25 0
1829 -4 -5 -8 -10 -12 -14 -15 -17 -20 -22 -24 -25 0
-1830 3 0
-1830 6 0
-1830 8 0
-1830 10 0
-1830 12 0
-1830 14 0
-1830 15 0
-1830 17 0
-1830 20 0
-1830 22 0
-1830 24 0
-1830 25 0
1830 -3 -6 -8 -10 -12 -14 -15 -17 -20 -22 -24 -25 0
-1831 4 0
-1831 6 0
-1831 8 0
-1831 10 0
-1831 12 0
-1831 14 0
-1831 15 0
-1831 17 0
-1831 20 0
-1831 22 0
-1831 24 0
-1831 25 0
1831 -4 -6 -8 -10 -12 -14 -15 -17 -20 -22 -24 -25 0
-1832 3 0
-1832 6 0
-1832 8 0
-1832 9 0
-1832 12 0
-1832 14 0
-1832 15 0
-1832 17 0
-1832 20 0
-1832 22 0
-1832 24 0
-1832 25 0
1832 -3 -6 -8 -9 -12 -14 -15 -17 -20 -22 -24 -25 0
-1833 4 0
-1833 6 0
-1833 8 0
-1833 9 0
-1833 12 0
-1833 14 0
-1833 15 0
-1833 17 0
-1833 20 0
-1833 22 0
-1833 24 0
-1833 25 0
1833 -4 -6 -8 -9 -12 -14 -15 -17 -20 -22 -24 -25 0
-1834 3 0
-1834 5 0
-1834 8 0
-1834 9 0
-1834 12 0
-1834 14 0
-1834 15 0
-1834 17 0
-1834 20 0
-1834 22 0
-1834 24 0
-1834 25 0
1834 -3 -5 -8 -9 -12 -14 -15 -17 -20 -22 -24 -25 0
-1835 4 0
-1835 5 0
-1835 8 0
-1835 9 0
-1835 12 0
-1835 14 0
-1835 15 0
-1835 17 0
-1835 20 0
-1835 22 0
-1835 24 0
-1835 25 0
1835 -4 -5 -8 -9 -12 -14 -15 -17 -20 -22 -24 -25 0
-1836 3 0
-1836 5 0
-1836 7 0
-1836 9 0
-1836 12 0
-1836 14 0
-1836 15 0
-1836 17 0
-1836 20 0
-1836 22 0
-1836 24 0
-1836 25 0
1836 -3 -5 -7 -9 -12 -14 -15 -17 -20 -22 -24 -25 0
-1837 4 0
-1837 5 0
-1837 7 0
-1837 9 0
-1837 12 0
-1837 14 0
-1837 15 0
-1837 17 0
-1837 20 0
-1837 22 0
-1837 24 0
-1837 25 0
1837 -4 -5 -7 -9 -12 -14 -15 -17 -20 -22 -24 -25 0
-1838 3 0
-1838 6 0
-1838 7 0
-1838 9 0
-1838 12 0
-1838 14 0
-1838 15 0
-1838 17 0
-1838 20 0
-1838 22 0
-1838 24 0
-1838 25 0
1838 -3 -6 -7 -9 -12 -14 -15 -17 -20 -22 -24 -25 0
-1839 4 0
-1839 6 0
-1839 7 0
-1839 9 0
-1839 12 0
-1839 14 0
-1839 15 0
-1839 17 0
-1839 20 0
-1839 21 0
-1839 24 0
-1839 25 0
1839 -4 -6 -7 -9 -12 -14 -15 -17 -20 -21 -24 -25 0
-1840 4 0
-1840 6 0
-1840 7 0
-1840 9 0
-1840 12 0
-1840 14 0
-1840 15 0
-1840 17 0
-1840 20 0
-1840 22 0
-1840 24 0
-1840 25 0
1840 -4 -6 -7 -9 -12 -14 -15 -17 -20 -22 -24 -25 0
-1841 3 0
-1841 6 0
-1841 7 0
-1841 9 0
-1841 12 0
-1841 13 0
-1841 15 0
-1841 17 0
-1841 20 0
-1841 22 0
-1841 24 0
-1841 25 0
1841 -3 -6 -7 -9 -12 -13 -15 -17 -20 -22 -24 -25 0
-1842 4 0
-1842 6 0
-1842 7 0
-1842 9 0
-1842 12 0
-1842 13 0
-1842 15 0
-1842 17 0
-1842 20 0
-1842 22 0
-1842 24 0
-1842 25 0
1842 -4 -6 -7 -9 -12 -13 -15 -17 -20 -22 -24 -25 0
-1843 3 0
-1843 5 0
-1843 7 0
-1843 9 0
-1843 12 0
-1843 13 0
-1843 15 0
-1843 17 0
-1843 20 0
-1843 22 0
-1843 24 0
-1843 25 0
1843 -3 -5 -7 -9 -12 -13 -15 -17 -20 -22 -24 -25 0
-1844 4 0
-1844 5 0
-1844 7 0
-1844 9 0
-1844 12 0
-1844 13 0
-1844 15 0
-1844 17 0
-1844 20 0
-1844 22 0
-1844 24 0
-1844 25 0
1844 -4 -5 -7 -9 -12 -13 -15 -17 -20 -22 -24 -25 0
-1845 3 0
-1845 5 0
-1845 8 0
-1845 9 0
-1845 12 0
-1845 13 0
-1845 15 0
-1845 17 0
-1845 20 0
-1845 22 0
-1845 24 0
-1845 25 0
1845 -3 -5 -8 -9 -12 -13 -15 -17 -20 -22 -24 -25 0
-1846 4 0
-1846 5 0
-1846 8 0
-1846 9 0
-1846 12 0
-1846 13 0
-1846 15 0
-1846 17 0
-1846 20 0
-1846 22 0
-1846 24 0
-1846 25 0
1846 -4 -5 -8 -9 -12 -13 -15 -17 -20 -22 -24 -25 0
-1847 3 0
-1847 6 0
-1847 8 0
-1847 9 0
-1847 12 0
-1847 13 0
-1847 15 0
-1847 17 0
-1847 20 0
-1847 22 0
-1847 24 0
-1847 25 0
1847 -3 -6 -8 -9 -12 -13 -15 -17 -20 -22 -24 -25 0
-1848 4 0
-1848 6 0
-1848 8 0
-1848 9 0
-1848 12 0
-1848 13 0
-1848 15 0
-1848 17 0
-1848 20 0
-1848 22 0
-1848 24 0
-1848 25 0
1848 -4 -6 -8 -9 -12 -13 -15 -17 -20 -22 -24 -25 0
-1849 3 0
-1849 6 0
-1849 8 0
-1849 10 0
-1849 12 0
-1849 13 0
-1849 15 0
-1849 17 0
-1849 20 0
-1849 22 0
-1849 24 0
-1849 25 0
1849 -3 -6 -8 -10 -12 -13 -15 -17 -20 -22 -24 -25 0
-1850 4 0
-1850 6 0
-1850 8 0
-1850 10 0
-1850 12 0
-1850 13 0
-1850 15 0
-1850 17 0
-1850 20 0
-1850 22 0
-1850 24 0
-1850 25 0
1850 -4 -6 -8 -10 -12 -13 -15 -17 -20 -22 -24 -25 0
-1851 3 0
-1851 5 0
-1851 8 0
-1851 10 0
-1851 12 0
-1851 13 0
-1851 15 0
-1851 17 0
-1851 20 0
-1851 22 0
-1851 24 0
-1851 25 0
1851 -3 -5 -8 -10 -12 -13 -15 -17 -20 -22 -24 -25 0
-1852 4 0
-1852 5 0
-1852 8 0
-1852 10 0
-1852 12 0
-1852 13 0
-1852 15 0
-1852 17 0
-1852 20 0
-1852 22 0
-1852 24 0
-1852 25 0
1852 -4 -5 -8 -10 -12 -13 -15 -17 -20 -22 -24 -25 0
-1853 3 0
-1853 5 0
-1853 7 0
-1853 10 0
-1853 12 0
-1853 13 0
-1853 15 0
-1853 17 0
-1853 20 0
-1853 22 0
-1853 24 0
-1853 25 0
1853 -3 -5 -7 -10 -12 -13 -15 -17 -20 -22 -24 -25 0
-1854 4 0
-1854 5 0
-1854 7 0
-1854 10 0
-1854 12 0
-1854 13 0
-1854 15 0
-1854 17 0
-1854 20 0
-1854 22 0
-1854 24 0
-1854 25 0
1854 -4 -5 -7 -10 -12 -13 -15 -17 -20 -22 -24 -25 0
-1855 3 0
-1855 6 0
-1855 7 0
-1855 10 0
-1855 12 0
-1855 13 0
-1855 15 0
-1855 17 0
-1855 20 0
-1855 22 0
-1855 24 0
-1855 25 0
1855 -3 -6 -7 -10 -12 -13 -15 -17 -20 -22 -24 -25 0
-1856 4 0
-1856 6 0
-1856 7 0
-1856 10 0
-1856 12 0
-1856 13 0
-1856 15 0
-1856 17 0
-1856 20 0
-1856 21 0
-1856 24 0
-1856 25 0
1856 -4 -6 -7 -10 -12 -13 -15 -17 -20 -21 -24 -25 0
-1857 4 0
-1857 6 0
-1857 7 0
-1857 10 0
-1857 12 0
-1857 13 0
-1857 15 0
-1857 17 0
-1857 20 0
-1857 22 0
-1857 24 0
-1857 25 0
1857 -4 -6 -7 -10 -12 -13 -15 -17 -20 -22 -24 -25 0
-1858 3 0
-1858 6 0
-1858 7 0
-1858 10 0
-1858 11 0
-1858 13 0
-1858 15 0
-1858 17 0
-1858 20 0
-1858 22 0
-1858 24 0
-1858 25 0
1858 -3 -6 -7 -10 -11 -13 -15 -17 -20 -22 -24 -25 0
-1859 4 0
-1859 6 0
-1859 7 0
-1859 10 0
-1859 11 0
-1859 13 0
-1859 15 0
-1859 17 0
-1859 20 0
-1859 22 0
-1859 24 0
-1859 25 0
1859 -4 -6 -7 -10 -11 -13 -15 -17 -20 -22 -24 -25 0
-1860 3 0
-1860 5 0
-1860 7 0
-1860 10 0
-1860 11 0
-1860 13 0
-1860 15 0
-1860 17 0
-1860 20 0
-1860 22 0
-1860 24 0
-1860 25 0
1860 -3 -5 -7 -10 -11 -13 -15 -17 -20 -22 -24 -25 0
-1861 4 0
-1861 6 0
-1861 8 0
-1861 9 0
-1861 11 0
-1861 13 0
-1861 15 0
-1861 17 0
-1861 20 0
-1861 21 0
-1861 24 0
-1861 25 0
1861 -4 -6 -8 -9 -11 -13 -15 -17 -20 -21 -24 -25 0
-1862 4 0
-1862 5 0
-1862 7 0
-1862 10 0
-1862 11 0
-1862 13 0
-1862 15 0
-1862 17 0
-1862 20 0
-1862 22 0
-1862 24 0
-1862 25 0
1862 -4 -5 -7 -10 -11 -13 -15 -17 -20 -22 -24 -25 0
-1863 3 0
-1863 5 0
-1863 8 0
-1863 10 0
-1863 11 0
-1863 13 0
-1863 15 0
-1863 17 0
-1863 20 0
-1863 22 0
-1863 24 0
-1863 25 0
1863 -3 -5 -8 -10 -11 -13 -15 -17 -20 -22 -24 -25 0
-1864 4 0
-1864 5 0
-1864 8 0
-1864 10 0
-1864 11 0
-1864 13 0
-1864 15 0
-1864 17 0
-1864 20 0
-1864 22 0
-1864 24 0
-1864 25 0
1864 -4 -5 -8 -10 -11 -13 -15 -17 -20 -22 -24 -25 0
-1865 3 0
-1865 6 0
-1865 8 0
-1865 10 0
-1865 11 0
-1865 13 0
-1865 15 0
-1865 17 0
-1865 20 0
-1865 22 0
-1865 24 0
-1865 25 0
1865 -3 -6 -8 -10 -11 -13 -15 -17 -20 -22 -24 -25 0
-1866 4 0
-1866 6 0
-1866 8 0
-1866 10 0
-1866 11 0
-1866 13 0
-1866 15 0
-1866 17 0
-1866 20 0
-1866 21 0
-1866 24 0
-1866 25 0
1866 -4 -6 -8 -10 -11 -13 -15 -17 -20 -21 -24 -25 0
-1867 4 0
-1867 6 0
-1867 8 0
-1867 10 0
-1867 11 0
-1867 13 0
-1867 15 0
-1867 17 0
-1867 20 0
-1867 22 0
-1867 24 0
-1867 25 0
1867 -4 -6 -8 -10 -11 -13 -15 -17 -20 -22 -24 -25 0
-1868 3 0
-1868 6 0
-1868 8 0
-1868 9 0
-1868 11 0
-1868 13 0
-1868 15 0
-1868 17 0
-1868 20 0
-1868 22 0
-1868 24 0
-1868 25 0
1868 -3 -6 -8 -9 -11 -13 -15 -17 -20 -22 -24 -25 0
-1869 4 0
-1869 6 0
-1869 8 0
-1869 9 0
-1869 11 0
-1869 13 0
-1869 15 0
-1869 17 0
-1869 20 0
-1869 22 0
-1869 24 0
-1869 25 0
1869 -4 -6 -8 -9 -11 -13 -15 -17 -20 -22 -24 -25 0
-1870 3 0
-1870 5 0
-1870 8 0
-1870 9 0
-1870 11 0
-1870 13 0
-1870 15 0
-1870 17 0
-1870 20 0
-1870 22 0
-1870 24 0
-1870 25 0
1870 -3 -5 -8 -9 -11 -13 -15 -17 -20 -22 -24 -25 0
-1871 4 0
-1871 6 0
-1871 7 0
-1871 9 0
-1871 11 0
-1871 13 0
-1871 15 0
-1871 17 0
-1871 20 0
-1871 21 0
-1871 24 0
-1871 25 0
1871 -4 -6 -7 -9 -11 -13 -15 -17 -20 -21 -24 -25 0
-1872 4 0
-1872 5 0
-1872 8 0
-1872 9 0
-1872 11 0
-1872 13 0
-1872 15 0
-1872 17 0
-1872 20 0
-1872 22 0
-1872 24 0
-1872 25 0
1872 -4 -5 -8 -9 -11 -13 -15 -17 -20 -22 -24 -25 0
-1873 3 0
-1873 5 0
-1873 7 0
-1873 9 0
-1873 11 0
-1873 13 0
-1873 15 0
-1873 17 0
-1873 20 0
-1873 22 0
-1873 24 0
-1873 25 0
1873 -3 -5 -7 -9 -11 -13 -15 -17 -20 -22 -24 -25 0
-1874 4 0
-1874 5 0
-1874 7 0
-1874 9 0
-1874 11 0
-1874 13 0
-1874 15 0
-1874 17 0
-1874 20 0
-1874 22 0
-1874 24 0
-1874 25 0
1874 -4 -5 -7 -9 -11 -13 -15 -17 -20 -22 -24 -25 0
-1875 3 0
-1875 6 0
-1875 7 0
-1875 9 0
-1875 11 0
-1875 13 0
-1875 15 0
-1875 17 0
-1875 20 0
-1875 22 0
-1875 24 0
-1875 25 0
1875 -3 -6 -7 -9 -11 -13 -15 -17 -20 -22 -24 -25 0
-1876 4 0
-1876 6 0
-1876 7 0
-1876 9 0
-1876 11 0
-1876 13 0
-1876 15 0
-1876 17 0
-1876 20 0
-1876 22 0
-1876 24 0
-1876 25 0
1876 -4 -6 -7 -9 -11 -13 -15 -17 -20 -22 -24 -25 0
-1877 3 0
-1877 6 0
-1877 8 0
-1877 10 0
-1877 11 0
-1877 13 0
-1877 15 0
-1877 17 0
-1877 20 0
-1877 21 0
-1877 24 0
-1877 25 0
1877 -3 -6 -8 -10 -11 -13 -15 -17 -20 -21 -24 -25 0
-1878 3 0
-1878 5 0
-1878 8 0
-1878 10 0
-1878 11 0
-1878 13 0
-1878 15 0
-1878 17 0
-1878 20 0
-1878 21 0
-1878 24 0
-1878 25 0
1878 -3 -5 -8 -10 -11 -13 -15 -17 -20 -21 -24 -25 0
-1879 3 0
-1879 6 0
-1879 7 0
-1879 10 0
-1879 12 0
-1879 13 0
-1879 15 0
-1879 17 0
-1879 20 0
-1879 21 0
-1879 24 0
-1879 25 0
1879 -3 -6 -7 -10 -12 -13 -15 -17 -20 -21 -24 -25 0
-1880 3 0
-1880 5 0
-1880 7 0
-1880 10 0
-1880 12 0
-1880 13 0
-1880 15 0
-1880 17 0
-1880 20 0
-1880 21 0
-1880 24 0
-1880 25 0
1880 -3 -5 -7 -10 -12 -13 -15 -17 -20 -21 -24 -25 0
-1881 4 0
-1881 5 0
-1881 7 0
-1881 10 0
-1881 12 0
-1881 13 0
-1881 15 0
-1881 17 0
-1881 20 0
-1881 21 0
-1881 24 0
-1881 25 0
1881 -4 -5 -7 -10 -12 -13 -15 -17 -20 -21 -24 -25 0
-1882 3 0
-1882 5 0
-1882 8 0
-1882 10 0
-1882 12 0
-1882 13 0
-1882 15 0
-1882 17 0
-1882 20 0
-1882 21 0
-1882 24 0
-1882 25 0
1882 -3 -5 -8 -10 -12 -13 -15 -17 -20 -21 -24 -25 0
-1883 4 0
-1883 5 0
-1883 8 0
-1883 10 0
-1883 12 0
-1883 13 0
-1883 15 0
-1883 17 0
-1883 20 0
-1883 21 0
-1883 24 0
-1883 25 0
1883 -4 -5 -8 -10 -12 -13 -15 -17 -20 -21 -24 -25 0
-1884 3 0
-1884 6 0
-1884 8 0
-1884 10 0
-1884 12 0
-1884 13 0
-1884 15 0
-1884 17 0
-1884 20 0
-1884 21 0
-1884 24 0
-1884 25 0
1884 -3 -6 -8 -10 -12 -13 -15 -17 -20 -21 -24 -25 0
-1885 3 0
-1885 6 0
-1885 7 0
-1885 9 0
-1885 12 0
-1885 14 0
-1885 15 0
-1885 17 0
-1885 20 0
-1885 21 0
-1885 24 0
-1885 25 0
1885 -3 -6 -7 -9 -12 -14 -15 -17 -20 -21 -24 -25 0
-1886 3 0
-1886 5 0
-1886 7 0
-1886 9 0
-1886 12 0
-1886 14 0
-1886 15 0
-1886 17 0
-1886 20 0
-1886 21 0
-1886 24 0
-1886 25 0
1886 -3 -5 -7 -9 -12 -14 -15 -17 -20 -21 -24 -25 0
-1887 4 0
-1887 5 0
-1887 7 0
-1887 9 0
-1887 12 0
-1887 14 0
-1887 15 0
-1887 17 0
-1887 20 0
-1887 21 0
-1887 24 0
-1887 25 0
1887 -4 -5 -7 -9 -12 -14 -15 -17 -20 -21 -24 -25 0
-1888 3 0
-1888 5 0
-1888 8 0
-1888 9 0
-1888 12 0
-1888 14 0
-1888 15 0
-1888 17 0
-1888 20 0
-1888 21 0
-1888 24 0
-1888 25 0
1888 -3 -5 -8 -9 -12 -14 -15 -17 -20 -21 -24 -25 0
-1889 4 0
-1889 5 0
-1889 8 0
-1889 9 0
-1889 12 0
-1889 14 0
-1889 15 0
-1889 17 0
-1889 20 0
-1889 21 0
-1889 24 0
-1889 25 0
1889 -4 -5 -8 -9 -12 -14 -15 -17 -20 -21 -24 -25 0
-1890 3 0
-1890 6 0
-1890 8 0
-1890 9 0
-1890 12 0
-1890 14 0
-1890 15 0
-1890 17 0
-1890 20 0
-1890 21 0
-1890 24 0
-1890 25 0
1890 -3 -6 -8 -9 -12 -14 -15 -17 -20 -21 -24 -25 0
-1891 4 0
-1891 6 0
-1891 8 0
-1891 9 0
-1891 12 0
-1891 14 0
-1891 15 0
-1891 17 0
-1891 20 0
-1891 21 0
-1891 24 0
-1891 25 0
1891 -4 -6 -8 -9 -12 -14 -15 -17 -20 -21 -24 -25 0
-1892 3 0
-1892 6 0
-1892 8 0
-1892 10 0
-1892 12 0
-1892 14 0
-1892 15 0
-1892 17 0
-1892 20 0
-1892 21 0
-1892 24 0
-1892 25 0
1892 -3 -6 -8 -10 -12 -14 -15 -17 -20 -21 -24 -25 0
-1893 4 0
-1893 6 0
-1893 8 0
-1893 10 0
-1893 12 0
-1893 14 0
-1893 15 0
-1893 17 0
-1893 20 0
-1893 21 0
-1893 24 0
-1893 25 0
1893 -4 -6 -8 -10 -12 -14 -15 -17 -20 -21 -24 -25 0
-1894 3 0
-1894 5 0
-1894 8 0
-1894 10 0
-1894 12 0
-1894 14 0
-1894 15 0
-1894 17 0
-1894 20 0
-1894 21 0
-1894 24 0
-1894 25 0
1894 -3 -5 -8 -10 -12 -14 -15 -17 -20 -21 -24 -25 0
-1895 4 0
-1895 5 0
-1895 8 0
-1895 10 0
-1895 12 0
-1895 14 0
-1895 15 0
-1895 17 0
-1895 20 0
-1895 21 0
-1895 24 0
-1895 25 0
1895 -4 -5 -8 -10 -12 -14 -15 -17 -20 -21 -24 -25 0
-1896 3 0
-1896 5 0
-1896 7 0
-1896 10 0
-1896 12 0
-1896 14 0
-1896 15 0
-1896 17 0
-1896 20 0
-1896 21 0
-1896 24 0
-1896 25 0
1896 -3 -5 -7 -10 -12 -14 -15 -17 -20 -21 -24 -25 0
-1897 4 0
-1897 5 0
-1897 7 0
-1897 10 0
-1897 12 0
-1897 14 0
-1897 15 0
-1897 17 0
-1897 20 0
-1897 21 0
-1897 24 0
-1897 25 0
1897 -4 -5 -7 -10 -12 -14 -15 -17 -20 -21 -24 -25 0
-1898 3 0
-1898 6 0
-1898 7 0
-1898 10 0
-1898 12 0
-1898 14 0
-1898 15 0
-1898 17 0
-1898 20 0
-1898 21 0
-1898 24 0
-1898 25 0
1898 -3 -6 -7 -10 -12 -14 -15 -17 -20 -21 -24 -25 0
-1899 3 0
-1899 5 0
-1899 8 0
-1899 10 0
-1899 11 0
-1899 14 0
-1899 15 0
-1899 17 0
-1899 20 0
-1899 21 0
-1899 24 0
-1899 25 0
1899 -3 -5 -8 -10 -11 -14 -15 -17 -20 -21 -24 -25 0
-1900 3 0
-1900 6 0
-1900 8 0
-1900 10 0
-1900 11 0
-1900 14 0
-1900 15 0
-1900 17 0
-1900 20 0
-1900 21 0
-1900 24 0
-1900 25 0
1900 -3 -6 -8 -10 -11 -14 -15 -17 -20 -21 -24 -25 0
-1901 3 0
-1901 6 0
-1901 7 0
-1901 9 0
-1901 11 0
-1901 14 0
-1901 16 0
-1901 17 0
-1901 20 0
-1901 21 0
-1901 24 0
-1901 25 0
1901 -3 -6 -7 -9 -11 -14 -16 -17 -20 -21 -24 -25 0
-1902 3 0
-1902 5 0
-1902 7 0
-1902 9 0
-1902 11 0
-1902 14 0
-1902 16 0
-1902 17 0
-1902 20 0
-1902 21 0
-1902 24 0
-1902 25 0
1902 -3 -5 -7 -9 -11 -14 -16 -17 -20 -21 -24 -25 0
-1903 4 0
-1903 5 0
-1903 7 0
-1903 9 0
-1903 11 0
-1903 14 0
-1903 16 0
-1903 17 0
-1903 20 0
-1903 21 0
-1903 24 0
-1903 25 0
1903 -4 -5 -7 -9 -11 -14 -16 -17 -20 -21 -24 -25 0
-1904 3 0
-1904 5 0
-1904 8 0
-1904 9 0
-1904 11 0
-1904 14 0
-1904 16 0
-1904 17 0
-1904 20 0
-1904 21 0
-1904 24 0
-1904 25 0
1904 -3 -5 -8 -9 -11 -14 -16 -17 -20 -21 -24 -25 0
-1905 4 0
-1905 5 0
-1905 8 0
-1905 9 0
-1905 11 0
-1905 14 0
-1905 16 0
-1905 17 0
-1905 20 0
-1905 21 0
-1905 24 0
-1905 25 0
1905 -4 -5 -8 -9 -11 -14 -16 -17 -20 -21 -24 -25 0
-1906 3 0
-1906 6 0
-1906 8 0
-1906 9 0
-1906 11 0
-1906 14 0
-1906 16 0
-1906 17 0
-1906 20 0
-1906 21 0
-1906 24 0
-1906 25 0
1906 -3 -6 -8 -9 -11 -14 -16 -17 -20 -21 -24 -25 0
-1907 4 0
-1907 6 0
-1907 8 0
-1907 9 0
-1907 11 0
-1907 14 0
-1907 16 0
-1907 17 0
-1907 20 0
-1907 21 0
-1907 24 0
-1907 25 0
1907 -4 -6 -8 -9 -11 -14 -16 -17 -20 -21 -24 -25 0
-1908 3 0
-1908 6 0
-1908 8 0
-1908 10 0
-1908 11 0
-1908 14 0
-1908 16 0
-1908 17 0
-1908 20 0
-1908 21 0
-1908 24 0
-1908 25 0
1908 -3 -6 -8 -10 -11 -14 -16 -17 -20 -21 -24 -25 0
-1909 4 0
-1909 6 0
-1909 8 0
-1909 10 0
-1909 11 0
-1909 14 0
-1909 16 0
-1909 17 0
-1909 20 0
-1909 21 0
-1909 24 0
-1909 25 0
1909 -4 -6 -8 -10 -11 -14 -16 -17 -20 -21 -24 -25 0
-1910 3 0
-1910 5 0
-1910 8 0
-1910 10 0
-1910 11 0
-1910 14 0
-1910 16 0
-1910 17 0
-1910 20 0
-1910 21 0
-1910 24 0
-1910 25 0
1910 -3 -5 -8 -10 -11 -14 -16 -17 -20 -21 -24 -25 0
-1911 4 0
-1911 5 0
-1911 8 0
-1911 10 0
-1911 11 0
-1911 14 0
-1911 16 0
-1911 17 0
-1911 20 0
-1911 21 0
-1911 24 0
-1911 25 0
1911 -4 -5 -8 -10 -11 -14 -16 -17 -20 -21 -24 -25 0
-1912 3 0
-1912 5 0
-1912 7 0
-1912 10 0
-1912 11 0
-1912 14 0
-1912 16 0
-1912 17 0
-1912 20 0
-1912 21 0
-1912 24 0
-1912 25 0
1912 -3 -5 -7 -10 -11 -14 -16 -17 -20 -21 -24 -25 0
-1913 4 0
-1913 5 0
-1913 7 0
-1913 10 0
-1913 11 0
-1913 14 0
-1913 16 0
-1913 17 0
-1913 20 0
-1913 21 0
-1913 24 0
-1913 25 0
1913 -4 -5 -7 -10 -11 -14 -16 -17 -20 -21 -24 -25 0
-1914 3 0
-1914 6 0
-1914 7 0
-1914 10 0
-1914 11 0
-1914 14 0
-1914 16 0
-1914 17 0
-1914 20 0
-1914 21 0
-1914 24 0
-1914 25 0
1914 -3 -6 -7 -10 -11 -14 -16 -17 -20 -21 -24 -25 0
-1915 4 0
-1915 6 0
-1915 7 0
-1915 10 0
-1915 11 0
-1915 14 0
-1915 16 0
-1915 17 0
-1915 20 0
-1915 21 0
-1915 24 0
-1915 25 0
1915 -4 -6 -7 -10 -11 -14 -16 -17 -20 -21 -24 -25 0
-1916 3 0
-1916 6 0
-1916 7 0
-1916 10 0
-1916 12 0
-1916 14 0
-1916 16 0
-1916 17 0
-1916 20 0
-1916 21 0
-1916 24 0
-1916 25 0
1916 -3 -6 -7 -10 -12 -14 -16 -17 -20 -21 -24 -25 0
-1917 4 0
-1917 6 0
-1917 7 0
-1917 10 0
-1917 12 0
-1917 14 0
-1917 16 0
-1917 17 0
-1917 20 0
-1917 21 0
-1917 24 0
-1917 25 0
1917 -4 -6 -7 -10 -12 -14 -16 -17 -20 -21 -24 -25 0
-1918 3 0
-1918 5 0
-1918 7 0
-1918 10 0
-1918 12 0
-1918 14 0
-1918 16 0
-1918 17 0
-1918 20 0
-1918 21 0
-1918 24 0
-1918 25 0
1918 -3 -5 -7 -10 -12 -14 -16 -17 -20 -21 -24 -25 0
-1919 4 0
-1919 6 0
-1919 8 0
-1919 9 0
-1919 12 0
-1919 13 0
-1919 16 0
-1919 17 0
-1919 19 0
-1919 21 0
-1919 24 0
-1919 25 0
1919 -4 -6 -8 -9 -12 -13 -16 -17 -19 -21 -24 -25 0
-1920 4 0
-1920 5 0
-1920 7 0
-1920 10 0
-1920 12 0
-1920 14 0
-1920 16 0
-1920 17 0
-1920 20 0
-1920 21 0
-1920 24 0
-1920 25 0
1920 -4 -5 -7 -10 -12 -14 -16 -17 -20 -21 -24 -25 0
-1921 3 0
-1921 5 0
-1921 8 0
-1921 10 0
-1921 12 0
-1921 14 0
-1921 16 0
-1921 17 0
-1921 20 0
-1921 21 0
-1921 24 0
-1921 25 0
1921 -3 -5 -8 -10 -12 -14 -16 -17 -20 -21 -24 -25 0
-1922 4 0
-1922 5 0
-1922 8 0
-1922 10 0
-1922 12 0
-1922 14 0
-1922 16 0
-1922 17 0
-1922 20 0
-1922 21 0
-1922 24 0
-1922 25 0
1922 -4 -5 -8 -10 -12 -14 -16 -17 -20 -21 -24 -25 0
-1923 3 0
-1923 6 0
-1923 8 0
-1923 10 0
-1923 12 0
-1923 14 0
-1923 16 0
-1923 17 0
-1923 20 0
-1923 21 0
-1923 24 0
-1923 25 0
1923 -3 -6 -8 -10 -12 -14 -16 -17 -20 -21 -24 -25 0
-1924 4 0
-1924 6 0
-1924 8 0
-1924 10 0
-1924 12 0
-1924 13 0
-1924 16 0
-1924 17 0
-1924 19 0
-1924 21 0
-1924 24 0
-1924 25 0
1924 -4 -6 -8 -10 -12 -13 -16 -17 -19 -21 -24 -25 0
-1925 4 0
-1925 6 0
-1925 8 0
-1925 10 0
-1925 12 0
-1925 14 0
-1925 16 0
-1925 17 0
-1925 20 0
-1925 21 0
-1925 24 0
-1925 25 0
1925 -4 -6 -8 -10 -12 -14 -16 -17 -20 -21 -24 -25 0
-1926 3 0
-1926 6 0
-1926 8 0
-1926 9 0
-1926 12 0
-1926 14 0
-1926 16 0
-1926 17 0
-1926 20 0
-1926 21 0
-1926 24 0
-1926 25 0
1926 -3 -6 -8 -9 -12 -14 -16 -17 -20 -21 -24 -25 0
-1927 4 0
-1927 6 0
-1927 8 0
-1927 9 0
-1927 12 0
-1927 14 0
-1927 16 0
-1927 17 0
-1927 20 0
-1927 21 0
-1927 24 0
-1927 25 0
1927 -4 -6 -8 -9 -12 -14 -16 -17 -20 -21 -24 -25 0
-1928 3 0
-1928 5 0
-1928 8 0
-1928 9 0
-1928 12 0
-1928 14 0
-1928 16 0
-1928 17 0
-1928 20 0
-1928 21 0
-1928 24 0
-1928 25 0
1928 -3 -5 -8 -9 -12 -14 -16 -17 -20 -21 -24 -25 0
-1929 4 0
-1929 5 0
-1929 8 0
-1929 9 0
-1929 12 0
-1929 14 0
-1929 16 0
-1929 17 0
-1929 20 0
-1929 21 0
-1929 24 0
-1929 25 0
1929 -4 -5 -8 -9 -12 -14 -16 -17 -20 -21 -24 -25 0
-1930 3 0
-1930 5 0
-1930 7 0
-1930 9 0
-1930 12 0
-1930 14 0
-1930 16 0
-1930 17 0
-1930 20 0
-1930 21 0
-1930 24 0
-1930 25 0
1930 -3 -5 -7 -9 -12 -14 -16 -17 -20 -21 -24 -25 0
-1931 4 0
-1931 5 0
-1931 7 0
-1931 9 0
-1931 12 0
-1931 14 0
-1931 16 0
-1931 17 0
-1931 20 0
-1931 21 0
-1931 24 0
-1931 25 0
1931 -4 -5 -7 -9 -12 -14 -16 -17 -20 -21 -24 -25 0
-1932 3 0
-1932 6 0
-1932 7 0
-1932 9 0
-1932 12 0
-1932 14 0
-1932 16 0
-1932 17 0
-1932 20 0
-1932 21 0
-1932 24 0
-1932 25 0
1932 -3 -6 -7 -9 -12 -14 -16 -17 -20 -21 -24 -25 0
-1933 4 0
-1933 6 0
-1933 8 0
-1933 9 0
-1933 12 0
-1933 13 0
-1933 16 0
-1933 17 0
-1933 20 0
-1933 21 0
-1933 24 0
-1933 25 0
1933 -4 -6 -8 -9 -12 -13 -16 -17 -20 -21 -24 -25 0
-1934 3 0
-1934 6 0
-1934 8 0
-1934 10 0
-1934 12 0
-1934 13 0
-1934 16 0
-1934 17 0
-1934 20 0
-1934 21 0
-1934 24 0
-1934 25 0
1934 -3 -6 -8 -10 -12 -13 -16 -17 -20 -21 -24 -25 0
-1935 4 0
-1935 6 0
-1935 8 0
-1935 10 0
-1935 12 0
-1935 13 0
-1935 16 0
-1935 17 0
-1935 20 0
-1935 21 0
-1935 24 0
-1935 25 0
1935 -4 -6 -8 -10 -12 -13 -16 -17 -20 -21 -24 -25 0
-1936 3 0
-1936 5 0
-1936 8 0
-1936 10 0
-1936 12 0
-1936 13 0
-1936 16 0
-1936 17 0
-1936 20 0
-1936 21 0
-1936 24 0
-1936 25 0
1936 -3 -5 -8 -10 -12 -13 -16 -17 -20 -21 -24 -25 0
-1937 4 0
-1937 5 0
-1937 8 0
-1937 10 0
-1937 12 0
-1937 13 0
-1937 16 0
-1937 17 0
-1937 20 0
-1937 21 0
-1937 24 0
-1937 25 0
1937 -4 -5 -8 -10 -12 -13 -16 -17 -20 -21 -24 -25 0
-1938 3 0
-1938 5 0
-1938 7 0
-1938 10 0
-1938 12 0
-1938 13 0
-1938 16 0
-1938 17 0
-1938 20 0
-1938 21 0
-1938 24 0
-1938 25 0
1938 -3 -5 -7 -10 -12 -13 -16 -17 -20 -21 -24 -25 0
-1939 4 0
-1939 5 0
-1939 7 0
-1939 10 0
-1939 12 0
-1939 13 0
-1939 16 0
-1939 17 0
-1939 20 0
-1939 21 0
-1939 24 0
-1939 25 0
1939 -4 -5 -7 -10 -12 -13 -16 -17 -20 -21 -24 -25 0
-1940 3 0
-1940 6 0
-1940 7 0
-1940 10 0
-1940 12 0
-1940 13 0
-1940 16 0
-1940 17 0
-1940 20 0
-1940 21 0
-1940 24 0
-1940 25 0
1940 -3 -6 -7 -10 -12 -13 -16 -17 -20 -21 -24 -25 0
-1941 3 0
-1941 5 0
-1941 8 0
-1941 10 0
-1941 11 0
-1941 13 0
-1941 16 0
-1941 17 0
-1941 20 0
-1941 21 0
-1941 24 0
-1941 25 0
1941 -3 -5 -8 -10 -11 -13 -16 -17 -20 -21 -24 -25 0
-1942 3 0
-1942 6 0
-1942 8 0
-1942 10 0
-1942 11 0
-1942 13 0
-1942 16 0
-1942 17 0
-1942 20 0
-1942 21 0
-1942 24 0
-1942 25 0
1942 -3 -6 -8 -10 -11 -13 -16 -17 -20 -21 -24 -25 0
-1943 3 0
-1943 6 0
-1943 7 0
-1943 9 0
-1943 11 0
-1943 13 0
-1943 16 0
-1943 18 0
-1943 20 0
-1943 21 0
-1943 24 0
-1943 25 0
1943 -3 -6 -7 -9 -11 -13 -16 -18 -20 -21 -24 -25 0
-1944 3 0
-1944 5 0
-1944 7 0
-1944 9 0
-1944 11 0
-1944 13 0
-1944 16 0
-1944 18 0
-1944 20 0
-1944 21 0
-1944 24 0
-1944 25 0
1944 -3 -5 -7 -9 -11 -13 -16 -18 -20 -21 -24 -25 0
-1945 4 0
-1945 5 0
-1945 7 0
-1945 9 0
-1945 11 0
-1945 13 0
-1945 16 0
-1945 18 0
-1945 20 0
-1945 21 0
-1945 24 0
-1945 25 0
1945 -4 -5 -7 -9 -11 -13 -16 -18 -20 -21 -24 -25 0
-1946 3 0
-1946 5 0
-1946 8 0
-1946 9 0
-1946 11 0
-1946 13 0
-1946 16 0
-1946 18 0
-1946 20 0
-1946 21 0
-1946 24 0
-1946 25 0
1946 -3 -5 -8 -9 -11 -13 -16 -18 -20 -21 -24 -25 0
-1947 4 0
-1947 5 0
-1947 8 0
-1947 9 0
-1947 11 0
-1947 13 0
-1947 16 0
-1947 18 0
-1947 20 0
-1947 21 0
-1947 24 0
-1947 25 0
1947 -4 -5 -8 -9 -11 -13 -16 -18 -20 -21 -24 -25 0
-1948 3 0
-1948 6 0
-1948 8 0
-1948 9 0
-1948 11 0
-1948 13 0
-1948 16 0
-1948 18 0
-1948 20 0
-1948 21 0
-1948 24 0
-1948 25 0
1948 -3 -6 -8 -9 -11 -13 -16 -18 -20 -21 -24 -25 0
-1949 4 0
-1949 6 0
-1949 8 0
-1949 9 0
-1949 11 0
-1949 13 0
-1949 16 0
-1949 18 0
-1949 20 0
-1949 21 0
-1949 24 0
-1949 25 0
1949 -4 -6 -8 -9 -11 -13 -16 -18 -20 -21 -24 -25 0
-1950 3 0
-1950 6 0
-1950 8 0
-1950 10 0
-1950 11 0
-1950 13 0
-1950 16 0
-1950 18 0
-1950 20 0
-1950 21 0
-1950 24 0
-1950 25 0
1950 -3 -6 -8 -10 -11 -13 -16 -18 -20 -21 -24 -25 0
-1951 4 0
-1951 6 0
-1951 8 0
-1951 10 0
-1951 11 0
-1951 13 0
-1951 16 0
-1951 18 0
-1951 20 0
-1951 21 0
-1951 24 0
-1951 25 0
1951 -4 -6 -8 -10 -11 -13 -16 -18 -20 -21 -24 -25 0
-1952 3 0
-1952 5 0
-1952 8 0
-1952 10 0
-1952 11 0
-1952 13 0
-1952 16 0
-1952 18 0
-1952 20 0
-1952 21 0
-1952 24 0
-1952 25 0
1952 -3 -5 -8 -10 -11 -13 -16 -18 -20 -21 -24 -25 0
-1953 4 0
-1953 5 0
-1953 8 0
-1953 10 0
-1953 11 0
-1953 13 0
-1953 16 0
-1953 18 0
-1953 20 0
-1953 21 0
-1953 24 0
-1953 25 0
1953 -4 -5 -8 -10 -11 -13 -16 -18 -20 -21 -24 -25 0
-1954 3 0
-1954 5 0
-1954 7 0
-1954 10 0
-1954 11 0
-1954 13 0
-1954 16 0
-1954 18 0
-1954 20 0
-1954 21 0
-1954 24 0
-1954 25 0
1954 -3 -5 -7 -10 -11 -13 -16 -18 -20 -21 -24 -25 0
-1955 4 0
-1955 5 0
-1955 7 0
-1955 10 0
-1955 11 0
-1955 13 0
-1955 16 0
-1955 18 0
-1955 20 0
-1955 21 0
-1955 24 0
-1955 25 0
1955 -4 -5 -7 -10 -11 -13 -16 -18 -20 -21 -24 -25 0
-1956 3 0
-1956 6 0
-1956 7 0
-1956 10 0
-1956 11 0
-1956 13 0
-1956 16 0
-1956 18 0
-1956 20 0
-1956 21 0
-1956 24 0
-1956 25 0
1956 -3 -6 -7 -10 -11 -13 -16 -18 -20 -21 -24 -25 0
-1957 4 0
-1957 6 0
-1957 7 0
-1957 10 0
-1957 11 0
-1957 13 0
-1957 16 0
-1957 18 0
-1957 20 0
-1957 21 0
-1957 24 0
-1957 25 0
1957 -4 -6 -7 -10 -11 -13 -16 -18 -20 -21 -24 -25 0
-1958 3 0
-1958 6 0
-1958 7 0
-1958 10 0
-1958 12 0
-1958 13 0
-1958 16 0
-1958 18 0
-1958 20 0
-1958 21 0
-1958 24 0
-1958 25 0
1958 -3 -6 -7 -10 -12 -13 -16 -18 -20 -21 -24 -25 0
-1959 4 0
-1959 6 0
-1959 7 0
-1959 10 0
-1959 12 0
-1959 13 0
-1959 16 0
-1959 18 0
-1959 20 0
-1959 21 0
-1959 24 0
-1959 25 0
1959 -4 -6 -7 -10 -12 -13 -16 -18 -20 -21 -24 -25 0
-1960 3 0
-1960 5 0
-1960 7 0
-1960 10 0
-1960 12 0
-1960 13 0
-1960 16 0
-1960 18 0
-1960 20 0
-1960 21 0
-1960 24 0
-1960 25 0
1960 -3 -5 -7 -10 -12 -13 -16 -18 -20 -21 -24 -25 0
-1961 4 0
-1961 5 0
-1961 7 0
-1961 10 0
-1961 12 0
-1961 13 0
-1961 16 0
-1961 18 0
-1961 20 0
-1961 21 0
-1961 24 0
-1961 25 0
1961 -4 -5 -7 -10 -12 -13 -16 -18 -20 -21 -24 -25 0
-1962 3 0
-1962 5 0
-1962 8 0
-1962 10 0
-1962 12 0
-1962 13 0
-1962 16 0
-1962 18 0
-1962 20 0
-1962 21 0
-1962 24 0
-1962 25 0
1962 -3 -5 -8 -10 -12 -13 -16 -18 -20 -21 -24 -25 0
-1963 4 0
-1963 5 0
-1963 8 0
-1963 10 0
-1963 12 0
-1963 13 0
-1963 16 0
-1963 18 0
-1963 20 0
-1963 21 0
-1963 24 0
-1963 25 0
1963 -4 -5 -8 -10 -12 -13 -16 -18 -20 -21 -24 -25 0
-1964 3 0
-1964 6 0
-1964 8 0
-1964 10 0
-1964 12 0
-1964 13 0
-1964 16 0
-1964 18 0
-1964 20 0
-1964 21 0
-1964 24 0
-1964 25 0
1964 -3 -6 -8 -10 -12 -13 -16 -18 -20 -21 -24 -25 0
-1965 4 0
-1965 6 0
-1965 8 0
-1965 10 0
-1965 12 0
-1965 13 0
-1965 16 0
-1965 18 0
-1965 20 0
-1965 21 0
-1965 24 0
-1965 25 0
1965 -4 -6 -8 -10 -12 -13 -16 -18 -20 -21 -24 -25 0
-1966 3 0
-1966 6 0
-1966 8 0
-1966 9 0
-1966 12 0
-1966 13 0
-1966 16 0
-1966 18 0
-1966 20 0
-1966 21 0
-1966 24 0
-1966 25 0
1966 -3 -6 -8 -9 -12 -13 -16 -18 -20 -21 -24 -25 0
-1967 4 0
-1967 6 0
-1967 8 0
-1967 9 0
-1967 12 0
-1967 13 0
-1967 16 0
-1967 18 0
-1967 20 0
-1967 21 0
-1967 24 0
-1967 25 0
1967 -4 -6 -8 -9 -12 -13 -16 -18 -20 -21 -24 -25 0
-1968 3 0
-1968 5 0
-1968 8 0
-1968 9 0
-1968 12 0
-1968 13 0
-1968 16 0
-1968 18 0
-1968 20 0
-1968 21 0
-1968 24 0
-1968 25 0
1968 -3 -5 -8 -9 -12 -13 -16 -18 -20 -21 -24 -25 0
-1969 4 0
-1969 5 0
-1969 8 0
-1969 9 0
-1969 12 0
-1969 13 0
-1969 16 0
-1969 18 0
-1969 20 0
-1969 21 0
-1969 24 0
-1969 25 0
1969 -4 -5 -8 -9 -12 -13 -16 -18 -20 -21 -24 -25 0
-1970 3 0
-1970 5 0
-1970 7 0
-1970 9 0
-1970 12 0
-1970 13 0
-1970 16 0
-1970 18 0
-1970 20 0
-1970 21 0
-1970 24 0
-1970 25 0
1970 -3 -5 -7 -9 -12 -13 -16 -18 -20 -21 -24 -25 0
-1971 4 0
-1971 5 0
-1971 7 0
-1971 9 0
-1971 12 0
-1971 13 0
-1971 16 0
-1971 18 0
-1971 20 0
-1971 21 0
-1971 24 0
-1971 25 0
1971 -4 -5 -7 -9 -12 -13 -16 -18 -20 -21 -24 -25 0
-1972 3 0
-1972 6 0
-1972 7 0
-1972 9 0
-1972 12 0
-1972 13 0
-1972 16 0
-1972 18 0
-1972 20 0
-1972 21 0
-1972 24 0
-1972 25 0
1972 -3 -6 -7 -9 -12 -13 -16 -18 -20 -21 -24 -25 0
-1973 4 0
-1973 6 0
-1973 7 0
-1973 9 0
-1973 12 0
-1973 13 0
-1973 16 0
-1973 18 0
-1973 20 0
-1973 21 0
-1973 24 0
-1973 25 0
1973 -4 -6 -7 -9 -12 -13 -16 -18 -20 -21 -24 -25 0
-1974 3 0
-1974 6 0
-1974 7 0
-1974 9 0
-1974 12 0
-1974 14 0
-1974 16 0
-1974 18 0
-1974 20 0
-1974 21 0
-1974 24 0
-1974 25 0
1974 -3 -6 -7 -9 -12 -14 -16 -18 -20 -21 -24 -25 0
-1975 4 0
-1975 6 0
-1975 7 0
-1975 9 0
-1975 12 0
-1975 14 0
-1975 16 0
-1975 18 0
-1975 20 0
-1975 21 0
-1975 24 0
-1975 25 0
1975 -4 -6 -7 -9 -12 -14 -16 -18 -20 -21 -24 -25 0
-1976 3 0
-1976 5 0
-1976 7 0
-1976 9 0
-1976 12 0
-1976 14 0
-1976 16 0
-1976 18 0
-1976 20 0
-1976 21 0
-1976 24 0
-1976 25 0
1976 -3 -5 -7 -9 -12 -14 -16 -18 -20 -21 -24 -25 0
-1977 4 0
-1977 5 0
-1977 7 0
-1977 9 0
-1977 12 0
-1977 14 0
-1977 16 0
-1977 18 0
-1977 20 0
-1977 21 0
-1977 24 0
-1977 25 0
1977 -4 -5 -7 -9 -12 -14 -16 -18 -20 -21 -24 -25 0
-1978 3 0
-1978 5 0
-1978 8 0
-1978 9 0
-1978 12 0
-1978 14 0
-1978 16 0
-1978 18 0
-1978 20 0
-1978 21 0
-1978 24 0
-1978 25 0
1978 -3 -5 -8 -9 -12 -14 -16 -18 -20 -21 -24 -25 0
-1979 4 0
-1979 5 0
-1979 8 0
-1979 9 0
-1979 12 0
-1979 14 0
-1979 16 0
-1979 18 0
-1979 20 0
-1979 21 0
-1979 24 0
-1979 25 0
1979 -4 -5 -8 -9 -12 -14 -16 -18 -20 -21 -24 -25 0
-1980 3 0
-1980 6 0
-1980 8 0
-1980 9 0
-1980 12 0
-1980 14 0
-1980 16 0
-1980 18 0
-1980 20 0
-1980 21 0
-1980 24 0
-1980 25 0
1980 -3 -6 -8 -9 -12 -14 -16 -18 -20 -21 -24 -25 0
-1981 4 0
-1981 6 0
-1981 8 0
-1981 9 0
-1981 12 0
-1981 14 0
-1981 16 0
-1981 18 0
-1981 20 0
-1981 21 0
-1981 24 0
-1981 25 0
1981 -4 -6 -8 -9 -12 -14 -16 -18 -20 -21 -24 -25 0
-1982 3 0
-1982 6 0
-1982 8 0
-1982 10 0
-1982 12 0
-1982 14 0
-1982 16 0
-1982 18 0
-1982 20 0
-1982 21 0
-1982 24 0
-1982 25 0
1982 -3 -6 -8 -10 -12 -14 -16 -18 -20 -21 -24 -25 0
-1983 4 0
-1983 6 0
-1983 8 0
-1983 10 0
-1983 12 0
-1983 14 0
-1983 16 0
-1983 18 0
-1983 20 0
-1983 21 0
-1983 24 0
-1983 25 0
1983 -4 -6 -8 -10 -12 -14 -16 -18 -20 -21 -24 -25 0
-1984 3 0
-1984 5 0
-1984 8 0
-1984 10 0
-1984 12 0
-1984 14 0
-1984 16 0
-1984 18 0
-1984 20 0
-1984 21 0
-1984 24 0
-1984 25 0
1984 -3 -5 -8 -10 -12 -14 -16 -18 -20 -21 -24 -25 0
-1985 4 0
-1985 5 0
-1985 8 0
-1985 10 0
-1985 12 0
-1985 14 0
-1985 16 0
-1985 18 0
-1985 20 0
-1985 21 0
-1985 24 0
-1985 25 0
1985 -4 -5 -8 -10 -12 -14 -16 -18 -20 -21 -24 -25 0
-1986 3 0
-1986 5 0
-1986 7 0
-1986 10 0
-1986 12 0
-1986 14 0
-1986 16 0
-1986 18 0
-1986 20 0
-1986 21 0
-1986 24 0
-1986 25 0
1986 -3 -5 -7 -10 -12 -14 -16 -18 -20 -21 -24 -25 0
-1987 4 0
-1987 5 0
-1987 7 0
-1987 10 0
-1987 12 0
-1987 14 0
-1987 16 0
-1987 18 0
-1987 20 0
-1987 21 0
-1987 24 0
-1987 25 0
1987 -4 -5 -7 -10 -12 -14 -16 -18 -20 -21 -24 -25 0
-1988 3 0
-1988 6 0
-1988 7 0
-1988 10 0
-1988 12 0
-1988 14 0
-1988 16 0
-1988 18 0
-1988 20 0
-1988 21 0
-1988 24 0
-1988 25 0
1988 -3 -6 -7 -10 -12 -14 -16 -18 -20 -21 -24 -25 0
-1989 4 0
-1989 6 0
-1989 7 0
-1989 10 0
-1989 12 0
-1989 14 0
-1989 16 0
-1989 18 0
-1989 20 0
-1989 21 0
-1989 24 0
-1989 25 0
1989 -4 -6 -7 -10 -12 -14 -16 -18 -20 -21 -24 -25 0
-1990 3 0
-1990 6 0
-1990 7 0
-1990 10 0
-1990 11 0
-1990 14 0
-1990 16 0
-1990 18 0
-1990 20 0
-1990 21 0
-1990 24 0
-1990 25 0
1990 -3 -6 -7 -10 -11 -14 -16 -18 -20 -21 -24 -25 0
-1991 4 0
-1991 6 0
-1991 7 0
-1991 10 0
-1991 11 0
-1991 14 0
-1991 16 0
-1991 18 0
-1991 20 0
-1991 21 0
-1991 24 0
-1991 25 0
1991 -4 -6 -7 -10 -11 -14 -16 -18 -20 -21 -24 -25 0
-1992 3 0
-1992 5 0
-1992 7 0
-1992 10 0
-1992 11 0
-1992 14 0
-1992 16 0
-1992 18 0
-1992 20 0
-1992 21 0
-1992 24 0
-1992 25 0
1992 -3 -5 -7 -10 -11 -14 -16 -18 -20 -21 -24 -25 0
-1993 4 0
-1993 5 0
-1993 7 0
-1993 10 0
-1993 11 0
-1993 14 0
-1993 16 0
-1993 18 0
-1993 20 0
-1993 21 0
-1993 24 0
-1993 25 0
1993 -4 -5 -7 -10 -11 -14 -16 -18 -20 -21 -24 -25 0
-1994 3 0
-1994 5 0
-1994 8 0
-1994 10 0
-1994 11 0
-1994 14 0
-1994 16 0
-1994 18 0
-1994 20 0
-1994 21 0
-1994 24 0
-1994 25 0
1994 -3 -5 -8 -10 -11 -14 -16 -18 -20 -21 -24 -25 0
-1995 4 0
-1995 5 0
-1995 8 0
-1995 10 0
-1995 11 0
-1995 14 0
-1995 16 0
-1995 18 0
-1995 20 0
-1995 21 0
-1995 24 0
-1995 25 0
1995 -4 -5 -8 -10 -11 -14 -16 -18 -20 -21 -24 -25 0
-1996 3 0
-1996 6 0
-1996 8 0
-1996 10 0
-1996 11 0
-1996 14 0
-1996 16 0
-1996 18 0
-1996 20 0
-1996 21 0
-1996 24 0
-1996 25 0
1996 -3 -6 -8 -10 -11 -14 -16 -18 -20 -21 -24 -25 0
-1997 4 0
-1997 6 0
-1997 8 0
-1997 10 0
-1997 11 0
-1997 14 0
-1997 16 0
-1997 18 0
-1997 20 0
-1997 21 0
-1997 24 0
-1997 25 0
1997 -4 -6 -8 -10 -11 -14 -16 -18 -20 -21 -24 -25 0
-1998 3 0
-1998 6 0
-1998 8 0
-1998 9 0
-1998 11 0
-1998 14 0
-1998 16 0
-1998 18 0
-1998 20 0
-1998 21 0
-1998 24 0
-1998 25 0
1998 -3 -6 -8 -9 -11 -14 -16 -18 -20 -21 -24 -25 0
-1999 4 0
-1999 6 0
-1999 8 0
-1999 9 0
-1999 11 0
-1999 14 0
-1999 16 0
-1999 18 0
-1999 20 0
-1999 21 0
-1999 24 0
-1999 25 0
1999 -4 -6 -8 -9 -11 -14 -16 -18 -20 -21 -24 -25 0
-2000 3 0
-2000 5 0
-2000 8 0
-2000 9 0
-2000 11 0
-2000 14 0
-2000 16 0
-2000 18 0
-2000 20 0
-2000 21 0
-2000 24 0
-2000 25 0
2000 -3 -5 -8 -9 -11 -14 -16 -18 -20 -21 -24 -25 0
-2001 4 0
-2001 5 0
-2001 8 0
-2001 9 0
-2001 11 0
-2001 14 0
-2001 16 0
-2001 18 0
-2001 20 0
-2001 21 0
-2001 24 0
-2001 25 0
2001 -4 -5 -8 -9 -11 -14 -16 -18 -20 -21 -24 -25 0
-2002 3 0
-2002 5 0
-2002 7 0
-2002 9 0
-2002 11 0
-2002 14 0
-2002 16 0
-2002 18 0
-2002 20 0
-2002 21 0
-2002 24 0
-2002 25 0
2002 -3 -5 -7 -9 -11 -14 -16 -18 -20 -21 -24 -25 0
-2003 4 0
-2003 5 0
-2003 7 0
-2003 9 0
-2003 11 0
-2003 14 0
-2003 16 0
-2003 18 0
-2003 20 0
-2003 21 0
-2003 24 0
-2003 25 0
2003 -4 -5 -7 -9 -11 -14 -16 -18 -20 -21 -24 -25 0
-2004 3 0
-2004 6 0
-2004 7 0
-2004 9 0
-2004 11 0
-2004 14 0
-2004 16 0
-2004 18 0
-2004 20 0
-2004 21 0
-2004 24 0
-2004 25 0
2004 -3 -6 -7 -9 -11 -14 -16 -18 -20 -21 -24 -25 0
-2005 4 0
-2005 6 0
-2005 7 0
-2005 9 0
-2005 11 0
-2005 14 0
-2005 16 0
-2005 18 0
-2005 20 0
-2005 21 0
-2005 24 0
-2005 25 0
2005 -4 -6 -7 -9 -11 -14 -16 -18 -20 -21 -24 -25 0
-2006 3 0
-2006 6 0
-2006 7 0
-2006 9 0
-2006 11 0
-2006 14 0
-2006 15 0
-2006 18 0
-2006 20 0
-2006 21 0
-2006 24 0
-2006 25 0
2006 -3 -6 -7 -9 -11 -14 -15 -18 -20 -21 -24 -25 0
-2007 4 0
-2007 6 0
-2007 7 0
-2007 9 0
-2007 11 0
-2007 14 0
-2007 15 0
-2007 18 0
-2007 20 0
-2007 21 0
-2007 24 0
-2007 25 0
2007 -4 -6 -7 -9 -11 -14 -15 -18 -20 -21 -24 -25 0
-2008 3 0
-2008 5 0
-2008 7 0
-2008 9 0
-2008 11 0
-2008 14 0
-2008 15 0
-2008 18 0
-2008 20 0
-2008 21 0
-2008 24 0
-2008 25 0
2008 -3 -5 -7 -9 -11 -14 -15 -18 -20 -21 -24 -25 0
-2009 4 0
-2009 5 0
-2009 7 0
-2009 9 0
-2009 11 0
-2009 14 0
-2009 15 0
-2009 18 0
-2009 20 0
-2009 21 0
-2009 24 0
-2009 25 0
2009 -4 -5 -7 -9 -11 -14 -15 -18 -20 -21 -24 -25 0
-2010 3 0
-2010 5 0
-2010 8 0
-2010 9 0
-2010 11 0
-2010 14 0
-2010 15 0
-2010 18 0
-2010 20 0
-2010 21 0
-2010 24 0
-2010 25 0
2010 -3 -5 -8 -9 -11 -14 -15 -18 -20 -21 -24 -25 0
-2011 4 0
-2011 5 0
-2011 8 0
-2011 9 0
-2011 11 0
-2011 14 0
-2011 15 0
-2011 18 0
-2011 20 0
-2011 21 0
-2011 24 0
-2011 25 0
2011 -4 -5 -8 -9 -11 -14 -15 -18 -20 -21 -24 -25 0
-2012 3 0
-2012 6 0
-2012 8 0
-2012 9 0
-2012 11 0
-2012 14 0
-2012 15 0
-2012 18 0
-2012 20 0
-2012 21 0
-2012 24 0
-2012 25 0
2012 -3 -6 -8 -9 -11 -14 -15 -18 -20 -21 -24 -25 0
-2013 4 0
-2013 6 0
-2013 8 0
-2013 9 0
-2013 11 0
-2013 14 0
-2013 15 0
-2013 18 0
-2013 20 0
-2013 21 0
-2013 24 0
-2013 25 0
2013 -4 -6 -8 -9 -11 -14 -15 -18 -20 -21 -24 -25 0
-2014 3 0
-2014 6 0
-2014 8 0
-2014 10 0
-2014 11 0
-2014 14 0
-2014 15 0
-2014 18 0
-2014 20 0
-2014 21 0
-2014 24 0
-2014 25 0
2014 -3 -6 -8 -10 -11 -14 -15 -18 -20 -21 -24 -25 0
-2015 4 0
-2015 6 0
-2015 8 0
-2015 10 0
-2015 11 0
-2015 14 0
-2015 15 0
-2015 18 0
-2015 20 0
-2015 21 0
-2015 24 0
-2015 25 0
2015 -4 -6 -8 -10 -11 -14 -15 -18 -20 -21 -24 -25 0
-2016 3 0
-2016 5 0
-2016 8 0
-2016 10 0
-2016 11 0
-2016 14 0
-2016 15 0
-2016 18 0
-2016 20 0
-2016 21 0
-2016 24 0
-2016 25 0
2016 -3 -5 -8 -10 -11 -14 -15 -18 -20 -21 -24 -25 0
-2017 4 0
-2017 5 0
-2017 8 0
-2017 10 0
-2017 11 0
-2017 14 0
-2017 15 0
-2017 18 0
-2017 20 0
-2017 21 0
-2017 24 0
-2017 25 0
2017 -4 -5 -8 -10 -11 -14 -15 -18 -20 -21 -24 -25 0
-2018 3 0
-2018 5 0
-2018 7 0
-2018 10 0
-2018 11 0
-2018 14 0
-2018 15 0
-2018 18 0
-2018 20 0
-2018 21 0
-2018 24 0
-2018 25 0
2018 -3 -5 -7 -10 -11 -14 -15 -18 -20 -21 -24 -25 0
-2019 4 0
-2019 5 0
-2019 7 0
-2019 10 0
-2019 11 0
-2019 14 0
-2019 15 0
-2019 18 0
-2019 20 0
-2019 21 0
-2019 24 0
-2019 25 0
2019 -4 -5 -7 -10 -11 -14 -15 -18 -20 -21 -24 -25 0
-2020 3 0
-2020 6 0
-2020 7 0
-2020 10 0
-2020 11 0
-2020 14 0
-2020 15 0
-2020 18 0
-2020 20 0
-2020 21 0
-2020 24 0
-2020 25 0
2020 -3 -6 -7 -10 -11 -14 -15 -18 -20 -21 -24 -25 0
-2021 4 0
-2021 6 0
-2021 7 0
-2021 10 0
-2021 11 0
-2021 14 0
-2021 15 0
-2021 18 0
-2021 20 0
-2021 21 0
-2021 24 0
-2021 25 0
2021 -4 -6 -7 -10 -11 -14 -15 -18 -20 -21 -24 -25 0
-2022 3 0
-2022 6 0
-2022 7 0
-2022 10 0
-2022 12 0
-2022 14 0
-2022 15 0
-2022 18 0
-2022 20 0
-2022 21 0
-2022 24 0
-2022 25 0
2022 -3 -6 -7 -10 -12 -14 -15 -18 -20 -21 -24 -25 0
-2023 4 0
-2023 6 0
-2023 7 0
-2023 10 0
-2023 12 0
-2023 14 0
-2023 15 0
-2023 18 0
-2023 20 0
-2023 21 0
-2023 24 0
-2023 25 0
2023 -4 -6 -7 -10 -12 -14 -15 -18 -20 -21 -24 -25 0
-2024 3 0
-2024 5 0
-2024 7 0
-2024 10 0
-2024 12 0
-2024 14 0
-2024 15 0
-2024 18 0
-2024 20 0
-2024 21 0
-2024 24 0
-2024 25 0
2024 -3 -5 -7 -10 -12 -14 -15 -18 -20 -21 -24 -25 0
-2025 4 0
-2025 5 0
-2025 7 0
-2025 10 0
-2025 12 0
-2025 14 0
-2025 15 0
-2025 18 0
-2025 20 0
-2025 21 0
-2025 24 0
-2025 25 0
2025 -4 -5 -7 -10 -12 -14 -15 -18 -20 -21 -24 -25 0
-2026 3 0
-2026 5 0
-2026 8 0
-2026 10 0
-2026 12 0
-2026 14 0
-2026 15 0
-2026 18 0
-2026 20 0
-2026 21 0
-2026 24 0
-2026 25 0
2026 -3 -5 -8 -10 -12 -14 -15 -18 -20 -21 -24 -25 0
-2027 4 0
-2027 5 0
-2027 8 0
-2027 10 0
-2027 12 0
-2027 14 0
-2027 15 0
-2027 18 0
-2027 20 0
-2027 21 0
-2027 24 0
-2027 25 0
2027 -4 -5 -8 -10 -12 -14 -15 -18 -20 -21 -24 -25 0
-2028 3 0
-2028 6 0
-2028 8 0
-2028 10 0
-2028 12 0
-2028 14 0
-2028 15 0
-2028 18 0
-2028 20 0
-2028 21 0
-2028 24 0
-2028 25 0
2028 -3 -6 -8 -10 -12 -14 -15 -18 -20 -21 -24 -25 0
-2029 4 0
-2029 6 0
-2029 8 0
-2029 10 0
-2029 12 0
-2029 14 0
-2029 15 0
-2029 18 0
-2029 20 0
-2029 21 0
-2029 24 0
-2029 25 0
2029 -4 -6 -8 -10 -12 -14 -15 -18 -20 -21 -24 -25 0
-2030 3 0
-2030 6 0
-2030 8 0
-2030 9 0
-2030 12 0
-2030 14 0
-2030 15 0
-2030 18 0
-2030 20 0
-2030 21 0
-2030 24 0
-2030 25 0
2030 -3 -6 -8 -9 -12 -14 -15 -18 -20 -21 -24 -25 0
-2031 4 0
-2031 6 0
-2031 8 0
-2031 9 0
-2031 12 0
-2031 14 0
-2031 15 0
-2031 18 0
-2031 20 0
-2031 21 0
-2031 24 0
-2031 25 0
2031 -4 -6 -8 -9 -12 -14 -15 -18 -20 -21 -24 -25 0
-2032 3 0
-2032 5 0
-2032 8 0
-2032 9 0
-2032 12 0
-2032 14 0
-2032 15 0
-2032 18 0
-2032 20 0
-2032 21 0
-2032 24 0
-2032 25 0
2032 -3 -5 -8 -9 -12 -14 -15 -18 -20 -21 -24 -25 0
-2033 4 0
-2033 5 0
-2033 8 0
-2033 9 0
-2033 12 0
-2033 14 0
-2033 15 0
-2033 18 0
-2033 20 0
-2033 21 0
-2033 24 0
-2033 25 0
2033 -4 -5 -8 -9 -12 -14 -15 -18 -20 -21 -24 -25 0
-2034 3 0
-2034 5 0
-2034 7 0
-2034 9 0
-2034 12 0
-2034 14 0
-2034 15 0
-2034 18 0
-2034 20 0
-2034 21 0
-2034 24 0
-2034 25 0
2034 -3 -5 -7 -9 -12 -14 -15 -18 -20 -21 -24 -25 0
-2035 4 0
-2035 5 0
-2035 7 0
-2035 9 0
-2035 12 0
-2035 14 0
-2035 15 0
-2035 18 0
-2035 20 0
-2035 21 0
-2035 24 0
-2035 25 0
2035 -4 -5 -7 -9 -12 -14 -15 -18 -20 -21 -24 -25 0
-2036 3 0
-2036 6 0
-2036 7 0
-2036 9 0
-2036 12 0
-2036 14 0
-2036 15 0
-2036 18 0
-2036 20 0
-2036 21 0
-2036 24 0
-2036 25 0
2036 -3 -6 -7 -9 -12 -14 -15 -18 -20 -21 -24 -25 0
-2037 4 0
-2037 6 0
-2037 7 0
-2037 9 0
-2037 12 0
-2037 14 0
-2037 15 0
-2037 18 0
-2037 20 0
-2037 21 0
-2037 24 0
-2037 25 0
2037 -4 -6 -7 -9 -12 -14 -15 -18 -20 -21 -24 -25 0
-2038 3 0
-2038 6 0
-2038 7 0
-2038 9 0
-2038 12 0
-2038 13 0
-2038 15 0
-2038 18 0
-2038 20 0
-2038 21 0
-2038 24 0
-2038 25 0
2038 -3 -6 -7 -9 -12 -13 -15 -18 -20 -21 -24 -25 0
-2039 4 0
-2039 6 0
-2039 7 0
-2039 9 0
-2039 12 0
-2039 13 0
-2039 15 0
-2039 18 0
-2039 20 0
-2039 21 0
-2039 24 0
-2039 25 0
2039 -4 -6 -7 -9 -12 -13 -15 -18 -20 -21 -24 -25 0
-2040 3 0
-2040 5 0
-2040 7 0
-2040 9 0
-2040 12 0
-2040 13 0
-2040 15 0
-2040 18 0
-2040 20 0
-2040 21 0
-2040 24 0
-2040 25 0
2040 -3 -5 -7 -9 -12 -13 -15 -18 -20 -21 -24 -25 0
-2041 4 0
-2041 5 0
-2041 7 0
-2041 9 0
-2041 12 0
-2041 13 0
-2041 15 0
-2041 18 0
-2041 20 0
-2041 21 0
-2041 24 0
-2041 25 0
2041 -4 -5 -7 -9 -12 -13 -15 -18 -20 -21 -24 -25 0
-2042 3 0
-2042 5 0
-2042 8 0
-2042 9 0
-2042 12 0
-2042 13 0
-2042 15 0
-2042 18 0
-2042 20 0
-2042 21 0
-2042 24 0
-2042 25 0
2042 -3 -5 -8 -9 -12 -13 -15 -18 -20 -21 -24 -25 0
-2043 4 0
-2043 5 0
-2043 8 0
-2043 9 0
-2043 12 0
-2043 13 0
-2043 15 0
-2043 18 0
-2043 20 0
-2043 21 0
-2043 24 0
-2043 25 0
2043 -4 -5 -8 -9 -12 -13 -15 -18 -20 -21 -24 -25 0
-2044 3 0
-2044 6 0
-2044 8 0
-2044 9 0
-2044 12 0
-2044 13 0
-2044 15 0
-2044 18 0
-2044 20 0
-2044 21 0
-2044 24 0
-2044 25 0
2044 -3 -6 -8 -9 -12 -13 -15 -18 -20 -21 -24 -25 0
-2045 4 0
-2045 6 0
-2045 8 0
-2045 9 0
-2045 12 0
-2045 13 0
-2045 15 0
-2045 18 0
-2045 20 0
-2045 21 0
-2045 24 0
-2045 25 0
2045 -4 -6 -8 -9 -12 -13 -15 -18 -20 -21 -24 -25 0
-2046 3 0
-2046 6 0
-2046 8 0
-2046 10 0
-2046 12 0
-2046 13 0
-2046 15 0
-2046 18 0
-2046 20 0
-2046 21 0
-2046 24 0
-2046 25 0
2046 -3 -6 -8 -10 -12 -13 -15 -18 -20 -21 -24 -25 0
-2047 4 0
-2047 6 0
-2047 8 0
-2047 10 0
-2047 12 0
-2047 13 0
-2047 15 0
-2047 18 0
-2047 20 0
-2047 21 0
-2047 24 0
-2047 25 0
2047 -4 -6 -8 -10 -12 -13 -15 -18 -20 -21 -24 -25 0
-2048 3 0
-2048 5 0
-2048 8 0
-2048 10 0
-2048 12 0
-2048 13 0
-2048 15 0
-2048 18 0
-2048 20 0
-2048 21 0
-2048 24 0
-2048 25 0
2048 -3 -5 -8 -10 -12 -13 -15 -18 -20 -21 -24 -25 0
-2049 4 0
-2049 5 0
-2049 8 0
-2049 10 0
-2049 12 0
-2049 13 0
-2049 15 0
-2049 18 0
-2049 20 0
-2049 21 0
-2049 24 0
-2049 25 0
2049 -4 -5 -8 -10 -12 -13 -15 -18 -20 -21 -24 -25 0
-2050 3 0
-2050 5 0
-2050 7 0
-2050 10 0
-2050 12 0
-2050 13 0
-2050 15 0
-2050 18 0
-2050 20 0
-2050 21 0
-2050 24 0
-2050 25 0
2050 -3 -5 -7 -10 -12 -13 -15 -18 -20 -21 -24 -25 0
-2051 4 0
-2051 5 0
-2051 7 0
-2051 10 0
-2051 12 0
-2051 13 0
-2051 15 0
-2051 18 0
-2051 20 0
-2051 21 0
-2051 24 0
-2051 25 0
2051 -4 -5 -7 -10 -12 -13 -15 -18 -20 -21 -24 -25 0
-2052 3 0
-2052 6 0
-2052 7 0
-2052 10 0
-2052 12 0
-2052 13 0
-2052 15 0
-2052 18 0
-2052 20 0
-2052 21 0
-2052 24 0
-2052 25 0
2052 -3 -6 -7 -10 -12 -13 -15 -18 -20 -21 -24 -25 0
-2053 4 0
-2053 6 0
-2053 7 0
-2053 10 0
-2053 12 0
-2053 13 0
-2053 15 0
-2053 18 0
-2053 20 0
-2053 21 0
-2053 24 0
-2053 25 0
2053 -4 -6 -7 -10 -12 -13 -15 -18 -20 -21 -24 -25 0
-2054 3 0
-2054 6 0
-2054 7 0
-2054 10 0
-2054 11 0
-2054 13 0
-2054 15 0
-2054 18 0
-2054 20 0
-2054 21 0
-2054 24 0
-2054 25 0
2054 -3 -6 -7 -10 -11 -13 -15 -18 -20 -21 -24 -25 0
-2055 4 0
-2055 6 0
-2055 7 0
-2055 10 0
-2055 11 0
-2055 13 0
-2055 15 0
-2055 18 0
-2055 20 0
-2055 21 0
-2055 24 0
-2055 25 0
2055 -4 -6 -7 -10 -11 -13 -15 -18 -20 -21 -24 -25 0
-2056 3 0
-2056 5 0
-2056 7 0
-2056 10 0
-2056 11 0
-2056 13 0
-2056 15 0
-2056 18 0
-2056 20 0
-2056 21 0
-2056 24 0
-2056 25 0
2056 -3 -5 -7 -10 -11 -13 -15 -18 -20 -21 -24 -25 0
-2057 4 0
-2057 5 0
-2057 7 0
-2057 10 0
-2057 11 0
-2057 13 0
-2057 15 0
-2057 18 0
-2057 20 0
-2057 21 0
-2057 24 0
-2057 25 0
2057 -4 -5 -7 -10 -11 -13 -15 -18 -20 -21 -24 -25 0
-2058 3 0
-2058 5 0
-2058 8 0
-2058 10 0
-2058 11 0
-2058 13 0
-2058 15 0
-2058 18 0
-2058 20 0
-2058 21 0
-2058 24 0
-2058 25 0
2058 -3 -5 -8 -10 -11 -13 -15 -18 -20 -21 -24 -25 0
-2059 4 0
-2059 5 0
-2059 8 0
-2059 10 0
-2059 11 0
-2059 13 0
-2059 15 0
-2059 18 0
-2059 20 0
-2059 21 0
-2059 24 0
-2059 25 0
2059 -4 -5 -8 -10 -11 -13 -15 -18 -20 -21 -24 -25 0
-2060 3 0
-2060 6 0
-2060 8 0
-2060 10 0
-2060 11 0
-2060 13 0
-2060 15 0
-2060 18 0
-2060 20 0
-2060 21 0
-2060 24 0
-2060 25 0
2060 -3 -6 -8 -10 -11 -13 -15 -18 -20 -21 -24 -25 0
-2061 4 0
-2061 6 0
-2061 8 0
-2061 10 0
-2061 11 0
-2061 13 0
-2061 15 0
-2061 18 0
-2061 20 0
-2061 21 0
-2061 24 0
-2061 25 0
2061 -4 -6 -8 -10 -11 -13 -15 -18 -20 -21 -24 -25 0
-2062 3 0
-2062 6 0
-2062 8 0
-2062 9 0
-2062 11 0
-2062 13 0
-2062 15 0
-2062 18 0
-2062 20 0
-2062 21 0
-2062 24 0
-2062 25 0
2062 -3 -6 -8 -9 -11 -13 -15 -18 -20 -21 -24 -25 0
-2063 4 0
-2063 6 0
-2063 8 0
-2063 9 0
-2063 11 0
-2063 13 0
-2063 15 0
-2063 18 0
-2063 20 0
-2063 21 0
-2063 24 0
-2063 25 0
2063 -4 -6 -8 -9 -11 -13 -15 -18 -20 -21 -24 -25 0
-2064 3 0
-2064 5 0
-2064 8 0
-2064 9 0
-2064 11 0
-2064 13 0
-2064 15 0
-2064 18 0
-2064 20 0
-2064 21 0
-2064 24 0
-2064 25 0
2064 -3 -5 -8 -9 -11 -13 -15 -18 -20 -21 -24 -25 0
-2065 4 0
-2065 5 0
-2065 8 0
-2065 9 0
-2065 11 0
-2065 13 0
-2065 15 0
-2065 18 0
-2065 20 0
-2065 21 0
-2065 24 0
-2065 25 0
2065 -4 -5 -8 -9 -11 -13 -15 -18 -20 -21 -24 -25 0
-2066 3 0
-2066 5 0
-2066 7 0
-2066 9 0
-2066 11 0
-2066 13 0
-2066 15 0
-2066 18 0
-2066 20 0
-2066 21 0
-2066 24 0
-2066 25 0
2066 -3 -5 -7 -9 -11 -13 -15 -18 -20 -21 -24 -25 0
-2067 4 0
-2067 5 0
-2067 7 0
-2067 9 0
-2067 11 0
-2067 13 0
-2067 15 0
-2067 18 0
-2067 20 0
-2067 21 0
-2067 24 0
-2067 25 0
2067 -4 -5 -7 -9 -11 -13 -15 -18 -20 -21 -24 -25 0
-2068 3 0
-2068 6 0
-2068 7 0
-2068 9 0
-2068 11 0
-2068 13 0
-2068 15 0
-2068 18 0
-2068 20 0
-2068 21 0
-2068 24 0
-2068 25 0
2068 -3 -6 -7 -9 -11 -13 -15 -18 -20 -21 -24 -25 0
-2069 4 0
-2069 6 0
-2069 7 0
-2069 9 0
-2069 11 0
-2069 13 0
-2069 15 0
-2069 18 0
-2069 20 0
-2069 21 0
-2069 24 0
-2069 25 0
2069 -4 -6 -7 -9 -11 -13 -15 -18 -20 -21 -24 -25 0
-2070 3 0
-2070 6 0
-2070 8 0
-2070 10 0
-2070 11 0
-2070 13 0
-2070 15 0
-2070 18 0
-2070 19 0
-2070 21 0
-2070 24 0
-2070 25 0
2070 -3 -6 -8 -10 -11 -13 -15 -18 -19 -21 -24 -25 0
-2071 3 0
-2071 5 0
-2071 8 0
-2071 10 0
-2071 11 0
-2071 13 0
-2071 15 0
-2071 18 0
-2071 19 0
-2071 21 0
-2071 24 0
-2071 25 0
2071 -3 -5 -8 -10 -11 -13 -15 -18 -19 -21 -24 -25 0
-2072 3 0
-2072 6 0
-2072 7 0
-2072 10 0
-2072 12 0
-2072 13 0
-2072 15 0
-2072 18 0
-2072 19 0
-2072 21 0
-2072 24 0
-2072 25 0
2072 -3 -6 -7 -10 -12 -13 -15 -18 -19 -21 -24 -25 0
-2073 3 0
-2073 5 0
-2073 7 0
-2073 10 0
-2073 12 0
-2073 13 0
-2073 15 0
-2073 18 0
-2073 19 0
-2073 21 0
-2073 24 0
-2073 25 0
2073 -3 -5 -7 -10 -12 -13 -15 -18 -19 -21 -24 -25 0
-2074 4 0
-2074 5 0
-2074 7 0
-2074 10 0
-2074 12 0
-2074 13 0
-2074 15 0
-2074 18 0
-2074 19 0
-2074 21 0
-2074 24 0
-2074 25 0
2074 -4 -5 -7 -10 -12 -13 -15 -18 -19 -21 -24 -25 0
-2075 3 0
-2075 5 0
-2075 8 0
-2075 10 0
-2075 12 0
-2075 13 0
-2075 15 0
-2075 18 0
-2075 19 0
-2075 21 0
-2075 24 0
-2075 25 0
2075 -3 -5 -8 -10 -12 -13 -15 -18 -19 -21 -24 -25 0
-2076 4 0
-2076 5 0
-2076 8 0
-2076 10 0
-2076 12 0
-2076 13 0
-2076 15 0
-2076 18 0
-2076 19 0
-2076 21 0
-2076 24 0
-2076 25 0
2076 -4 -5 -8 -10 -12 -13 -15 -18 -19 -21 -24 -25 0
-2077 3 0
-2077 6 0
-2077 8 0
-2077 10 0
-2077 12 0
-2077 13 0
-2077 15 0
-2077 18 0
-2077 19 0
-2077 21 0
-2077 24 0
-2077 25 0
2077 -3 -6 -8 -10 -12 -13 -15 -18 -19 -21 -24 -25 0
-2078 3 0
-2078 6 0
-2078 7 0
-2078 9 0
-2078 12 0
-2078 14 0
-2078 15 0
-2078 18 0
-2078 19 0
-2078 21 0
-2078 24 0
-2078 25 0
2078 -3 -6 -7 -9 -12 -14 -15 -18 -19 -21 -24 -25 0
-2079 3 0
-2079 5 0
-2079 7 0
-2079 9 0
-2079 12 0
-2079 14 0
-2079 15 0
-2079 18 0
-2079 19 0
-2079 21 0
-2079 24 0
-2079 25 0
2079 -3 -5 -7 -9 -12 -14 -15 -18 -19 -21 -24 -25 0
-2080 4 0
-2080 5 0
-2080 7 0
-2080 9 0
-2080 12 0
-2080 14 0
-2080 15 0
-2080 18 0
-2080 19 0
-2080 21 0
-2080 24 0
-2080 25 0
2080 -4 -5 -7 -9 -12 -14 -15 -18 -19 -21 -24 -25 0
-2081 3 0
-2081 5 0
-2081 8 0
-2081 9 0
-2081 12 0
-2081 14 0
-2081 15 0
-2081 18 0
-2081 19 0
-2081 21 0
-2081 24 0
-2081 25 0
2081 -3 -5 -8 -9 -12 -14 -15 -18 -19 -21 -24 -25 0
-2082 4 0
-2082 5 0
-2082 8 0
-2082 9 0
-2082 12 0
-2082 14 0
-2082 15 0
-2082 18 0
-2082 19 0
-2082 21 0
-2082 24 0
-2082 25 0
2082 -4 -5 -8 -9 -12 -14 -15 -18 -19 -21 -24 -25 0
-2083 3 0
-2083 6 0
-2083 8 0
-2083 9 0
-2083 12 0
-2083 14 0
-2083 15 0
-2083 18 0
-2083 19 0
-2083 21 0
-2083 24 0
-2083 25 0
2083 -3 -6 -8 -9 -12 -14 -15 -18 -19 -21 -24 -25 0
-2084 4 0
-2084 6 0
-2084 8 0
-2084 9 0
-2084 12 0
-2084 14 0
-2084 15 0
-2084 18 0
-2084 19 0
-2084 21 0
-2084 24 0
-2084 25 0
2084 -4 -6 -8 -9 -12 -14 -15 -18 -19 -21 -24 -25 0
-2085 3 0
-2085 6 0
-2085 8 0
-2085 10 0
-2085 12 0
-2085 14 0
-2085 15 0
-2085 18 0
-2085 19 0
-2085 21 0
-2085 24 0
-2085 25 0
2085 -3 -6 -8 -10 -12 -14 -15 -18 -19 -21 -24 -25 0
-2086 4 0
-2086 6 0
-2086 8 0
-2086 10 0
-2086 12 0
-2086 14 0
-2086 15 0
-2086 18 0
-2086 19 0
-2086 21 0
-2086 24 0
-2086 25 0
2086 -4 -6 -8 -10 -12 -14 -15 -18 -19 -21 -24 -25 0
-2087 3 0
-2087 5 0
-2087 8 0
-2087 10 0
-2087 12 0
-2087 14 0
-2087 15 0
-2087 18 0
-2087 19 0
-2087 21 0
-2087 24 0
-2087 25 0
2087 -3 -5 -8 -10 -12 -14 -15 -18 -19 -21 -24 -25 0
-2088 4 0
-2088 5 0
-2088 8 0
-2088 10 0
-2088 12 0
-2088 14 0
-2088 15 0
-2088 18 0
-2088 19 0
-2088 21 0
-2088 24 0
-2088 25 0
2088 -4 -5 -8 -10 -12 -14 -15 -18 -19 -21 -24 -25 0
-2089 3 0
-2089 5 0
-2089 7 0
-2089 10 0
-2089 12 0
-2089 14 0
-2089 15 0
-2089 18 0
-2089 19 0
-2089 21 0
-2089 24 0
-2089 25 0
2089 -3 -5 -7 -10 -12 -14 -15 -18 -19 -21 -24 -25 0
-2090 4 0
-2090 5 0
-2090 7 0
-2090 10 0
-2090 12 0
-2090 14 0
-2090 15 0
-2090 18 0
-2090 19 0
-2090 21 0
-2090 24 0
-2090 25 0
2090 -4 -5 -7 -10 -12 -14 -15 -18 -19 -21 -24 -25 0
-2091 3 0
-2091 6 0
-2091 7 0
-2091 10 0
-2091 12 0
-2091 14 0
-2091 15 0
-2091 18 0
-2091 19 0
-2091 21 0
-2091 24 0
-2091 25 0
2091 -3 -6 -7 -10 -12 -14 -15 -18 -19 -21 -24 -25 0
-2092 3 0
-2092 5 0
-2092 8 0
-2092 10 0
-2092 11 0
-2092 14 0
-2092 15 0
-2092 18 0
-2092 19 0
-2092 21 0
-2092 24 0
-2092 25 0
2092 -3 -5 -8 -10 -11 -14 -15 -18 -19 -21 -24 -25 0
-2093 3 0
-2093 6 0
-2093 8 0
-2093 10 0
-2093 11 0
-2093 14 0
-2093 15 0
-2093 18 0
-2093 19 0
-2093 21 0
-2093 24 0
-2093 25 0
2093 -3 -6 -8 -10 -11 -14 -15 -18 -19 -21 -24 -25 0
-2094 3 0
-2094 6 0
-2094 7 0
-2094 9 0
-2094 11 0
-2094 14 0
-2094 16 0
-2094 18 0
-2094 19 0
-2094 21 0
-2094 24 0
-2094 25 0
2094 -3 -6 -7 -9 -11 -14 -16 -18 -19 -21 -24 -25 0
-2095 3 0
-2095 5 0
-2095 7 0
-2095 9 0
-2095 11 0
-2095 14 0
-2095 16 0
-2095 18 0
-2095 19 0
-2095 21 0
-2095 24 0
-2095 25 0
2095 -3 -5 -7 -9 -11 -14 -16 -18 -19 -21 -24 -25 0
-2096 4 0
-2096 5 0
-2096 7 0
-2096 9 0
-2096 11 0
-2096 14 0
-2096 16 0
-2096 18 0
-2096 19 0
-2096 21 0
-2096 24 0
-2096 25 0
2096 -4 -5 -7 -9 -11 -14 -16 -18 -19 -21 -24 -25 0
-2097 3 0
-2097 5 0
-2097 8 0
-2097 9 0
-2097 11 0
-2097 14 0
-2097 16 0
-2097 18 0
-2097 19 0
-2097 21 0
-2097 24 0
-2097 25 0
2097 -3 -5 -8 -9 -11 -14 -16 -18 -19 -21 -24 -25 0
-2098 4 0
-2098 5 0
-2098 8 0
-2098 9 0
-2098 11 0
-2098 14 0
-2098 16 0
-2098 18 0
-2098 19 0
-2098 21 0
-2098 24 0
-2098 25 0
2098 -4 -5 -8 -9 -11 -14 -16 -18 -19 -21 -24 -25 0
-2099 3 0
-2099 6 0
-2099 8 0
-2099 9 0
-2099 11 0
-2099 14 0
-2099 16 0
-2099 18 0
-2099 19 0
-2099 21 0
-2099 24 0
-2099 25 0
2099 -3 -6 -8 -9 -11 -14 -16 -18 -19 -21 -24 -25 0
-2100 4 0
-2100 6 0
-2100 8 0
-2100 9 0
-2100 11 0
-2100 14 0
-2100 16 0
-2100 18 0
-2100 19 0
-2100 21 0
-2100 24 0
-2100 25 0
2100 -4 -6 -8 -9 -11 -14 -16 -18 -19 -21 -24 -25 0
-2101 3 0
-2101 6 0
-2101 8 0
-2101 10 0
-2101 11 0
-2101 14 0
-2101 16 0
-2101 18 0
-2101 19 0
-2101 21 0
-2101 24 0
-2101 25 0
2101 -3 -6 -8 -10 -11 -14 -16 -18 -19 -21 -24 -25 0
-2102 4 0
-2102 6 0
-2102 8 0
-2102 10 0
-2102 11 0
-2102 14 0
-2102 16 0
-2102 18 0
-2102 19 0
-2102 21 0
-2102 24 0
-2102 25 0
2102 -4 -6 -8 -10 -11 -14 -16 -18 -19 -21 -24 -25 0
-2103 3 0
-2103 5 0
-2103 8 0
-2103 10 0
-2103 11 0
-2103 14 0
-2103 16 0
-2103 18 0
-2103 19 0
-2103 21 0
-2103 24 0
-2103 25 0
2103 -3 -5 -8 -10 -11 -14 -16 -18 -19 -21 -24 -25 0
-2104 4 0
-2104 5 0
-2104 8 0
-2104 10 0
-2104 11 0
-2104 14 0
-2104 16 0
-2104 18 0
-2104 19 0
-2104 21 0
-2104 24 0
-2104 25 0
2104 -4 -5 -8 -10 -11 -14 -16 -18 -19 -21 -24 -25 0
-2105 3 0
-2105 5 0
-2105 7 0
-2105 10 0
-2105 11 0
-2105 14 0
-2105 16 0
-2105 18 0
-2105 19 0
-2105 21 0
-2105 24 0
-2105 25 0
2105 -3 -5 -7 -10 -11 -14 -16 -18 -19 -21 -24 -25 0
-2106 4 0
-2106 5 0
-2106 7 0
-2106 10 0
-2106 11 0
-2106 14 0
-2106 16 0
-2106 18 0
-2106 19 0
-2106 21 0
-2106 24 0
-2106 25 0
2106 -4 -5 -7 -10 -11 -14 -16 -18 -19 -21 -24 -25 0
-2107 3 0
-2107 6 0
-2107 7 0
-2107 10 0
-2107 11 0
-2107 14 0
-2107 16 0
-2107 18 0
-2107 19 0
-2107 21 0
-2107 24 0
-2107 25 0
2107 -3 -6 -7 -10 -11 -14 -16 -18 -19 -21 -24 -25 0
-2108 4 0
-2108 6 0
-2108 7 0
-2108 10 0
-2108 11 0
-2108 14 0
-2108 16 0
-2108 18 0
-2108 19 0
-2108 21 0
-2108 24 0
-2108 25 0
2108 -4 -6 -7 -10 -11 -14 -16 -18 -19 -21 -24 -25 0
-2109 3 0
-2109 6 0
-2109 7 0
-2109 10 0
-2109 12 0
-2109 14 0
-2109 16 0
-2109 18 0
-2109 19 0
-2109 21 0
-2109 24 0
-2109 25 0
2109 -3 -6 -7 -10 -12 -14 -16 -18 -19 -21 -24 -25 0
-2110 4 0
-2110 6 0
-2110 7 0
-2110 10 0
-2110 12 0
-2110 14 0
-2110 16 0
-2110 18 0
-2110 19 0
-2110 21 0
-2110 24 0
-2110 25 0
2110 -4 -6 -7 -10 -12 -14 -16 -18 -19 -21 -24 -25 0
-2111 3 0
-2111 5 0
-2111 7 0
-2111 10 0
-2111 12 0
-2111 14 0
-2111 16 0
-2111 18 0
-2111 19 0
-2111 21 0
-2111 24 0
-2111 25 0
2111 -3 -5 -7 -10 -12 -14 -16 -18 -19 -21 -24 -25 0
-2112 4 0
-2112 5 0
-2112 7 0
-2112 10 0
-2112 12 0
-2112 14 0
-2112 16 0
-2112 18 0
-2112 19 0
-2112 21 0
-2112 24 0
-2112 25 0
2112 -4 -5 -7 -10 -12 -14 -16 -18 -19 -21 -24 -25 0
-2113 3 0
-2113 5 0
-2113 8 0
-2113 10 0
-2113 12 0
-2113 14 0
-2113 16 0
-2113 18 0
-2113 19 0
-2113 21 0
-2113 24 0
-2113 25 0
2113 -3 -5 -8 -10 -12 -14 -16 -18 -19 -21 -24 -25 0
-2114 4 0
-2114 5 0
-2114 8 0
-2114 10 0
-2114 12 0
-2114 14 0
-2114 16 0
-2114 18 0
-2114 19 0
-2114 21 0
-2114 24 0
-2114 25 0
2114 -4 -5 -8 -10 -12 -14 -16 -18 -19 -21 -24 -25 0
-2115 3 0
-2115 6 0
-2115 8 0
-2115 10 0
-2115 12 0
-2115 14 0
-2115 16 0
-2115 18 0
-2115 19 0
-2115 21 0
-2115 24 0
-2115 25 0
2115 -3 -6 -8 -10 -12 -14 -16 -18 -19 -21 -24 -25 0
-2116 4 0
-2116 6 0
-2116 8 0
-2116 10 0
-2116 12 0
-2116 14 0
-2116 16 0
-2116 18 0
-2116 19 0
-2116 21 0
-2116 24 0
-2116 25 0
2116 -4 -6 -8 -10 -12 -14 -16 -18 -19 -21 -24 -25 0
-2117 3 0
-2117 6 0
-2117 8 0
-2117 9 0
-2117 12 0
-2117 14 0
-2117 16 0
-2117 18 0
-2117 19 0
-2117 21 0
-2117 24 0
-2117 25 0
2117 -3 -6 -8 -9 -12 -14 -16 -18 -19 -21 -24 -25 0
-2118 4 0
-2118 6 0
-2118 8 0
-2118 9 0
-2118 12 0
-2118 14 0
-2118 16 0
-2118 18 0
-2118 19 0
-2118 21 0
-2118 24 0
-2118 25 0
2118 -4 -6 -8 -9 -12 -14 -16 -18 -19 -21 -24 -25 0
-2119 3 0
-2119 5 0
-2119 8 0
-2119 9 0
-2119 12 0
-2119 14 0
-2119 16 0
-2119 18 0
-2119 19 0
-2119 21 0
-2119 24 0
-2119 25 0
2119 -3 -5 -8 -9 -12 -14 -16 -18 -19 -21 -24 -25 0
-2120 4 0
-2120 5 0
-2120 8 0
-2120 9 0
-2120 12 0
-2120 14 0
-2120 16 0
-2120 18 0
-2120 19 0
-2120 21 0
-2120 24 0
-2120 25 0
2120 -4 -5 -8 -9 -12 -14 -16 -18 -19 -21 -24 -25 0
-2121 3 0
-2121 5 0
-2121 7 0
-2121 9 0
-2121 12 0
-2121 14 0
-2121 16 0
-2121 18 0
-2121 19 0
-2121 21 0
-2121 24 0
-2121 25 0
2121 -3 -5 -7 -9 -12 -14 -16 -18 -19 -21 -24 -25 0
-2122 4 0
-2122 5 0
-2122 7 0
-2122 9 0
-2122 12 0
-2122 14 0
-2122 16 0
-2122 18 0
-2122 19 0
-2122 21 0
-2122 24 0
-2122 25 0
2122 -4 -5 -7 -9 -12 -14 -16 -18 -19 -21 -24 -25 0
-2123 3 0
-2123 6 0
-2123 7 0
-2123 9 0
-2123 12 0
-2123 14 0
-2123 16 0
-2123 18 0
-2123 19 0
-2123 21 0
-2123 24 0
-2123 25 0
2123 -3 -6 -7 -9 -12 -14 -16 -18 -19 -21 -24 -25 0
-2124 4 0
-2124 6 0
-2124 7 0
-2124 9 0
-2124 12 0
-2124 14 0
-2124 16 0
-2124 18 0
-2124 19 0
-2124 21 0
-2124 24 0
-2124 25 0
2124 -4 -6 -7 -9 -12 -14 -16 -18 -19 -21 -24 -25 0
-2125 3 0
-2125 6 0
-2125 7 0
-2125 9 0
-2125 12 0
-2125 13 0
-2125 16 0
-2125 18 0
-2125 19 0
-2125 21 0
-2125 24 0
-2125 25 0
2125 -3 -6 -7 -9 -12 -13 -16 -18 -19 -21 -24 -25 0
-2126 4 0
-2126 6 0
-2126 7 0
-2126 9 0
-2126 12 0
-2126 13 0
-2126 16 0
-2126 18 0
-2126 19 0
-2126 21 0
-2126 24 0
-2126 25 0
2126 -4 -6 -7 -9 -12 -13 -16 -18 -19 -21 -24 -25 0
-2127 3 0
-2127 5 0
-2127 7 0
-2127 9 0
-2127 12 0
-2127 13 0
-2127 16 0
-2127 18 0
-2127 19 0
-2127 21 0
-2127 24 0
-2127 25 0
2127 -3 -5 -7 -9 -12 -13 -16 -18 -19 -21 -24 -25 0
-2128 4 0
-2128 5 0
-2128 7 0
-2128 9 0
-2128 12 0
-2128 13 0
-2128 16 0
-2128 18 0
-2128 19 0
-2128 21 0
-2128 24 0
-2128 25 0
2128 -4 -5 -7 -9 -12 -13 -16 -18 -19 -21 -24 -25 0
-2129 3 0
-2129 5 0
-2129 8 0
-2129 9 0
-2129 12 0
-2129 13 0
-2129 16 0
-2129 18 0
-2129 19 0
-2129 21 0
-2129 24 0
-2129 25 0
2129 -3 -5 -8 -9 -12 -13 -16 -18 -19 -21 -24 -25 0
-2130 4 0
-2130 5 0
-2130 8 0
-2130 9 0
-2130 12 0
-2130 13 0
-2130 16 0
-2130 18 0
-2130 19 0
-2130 21 0
-2130 24 0
-2130 25 0
2130 -4 -5 -8 -9 -12 -13 -16 -18 -19 -21 -24 -25 0
-2131 3 0
-2131 6 0
-2131 8 0
-2131 9 0
-2131 12 0
-2131 13 0
-2131 16 0
-2131 18 0
-2131 19 0
-2131 21 0
-2131 24 0
-2131 25 0
2131 -3 -6 -8 -9 -12 -13 -16 -18 -19 -21 -24 -25 0
-2132 4 0
-2132 6 0
-2132 8 0
-2132 9 0
-2132 12 0
-2132 13 0
-2132 16 0
-2132 18 0
-2132 19 0
-2132 21 0
-2132 24 0
-2132 25 0
2132 -4 -6 -8 -9 -12 -13 -16 -18 -19 -21 -24 -25 0
-2133 3 0
-2133 6 0
-2133 8 0
-2133 10 0
-2133 12 0
-2133 13 0
-2133 16 0
-2133 18 0
-2133 19 0
-2133 21 0
-2133 24 0
-2133 25 0
2133 -3 -6 -8 -10 -12 -13 -16 -18 -19 -21 -24 -25 0
-2134 4 0
-2134 6 0
-2134 8 0
-2134 10 0
-2134 12 0
-2134 13 0
-2134 16 0
-2134 18 0
-2134 19 0
-2134 21 0
-2134 24 0
-2134 25 0
2134 -4 -6 -8 -10 -12 -13 -16 -18 -19 -21 -24 -25 0
-2135 3 0
-2135 5 0
-2135 8 0
-2135 10 0
-2135 12 0
-2135 13 0
-2135 16 0
-2135 18 0
-2135 19 0
-2135 21 0
-2135 24 0
-2135 25 0
2135 -3 -5 -8 -10 -12 -13 -16 -18 -19 -21 -24 -25 0
-2136 4 0
-2136 5 0
-2136 8 0
-2136 10 0
-2136 12 0
-2136 13 0
-2136 16 0
-2136 18 0
-2136 19 0
-2136 21 0
-2136 24 0
-2136 25 0
2136 -4 -5 -8 -10 -12 -13 -16 -18 -19 -21 -24 -25 0
-2137 3 0
-2137 5 0
-2137 7 0
-2137 10 0
-2137 12 0
-2137 13 0
-2137 16 0
-2137 18 0
-2137 19 0
-2137 21 0
-2137 24 0
-2137 25 0
2137 -3 -5 -7 -10 -12 -13 -16 -18 -19 -21 -24 -25 0
-2138 4 0
-2138 5 0
-2138 7 0
-2138 10 0
-2138 12 0
-2138 13 0
-2138 16 0
-2138 18 0
-2138 19 0
-2138 21 0
-2138 24 0
-2138 25 0
2138 -4 -5 -7 -10 -12 -13 -16 -18 -19 -21 -24 -25 0
-2139 3 0
-2139 6 0
-2139 7 0
-2139 10 0
-2139 12 0
-2139 13 0
-2139 16 0
-2139 18 0
-2139 19 0
-2139 21 0
-2139 24 0
-2139 25 0
2139 -3 -6 -7 -10 -12 -13 -16 -18 -19 -21 -24 -25 0
-2140 4 0
-2140 6 0
-2140 7 0
-2140 10 0
-2140 12 0
-2140 13 0
-2140 16 0
-2140 18 0
-2140 19 0
-2140 21 0
-2140 24 0
-2140 25 0
2140 -4 -6 -7 -10 -12 -13 -16 -18 -19 -21 -24 -25 0
-2141 3 0
-2141 6 0
-2141 7 0
-2141 10 0
-2141 11 0
-2141 13 0
-2141 16 0
-2141 18 0
-2141 19 0
-2141 21 0
-2141 24 0
-2141 25 0
2141 -3 -6 -7 -10 -11 -13 -16 -18 -19 -21 -24 -25 0
-2142 4 0
-2142 6 0
-2142 7 0
-2142 10 0
-2142 11 0
-2142 13 0
-2142 16 0
-2142 18 0
-2142 19 0
-2142 21 0
-2142 24 0
-2142 25 0
2142 -4 -6 -7 -10 -11 -13 -16 -18 -19 -21 -24 -25 0
-2143 3 0
-2143 5 0
-2143 7 0
-2143 10 0
-2143 11 0
-2143 13 0
-2143 16 0
-2143 18 0
-2143 19 0
-2143 21 0
-2143 24 0
-2143 25 0
2143 -3 -5 -7 -10 -11 -13 -16 -18 -19 -21 -24 -25 0
-2144 4 0
-2144 5 0
-2144 7 0
-2144 10 0
-2144 11 0
-2144 13 0
-2144 16 0
-2144 18 0
-2144 19 0
-2144 21 0
-2144 24 0
-2144 25 0
2144 -4 -5 -7 -10 -11 -13 -16 -18 -19 -21 -24 -25 0
-2145 3 0
-2145 5 0
-2145 8 0
-2145 10 0
-2145 11 0
-2145 13 0
-2145 16 0
-2145 18 0
-2145 19 0
-2145 21 0
-2145 24 0
-2145 25 0
2145 -3 -5 -8 -10 -11 -13 -16 -18 -19 -21 -24 -25 0
-2146 4 0
-2146 5 0
-2146 8 0
-2146 10 0
-2146 11 0
-2146 13 0
-2146 16 0
-2146 18 0
-2146 19 0
-2146 21 0
-2146 24 0
-2146 25 0
2146 -4 -5 -8 -10 -11 -13 -16 -18 -19 -21 -24 -25 0
-2147 3 0
-2147 6 0
-2147 8 0
-2147 10 0
-2147 11 0
-2147 13 0
-2147 16 0
-2147 18 0
-2147 19 0
-2147 21 0
-2147 24 0
-2147 25 0
2147 -3 -6 -8 -10 -11 -13 -16 -18 -19 -21 -24 -25 0
-2148 4 0
-2148 6 0
-2148 8 0
-2148 10 0
-2148 11 0
-2148 13 0
-2148 16 0
-2148 18 0
-2148 19 0
-2148 21 0
-2148 24 0
-2148 25 0
2148 -4 -6 -8 -10 -11 -13 -16 -18 -19 -21 -24 -25 0
-2149 3 0
-2149 6 0
-2149 8 0
-2149 9 0
-2149 11 0
-2149 13 0
-2149 16 0
-2149 18 0
-2149 19 0
-2149 21 0
-2149 24 0
-2149 25 0
2149 -3 -6 -8 -9 -11 -13 -16 -18 -19 -21 -24 -25 0
-2150 4 0
-2150 6 0
-2150 8 0
-2150 9 0
-2150 11 0
-2150 13 0
-2150 16 0
-2150 18 0
-2150 19 0
-2150 21 0
-2150 24 0
-2150 25 0
2150 -4 -6 -8 -9 -11 -13 -16 -18 -19 -21 -24 -25 0
-2151 3 0
-2151 5 0
-2151 8 0
-2151 9 0
-2151 11 0
-2151 13 0
-2151 16 0
-2151 18 0
-2151 19 0
-2151 21 0
-2151 24 0
-2151 25 0
2151 -3 -5 -8 -9 -11 -13 -16 -18 -19 -21 -24 -25 0
-2152 4 0
-2152 5 0
-2152 8 0
-2152 9 0
-2152 11 0
-2152 13 0
-2152 16 0
-2152 18 0
-2152 19 0
-2152 21 0
-2152 24 0
-2152 25 0
2152 -4 -5 -8 -9 -11 -13 -16 -18 -19 -21 -24 -25 0
-2153 3 0
-2153 5 0
-2153 7 0
-2153 9 0
-2153 11 0
-2153 13 0
-2153 16 0
-2153 18 0
-2153 19 0
-2153 21 0
-2153 24 0
-2153 25 0
2153 -3 -5 -7 -9 -11 -13 -16 -18 -19 -21 -24 -25 0
-2154 4 0
-2154 5 0
-2154 7 0
-2154 9 0
-2154 11 0
-2154 13 0
-2154 16 0
-2154 18 0
-2154 19 0
-2154 21 0
-2154 24 0
-2154 25 0
2154 -4 -5 -7 -9 -11 -13 -16 -18 -19 -21 -24 -25 0
-2155 3 0
-2155 6 0
-2155 7 0
-2155 9 0
-2155 11 0
-2155 13 0
-2155 16 0
-2155 18 0
-2155 19 0
-2155 21 0
-2155 24 0
-2155 25 0
2155 -3 -6 -7 -9 -11 -13 -16 -18 -19 -21 -24 -25 0
-2156 4 0
-2156 6 0
-2156 7 0
-2156 9 0
-2156 11 0
-2156 13 0
-2156 16 0
-2156 18 0
-2156 19 0
-2156 21 0
-2156 24 0
-2156 25 0
2156 -4 -6 -7 -9 -11 -13 -16 -18 -19 -21 -24 -25 0
-2157 3 0
-2157 6 0
-2157 8 0
-2157 10 0
-2157 11 0
-2157 13 0
-2157 16 0
-2157 17 0
-2157 19 0
-2157 21 0
-2157 24 0
-2157 25 0
2157 -3 -6 -8 -10 -11 -13 -16 -17 -19 -21 -24 -25 0
-2158 3 0
-2158 5 0
-2158 8 0
-2158 10 0
-2158 11 0
-2158 13 0
-2158 16 0
-2158 17 0
-2158 19 0
-2158 21 0
-2158 24 0
-2158 25 0
2158 -3 -5 -8 -10 -11 -13 -16 -17 -19 -21 -24 -25 0
-2159 3 0
-2159 6 0
-2159 7 0
-2159 10 0
-2159 12 0
-2159 13 0
-2159 16 0
-2159 17 0
-2159 19 0
-2159 21 0
-2159 24 0
-2159 25 0
2159 -3 -6 -7 -10 -12 -13 -16 -17 -19 -21 -24 -25 0
-2160 3 0
-2160 5 0
-2160 7 0
-2160 10 0
-2160 12 0
-2160 13 0
-2160 16 0
-2160 17 0
-2160 19 0
-2160 21 0
-2160 24 0
-2160 25 0
2160 -3 -5 -7 -10 -12 -13 -16 -17 -19 -21 -24 -25 0
-2161 4 0
-2161 5 0
-2161 7 0
-2161 10 0
-2161 12 0
-2161 13 0
-2161 16 0
-2161 17 0
-2161 19 0
-2161 21 0
-2161 24 0
-2161 25 0
2161 -4 -5 -7 -10 -12 -13 -16 -17 -19 -21 -24 -25 0
-2162 3 0
-2162 5 0
-2162 8 0
-2162 10 0
-2162 12 0
-2162 13 0
-2162 16 0
-2162 17 0
-2162 19 0
-2162 21 0
-2162 24 0
-2162 25 0
2162 -3 -5 -8 -10 -12 -13 -16 -17 -19 -21 -24 -25 0
-2163 4 0
-2163 5 0
-2163 8 0
-2163 10 0
-2163 12 0
-2163 13 0
-2163 16 0
-2163 17 0
-2163 19 0
-2163 21 0
-2163 24 0
-2163 25 0
2163 -4 -5 -8 -10 -12 -13 -16 -17 -19 -21 -24 -25 0
-2164 3 0
-2164 6 0
-2164 8 0
-2164 10 0
-2164 12 0
-2164 13 0
-2164 16 0
-2164 17 0
-2164 19 0
-2164 21 0
-2164 24 0
-2164 25 0
2164 -3 -6 -8 -10 -12 -13 -16 -17 -19 -21 -24 -25 0
-2165 3 0
-2165 6 0
-2165 7 0
-2165 9 0
-2165 12 0
-2165 14 0
-2165 16 0
-2165 17 0
-2165 19 0
-2165 21 0
-2165 24 0
-2165 25 0
2165 -3 -6 -7 -9 -12 -14 -16 -17 -19 -21 -24 -25 0
-2166 3 0
-2166 5 0
-2166 7 0
-2166 9 0
-2166 12 0
-2166 14 0
-2166 16 0
-2166 17 0
-2166 19 0
-2166 21 0
-2166 24 0
-2166 25 0
2166 -3 -5 -7 -9 -12 -14 -16 -17 -19 -21 -24 -25 0
-2167 4 0
-2167 5 0
-2167 7 0
-2167 9 0
-2167 12 0
-2167 14 0
-2167 16 0
-2167 17 0
-2167 19 0
-2167 21 0
-2167 24 0
-2167 25 0
2167 -4 -5 -7 -9 -12 -14 -16 -17 -19 -21 -24 -25 0
-2168 3 0
-2168 5 0
-2168 8 0
-2168 9 0
-2168 12 0
-2168 14 0
-2168 16 0
-2168 17 0
-2168 19 0
-2168 21 0
-2168 24 0
-2168 25 0
2168 -3 -5 -8 -9 -12 -14 -16 -17 -19 -21 -24 -25 0
-2169 4 0
-2169 5 0
-2169 8 0
-2169 9 0
-2169 12 0
-2169 14 0
-2169 16 0
-2169 17 0
-2169 19 0
-2169 21 0
-2169 24 0
-2169 25 0
2169 -4 -5 -8 -9 -12 -14 -16 -17 -19 -21 -24 -25 0
-2170 3 0
-2170 6 0
-2170 8 0
-2170 9 0
-2170 12 0
-2170 14 0
-2170 16 0
-2170 17 0
-2170 19 0
-2170 21 0
-2170 24 0
-2170 25 0
2170 -3 -6 -8 -9 -12 -14 -16 -17 -19 -21 -24 -25 0
-2171 4 0
-2171 6 0
-2171 8 0
-2171 9 0
-2171 12 0
-2171 14 0
-2171 16 0
-2171 17 0
-2171 19 0
-2171 21 0
-2171 24 0
-2171 25 0
2171 -4 -6 -8 -9 -12 -14 -16 -17 -19 -21 -24 -25 0
-2172 3 0
-2172 6 0
-2172 8 0
-2172 10 0
-2172 12 0
-2172 14 0
-2172 16 0
-2172 17 0
-2172 19 0
-2172 21 0
-2172 24 0
-2172 25 0
2172 -3 -6 -8 -10 -12 -14 -16 -17 -19 -21 -24 -25 0
-2173 4 0
-2173 6 0
-2173 8 0
-2173 10 0
-2173 12 0
-2173 14 0
-2173 16 0
-2173 17 0
-2173 19 0
-2173 21 0
-2173 24 0
-2173 25 0
2173 -4 -6 -8 -10 -12 -14 -16 -17 -19 -21 -24 -25 0
-2174 3 0
-2174 5 0
-2174 8 0
-2174 10 0
-2174 12 0
-2174 14 0
-2174 16 0
-2174 17 0
-2174 19 0
-2174 21 0
-2174 24 0
-2174 25 0
2174 -3 -5 -8 -10 -12 -14 -16 -17 -19 -21 -24 -25 0
-2175 4 0
-2175 5 0
-2175 8 0
-2175 10 0
-2175 12 0
-2175 14 0
-2175 16 0
-2175 17 0
-2175 19 0
-2175 21 0
-2175 24 0
-2175 25 0
2175 -4 -5 -8 -10 -12 -14 -16 -17 -19 -21 -24 -25 0
-2176 3 0
-2176 5 0
-2176 7 0
-2176 10 0
-2176 12 0
-2176 14 0
-2176 16 0
-2176 17 0
-2176 19 0
-2176 21 0
-2176 24 0
-2176 25 0
2176 -3 -5 -7 -10 -12 -14 -16 -17 -19 -21 -24 -25 0
-2177 4 0
-2177 5 0
-2177 7 0
-2177 10 0
-2177 12 0
-2177 14 0
-2177 16 0
-2177 17 0
-2177 19 0
-2177 21 0
-2177 24 0
-2177 25 0
2177 -4 -5 -7 -10 -12 -14 -16 -17 -19 -21 -24 -25 0
-2178 3 0
-2178 6 0
-2178 7 0
-2178 10 0
-2178 12 0
-2178 14 0
-2178 16 0
-2178 17 0
-2178 19 0
-2178 21 0
-2178 24 0
-2178 25 0
2178 -3 -6 -7 -10 -12 -14 -16 -17 -19 -21 -24 -25 0
-2179 4 0
-2179 6 0
-2179 7 0
-2179 10 0
-2179 12 0
-2179 14 0
-2179 16 0
-2179 17 0
-2179 19 0
-2179 21 0
-2179 24 0
-2179 25 0
2179 -4 -6 -7 -10 -12 -14 -16 -17 -19 -21 -24 -25 0
-2180 3 0
-2180 6 0
-2180 7 0
-2180 10 0
-2180 11 0
-2180 14 0
-2180 16 0
-2180 17 0
-2180 19 0
-2180 21 0
-2180 24 0
-2180 25 0
2180 -3 -6 -7 -10 -11 -14 -16 -17 -19 -21 -24 -25 0
-2181 4 0
-2181 6 0
-2181 7 0
-2181 10 0
-2181 11 0
-2181 14 0
-2181 16 0
-2181 17 0
-2181 19 0
-2181 21 0
-2181 24 0
-2181 25 0
2181 -4 -6 -7 -10 -11 -14 -16 -17 -19 -21 -24 -25 0
-2182 3 0
-2182 5 0
-2182 7 0
-2182 10 0
-2182 11 0
-2182 14 0
-2182 16 0
-2182 17 0
-2182 19 0
-2182 21 0
-2182 24 0
-2182 25 0
2182 -3 -5 -7 -10 -11 -14 -16 -17 -19 -21 -24 -25 0
-2183 4 0
-2183 5 0
-2183 7 0
-2183 10 0
-2183 11 0
-2183 14 0
-2183 16 0
-2183 17 0
-2183 19 0
-2183 21 0
-2183 24 0
-2183 25 0
2183 -4 -5 -7 -10 -11 -14 -16 -17 -19 -21 -24 -25 0
-2184 3 0
-2184 5 0
-2184 8 0
-2184 10 0
-2184 11 0
-2184 14 0
-2184 16 0
-2184 17 0
-2184 19 0
-2184 21 0
-2184 24 0
-2184 25 0
2184 -3 -5 -8 -10 -11 -14 -16 -17 -19 -21 -24 -25 0
-2185 4 0
-2185 5 0
-2185 8 0
-2185 10 0
-2185 11 0
-2185 14 0
-2185 16 0
-2185 17 0
-2185 19 0
-2185 21 0
-2185 24 0
-2185 25 0
2185 -4 -5 -8 -10 -11 -14 -16 -17 -19 -21 -24 -25 0
-2186 3 0
-2186 6 0
-2186 8 0
-2186 10 0
-2186 11 0
-2186 14 0
-2186 16 0
-2186 17 0
-2186 19 0
-2186 21 0
-2186 24 0
-2186 25 0
2186 -3 -6 -8 -10 -11 -14 -16 -17 -19 -21 -24 -25 0
-2187 4 0
-2187 6 0
-2187 8 0
-2187 10 0
-2187 11 0
-2187 14 0
-2187 16 0
-2187 17 0
-2187 19 0
-2187 21 0
-2187 24 0
-2187 25 0
2187 -4 -6 -8 -10 -11 -14 -16 -17 -19 -21 -24 -25 0
-2188 3 0
-2188 6 0
-2188 8 0
-2188 9 0
-2188 11 0
-2188 14 0
-2188 16 0
-2188 17 0
-2188 19 0
-2188 21 0
-2188 24 0
-2188 25 0
2188 -3 -6 -8 -9 -11 -14 -16 -17 -19 -21 -24 -25 0
-2189 4 0
-2189 6 0
-2189 8 0
-2189 9 0
-2189 11 0
-2189 14 0
-2189 16 0
-2189 17 0
-2189 19 0
-2189 21 0
-2189 24 0
-2189 25 0
2189 -4 -6 -8 -9 -11 -14 -16 -17 -19 -21 -24 -25 0
-2190 3 0
-2190 5 0
-2190 8 0
-2190 9 0
-2190 11 0
-2190 14 0
-2190 16 0
-2190 17 0
-2190 19 0
-2190 21 0
-2190 24 0
-2190 25 0
2190 -3 -5 -8 -9 -11 -14 -16 -17 -19 -21 -24 -25 0
-2191 4 0
-2191 5 0
-2191 8 0
-2191 9 0
-2191 11 0
-2191 14 0
-2191 16 0
-2191 17 0
-2191 19 0
-2191 21 0
-2191 24 0
-2191 25 0
2191 -4 -5 -8 -9 -11 -14 -16 -17 -19 -21 -24 -25 0
-2192 3 0
-2192 5 0
-2192 7 0
-2192 9 0
-2192 11 0
-2192 14 0
-2192 16 0
-2192 17 0
-2192 19 0
-2192 21 0
-2192 24 0
-2192 25 0
2192 -3 -5 -7 -9 -11 -14 -16 -17 -19 -21 -24 -25 0
-2193 4 0
-2193 5 0
-2193 7 0
-2193 9 0
-2193 11 0
-2193 14 0
-2193 16 0
-2193 17 0
-2193 19 0
-2193 21 0
-2193 24 0
-2193 25 0
2193 -4 -5 -7 -9 -11 -14 -16 -17 -19 -21 -24 -25 0
-2194 3 0
-2194 6 0
-2194 7 0
-2194 9 0
-2194 11 0
-2194 14 0
-2194 16 0
-2194 17 0
-2194 19 0
-2194 21 0
-2194 24 0
-2194 25 0
2194 -3 -6 -7 -9 -11 -14 -16 -17 -19 -21 -24 -25 0
-2195 4 0
-2195 6 0
-2195 7 0
-2195 9 0
-2195 11 0
-2195 14 0
-2195 16 0
-2195 17 0
-2195 19 0
-2195 21 0
-2195 24 0
-2195 25 0
2195 -4 -6 -7 -9 -11 -14 -16 -17 -19 -21 -24 -25 0
-2196 3 0
-2196 6 0
-2196 8 0
-2196 10 0
-2196 11 0
-2196 14 0
-2196 15 0
-2196 17 0
-2196 19 0
-2196 21 0
-2196 24 0
-2196 25 0
2196 -3 -6 -8 -10 -11 -14 -15 -17 -19 -21 -24 -25 0
-2197 3 0
-2197 5 0
-2197 8 0
-2197 10 0
-2197 11 0
-2197 14 0
-2197 15 0
-2197 17 0
-2197 19 0
-2197 21 0
-2197 24 0
-2197 25 0
2197 -3 -5 -8 -10 -11 -14 -15 -17 -19 -21 -24 -25 0
-2198 3 0
-2198 6 0
-2198 7 0
-2198 10 0
-2198 12 0
-2198 14 0
-2198 15 0
-2198 17 0
-2198 19 0
-2198 21 0
-2198 24 0
-2198 25 0
2198 -3 -6 -7 -10 -12 -14 -15 -17 -19 -21 -24 -25 0
-2199 3 0
-2199 5 0
-2199 7 0
-2199 10 0
-2199 12 0
-2199 14 0
-2199 15 0
-2199 17 0
-2199 19 0
-2199 21 0
-2199 24 0
-2199 25 0
2199 -3 -5 -7 -10 -12 -14 -15 -17 -19 -21 -24 -25 0
-2200 4 0
-2200 6 0
-2200 8 0
-2200 9 0
-2200 12 0
-2200 13 0
-2200 15 0
-2200 17 0
-2200 19 0
-2200 21 0
-2200 24 0
-2200 25 0
2200 -4 -6 -8 -9 -12 -13 -15 -17 -19 -21 -24 -25 0
-2201 4 0
-2201 5 0
-2201 7 0
-2201 10 0
-2201 12 0
-2201 14 0
-2201 15 0
-2201 17 0
-2201 19 0
-2201 21 0
-2201 24 0
-2201 25 0
2201 -4 -5 -7 -10 -12 -14 -15 -17 -19 -21 -24 -25 0
-2202 3 0
-2202 5 0
-2202 8 0
-2202 10 0
-2202 12 0
-2202 14 0
-2202 15 0
-2202 17 0
-2202 19 0
-2202 21 0
-2202 24 0
-2202 25 0
2202 -3 -5 -8 -10 -12 -14 -15 -17 -19 -21 -24 -25 0
-2203 4 0
-2203 5 0
-2203 8 0
-2203 10 0
-2203 12 0
-2203 14 0
-2203 15 0
-2203 17 0
-2203 19 0
-2203 21 0
-2203 24 0
-2203 25 0
2203 -4 -5 -8 -10 -12 -14 -15 -17 -19 -21 -24 -25 0
-2204 3 0
-2204 6 0
-2204 8 0
-2204 10 0
-2204 12 0
-2204 14 0
-2204 15 0
-2204 17 0
-2204 19 0
-2204 21 0
-2204 24 0
-2204 25 0
2204 -3 -6 -8 -10 -12 -14 -15 -17 -19 -21 -24 -25 0
-2205 4 0
-2205 6 0
-2205 8 0
-2205 10 0
-2205 12 0
-2205 13 0
-2205 15 0
-2205 17 0
-2205 19 0
-2205 21 0
-2205 24 0
-2205 25 0
2205 -4 -6 -8 -10 -12 -13 -15 -17 -19 -21 -24 -25 0
-2206 4 0
-2206 6 0
-2206 8 0
-2206 10 0
-2206 12 0
-2206 14 0
-2206 15 0
-2206 17 0
-2206 19 0
-2206 21 0
-2206 24 0
-2206 25 0
2206 -4 -6 -8 -10 -12 -14 -15 -17 -19 -21 -24 -25 0
-2207 3 0
-2207 6 0
-2207 8 0
-2207 9 0
-2207 12 0
-2207 14 0
-2207 15 0
-2207 17 0
-2207 19 0
-2207 21 0
-2207 24 0
-2207 25 0
2207 -3 -6 -8 -9 -12 -14 -15 -17 -19 -21 -24 -25 0
-2208 4 0
-2208 6 0
-2208 8 0
-2208 9 0
-2208 12 0
-2208 14 0
-2208 15 0
-2208 17 0
-2208 19 0
-2208 21 0
-2208 24 0
-2208 25 0
2208 -4 -6 -8 -9 -12 -14 -15 -17 -19 -21 -24 -25 0
-2209 3 0
-2209 5 0
-2209 8 0
-2209 9 0
-2209 12 0
-2209 14 0
-2209 15 0
-2209 17 0
-2209 19 0
-2209 21 0
-2209 24 0
-2209 25 0
2209 -3 -5 -8 -9 -12 -14 -15 -17 -19 -21 -24 -25 0
-2210 4 0
-2210 5 0
-2210 8 0
-2210 9 0
-2210 12 0
-2210 14 0
-2210 15 0
-2210 17 0
-2210 19 0
-2210 21 0
-2210 24 0
-2210 25 0
2210 -4 -5 -8 -9 -12 -14 -15 -17 -19 -21 -24 -25 0
-2211 3 0
-2211 5 0
-2211 7 0
-2211 9 0
-2211 12 0
-2211 14 0
-2211 15 0
-2211 17 0
-2211 19 0
-2211 21 0
-2211 24 0
-2211 25 0
2211 -3 -5 -7 -9 -12 -14 -15 -17 -19 -21 -24 -25 0
-2212 4 0
-2212 5 0
-2212 7 0
-2212 9 0
-2212 12 0
-2212 14 0
-2212 15 0
-2212 17 0
-2212 19 0
-2212 21 0
-2212 24 0
-2212 25 0
2212 -4 -5 -7 -9 -12 -14 -15 -17 -19 -21 -24 -25 0
-2213 3 0
-2213 6 0
-2213 7 0
-2213 9 0
-2213 12 0
-2213 14 0
-2213 15 0
-2213 17 0
-2213 19 0
-2213 21 0
-2213 24 0
-2213 25 0
2213 -3 -6 -7 -9 -12 -14 -15 -17 -19 -21 -24 -25 0
-2214 4 0
-2214 6 0
-2214 7 0
-2214 9 0
-2214 12 0
-2214 14 0
-2214 15 0
-2214 17 0
-2214 19 0
-2214 21 0
-2214 24 0
-2214 25 0
2214 -4 -6 -7 -9 -12 -14 -15 -17 -19 -21 -24 -25 0
-2215 3 0
-2215 6 0
-2215 8 0
-2215 10 0
-2215 12 0
-2215 13 0
-2215 15 0
-2215 17 0
-2215 19 0
-2215 21 0
-2215 24 0
-2215 25 0
2215 -3 -6 -8 -10 -12 -13 -15 -17 -19 -21 -24 -25 0
-2216 3 0
-2216 5 0
-2216 8 0
-2216 10 0
-2216 12 0
-2216 13 0
-2216 15 0
-2216 17 0
-2216 19 0
-2216 21 0
-2216 24 0
-2216 25 0
2216 -3 -5 -8 -10 -12 -13 -15 -17 -19 -21 -24 -25 0
-2217 4 0
-2217 5 0
-2217 8 0
-2217 10 0
-2217 12 0
-2217 13 0
-2217 15 0
-2217 17 0
-2217 19 0
-2217 21 0
-2217 24 0
-2217 25 0
2217 -4 -5 -8 -10 -12 -13 -15 -17 -19 -21 -24 -25 0
-2218 3 0
-2218 5 0
-2218 7 0
-2218 10 0
-2218 12 0
-2218 13 0
-2218 15 0
-2218 17 0
-2218 19 0
-2218 21 0
-2218 24 0
-2218 25 0
2218 -3 -5 -7 -10 -12 -13 -15 -17 -19 -21 -24 -25 0
-2219 4 0
-2219 5 0
-2219 7 0
-2219 10 0
-2219 12 0
-2219 13 0
-2219 15 0
-2219 17 0
-2219 19 0
-2219 21 0
-2219 24 0
-2219 25 0
2219 -4 -5 -7 -10 -12 -13 -15 -17 -19 -21 -24 -25 0
-2220 3 0
-2220 6 0
-2220 7 0
-2220 10 0
-2220 12 0
-2220 13 0
-2220 15 0
-2220 17 0
-2220 19 0
-2220 21 0
-2220 24 0
-2220 25 0
2220 -3 -6 -7 -10 -12 -13 -15 -17 -19 -21 -24 -25 0
-2221 4 0
-2221 6 0
-2221 7 0
-2221 10 0
-2221 12 0
-2221 13 0
-2221 15 0
-2221 17 0
-2221 19 0
-2221 21 0
-2221 24 0
-2221 25 0
2221 -4 -6 -7 -10 -12 -13 -15 -17 -19 -21 -24 -25 0
-2222 3 0
-2222 5 0
-2222 8 0
-2222 10 0
-2222 11 0
-2222 13 0
-2222 15 0
-2222 17 0
-2222 19 0
-2222 21 0
-2222 24 0
-2222 25 0
2222 -3 -5 -8 -10 -11 -13 -15 -17 -19 -21 -24 -25 0
-2223 4 0
-2223 6 0
-2223 8 0
-2223 9 0
-2223 11 0
-2223 13 0
-2223 15 0
-2223 17 0
-2223 19 0
-2223 21 0
-2223 24 0
-2223 25 0
2223 -4 -6 -8 -9 -11 -13 -15 -17 -19 -21 -24 -25 0
-2224 3 0
-2224 6 0
-2224 8 0
-2224 10 0
-2224 11 0
-2224 13 0
-2224 15 0
-2224 17 0
-2224 19 0
-2224 21 0
-2224 24 0
-2224 25 0
2224 -3 -6 -8 -10 -11 -13 -15 -17 -19 -21 -24 -25 0
-2225 4 0
-2225 6 0
-2225 8 0
-2225 10 0
-2225 11 0
-2225 13 0
-2225 15 0
-2225 17 0
-2225 19 0
-2225 21 0
-2225 24 0
-2225 25 0
2225 -4 -6 -8 -10 -11 -13 -15 -17 -19 -21 -24 -25 0
-2226 3 0
-2226 6 0
-2226 7 0
-2226 9 0
-2226 11 0
-2226 13 0
-2226 15 0
-2226 17 0
-2226 19 0
-2226 21 0
-2226 24 0
-2226 26 0
2226 -3 -6 -7 -9 -11 -13 -15 -17 -19 -21 -24 -26 0
-2227 4 0
-2227 6 0
-2227 8 0
-2227 10 0
-2227 12 0
-2227 14 0
-2227 16 0
-2227 18 0
-2227 20 0
-2227 21 0
-2227 24 0
-2227 26 0
2227 -4 -6 -8 -10 -12 -14 -16 -18 -20 -21 -24 -26 0
-2228 4 0
-2228 6 0
-2228 8 0
-2228 10 0
-2228 12 0
-2228 14 0
-2228 16 0
-2228 18 0
-2228 20 0
-2228 21 0
-2228 23 0
-2228 26 0
2228 -4 -6 -8 -10 -12 -14 -16 -18 -20 -21 -23 -26 0
-2229 3 0
-2229 5 0
-2229 7 0
-2229 9 0
-2229 11 0
-2229 13 0
-2229 15 0
-2229 17 0
-2229 19 0
-2229 21 0
-2229 23 0
-2229 26 0
2229 -3 -5 -7 -9 -11 -13 -15 -17 -19 -21 -23 -26 0
-2230 4 0
-2230 5 0
-2230 7 0
-2230 9 0
-2230 11 0
-2230 13 0
-2230 15 0
-2230 17 0
-2230 19 0
-2230 21 0
-2230 23 0
-2230 26 0
2230 -4 -5 -7 -9 -11 -13 -15 -17 -19 -21 -23 -26 0
-2231 3 0
-2231 6 0
-2231 7 0
-2231 9 0
-2231 11 0
-2231 13 0
-2231 15 0
-2231 17 0
-2231 19 0
-2231 21 0
-2231 23 0
-2231 26 0
2231 -3 -6 -7 -9 -11 -13 -15 -17 -19 -21 -23 -26 0
-2232 4 0
-2232 6 0
-2232 7 0
-2232 9 0
-2232 11 0
-2232 13 0
-2232 15 0
-2232 17 0
-2232 19 0
-2232 21 0
-2232 23 0
-2232 26 0
2232 -4 -6 -7 -9 -11 -13 -15 -17 -19 -21 -23 -26 0
-2233 4 0
-2233 6 0
-2233 7 0
-2233 9 0
-2233 11 0
-2233 13 0
-2233 15 0
-2233 17 0
-2233 19 0
-2233 21 0
-2233 24 0
-2233 26 0
2233 -4 -6 -7 -9 -11 -13 -15 -17 -19 -21 -24 -26 0
-2234 3 0
-2234 5 0
-2234 7 0
-2234 9 0
-2234 11 0
-2234 13 0
-2234 15 0
-2234 17 0
-2234 19 0
-2234 21 0
-2234 24 0
-2234 26 0
2234 -3 -5 -7 -9 -11 -13 -15 -17 -19 -21 -24 -26 0
-2235 3 0
-2235 5 0
-2235 8 0
-2235 9 0
-2235 11 0
-2235 13 0
-2235 15 0
-2235 17 0
-2235 19 0
-2235 21 0
-2235 23 0
-2235 26 0
2235 -3 -5 -8 -9 -11 -13 -15 -17 -19 -21 -23 -26 0
-2236 3 0
-2236 6 0
-2236 8 0
-2236 9 0
-2236 11 0
-2236 13 0
-2236 15 0
-2236 17 0
-2236 19 0
-2236 21 0
-2236 23 0
-2236 26 0
2236 -3 -6 -8 -9 -11 -13 -15 -17 -19 -21 -23 -26 0
-2237 4 0
-2237 5 0
-2237 8 0
-2237 9 0
-2237 11 0
-2237 13 0
-2237 15 0
-2237 17 0
-2237 19 0
-2237 21 0
-2237 23 0
-2237 26 0
2237 -4 -5 -8 -9 -11 -13 -15 -17 -19 -21 -23 -26 0
-2238 4 0
-2238 5 0
-2238 7 0
-2238 9 0
-2238 11 0
-2238 13 0
-2238 15 0
-2238 17 0
-2238 19 0
-2238 21 0
-2238 24 0
-2238 26 0
2238 -4 -5 -7 -9 -11 -13 -15 -17 -19 -21 -24 -26 0
-2239 3 0
-2239 5 0
-2239 8 0
-2239 9 0
-2239 11 0
-2239 13 0
-2239 15 0
-2239 17 0
-2239 19 0
-2239 21 0
-2239 24 0
-2239 26 0
2239 -3 -5 -8 -9 -11 -13 -15 -17 -19 -21 -24 -26 0
-2240 4 0
-2240 5 0
-2240 8 0
-2240 9 0
-2240 11 0
-2240 13 0
-2240 15 0
-2240 17 0
-2240 19 0
-2240 21 0
-2240 24 0
-2240 26 0
2240 -4 -5 -8 -9 -11 -13 -15 -17 -19 -21 -24 -26 0
-2241 3 0
-2241 6 0
-2241 8 0
-2241 9 0
-2241 11 0
-2241 13 0
-2241 15 0
-2241 17 0
-2241 19 0
-2241 21 0
-2241 24 0
-2241 26 0
2241 -3 -6 -8 -9 -11 -13 -15 -17 -19 -21 -24 -26 0
-2242 3 0
-2242 5 0
-2242 7 0
-2242 10 0
-2242 11 0
-2242 13 0
-2242 15 0
-2242 17 0
-2242 19 0
-2242 21 0
-2242 23 0
-2242 26 0
2242 -3 -5 -7 -10 -11 -13 -15 -17 -19 -21 -23 -26 0
-2243 3 0
-2243 6 0
-2243 7 0
-2243 10 0
-2243 11 0
-2243 13 0
-2243 15 0
-2243 17 0
-2243 19 0
-2243 21 0
-2243 23 0
-2243 26 0
2243 -3 -6 -7 -10 -11 -13 -15 -17 -19 -21 -23 -26 0
-2244 4 0
-2244 5 0
-2244 7 0
-2244 10 0
-2244 11 0
-2244 13 0
-2244 15 0
-2244 17 0
-2244 19 0
-2244 21 0
-2244 23 0
-2244 26 0
2244 -4 -5 -7 -10 -11 -13 -15 -17 -19 -21 -23 -26 0
-2245 4 0
-2245 6 0
-2245 8 0
-2245 9 0
-2245 11 0
-2245 13 0
-2245 15 0
-2245 17 0
-2245 19 0
-2245 21 0
-2245 24 0
-2245 26 0
2245 -4 -6 -8 -9 -11 -13 -15 -17 -19 -21 -24 -26 0
-2246 3 0
-2246 6 0
-2246 8 0
-2246 10 0
-2246 11 0
-2246 13 0
-2246 15 0
-2246 17 0
-2246 19 0
-2246 21 0
-2246 24 0
-2246 26 0
2246 -3 -6 -8 -10 -11 -13 -15 -17 -19 -21 -24 -26 0
-2247 4 0
-2247 6 0
-2247 8 0
-2247 10 0
-2247 11 0
-2247 13 0
-2247 15 0
-2247 17 0
-2247 19 0
-2247 21 0
-2247 24 0
-2247 26 0
2247 -4 -6 -8 -10 -11 -13 -15 -17 -19 -21 -24 -26 0
-2248 3 0
-2248 5 0
-2248 8 0
-2248 10 0
-2248 11 0
-2248 13 0
-2248 15 0
-2248 17 0
-2248 19 0
-2248 21 0
-2248 24 0
-2248 26 0
2248 -3 -5 -8 -10 -11 -13 -15 -17 -19 -21 -24 -26 0
-2249 4 0
-2249 5 0
-2249 8 0
-2249 10 0
-2249 11 0
-2249 13 0
-2249 15 0
-2249 17 0
-2249 19 0
-2249 21 0
-2249 23 0
-2249 26 0
2249 -4 -5 -8 -10 -11 -13 -15 -17 -19 -21 -23 -26 0
-2250 4 0
-2250 6 0
-2250 7 0
-2250 10 0
-2250 11 0
-2250 13 0
-2250 15 0
-2250 17 0
-2250 19 0
-2250 21 0
-2250 23 0
-2250 26 0
2250 -4 -6 -7 -10 -11 -13 -15 -17 -19 -21 -23 -26 0
-2251 4 0
-2251 5 0
-2251 8 0
-2251 10 0
-2251 11 0
-2251 13 0
-2251 15 0
-2251 17 0
-2251 19 0
-2251 21 0
-2251 24 0
-2251 26 0
2251 -4 -5 -8 -10 -11 -13 -15 -17 -19 -21 -24 -26 0
-2252 3 0
-2252 5 0
-2252 7 0
-2252 10 0
-2252 11 0
-2252 13 0
-2252 15 0
-2252 17 0
-2252 19 0
-2252 21 0
-2252 24 0
-2252 26 0
2252 -3 -5 -7 -10 -11 -13 -15 -17 -19 -21 -24 -26 0
-2253 4 0
-2253 5 0
-2253 7 0
-2253 10 0
-2253 11 0
-2253 13 0
-2253 15 0
-2253 17 0
-2253 19 0
-2253 21 0
-2253 24 0
-2253 26 0
2253 -4 -5 -7 -10 -11 -13 -15 -17 -19 -21 -24 -26 0
-2254 3 0
-2254 6 0
-2254 7 0
-2254 10 0
-2254 11 0
-2254 13 0
-2254 15 0
-2254 17 0
-2254 19 0
-2254 21 0
-2254 24 0
-2254 26 0
2254 -3 -6 -7 -10 -11 -13 -15 -17 -19 -21 -24 -26 0
-2255 3 0
-2255 5 0
-2255 7 0
-2255 9 0
-2255 12 0
-2255 13 0
-2255 15 0
-2255 17 0
-2255 19 0
-2255 21 0
-2255 23 0
-2255 26 0
2255 -3 -5 -7 -9 -12 -13 -15 -17 -19 -21 -23 -26 0
-2256 3 0
-2256 6 0
-2256 7 0
-2256 9 0
-2256 12 0
-2256 13 0
-2256 15 0
-2256 17 0
-2256 19 0
-2256 21 0
-2256 23 0
-2256 26 0
2256 -3 -6 -7 -9 -12 -13 -15 -17 -19 -21 -23 -26 0
-2257 4 0
-2257 5 0
-2257 7 0
-2257 9 0
-2257 12 0
-2257 13 0
-2257 15 0
-2257 17 0
-2257 19 0
-2257 21 0
-2257 23 0
-2257 26 0
2257 -4 -5 -7 -9 -12 -13 -15 -17 -19 -21 -23 -26 0
-2258 4 0
-2258 6 0
-2258 7 0
-2258 10 0
-2258 11 0
-2258 13 0
-2258 15 0
-2258 17 0
-2258 19 0
-2258 21 0
-2258 24 0
-2258 26 0
2258 -4 -6 -7 -10 -11 -13 -15 -17 -19 -21 -24 -26 0
-2259 3 0
-2259 6 0
-2259 7 0
-2259 10 0
-2259 12 0
-2259 13 0
-2259 15 0
-2259 17 0
-2259 19 0
-2259 21 0
-2259 24 0
-2259 26 0
2259 -3 -6 -7 -10 -12 -13 -15 -17 -19 -21 -24 -26 0
-2260 4 0
-2260 6 0
-2260 7 0
-2260 10 0
-2260 12 0
-2260 13 0
-2260 15 0
-2260 17 0
-2260 19 0
-2260 21 0
-2260 24 0
-2260 26 0
2260 -4 -6 -7 -10 -12 -13 -15 -17 -19 -21 -24 -26 0
-2261 3 0
-2261 5 0
-2261 7 0
-2261 10 0
-2261 12 0
-2261 13 0
-2261 15 0
-2261 17 0
-2261 19 0
-2261 21 0
-2261 24 0
-2261 26 0
2261 -3 -5 -7 -10 -12 -13 -15 -17 -19 -21 -24 -26 0
-2262 3 0
-2262 5 0
-2262 8 0
-2262 9 0
-2262 12 0
-2262 13 0
-2262 15 0
-2262 17 0
-2262 19 0
-2262 21 0
-2262 23 0
-2262 26 0
2262 -3 -5 -8 -9 -12 -13 -15 -17 -19 -21 -23 -26 0
-2263 3 0
-2263 6 0
-2263 8 0
-2263 9 0
-2263 12 0
-2263 13 0
-2263 15 0
-2263 17 0
-2263 19 0
-2263 21 0
-2263 23 0
-2263 26 0
2263 -3 -6 -8 -9 -12 -13 -15 -17 -19 -21 -23 -26 0
-2264 4 0
-2264 5 0
-2264 8 0
-2264 9 0
-2264 12 0
-2264 13 0
-2264 15 0
-2264 17 0
-2264 19 0
-2264 21 0
-2264 23 0
-2264 26 0
2264 -4 -5 -8 -9 -12 -13 -15 -17 -19 -21 -23 -26 0
-2265 4 0
-2265 5 0
-2265 7 0
-2265 10 0
-2265 12 0
-2265 13 0
-2265 15 0
-2265 17 0
-2265 19 0
-2265 21 0
-2265 24 0
-2265 26 0
2265 -4 -5 -7 -10 -12 -13 -15 -17 -19 -21 -24 -26 0
-2266 3 0
-2266 5 0
-2266 8 0
-2266 10 0
-2266 12 0
-2266 13 0
-2266 15 0
-2266 17 0
-2266 19 0
-2266 21 0
-2266 24 0
-2266 26 0
2266 -3 -5 -8 -10 -12 -13 -15 -17 -19 -21 -24 -26 0
-2267 4 0
-2267 5 0
-2267 8 0
-2267 10 0
-2267 12 0
-2267 13 0
-2267 15 0
-2267 17 0
-2267 19 0
-2267 21 0
-2267 24 0
-2267 26 0
2267 -4 -5 -8 -10 -12 -13 -15 -17 -19 -21 -24 -26 0
-2268 3 0
-2268 6 0
-2268 8 0
-2268 10 0
-2268 12 0
-2268 13 0
-2268 15 0
-2268 17 0
-2268 19 0
-2268 21 0
-2268 24 0
-2268 26 0
2268 -3 -6 -8 -10 -12 -13 -15 -17 -19 -21 -24 -26 0
-2269 4 0
-2269 6 0
-2269 7 0
-2269 9 0
-2269 12 0
-2269 13 0
-2269 15 0
-2269 17 0
-2269 19 0
-2269 21 0
-2269 23 0
-2269 26 0
2269 -4 -6 -7 -9 -12 -13 -15 -17 -19 -21 -23 -26 0
-2270 4 0
-2270 6 0
-2270 8 0
-2270 10 0
-2270 12 0
-2270 13 0
-2270 15 0
-2270 17 0
-2270 19 0
-2270 21 0
-2270 24 0
-2270 26 0
2270 -4 -6 -8 -10 -12 -13 -15 -17 -19 -21 -24 -26 0
-2271 3 0
-2271 6 0
-2271 8 0
-2271 9 0
-2271 12 0
-2271 13 0
-2271 15 0
-2271 17 0
-2271 19 0
-2271 21 0
-2271 24 0
-2271 26 0
2271 -3 -6 -8 -9 -12 -13 -15 -17 -19 -21 -24 -26 0
-2272 4 0
-2272 6 0
-2272 8 0
-2272 9 0
-2272 12 0
-2272 13 0
-2272 15 0
-2272 17 0
-2272 19 0
-2272 21 0
-2272 24 0
-2272 26 0
2272 -4 -6 -8 -9 -12 -13 -15 -17 -19 -21 -24 -26 0
-2273 3 0
-2273 5 0
-2273 8 0
-2273 9 0
-2273 12 0
-2273 13 0
-2273 15 0
-2273 17 0
-2273 19 0
-2273 21 0
-2273 24 0
-2273 26 0
2273 -3 -5 -8 -9 -12 -13 -15 -17 -19 -21 -24 -26 0
-2274 4 0
-2274 5 0
-2274 8 0
-2274 9 0
-2274 12 0
-2274 13 0
-2274 15 0
-2274 17 0
-2274 19 0
-2274 21 0
-2274 24 0
-2274 26 0
2274 -4 -5 -8 -9 -12 -13 -15 -17 -19 -21 -24 -26 0
-2275 3 0
-2275 5 0
-2275 7 0
-2275 9 0
-2275 12 0
-2275 13 0
-2275 15 0
-2275 17 0
-2275 19 0
-2275 21 0
-2275 24 0
-2275 26 0
2275 -3 -5 -7 -9 -12 -13 -15 -17 -19 -21 -24 -26 0
-2276 4 0
-2276 5 0
-2276 7 0
-2276 9 0
-2276 12 0
-2276 13 0
-2276 15 0
-2276 17 0
-2276 19 0
-2276 21 0
-2276 24 0
-2276 26 0
2276 -4 -5 -7 -9 -12 -13 -15 -17 -19 -21 -24 -26 0
-2277 3 0
-2277 6 0
-2277 7 0
-2277 9 0
-2277 12 0
-2277 13 0
-2277 15 0
-2277 17 0
-2277 19 0
-2277 21 0
-2277 24 0
-2277 26 0
2277 -3 -6 -7 -9 -12 -13 -15 -17 -19 -21 -24 -26 0
-2278 3 0
-2278 5 0
-2278 7 0
-2278 9 0
-2278 11 0
-2278 14 0
-2278 15 0
-2278 17 0
-2278 19 0
-2278 21 0
-2278 23 0
-2278 26 0
2278 -3 -5 -7 -9 -11 -14 -15 -17 -19 -21 -23 -26 0
-2279 3 0
-2279 6 0
-2279 7 0
-2279 9 0
-2279 11 0
-2279 14 0
-2279 15 0
-2279 17 0
-2279 19 0
-2279 21 0
-2279 23 0
-2279 26 0
2279 -3 -6 -7 -9 -11 -14 -15 -17 -19 -21 -23 -26 0
-2280 4 0
-2280 5 0
-2280 7 0
-2280 9 0
-2280 11 0
-2280 14 0
-2280 15 0
-2280 17 0
-2280 19 0
-2280 21 0
-2280 23 0
-2280 26 0
2280 -4 -5 -7 -9 -11 -14 -15 -17 -19 -21 -23 -26 0
-2281 4 0
-2281 6 0
-2281 7 0
-2281 9 0
-2281 12 0
-2281 13 0
-2281 15 0
-2281 17 0
-2281 19 0
-2281 21 0
-2281 24 0
-2281 26 0
2281 -4 -6 -7 -9 -12 -13 -15 -17 -19 -21 -24 -26 0
-2282 3 0
-2282 6 0
-2282 7 0
-2282 9 0
-2282 12 0
-2282 14 0
-2282 15 0
-2282 17 0
-2282 19 0
-2282 21 0
-2282 24 0
-2282 26 0
2282 -3 -6 -7 -9 -12 -14 -15 -17 -19 -21 -24 -26 0
-2283 4 0
-2283 6 0
-2283 7 0
-2283 9 0
-2283 12 0
-2283 14 0
-2283 15 0
-2283 17 0
-2283 19 0
-2283 21 0
-2283 24 0
-2283 26 0
2283 -4 -6 -7 -9 -12 -14 -15 -17 -19 -21 -24 -26 0
-2284 3 0
-2284 5 0
-2284 7 0
-2284 9 0
-2284 12 0
-2284 14 0
-2284 15 0
-2284 17 0
-2284 19 0
-2284 21 0
-2284 24 0
-2284 26 0
2284 -3 -5 -7 -9 -12 -14 -15 -17 -19 -21 -24 -26 0
-2285 3 0
-2285 5 0
-2285 8 0
-2285 9 0
-2285 11 0
-2285 14 0
-2285 15 0
-2285 17 0
-2285 19 0
-2285 21 0
-2285 23 0
-2285 26 0
2285 -3 -5 -8 -9 -11 -14 -15 -17 -19 -21 -23 -26 0
-2286 3 0
-2286 6 0
-2286 8 0
-2286 9 0
-2286 11 0
-2286 14 0
-2286 15 0
-2286 17 0
-2286 19 0
-2286 21 0
-2286 23 0
-2286 26 0
2286 -3 -6 -8 -9 -11 -14 -15 -17 -19 -21 -23 -26 0
-2287 4 0
-2287 5 0
-2287 8 0
-2287 9 0
-2287 11 0
-2287 14 0
-2287 15 0
-2287 17 0
-2287 19 0
-2287 21 0
-2287 23 0
-2287 26 0
2287 -4 -5 -8 -9 -11 -14 -15 -17 -19 -21 -23 -26 0
-2288 4 0
-2288 5 0
-2288 7 0
-2288 9 0
-2288 12 0
-2288 14 0
-2288 15 0
-2288 17 0
-2288 19 0
-2288 21 0
-2288 24 0
-2288 26 0
2288 -4 -5 -7 -9 -12 -14 -15 -17 -19 -21 -24 -26 0
-2289 3 0
-2289 5 0
-2289 8 0
-2289 9 0
-2289 12 0
-2289 14 0
-2289 15 0
-2289 17 0
-2289 19 0
-2289 21 0
-2289 24 0
-2289 26 0
2289 -3 -5 -8 -9 -12 -14 -15 -17 -19 -21 -24 -26 0
-2290 4 0
-2290 5 0
-2290 8 0
-2290 9 0
-2290 12 0
-2290 14 0
-2290 15 0
-2290 17 0
-2290 19 0
-2290 21 0
-2290 24 0
-2290 26 0
2290 -4 -5 -8 -9 -12 -14 -15 -17 -19 -21 -24 -26 0
-2291 3 0
-2291 6 0
-2291 8 0
-2291 9 0
-2291 12 0
-2291 14 0
-2291 15 0
-2291 17 0
-2291 19 0
-2291 21 0
-2291 24 0
-2291 26 0
2291 -3 -6 -8 -9 -12 -14 -15 -17 -19 -21 -24 -26 0
-2292 3 0
-2292 5 0
-2292 7 0
-2292 10 0
-2292 11 0
-2292 14 0
-2292 15 0
-2292 17 0
-2292 19 0
-2292 21 0
-2292 23 0
-2292 26 0
2292 -3 -5 -7 -10 -11 -14 -15 -17 -19 -21 -23 -26 0
-2293 3 0
-2293 6 0
-2293 7 0
-2293 10 0
-2293 11 0
-2293 14 0
-2293 15 0
-2293 17 0
-2293 19 0
-2293 21 0
-2293 23 0
-2293 26 0
2293 -3 -6 -7 -10 -11 -14 -15 -17 -19 -21 -23 -26 0
-2294 4 0
-2294 5 0
-2294 7 0
-2294 10 0
-2294 11 0
-2294 14 0
-2294 15 0
-2294 17 0
-2294 19 0
-2294 21 0
-2294 23 0
-2294 26 0
2294 -4 -5 -7 -10 -11 -14 -15 -17 -19 -21 -23 -26 0
-2295 4 0
-2295 6 0
-2295 8 0
-2295 9 0
-2295 12 0
-2295 14 0
-2295 15 0
-2295 17 0
-2295 19 0
-2295 21 0
-2295 24 0
-2295 26 0
2295 -4 -6 -8 -9 -12 -14 -15 -17 -19 -21 -24 -26 0
-2296 3 0
-2296 6 0
-2296 8 0
-2296 10 0
-2296 12 0
-2296 14 0
-2296 15 0
-2296 17 0
-2296 19 0
-2296 21 0
-2296 24 0
-2296 26 0
2296 -3 -6 -8 -10 -12 -14 -15 -17 -19 -21 -24 -26 0
-2297 4 0
-2297 6 0
-2297 8 0
-2297 10 0
-2297 12 0
-2297 14 0
-2297 15 0
-2297 17 0
-2297 19 0
-2297 21 0
-2297 24 0
-2297 26 0
2297 -4 -6 -8 -10 -12 -14 -15 -17 -19 -21 -24 -26 0
-2298 3 0
-2298 5 0
-2298 8 0
-2298 10 0
-2298 12 0
-2298 14 0
-2298 15 0
-2298 17 0
-2298 19 0
-2298 21 0
-2298 24 0
-2298 26 0
2298 -3 -5 -8 -10 -12 -14 -15 -17 -19 -21 -24 -26 0
-2299 4 0
-2299 5 0
-2299 8 0
-2299 10 0
-2299 11 0
-2299 14 0
-2299 15 0
-2299 17 0
-2299 19 0
-2299 21 0
-2299 23 0
-2299 26 0
2299 -4 -5 -8 -10 -11 -14 -15 -17 -19 -21 -23 -26 0
-2300 4 0
-2300 6 0
-2300 7 0
-2300 10 0
-2300 11 0
-2300 14 0
-2300 15 0
-2300 17 0
-2300 19 0
-2300 21 0
-2300 23 0
-2300 26 0
2300 -4 -6 -7 -10 -11 -14 -15 -17 -19 -21 -23 -26 0
-2301 4 0
-2301 5 0
-2301 8 0
-2301 10 0
-2301 12 0
-2301 14 0
-2301 15 0
-2301 17 0
-2301 19 0
-2301 21 0
-2301 24 0
-2301 26 0
2301 -4 -5 -8 -10 -12 -14 -15 -17 -19 -21 -24 -26 0
-2302 3 0
-2302 5 0
-2302 7 0
-2302 10 0
-2302 12 0
-2302 14 0
-2302 15 0
-2302 17 0
-2302 19 0
-2302 21 0
-2302 24 0
-2302 26 0
2302 -3 -5 -7 -10 -12 -14 -15 -17 -19 -21 -24 -26 0
-2303 4 0
-2303 5 0
-2303 7 0
-2303 10 0
-2303 12 0
-2303 14 0
-2303 15 0
-2303 17 0
-2303 19 0
-2303 21 0
-2303 24 0
-2303 26 0
2303 -4 -5 -7 -10 -12 -14 -15 -17 -19 -21 -24 -26 0
-2304 3 0
-2304 6 0
-2304 7 0
-2304 10 0
-2304 12 0
-2304 14 0
-2304 15 0
-2304 17 0
-2304 19 0
-2304 21 0
-2304 24 0
-2304 26 0
2304 -3 -6 -7 -10 -12 -14 -15 -17 -19 -21 -24 -26 0
-2305 4 0
-2305 6 0
-2305 7 0
-2305 10 0
-2305 12 0
-2305 14 0
-2305 15 0
-2305 17 0
-2305 19 0
-2305 21 0
-2305 23 0
-2305 26 0
2305 -4 -6 -7 -10 -12 -14 -15 -17 -19 -21 -23 -26 0
-2306 4 0
-2306 6 0
-2306 7 0
-2306 10 0
-2306 12 0
-2306 14 0
-2306 15 0
-2306 17 0
-2306 19 0
-2306 21 0
-2306 24 0
-2306 26 0
2306 -4 -6 -7 -10 -12 -14 -15 -17 -19 -21 -24 -26 0
-2307 3 0
-2307 6 0
-2307 7 0
-2307 10 0
-2307 11 0
-2307 14 0
-2307 15 0
-2307 17 0
-2307 19 0
-2307 21 0
-2307 24 0
-2307 26 0
2307 -3 -6 -7 -10 -11 -14 -15 -17 -19 -21 -24 -26 0
-2308 4 0
-2308 6 0
-2308 7 0
-2308 10 0
-2308 11 0
-2308 14 0
-2308 15 0
-2308 17 0
-2308 19 0
-2308 21 0
-2308 24 0
-2308 26 0
2308 -4 -6 -7 -10 -11 -14 -15 -17 -19 -21 -24 -26 0
-2309 3 0
-2309 5 0
-2309 7 0
-2309 10 0
-2309 11 0
-2309 14 0
-2309 15 0
-2309 17 0
-2309 19 0
-2309 21 0
-2309 24 0
-2309 26 0
2309 -3 -5 -7 -10 -11 -14 -15 -17 -19 -21 -24 -26 0
-2310 4 0
-2310 6 0
-2310 8 0
-2310 9 0
-2310 11 0
-2310 14 0
-2310 15 0
-2310 17 0
-2310 19 0
-2310 21 0
-2310 23 0
-2310 26 0
2310 -4 -6 -8 -9 -11 -14 -15 -17 -19 -21 -23 -26 0
-2311 4 0
-2311 5 0
-2311 7 0
-2311 10 0
-2311 11 0
-2311 14 0
-2311 15 0
-2311 17 0
-2311 19 0
-2311 21 0
-2311 24 0
-2311 26 0
2311 -4 -5 -7 -10 -11 -14 -15 -17 -19 -21 -24 -26 0
-2312 3 0
-2312 5 0
-2312 8 0
-2312 10 0
-2312 11 0
-2312 14 0
-2312 15 0
-2312 17 0
-2312 19 0
-2312 21 0
-2312 24 0
-2312 26 0
2312 -3 -5 -8 -10 -11 -14 -15 -17 -19 -21 -24 -26 0
-2313 4 0
-2313 5 0
-2313 8 0
-2313 10 0
-2313 11 0
-2313 14 0
-2313 15 0
-2313 17 0
-2313 19 0
-2313 21 0
-2313 24 0
-2313 26 0
2313 -4 -5 -8 -10 -11 -14 -15 -17 -19 -21 -24 -26 0
-2314 3 0
-2314 6 0
-2314 8 0
-2314 10 0
-2314 11 0
-2314 14 0
-2314 15 0
-2314 17 0
-2314 19 0
-2314 21 0
-2314 24 0
-2314 26 0
2314 -3 -6 -8 -10 -11 -14 -15 -17 -19 -21 -24 -26 0
-2315 4 0
-2315 6 0
-2315 8 0
-2315 10 0
-2315 11 0
-2315 14 0
-2315 15 0
-2315 17 0
-2315 19 0
-2315 21 0
-2315 23 0
-2315 26 0
2315 -4 -6 -8 -10 -11 -14 -15 -17 -19 -21 -23 -26 0
-2316 4 0
-2316 6 0
-2316 8 0
-2316 10 0
-2316 11 0
-2316 14 0
-2316 15 0
-2316 17 0
-2316 19 0
-2316 21 0
-2316 24 0
-2316 26 0
2316 -4 -6 -8 -10 -11 -14 -15 -17 -19 -21 -24 -26 0
-2317 3 0
-2317 6 0
-2317 8 0
-2317 9 0
-2317 11 0
-2317 14 0
-2317 15 0
-2317 17 0
-2317 19 0
-2317 21 0
-2317 24 0
-2317 26 0
2317 -3 -6 -8 -9 -11 -14 -15 -17 -19 -21 -24 -26 0
-2318 4 0
-2318 6 0
-2318 8 0
-2318 9 0
-2318 11 0
-2318 14 0
-2318 15 0
-2318 17 0
-2318 19 0
-2318 21 0
-2318 24 0
-2318 26 0
2318 -4 -6 -8 -9 -11 -14 -15 -17 -19 -21 -24 -26 0
-2319 3 0
-2319 5 0
-2319 8 0
-2319 9 0
-2319 11 0
-2319 14 0
-2319 15 0
-2319 17 0
-2319 19 0
-2319 21 0
-2319 24 0
-2319 26 0
2319 -3 -5 -8 -9 -11 -14 -15 -17 -19 -21 -24 -26 0
-2320 4 0
-2320 6 0
-2320 7 0
-2320 9 0
-2320 11 0
-2320 14 0
-2320 15 0
-2320 17 0
-2320 19 0
-2320 21 0
-2320 23 0
-2320 26 0
2320 -4 -6 -7 -9 -11 -14 -15 -17 -19 -21 -23 -26 0
-2321 4 0
-2321 5 0
-2321 8 0
-2321 9 0
-2321 11 0
-2321 14 0
-2321 15 0
-2321 17 0
-2321 19 0
-2321 21 0
-2321 24 0
-2321 26 0
2321 -4 -5 -8 -9 -11 -14 -15 -17 -19 -21 -24 -26 0
-2322 3 0
-2322 5 0
-2322 7 0
-2322 9 0
-2322 11 0
-2322 14 0
-2322 15 0
-2322 17 0
-2322 19 0
-2322 21 0
-2322 24 0
-2322 26 0
2322 -3 -5 -7 -9 -11 -14 -15 -17 -19 -21 -24 -26 0
-2323 4 0
-2323 5 0
-2323 7 0
-2323 9 0
-2323 11 0
-2323 14 0
-2323 15 0
-2323 17 0
-2323 19 0
-2323 21 0
-2323 24 0
-2323 26 0
2323 -4 -5 -7 -9 -11 -14 -15 -17 -19 -21 -24 -26 0
-2324 3 0
-2324 6 0
-2324 7 0
-2324 9 0
-2324 11 0
-2324 14 0
-2324 15 0
-2324 17 0
-2324 19 0
-2324 21 0
-2324 24 0
-2324 26 0
2324 -3 -6 -7 -9 -11 -14 -15 -17 -19 -21 -24 -26 0
-2325 3 0
-2325 5 0
-2325 7 0
-2325 9 0
-2325 11 0
-2325 13 0
-2325 16 0
-2325 17 0
-2325 19 0
-2325 21 0
-2325 23 0
-2325 26 0
2325 -3 -5 -7 -9 -11 -13 -16 -17 -19 -21 -23 -26 0
-2326 3 0
-2326 6 0
-2326 7 0
-2326 9 0
-2326 11 0
-2326 13 0
-2326 16 0
-2326 17 0
-2326 19 0
-2326 21 0
-2326 23 0
-2326 26 0
2326 -3 -6 -7 -9 -11 -13 -16 -17 -19 -21 -23 -26 0
-2327 4 0
-2327 5 0
-2327 7 0
-2327 9 0
-2327 11 0
-2327 13 0
-2327 16 0
-2327 17 0
-2327 19 0
-2327 21 0
-2327 23 0
-2327 26 0
2327 -4 -5 -7 -9 -11 -13 -16 -17 -19 -21 -23 -26 0
-2328 4 0
-2328 6 0
-2328 7 0
-2328 9 0
-2328 11 0
-2328 14 0
-2328 15 0
-2328 17 0
-2328 19 0
-2328 21 0
-2328 24 0
-2328 26 0
2328 -4 -6 -7 -9 -11 -14 -15 -17 -19 -21 -24 -26 0
-2329 3 0
-2329 6 0
-2329 7 0
-2329 9 0
-2329 11 0
-2329 14 0
-2329 16 0
-2329 17 0
-2329 19 0
-2329 21 0
-2329 24 0
-2329 26 0
2329 -3 -6 -7 -9 -11 -14 -16 -17 -19 -21 -24 -26 0
-2330 4 0
-2330 6 0
-2330 7 0
-2330 9 0
-2330 11 0
-2330 14 0
-2330 16 0
-2330 17 0
-2330 19 0
-2330 21 0
-2330 24 0
-2330 26 0
2330 -4 -6 -7 -9 -11 -14 -16 -17 -19 -21 -24 -26 0
-2331 3 0
-2331 5 0
-2331 7 0
-2331 9 0
-2331 11 0
-2331 14 0
-2331 16 0
-2331 17 0
-2331 19 0
-2331 21 0
-2331 24 0
-2331 26 0
2331 -3 -5 -7 -9 -11 -14 -16 -17 -19 -21 -24 -26 0
-2332 3 0
-2332 5 0
-2332 8 0
-2332 9 0
-2332 11 0
-2332 13 0
-2332 16 0
-2332 17 0
-2332 19 0
-2332 21 0
-2332 23 0
-2332 26 0
2332 -3 -5 -8 -9 -11 -13 -16 -17 -19 -21 -23 -26 0
-2333 3 0
-2333 6 0
-2333 8 0
-2333 9 0
-2333 11 0
-2333 13 0
-2333 16 0
-2333 17 0
-2333 19 0
-2333 21 0
-2333 23 0
-2333 26 0
2333 -3 -6 -8 -9 -11 -13 -16 -17 -19 -21 -23 -26 0
-2334 4 0
-2334 5 0
-2334 8 0
-2334 9 0
-2334 11 0
-2334 13 0
-2334 16 0
-2334 17 0
-2334 19 0
-2334 21 0
-2334 23 0
-2334 26 0
2334 -4 -5 -8 -9 -11 -13 -16 -17 -19 -21 -23 -26 0
-2335 4 0
-2335 5 0
-2335 7 0
-2335 9 0
-2335 11 0
-2335 14 0
-2335 16 0
-2335 17 0
-2335 19 0
-2335 21 0
-2335 24 0
-2335 26 0
2335 -4 -5 -7 -9 -11 -14 -16 -17 -19 -21 -24 -26 0
-2336 3 0
-2336 5 0
-2336 8 0
-2336 9 0
-2336 11 0
-2336 14 0
-2336 16 0
-2336 17 0
-2336 19 0
-2336 21 0
-2336 24 0
-2336 26 0
2336 -3 -5 -8 -9 -11 -14 -16 -17 -19 -21 -24 -26 0
-2337 4 0
-2337 5 0
-2337 8 0
-2337 9 0
-2337 11 0
-2337 14 0
-2337 16 0
-2337 17 0
-2337 19 0
-2337 21 0
-2337 24 0
-2337 26 0
2337 -4 -5 -8 -9 -11 -14 -16 -17 -19 -21 -24 -26 0
-2338 3 0
-2338 6 0
-2338 8 0
-2338 9 0
-2338 11 0
-2338 14 0
-2338 16 0
-2338 17 0
-2338 19 0
-2338 21 0
-2338 24 0
-2338 26 0
2338 -3 -6 -8 -9 -11 -14 -16 -17 -19 -21 -24 -26 0
-2339 3 0
-2339 5 0
-2339 7 0
-2339 10 0
-2339 11 0
-2339 13 0
-2339 16 0
-2339 17 0
-2339 19 0
-2339 21 0
-2339 23 0
-2339 26 0
2339 -3 -5 -7 -10 -11 -13 -16 -17 -19 -21 -23 -26 0
-2340 3 0
-2340 6 0
-2340 7 0
-2340 10 0
-2340 11 0
-2340 13 0
-2340 16 0
-2340 17 0
-2340 19 0
-2340 21 0
-2340 23 0
-2340 26 0
2340 -3 -6 -7 -10 -11 -13 -16 -17 -19 -21 -23 -26 0
-2341 4 0
-2341 5 0
-2341 7 0
-2341 10 0
-2341 11 0
-2341 13 0
-2341 16 0
-2341 17 0
-2341 19 0
-2341 21 0
-2341 23 0
-2341 26 0
2341 -4 -5 -7 -10 -11 -13 -16 -17 -19 -21 -23 -26 0
-2342 4 0
-2342 6 0
-2342 8 0
-2342 9 0
-2342 11 0
-2342 14 0
-2342 16 0
-2342 17 0
-2342 19 0
-2342 21 0
-2342 24 0
-2342 26 0
2342 -4 -6 -8 -9 -11 -14 -16 -17 -19 -21 -24 -26 0
-2343 3 0
-2343 6 0
-2343 8 0
-2343 10 0
-2343 11 0
-2343 14 0
-2343 16 0
-2343 17 0
-2343 19 0
-2343 21 0
-2343 24 0
-2343 26 0
2343 -3 -6 -8 -10 -11 -14 -16 -17 -19 -21 -24 -26 0
-2344 4 0
-2344 6 0
-2344 8 0
-2344 10 0
-2344 11 0
-2344 14 0
-2344 16 0
-2344 17 0
-2344 19 0
-2344 21 0
-2344 24 0
-2344 26 0
2344 -4 -6 -8 -10 -11 -14 -16 -17 -19 -21 -24 -26 0
-2345 3 0
-2345 5 0
-2345 8 0
-2345 10 0
-2345 11 0
-2345 14 0
-2345 16 0
-2345 17 0
-2345 19 0
-2345 21 0
-2345 24 0
-2345 26 0
2345 -3 -5 -8 -10 -11 -14 -16 -17 -19 -21 -24 -26 0
-2346 4 0
-2346 5 0
-2346 8 0
-2346 10 0
-2346 11 0
-2346 13 0
-2346 16 0
-2346 17 0
-2346 19 0
-2346 21 0
-2346 23 0
-2346 26 0
2346 -4 -5 -8 -10 -11 -13 -16 -17 -19 -21 -23 -26 0
-2347 4 0
-2347 6 0
-2347 7 0
-2347 10 0
-2347 11 0
-2347 13 0
-2347 16 0
-2347 17 0
-2347 19 0
-2347 21 0
-2347 23 0
-2347 26 0
2347 -4 -6 -7 -10 -11 -13 -16 -17 -19 -21 -23 -26 0
-2348 4 0
-2348 5 0
-2348 8 0
-2348 10 0
-2348 11 0
-2348 14 0
-2348 16 0
-2348 17 0
-2348 19 0
-2348 21 0
-2348 24 0
-2348 26 0
2348 -4 -5 -8 -10 -11 -14 -16 -17 -19 -21 -24 -26 0
-2349 3 0
-2349 5 0
-2349 7 0
-2349 10 0
-2349 11 0
-2349 14 0
-2349 16 0
-2349 17 0
-2349 19 0
-2349 21 0
-2349 24 0
-2349 26 0
2349 -3 -5 -7 -10 -11 -14 -16 -17 -19 -21 -24 -26 0
-2350 4 0
-2350 5 0
-2350 7 0
-2350 10 0
-2350 11 0
-2350 14 0
-2350 16 0
-2350 17 0
-2350 19 0
-2350 21 0
-2350 24 0
-2350 26 0
2350 -4 -5 -7 -10 -11 -14 -16 -17 -19 -21 -24 -26 0
-2351 3 0
-2351 6 0
-2351 7 0
-2351 10 0
-2351 11 0
-2351 14 0
-2351 16 0
-2351 17 0
-2351 19 0
-2351 21 0
-2351 24 0
-2351 26 0
2351 -3 -6 -7 -10 -11 -14 -16 -17 -19 -21 -24 -26 0
-2352 3 0
-2352 5 0
-2352 7 0
-2352 9 0
-2352 12 0
-2352 13 0
-2352 16 0
-2352 17 0
-2352 19 0
-2352 21 0
-2352 23 0
-2352 26 0
2352 -3 -5 -7 -9 -12 -13 -16 -17 -19 -21 -23 -26 0
-2353 3 0
-2353 6 0
-2353 7 0
-2353 9 0
-2353 12 0
-2353 13 0
-2353 16 0
-2353 17 0
-2353 19 0
-2353 21 0
-2353 23 0
-2353 26 0
2353 -3 -6 -7 -9 -12 -13 -16 -17 -19 -21 -23 -26 0
-2354 4 0
-2354 5 0
-2354 7 0
-2354 9 0
-2354 12 0
-2354 13 0
-2354 16 0
-2354 17 0
-2354 19 0
-2354 21 0
-2354 23 0
-2354 26 0
2354 -4 -5 -7 -9 -12 -13 -16 -17 -19 -21 -23 -26 0
-2355 4 0
-2355 6 0
-2355 7 0
-2355 10 0
-2355 11 0
-2355 14 0
-2355 16 0
-2355 17 0
-2355 19 0
-2355 21 0
-2355 24 0
-2355 26 0
2355 -4 -6 -7 -10 -11 -14 -16 -17 -19 -21 -24 -26 0
-2356 3 0
-2356 6 0
-2356 7 0
-2356 10 0
-2356 12 0
-2356 14 0
-2356 16 0
-2356 17 0
-2356 19 0
-2356 21 0
-2356 24 0
-2356 26 0
2356 -3 -6 -7 -10 -12 -14 -16 -17 -19 -21 -24 -26 0
-2357 4 0
-2357 6 0
-2357 7 0
-2357 10 0
-2357 12 0
-2357 14 0
-2357 16 0
-2357 17 0
-2357 19 0
-2357 21 0
-2357 24 0
-2357 26 0
2357 -4 -6 -7 -10 -12 -14 -16 -17 -19 -21 -24 -26 0
-2358 3 0
-2358 5 0
-2358 7 0
-2358 10 0
-2358 12 0
-2358 14 0
-2358 16 0
-2358 17 0
-2358 19 0
-2358 21 0
-2358 24 0
-2358 26 0
2358 -3 -5 -7 -10 -12 -14 -16 -17 -19 -21 -24 -26 0
-2359 3 0
-2359 5 0
-2359 8 0
-2359 9 0
-2359 12 0
-2359 13 0
-2359 16 0
-2359 17 0
-2359 19 0
-2359 21 0
-2359 23 0
-2359 26 0
2359 -3 -5 -8 -9 -12 -13 -16 -17 -19 -21 -23 -26 0
-2360 3 0
-2360 6 0
-2360 8 0
-2360 9 0
-2360 12 0
-2360 13 0
-2360 16 0
-2360 17 0
-2360 19 0
-2360 21 0
-2360 23 0
-2360 26 0
2360 -3 -6 -8 -9 -12 -13 -16 -17 -19 -21 -23 -26 0
-2361 4 0
-2361 5 0
-2361 8 0
-2361 9 0
-2361 12 0
-2361 13 0
-2361 16 0
-2361 17 0
-2361 19 0
-2361 21 0
-2361 23 0
-2361 26 0
2361 -4 -5 -8 -9 -12 -13 -16 -17 -19 -21 -23 -26 0
-2362 4 0
-2362 5 0
-2362 7 0
-2362 10 0
-2362 12 0
-2362 14 0
-2362 16 0
-2362 17 0
-2362 19 0
-2362 21 0
-2362 24 0
-2362 26 0
2362 -4 -5 -7 -10 -12 -14 -16 -17 -19 -21 -24 -26 0
-2363 3 0
-2363 5 0
-2363 8 0
-2363 10 0
-2363 12 0
-2363 14 0
-2363 16 0
-2363 17 0
-2363 19 0
-2363 21 0
-2363 24 0
-2363 26 0
2363 -3 -5 -8 -10 -12 -14 -16 -17 -19 -21 -24 -26 0
-2364 4 0
-2364 5 0
-2364 8 0
-2364 10 0
-2364 12 0
-2364 14 0
-2364 16 0
-2364 17 0
-2364 19 0
-2364 21 0
-2364 24 0
-2364 26 0
2364 -4 -5 -8 -10 -12 -14 -16 -17 -19 -21 -24 -26 0
-2365 3 0
-2365 6 0
-2365 8 0
-2365 10 0
-2365 12 0
-2365 14 0
-2365 16 0
-2365 17 0
-2365 19 0
-2365 21 0
-2365 24 0
-2365 26 0
2365 -3 -6 -8 -10 -12 -14 -16 -17 -19 -21 -24 -26 0
-2366 4 0
-2366 6 0
-2366 7 0
-2366 9 0
-2366 12 0
-2366 13 0
-2366 16 0
-2366 17 0
-2366 19 0
-2366 21 0
-2366 23 0
-2366 26 0
2366 -4 -6 -7 -9 -12 -13 -16 -17 -19 -21 -23 -26 0
-2367 4 0
-2367 6 0
-2367 8 0
-2367 10 0
-2367 12 0
-2367 14 0
-2367 16 0
-2367 17 0
-2367 19 0
-2367 21 0
-2367 24 0
-2367 26 0
2367 -4 -6 -8 -10 -12 -14 -16 -17 -19 -21 -24 -26 0
-2368 3 0
-2368 6 0
-2368 8 0
-2368 9 0
-2368 12 0
-2368 14 0
-2368 16 0
-2368 17 0
-2368 19 0
-2368 21 0
-2368 24 0
-2368 26 0
2368 -3 -6 -8 -9 -12 -14 -16 -17 -19 -21 -24 -26 0
-2369 4 0
-2369 6 0
-2369 8 0
-2369 9 0
-2369 12 0
-2369 14 0
-2369 16 0
-2369 17 0
-2369 19 0
-2369 21 0
-2369 24 0
-2369 26 0
2369 -4 -6 -8 -9 -12 -14 -16 -17 -19 -21 -24 -26 0
-2370 3 0
-2370 5 0
-2370 8 0
-2370 9 0
-2370 12 0
-2370 14 0
-2370 16 0
-2370 17 0
-2370 19 0
-2370 21 0
-2370 24 0
-2370 26 0
2370 -3 -5 -8 -9 -12 -14 -16 -17 -19 -21 -24 -26 0
-2371 4 0
-2371 5 0
-2371 8 0
-2371 9 0
-2371 12 0
-2371 14 0
-2371 16 0
-2371 17 0
-2371 19 0
-2371 21 0
-2371 24 0
-2371 26 0
2371 -4 -5 -8 -9 -12 -14 -16 -17 -19 -21 -24 -26 0
-2372 3 0
-2372 5 0
-2372 7 0
-2372 9 0
-2372 12 0
-2372 14 0
-2372 16 0
-2372 17 0
-2372 19 0
-2372 21 0
-2372 24 0
-2372 26 0
2372 -3 -5 -7 -9 -12 -14 -16 -17 -19 -21 -24 -26 0
-2373 4 0
-2373 5 0
-2373 7 0
-2373 9 0
-2373 12 0
-2373 14 0
-2373 16 0
-2373 17 0
-2373 19 0
-2373 21 0
-2373 24 0
-2373 26 0
2373 -4 -5 -7 -9 -12 -14 -16 -17 -19 -21 -24 -26 0
-2374 3 0
-2374 6 0
-2374 7 0
-2374 9 0
-2374 12 0
-2374 14 0
-2374 16 0
-2374 17 0
-2374 19 0
-2374 21 0
-2374 24 0
-2374 26 0
2374 -3 -6 -7 -9 -12 -14 -16 -17 -19 -21 -24 -26 0
-2375 4 0
-2375 6 0
-2375 7 0
-2375 9 0
-2375 12 0
-2375 14 0
-2375 16 0
-2375 17 0
-2375 19 0
-2375 21 0
-2375 23 0
-2375 26 0
2375 -4 -6 -7 -9 -12 -14 -16 -17 -19 -21 -23 -26 0
-2376 4 0
-2376 6 0
-2376 7 0
-2376 9 0
-2376 12 0
-2376 14 0
-2376 16 0
-2376 17 0
-2376 19 0
-2376 21 0
-2376 24 0
-2376 26 0
2376 -4 -6 -7 -9 -12 -14 -16 -17 -19 -21 -24 -26 0
-2377 3 0
-2377 6 0
-2377 7 0
-2377 9 0
-2377 12 0
-2377 13 0
-2377 16 0
-2377 17 0
-2377 19 0
-2377 21 0
-2377 24 0
-2377 26 0
2377 -3 -6 -7 -9 -12 -13 -16 -17 -19 -21 -24 -26 0
-2378 4 0
-2378 6 0
-2378 7 0
-2378 9 0
-2378 12 0
-2378 13 0
-2378 16 0
-2378 17 0
-2378 19 0
-2378 21 0
-2378 24 0
-2378 26 0
2378 -4 -6 -7 -9 -12 -13 -16 -17 -19 -21 -24 -26 0
-2379 3 0
-2379 5 0
-2379 7 0
-2379 9 0
-2379 12 0
-2379 13 0
-2379 16 0
-2379 17 0
-2379 19 0
-2379 21 0
-2379 24 0
-2379 26 0
2379 -3 -5 -7 -9 -12 -13 -16 -17 -19 -21 -24 -26 0
-2380 4 0
-2380 6 0
-2380 8 0
-2380 9 0
-2380 11 0
-2380 13 0
-2380 16 0
-2380 17 0
-2380 19 0
-2380 21 0
-2380 23 0
-2380 26 0
2380 -4 -6 -8 -9 -11 -13 -16 -17 -19 -21 -23 -26 0
-2381 4 0
-2381 5 0
-2381 7 0
-2381 9 0
-2381 12 0
-2381 13 0
-2381 16 0
-2381 17 0
-2381 19 0
-2381 21 0
-2381 24 0
-2381 26 0
2381 -4 -5 -7 -9 -12 -13 -16 -17 -19 -21 -24 -26 0
-2382 3 0
-2382 5 0
-2382 8 0
-2382 9 0
-2382 12 0
-2382 13 0
-2382 16 0
-2382 17 0
-2382 19 0
-2382 21 0
-2382 24 0
-2382 26 0
2382 -3 -5 -8 -9 -12 -13 -16 -17 -19 -21 -24 -26 0
-2383 4 0
-2383 5 0
-2383 8 0
-2383 9 0
-2383 12 0
-2383 13 0
-2383 16 0
-2383 17 0
-2383 19 0
-2383 21 0
-2383 24 0
-2383 26 0
2383 -4 -5 -8 -9 -12 -13 -16 -17 -19 -21 -24 -26 0
-2384 3 0
-2384 6 0
-2384 8 0
-2384 9 0
-2384 12 0
-2384 13 0
-2384 16 0
-2384 17 0
-2384 19 0
-2384 21 0
-2384 24 0
-2384 26 0
2384 -3 -6 -8 -9 -12 -13 -16 -17 -19 -21 -24 -26 0
-2385 4 0
-2385 6 0
-2385 8 0
-2385 9 0
-2385 12 0
-2385 13 0
-2385 16 0
-2385 17 0
-2385 19 0
-2385 21 0
-2385 24 0
-2385 26 0
2385 -4 -6 -8 -9 -12 -13 -16 -17 -19 -21 -24 -26 0
-2386 3 0
-2386 6 0
-2386 8 0
-2386 10 0
-2386 12 0
-2386 13 0
-2386 16 0
-2386 17 0
-2386 19 0
-2386 21 0
-2386 24 0
-2386 26 0
2386 -3 -6 -8 -10 -12 -13 -16 -17 -19 -21 -24 -26 0
-2387 4 0
-2387 6 0
-2387 8 0
-2387 10 0
-2387 12 0
-2387 13 0
-2387 16 0
-2387 17 0
-2387 19 0
-2387 21 0
-2387 24 0
-2387 26 0
2387 -4 -6 -8 -10 -12 -13 -16 -17 -19 -21 -24 -26 0
-2388 3 0
-2388 5 0
-2388 8 0
-2388 10 0
-2388 12 0
-2388 13 0
-2388 16 0
-2388 17 0
-2388 19 0
-2388 21 0
-2388 24 0
-2388 26 0
2388 -3 -5 -8 -10 -12 -13 -16 -17 -19 -21 -24 -26 0
-2389 4 0
-2389 5 0
-2389 8 0
-2389 10 0
-2389 12 0
-2389 13 0
-2389 16 0
-2389 17 0
-2389 19 0
-2389 21 0
-2389 24 0
-2389 26 0
2389 -4 -5 -8 -10 -12 -13 -16 -17 -19 -21 -24 -26 0
-2390 3 0
-2390 5 0
-2390 7 0
-2390 10 0
-2390 12 0
-2390 13 0
-2390 16 0
-2390 17 0
-2390 19 0
-2390 21 0
-2390 24 0
-2390 26 0
2390 -3 -5 -7 -10 -12 -13 -16 -17 -19 -21 -24 -26 0
-2391 4 0
-2391 5 0
-2391 7 0
-2391 10 0
-2391 12 0
-2391 13 0
-2391 16 0
-2391 17 0
-2391 19 0
-2391 21 0
-2391 24 0
-2391 26 0
2391 -4 -5 -7 -10 -12 -13 -16 -17 -19 -21 -24 -26 0
-2392 3 0
-2392 6 0
-2392 7 0
-2392 10 0
-2392 12 0
-2392 13 0
-2392 16 0
-2392 17 0
-2392 19 0
-2392 21 0
-2392 24 0
-2392 26 0
2392 -3 -6 -7 -10 -12 -13 -16 -17 -19 -21 -24 -26 0
-2393 4 0
-2393 6 0
-2393 7 0
-2393 10 0
-2393 12 0
-2393 13 0
-2393 16 0
-2393 17 0
-2393 19 0
-2393 21 0
-2393 23 0
-2393 26 0
2393 -4 -6 -7 -10 -12 -13 -16 -17 -19 -21 -23 -26 0
-2394 4 0
-2394 6 0
-2394 7 0
-2394 10 0
-2394 12 0
-2394 13 0
-2394 16 0
-2394 17 0
-2394 19 0
-2394 21 0
-2394 24 0
-2394 26 0
2394 -4 -6 -7 -10 -12 -13 -16 -17 -19 -21 -24 -26 0
-2395 3 0
-2395 6 0
-2395 7 0
-2395 10 0
-2395 11 0
-2395 13 0
-2395 16 0
-2395 17 0
-2395 19 0
-2395 21 0
-2395 24 0
-2395 26 0
2395 -3 -6 -7 -10 -11 -13 -16 -17 -19 -21 -24 -26 0
-2396 4 0
-2396 6 0
-2396 7 0
-2396 10 0
-2396 11 0
-2396 13 0
-2396 16 0
-2396 17 0
-2396 19 0
-2396 21 0
-2396 24 0
-2396 26 0
2396 -4 -6 -7 -10 -11 -13 -16 -17 -19 -21 -24 -26 0
-2397 3 0
-2397 5 0
-2397 7 0
-2397 10 0
-2397 11 0
-2397 13 0
-2397 16 0
-2397 17 0
-2397 19 0
-2397 21 0
-2397 24 0
-2397 26 0
2397 -3 -5 -7 -10 -11 -13 -16 -17 -19 -21 -24 -26 0
-2398 4 0
-2398 5 0
-2398 7 0
-2398 10 0
-2398 11 0
-2398 13 0
-2398 16 0
-2398 17 0
-2398 19 0
-2398 21 0
-2398 24 0
-2398 26 0
2398 -4 -5 -7 -10 -11 -13 -16 -17 -19 -21 -24 -26 0
-2399 3 0
-2399 5 0
-2399 8 0
-2399 10 0
-2399 11 0
-2399 13 0
-2399 16 0
-2399 17 0
-2399 19 0
-2399 21 0
-2399 24 0
-2399 26 0
2399 -3 -5 -8 -10 -11 -13 -16 -17 -19 -21 -24 -26 0
-2400 4 0
-2400 5 0
-2400 8 0
-2400 10 0
-2400 11 0
-2400 13 0
-2400 16 0
-2400 17 0
-2400 19 0
-2400 21 0
-2400 24 0
-2400 26 0
2400 -4 -5 -8 -10 -11 -13 -16 -17 -19 -21 -24 -26 0
-2401 3 0
-2401 6 0
-2401 8 0
-2401 10 0
-2401 11 0
-2401 13 0
-2401 16 0
-2401 17 0
-2401 19 0
-2401 21 0
-2401 24 0
-2401 26 0
2401 -3 -6 -8 -10 -11 -13 -16 -17 -19 -21 -24 -26 0
-2402 4 0
-2402 6 0
-2402 8 0
-2402 10 0
-2402 11 0
-2402 13 0
-2402 16 0
-2402 17 0
-2402 19 0
-2402 21 0
-2402 23 0
-2402 26 0
2402 -4 -6 -8 -10 -11 -13 -16 -17 -19 -21 -23 -26 0
-2403 4 0
-2403 6 0
-2403 8 0
-2403 10 0
-2403 11 0
-2403 13 0
-2403 16 0
-2403 17 0
-2403 19 0
-2403 21 0
-2403 24 0
-2403 26 0
2403 -4 -6 -8 -10 -11 -13 -16 -17 -19 -21 -24 -26 0
-2404 3 0
-2404 6 0
-2404 8 0
-2404 9 0
-2404 11 0
-2404 13 0
-2404 16 0
-2404 17 0
-2404 19 0
-2404 21 0
-2404 24 0
-2404 26 0
2404 -3 -6 -8 -9 -11 -13 -16 -17 -19 -21 -24 -26 0
-2405 4 0
-2405 6 0
-2405 8 0
-2405 9 0
-2405 11 0
-2405 13 0
-2405 16 0
-2405 17 0
-2405 19 0
-2405 21 0
-2405 24 0
-2405 26 0
2405 -4 -6 -8 -9 -11 -13 -16 -17 -19 -21 -24 -26 0
-2406 3 0
-2406 5 0
-2406 8 0
-2406 9 0
-2406 11 0
-2406 13 0
-2406 16 0
-2406 17 0
-2406 19 0
-2406 21 0
-2406 24 0
-2406 26 0
2406 -3 -5 -8 -9 -11 -13 -16 -17 -19 -21 -24 -26 0
-2407 4 0
-2407 6 0
-2407 7 0
-2407 9 0
-2407 11 0
-2407 13 0
-2407 16 0
-2407 17 0
-2407 19 0
-2407 21 0
-2407 23 0
-2407 26 0
2407 -4 -6 -7 -9 -11 -13 -16 -17 -19 -21 -23 -26 0
-2408 4 0
-2408 5 0
-2408 8 0
-2408 9 0
-2408 11 0
-2408 13 0
-2408 16 0
-2408 17 0
-2408 19 0
-2408 21 0
-2408 24 0
-2408 26 0
2408 -4 -5 -8 -9 -11 -13 -16 -17 -19 -21 -24 -26 0
-2409 3 0
-2409 5 0
-2409 7 0
-2409 9 0
-2409 11 0
-2409 13 0
-2409 16 0
-2409 17 0
-2409 19 0
-2409 21 0
-2409 24 0
-2409 26 0
2409 -3 -5 -7 -9 -11 -13 -16 -17 -19 -21 -24 -26 0
-2410 4 0
-2410 5 0
-2410 7 0
-2410 9 0
-2410 11 0
-2410 13 0
-2410 16 0
-2410 17 0
-2410 19 0
-2410 21 0
-2410 24 0
-2410 26 0
2410 -4 -5 -7 -9 -11 -13 -16 -17 -19 -21 -24 -26 0
-2411 3 0
-2411 6 0
-2411 7 0
-2411 9 0
-2411 11 0
-2411 13 0
-2411 16 0
-2411 17 0
-2411 19 0
-2411 21 0
-2411 24 0
-2411 26 0
2411 -3 -6 -7 -9 -11 -13 -16 -17 -19 -21 -24 -26 0
-2412 3 0
-2412 5 0
-2412 7 0
-2412 9 0
-2412 11 0
-2412 13 0
-2412 15 0
-2412 18 0
-2412 19 0
-2412 21 0
-2412 23 0
-2412 26 0
2412 -3 -5 -7 -9 -11 -13 -15 -18 -19 -21 -23 -26 0
-2413 3 0
-2413 6 0
-2413 7 0
-2413 9 0
-2413 11 0
-2413 13 0
-2413 15 0
-2413 18 0
-2413 19 0
-2413 21 0
-2413 23 0
-2413 26 0
2413 -3 -6 -7 -9 -11 -13 -15 -18 -19 -21 -23 -26 0
-2414 4 0
-2414 5 0
-2414 7 0
-2414 9 0
-2414 11 0
-2414 13 0
-2414 15 0
-2414 18 0
-2414 19 0
-2414 21 0
-2414 23 0
-2414 26 0
2414 -4 -5 -7 -9 -11 -13 -15 -18 -19 -21 -23 -26 0
-2415 4 0
-2415 6 0
-2415 7 0
-2415 9 0
-2415 11 0
-2415 13 0
-2415 16 0
-2415 17 0
-2415 19 0
-2415 21 0
-2415 24 0
-2415 26 0
2415 -4 -6 -7 -9 -11 -13 -16 -17 -19 -21 -24 -26 0
-2416 3 0
-2416 6 0
-2416 7 0
-2416 9 0
-2416 11 0
-2416 13 0
-2416 16 0
-2416 18 0
-2416 19 0
-2416 21 0
-2416 24 0
-2416 26 0
2416 -3 -6 -7 -9 -11 -13 -16 -18 -19 -21 -24 -26 0
-2417 4 0
-2417 6 0
-2417 7 0
-2417 9 0
-2417 11 0
-2417 13 0
-2417 16 0
-2417 18 0
-2417 19 0
-2417 21 0
-2417 24 0
-2417 26 0
2417 -4 -6 -7 -9 -11 -13 -16 -18 -19 -21 -24 -26 0
-2418 3 0
-2418 5 0
-2418 7 0
-2418 9 0
-2418 11 0
-2418 13 0
-2418 16 0
-2418 18 0
-2418 19 0
-2418 21 0
-2418 24 0
-2418 26 0
2418 -3 -5 -7 -9 -11 -13 -16 -18 -19 -21 -24 -26 0
-2419 3 0
-2419 5 0
-2419 8 0
-2419 9 0
-2419 11 0
-2419 13 0
-2419 15 0
-2419 18 0
-2419 19 0
-2419 21 0
-2419 23 0
-2419 26 0
2419 -3 -5 -8 -9 -11 -13 -15 -18 -19 -21 -23 -26 0
-2420 3 0
-2420 6 0
-2420 8 0
-2420 9 0
-2420 11 0
-2420 13 0
-2420 15 0
-2420 18 0
-2420 19 0
-2420 21 0
-2420 23 0
-2420 26 0
2420 -3 -6 -8 -9 -11 -13 -15 -18 -19 -21 -23 -26 0
-2421 4 0
-2421 5 0
-2421 8 0
-2421 9 0
-2421 11 0
-2421 13 0
-2421 15 0
-2421 18 0
-2421 19 0
-2421 21 0
-2421 23 0
-2421 26 0
2421 -4 -5 -8 -9 -11 -13 -15 -18 -19 -21 -23 -26 0
-2422 4 0
-2422 5 0
-2422 7 0
-2422 9 0
-2422 11 0
-2422 13 0
-2422 16 0
-2422 18 0
-2422 19 0
-2422 21 0
-2422 24 0
-2422 26 0
2422 -4 -5 -7 -9 -11 -13 -16 -18 -19 -21 -24 -26 0
-2423 3 0
-2423 5 0
-2423 8 0
-2423 9 0
-2423 11 0
-2423 13 0
-2423 16 0
-2423 18 0
-2423 19 0
-2423 21 0
-2423 24 0
-2423 26 0
2423 -3 -5 -8 -9 -11 -13 -16 -18 -19 -21 -24 -26 0
-2424 4 0
-2424 5 0
-2424 8 0
-2424 9 0
-2424 11 0
-2424 13 0
-2424 16 0
-2424 18 0
-2424 19 0
-2424 21 0
-2424 24 0
-2424 26 0
2424 -4 -5 -8 -9 -11 -13 -16 -18 -19 -21 -24 -26 0
-2425 3 0
-2425 6 0
-2425 8 0
-2425 9 0
-2425 11 0
-2425 13 0
-2425 16 0
-2425 18 0
-2425 19 0
-2425 21 0
-2425 24 0
-2425 26 0
2425 -3 -6 -8 -9 -11 -13 -16 -18 -19 -21 -24 -26 0
-2426 3 0
-2426 5 0
-2426 7 0
-2426 10 0
-2426 11 0
-2426 13 0
-2426 15 0
-2426 18 0
-2426 19 0
-2426 21 0
-2426 23 0
-2426 26 0
2426 -3 -5 -7 -10 -11 -13 -15 -18 -19 -21 -23 -26 0
-2427 3 0
-2427 6 0
-2427 7 0
-2427 10 0
-2427 11 0
-2427 13 0
-2427 15 0
-2427 18 0
-2427 19 0
-2427 21 0
-2427 23 0
-2427 26 0
2427 -3 -6 -7 -10 -11 -13 -15 -18 -19 -21 -23 -26 0
-2428 4 0
-2428 5 0
-2428 7 0
-2428 10 0
-2428 11 0
-2428 13 0
-2428 15 0
-2428 18 0
-2428 19 0
-2428 21 0
-2428 23 0
-2428 26 0
2428 -4 -5 -7 -10 -11 -13 -15 -18 -19 -21 -23 -26 0
-2429 4 0
-2429 6 0
-2429 8 0
-2429 9 0
-2429 11 0
-2429 13 0
-2429 16 0
-2429 18 0
-2429 19 0
-2429 21 0
-2429 24 0
-2429 26 0
2429 -4 -6 -8 -9 -11 -13 -16 -18 -19 -21 -24 -26 0
-2430 3 0
-2430 6 0
-2430 8 0
-2430 10 0
-2430 11 0
-2430 13 0
-2430 16 0
-2430 18 0
-2430 19 0
-2430 21 0
-2430 24 0
-2430 26 0
2430 -3 -6 -8 -10 -11 -13 -16 -18 -19 -21 -24 -26 0
-2431 4 0
-2431 6 0
-2431 8 0
-2431 10 0
-2431 11 0
-2431 13 0
-2431 16 0
-2431 18 0
-2431 19 0
-2431 21 0
-2431 24 0
-2431 26 0
2431 -4 -6 -8 -10 -11 -13 -16 -18 -19 -21 -24 -26 0
-2432 3 0
-2432 5 0
-2432 8 0
-2432 10 0
-2432 11 0
-2432 13 0
-2432 16 0
-2432 18 0
-2432 19 0
-2432 21 0
-2432 24 0
-2432 26 0
2432 -3 -5 -8 -10 -11 -13 -16 -18 -19 -21 -24 -26 0
-2433 4 0
-2433 5 0
-2433 8 0
-2433 10 0
-2433 11 0
-2433 13 0
-2433 15 0
-2433 18 0
-2433 19 0
-2433 21 0
-2433 23 0
-2433 26 0
2433 -4 -5 -8 -10 -11 -13 -15 -18 -19 -21 -23 -26 0
-2434 4 0
-2434 6 0
-2434 7 0
-2434 10 0
-2434 11 0
-2434 13 0
-2434 15 0
-2434 18 0
-2434 19 0
-2434 21 0
-2434 23 0
-2434 26 0
2434 -4 -6 -7 -10 -11 -13 -15 -18 -19 -21 -23 -26 0
-2435 4 0
-2435 5 0
-2435 8 0
-2435 10 0
-2435 11 0
-2435 13 0
-2435 16 0
-2435 18 0
-2435 19 0
-2435 21 0
-2435 24 0
-2435 26 0
2435 -4 -5 -8 -10 -11 -13 -16 -18 -19 -21 -24 -26 0
-2436 3 0
-2436 5 0
-2436 7 0
-2436 10 0
-2436 11 0
-2436 13 0
-2436 16 0
-2436 18 0
-2436 19 0
-2436 21 0
-2436 24 0
-2436 26 0
2436 -3 -5 -7 -10 -11 -13 -16 -18 -19 -21 -24 -26 0
-2437 4 0
-2437 5 0
-2437 7 0
-2437 10 0
-2437 11 0
-2437 13 0
-2437 16 0
-2437 18 0
-2437 19 0
-2437 21 0
-2437 24 0
-2437 26 0
2437 -4 -5 -7 -10 -11 -13 -16 -18 -19 -21 -24 -26 0
-2438 3 0
-2438 6 0
-2438 7 0
-2438 10 0
-2438 11 0
-2438 13 0
-2438 16 0
-2438 18 0
-2438 19 0
-2438 21 0
-2438 24 0
-2438 26 0
2438 -3 -6 -7 -10 -11 -13 -16 -18 -19 -21 -24 -26 0
-2439 3 0
-2439 5 0
-2439 7 0
-2439 9 0
-2439 12 0
-2439 13 0
-2439 15 0
-2439 18 0
-2439 19 0
-2439 21 0
-2439 23 0
-2439 26 0
2439 -3 -5 -7 -9 -12 -13 -15 -18 -19 -21 -23 -26 0
-2440 3 0
-2440 6 0
-2440 7 0
-2440 9 0
-2440 12 0
-2440 13 0
-2440 15 0
-2440 18 0
-2440 19 0
-2440 21 0
-2440 23 0
-2440 26 0
2440 -3 -6 -7 -9 -12 -13 -15 -18 -19 -21 -23 -26 0
-2441 4 0
-2441 5 0
-2441 7 0
-2441 9 0
-2441 12 0
-2441 13 0
-2441 15 0
-2441 18 0
-2441 19 0
-2441 21 0
-2441 23 0
-2441 26 0
2441 -4 -5 -7 -9 -12 -13 -15 -18 -19 -21 -23 -26 0
-2442 4 0
-2442 6 0
-2442 7 0
-2442 10 0
-2442 11 0
-2442 13 0
-2442 16 0
-2442 18 0
-2442 19 0
-2442 21 0
-2442 24 0
-2442 26 0
2442 -4 -6 -7 -10 -11 -13 -16 -18 -19 -21 -24 -26 0
-2443 3 0
-2443 6 0
-2443 7 0
-2443 10 0
-2443 12 0
-2443 13 0
-2443 16 0
-2443 18 0
-2443 19 0
-2443 21 0
-2443 24 0
-2443 26 0
2443 -3 -6 -7 -10 -12 -13 -16 -18 -19 -21 -24 -26 0
-2444 4 0
-2444 6 0
-2444 7 0
-2444 10 0
-2444 12 0
-2444 13 0
-2444 16 0
-2444 18 0
-2444 19 0
-2444 21 0
-2444 24 0
-2444 26 0
2444 -4 -6 -7 -10 -12 -13 -16 -18 -19 -21 -24 -26 0
-2445 3 0
-2445 5 0
-2445 7 0
-2445 10 0
-2445 12 0
-2445 13 0
-2445 16 0
-2445 18 0
-2445 19 0
-2445 21 0
-2445 24 0
-2445 26 0
2445 -3 -5 -7 -10 -12 -13 -16 -18 -19 -21 -24 -26 0
-2446 3 0
-2446 5 0
-2446 8 0
-2446 9 0
-2446 12 0
-2446 13 0
-2446 15 0
-2446 18 0
-2446 19 0
-2446 21 0
-2446 23 0
-2446 26 0
2446 -3 -5 -8 -9 -12 -13 -15 -18 -19 -21 -23 -26 0
-2447 3 0
-2447 6 0
-2447 8 0
-2447 9 0
-2447 12 0
-2447 13 0
-2447 15 0
-2447 18 0
-2447 19 0
-2447 21 0
-2447 23 0
-2447 26 0
2447 -3 -6 -8 -9 -12 -13 -15 -18 -19 -21 -23 -26 0
-2448 4 0
-2448 5 0
-2448 8 0
-2448 9 0
-2448 12 0
-2448 13 0
-2448 15 0
-2448 18 0
-2448 19 0
-2448 21 0
-2448 23 0
-2448 26 0
2448 -4 -5 -8 -9 -12 -13 -15 -18 -19 -21 -23 -26 0
-2449 4 0
-2449 5 0
-2449 7 0
-2449 10 0
-2449 12 0
-2449 13 0
-2449 16 0
-2449 18 0
-2449 19 0
-2449 21 0
-2449 24 0
-2449 26 0
2449 -4 -5 -7 -10 -12 -13 -16 -18 -19 -21 -24 -26 0
-2450 3 0
-2450 5 0
-2450 8 0
-2450 10 0
-2450 12 0
-2450 13 0
-2450 16 0
-2450 18 0
-2450 19 0
-2450 21 0
-2450 24 0
-2450 26 0
2450 -3 -5 -8 -10 -12 -13 -16 -18 -19 -21 -24 -26 0
-2451 4 0
-2451 5 0
-2451 8 0
-2451 10 0
-2451 12 0
-2451 13 0
-2451 16 0
-2451 18 0
-2451 19 0
-2451 21 0
-2451 24 0
-2451 26 0
2451 -4 -5 -8 -10 -12 -13 -16 -18 -19 -21 -24 -26 0
-2452 3 0
-2452 6 0
-2452 8 0
-2452 10 0
-2452 12 0
-2452 13 0
-2452 16 0
-2452 18 0
-2452 19 0
-2452 21 0
-2452 24 0
-2452 26 0
2452 -3 -6 -8 -10 -12 -13 -16 -18 -19 -21 -24 -26 0
-2453 4 0
-2453 6 0
-2453 7 0
-2453 9 0
-2453 12 0
-2453 13 0
-2453 15 0
-2453 18 0
-2453 19 0
-2453 21 0
-2453 23 0
-2453 26 0
2453 -4 -6 -7 -9 -12 -13 -15 -18 -19 -21 -23 -26 0
-2454 4 0
-2454 6 0
-2454 8 0
-2454 10 0
-2454 12 0
-2454 13 0
-2454 16 0
-2454 18 0
-2454 19 0
-2454 21 0
-2454 24 0
-2454 26 0
2454 -4 -6 -8 -10 -12 -13 -16 -18 -19 -21 -24 -26 0
-2455 3 0
-2455 6 0
-2455 8 0
-2455 9 0
-2455 12 0
-2455 13 0
-2455 16 0
-2455 18 0
-2455 19 0
-2455 21 0
-2455 24 0
-2455 26 0
2455 -3 -6 -8 -9 -12 -13 -16 -18 -19 -21 -24 -26 0
-2456 4 0
-2456 6 0
-2456 8 0
-2456 9 0
-2456 12 0
-2456 13 0
-2456 16 0
-2456 18 0
-2456 19 0
-2456 21 0
-2456 24 0
-2456 26 0
2456 -4 -6 -8 -9 -12 -13 -16 -18 -19 -21 -24 -26 0
-2457 3 0
-2457 5 0
-2457 8 0
-2457 9 0
-2457 12 0
-2457 13 0
-2457 16 0
-2457 18 0
-2457 19 0
-2457 21 0
-2457 24 0
-2457 26 0
2457 -3 -5 -8 -9 -12 -13 -16 -18 -19 -21 -24 -26 0
-2458 4 0
-2458 5 0
-2458 8 0
-2458 9 0
-2458 12 0
-2458 13 0
-2458 16 0
-2458 18 0
-2458 19 0
-2458 21 0
-2458 24 0
-2458 26 0
2458 -4 -5 -8 -9 -12 -13 -16 -18 -19 -21 -24 -26 0
-2459 3 0
-2459 5 0
-2459 7 0
-2459 9 0
-2459 12 0
-2459 13 0
-2459 16 0
-2459 18 0
-2459 19 0
-2459 21 0
-2459 24 0
-2459 26 0
2459 -3 -5 -7 -9 -12 -13 -16 -18 -19 -21 -24 -26 0
-2460 4 0
-2460 5 0
-2460 7 0
-2460 9 0
-2460 12 0
-2460 13 0
-2460 16 0
-2460 18 0
-2460 19 0
-2460 21 0
-2460 24 0
-2460 26 0
2460 -4 -5 -7 -9 -12 -13 -16 -18 -19 -21 -24 -26 0
-2461 3 0
-2461 6 0
-2461 7 0
-2461 9 0
-2461 12 0
-2461 13 0
-2461 16 0
-2461 18 0
-2461 19 0
-2461 21 0
-2461 24 0
-2461 26 0
2461 -3 -6 -7 -9 -12 -13 -16 -18 -19 -21 -24 -26 0
-2462 3 0
-2462 5 0
-2462 7 0
-2462 9 0
-2462 11 0
-2462 14 0
-2462 15 0
-2462 18 0
-2462 19 0
-2462 21 0
-2462 23 0
-2462 26 0
2462 -3 -5 -7 -9 -11 -14 -15 -18 -19 -21 -23 -26 0
-2463 3 0
-2463 6 0
-2463 7 0
-2463 9 0
-2463 11 0
-2463 14 0
-2463 15 0
-2463 18 0
-2463 19 0
-2463 21 0
-2463 23 0
-2463 26 0
2463 -3 -6 -7 -9 -11 -14 -15 -18 -19 -21 -23 -26 0
-2464 4 0
-2464 5 0
-2464 7 0
-2464 9 0
-2464 11 0
-2464 14 0
-2464 15 0
-2464 18 0
-2464 19 0
-2464 21 0
-2464 23 0
-2464 26 0
2464 -4 -5 -7 -9 -11 -14 -15 -18 -19 -21 -23 -26 0
-2465 4 0
-2465 6 0
-2465 7 0
-2465 9 0
-2465 12 0
-2465 13 0
-2465 16 0
-2465 18 0
-2465 19 0
-2465 21 0
-2465 24 0
-2465 26 0
2465 -4 -6 -7 -9 -12 -13 -16 -18 -19 -21 -24 -26 0
-2466 3 0
-2466 6 0
-2466 7 0
-2466 9 0
-2466 12 0
-2466 14 0
-2466 16 0
-2466 18 0
-2466 19 0
-2466 21 0
-2466 24 0
-2466 26 0
2466 -3 -6 -7 -9 -12 -14 -16 -18 -19 -21 -24 -26 0
-2467 4 0
-2467 6 0
-2467 7 0
-2467 9 0
-2467 12 0
-2467 14 0
-2467 16 0
-2467 18 0
-2467 19 0
-2467 21 0
-2467 24 0
-2467 26 0
2467 -4 -6 -7 -9 -12 -14 -16 -18 -19 -21 -24 -26 0
-2468 3 0
-2468 5 0
-2468 7 0
-2468 9 0
-2468 12 0
-2468 14 0
-2468 16 0
-2468 18 0
-2468 19 0
-2468 21 0
-2468 24 0
-2468 26 0
2468 -3 -5 -7 -9 -12 -14 -16 -18 -19 -21 -24 -26 0
-2469 3 0
-2469 5 0
-2469 8 0
-2469 9 0
-2469 11 0
-2469 14 0
-2469 15 0
-2469 18 0
-2469 19 0
-2469 21 0
-2469 23 0
-2469 26 0
2469 -3 -5 -8 -9 -11 -14 -15 -18 -19 -21 -23 -26 0
-2470 3 0
-2470 6 0
-2470 8 0
-2470 9 0
-2470 11 0
-2470 14 0
-2470 15 0
-2470 18 0
-2470 19 0
-2470 21 0
-2470 23 0
-2470 26 0
2470 -3 -6 -8 -9 -11 -14 -15 -18 -19 -21 -23 -26 0
-2471 4 0
-2471 5 0
-2471 8 0
-2471 9 0
-2471 11 0
-2471 14 0
-2471 15 0
-2471 18 0
-2471 19 0
-2471 21 0
-2471 23 0
-2471 26 0
2471 -4 -5 -8 -9 -11 -14 -15 -18 -19 -21 -23 -26 0
-2472 4 0
-2472 5 0
-2472 7 0
-2472 9 0
-2472 12 0
-2472 14 0
-2472 16 0
-2472 18 0
-2472 19 0
-2472 21 0
-2472 24 0
-2472 26 0
2472 -4 -5 -7 -9 -12 -14 -16 -18 -19 -21 -24 -26 0
-2473 3 0
-2473 5 0
-2473 8 0
-2473 9 0
-2473 12 0
-2473 14 0
-2473 16 0
-2473 18 0
-2473 19 0
-2473 21 0
-2473 24 0
-2473 26 0
2473 -3 -5 -8 -9 -12 -14 -16 -18 -19 -21 -24 -26 0
-2474 4 0
-2474 5 0
-2474 8 0
-2474 9 0
-2474 12 0
-2474 14 0
-2474 16 0
-2474 18 0
-2474 19 0
-2474 21 0
-2474 24 0
-2474 26 0
2474 -4 -5 -8 -9 -12 -14 -16 -18 -19 -21 -24 -26 0
-2475 3 0
-2475 6 0
-2475 8 0
-2475 9 0
-2475 12 0
-2475 14 0
-2475 16 0
-2475 18 0
-2475 19 0
-2475 21 0
-2475 24 0
-2475 26 0
2475 -3 -6 -8 -9 -12 -14 -16 -18 -19 -21 -24 -26 0
-2476 3 0
-2476 5 0
-2476 7 0
-2476 10 0
-2476 11 0
-2476 14 0
-2476 15 0
-2476 18 0
-2476 19 0
-2476 21 0
-2476 23 0
-2476 26 0
2476 -3 -5 -7 -10 -11 -14 -15 -18 -19 -21 -23 -26 0
-2477 3 0
-2477 6 0
-2477 7 0
-2477 10 0
-2477 11 0
-2477 14 0
-2477 15 0
-2477 18 0
-2477 19 0
-2477 21 0
-2477 23 0
-2477 26 0
2477 -3 -6 -7 -10 -11 -14 -15 -18 -19 -21 -23 -26 0
-2478 4 0
-2478 5 0
-2478 7 0
-2478 10 0
-2478 11 0
-2478 14 0
-2478 15 0
-2478 18 0
-2478 19 0
-2478 21 0
-2478 23 0
-2478 26 0
2478 -4 -5 -7 -10 -11 -14 -15 -18 -19 -21 -23 -26 0
-2479 4 0
-2479 6 0
-2479 8 0
-2479 9 0
-2479 12 0
-2479 14 0
-2479 16 0
-2479 18 0
-2479 19 0
-2479 21 0
-2479 24 0
-2479 26 0
2479 -4 -6 -8 -9 -12 -14 -16 -18 -19 -21 -24 -26 0
-2480 3 0
-2480 6 0
-2480 8 0
-2480 10 0
-2480 12 0
-2480 14 0
-2480 16 0
-2480 18 0
-2480 19 0
-2480 21 0
-2480 24 0
-2480 26 0
2480 -3 -6 -8 -10 -12 -14 -16 -18 -19 -21 -24 -26 0
-2481 4 0
-2481 6 0
-2481 8 0
-2481 10 0
-2481 12 0
-2481 14 0
-2481 16 0
-2481 18 0
-2481 19 0
-2481 21 0
-2481 24 0
-2481 26 0
2481 -4 -6 -8 -10 -12 -14 -16 -18 -19 -21 -24 -26 0
-2482 3 0
-2482 5 0
-2482 8 0
-2482 10 0
-2482 12 0
-2482 14 0
-2482 16 0
-2482 18 0
-2482 19 0
-2482 21 0
-2482 24 0
-2482 26 0
2482 -3 -5 -8 -10 -12 -14 -16 -18 -19 -21 -24 -26 0
-2483 4 0
-2483 5 0
-2483 8 0
-2483 10 0
-2483 11 0
-2483 14 0
-2483 15 0
-2483 18 0
-2483 19 0
-2483 21 0
-2483 23 0
-2483 26 0
2483 -4 -5 -8 -10 -11 -14 -15 -18 -19 -21 -23 -26 0
-2484 4 0
-2484 6 0
-2484 7 0
-2484 10 0
-2484 11 0
-2484 14 0
-2484 15 0
-2484 18 0
-2484 19 0
-2484 21 0
-2484 23 0
-2484 26 0
2484 -4 -6 -7 -10 -11 -14 -15 -18 -19 -21 -23 -26 0
-2485 4 0
-2485 5 0
-2485 8 0
-2485 10 0
-2485 12 0
-2485 14 0
-2485 16 0
-2485 18 0
-2485 19 0
-2485 21 0
-2485 24 0
-2485 26 0
2485 -4 -5 -8 -10 -12 -14 -16 -18 -19 -21 -24 -26 0
-2486 3 0
-2486 5 0
-2486 7 0
-2486 10 0
-2486 12 0
-2486 14 0
-2486 16 0
-2486 18 0
-2486 19 0
-2486 21 0
-2486 24 0
-2486 26 0
2486 -3 -5 -7 -10 -12 -14 -16 -18 -19 -21 -24 -26 0
-2487 4 0
-2487 5 0
-2487 7 0
-2487 10 0
-2487 12 0
-2487 14 0
-2487 16 0
-2487 18 0
-2487 19 0
-2487 21 0
-2487 24 0
-2487 26 0
2487 -4 -5 -7 -10 -12 -14 -16 -18 -19 -21 -24 -26 0
-2488 3 0
-2488 6 0
-2488 7 0
-2488 10 0
-2488 12 0
-2488 14 0
-2488 16 0
-2488 18 0
-2488 19 0
-2488 21 0
-2488 24 0
-2488 26 0
2488 -3 -6 -7 -10 -12 -14 -16 -18 -19 -21 -24 -26 0
-2489 4 0
-2489 6 0
-2489 7 0
-2489 10 0
-2489 12 0
-2489 14 0
-2489 15 0
-2489 18 0
-2489 19 0
-2489 21 0
-2489 23 0
-2489 26 0
2489 -4 -6 -7 -10 -12 -14 -15 -18 -19 -21 -23 -26 0
-2490 4 0
-2490 6 0
-2490 7 0
-2490 10 0
-2490 12 0
-2490 14 0
-2490 16 0
-2490 18 0
-2490 19 0
-2490 21 0
-2490 24 0
-2490 26 0
2490 -4 -6 -7 -10 -12 -14 -16 -18 -19 -21 -24 -26 0
-2491 3 0
-2491 6 0
-2491 7 0
-2491 10 0
-2491 11 0
-2491 14 0
-2491 16 0
-2491 18 0
-2491 19 0
-2491 21 0
-2491 24 0
-2491 26 0
2491 -3 -6 -7 -10 -11 -14 -16 -18 -19 -21 -24 -26 0
-2492 4 0
-2492 6 0
-2492 7 0
-2492 10 0
-2492 11 0
-2492 14 0
-2492 16 0
-2492 18 0
-2492 19 0
-2492 21 0
-2492 24 0
-2492 26 0
2492 -4 -6 -7 -10 -11 -14 -16 -18 -19 -21 -24 -26 0
-2493 3 0
-2493 5 0
-2493 7 0
-2493 10 0
-2493 11 0
-2493 14 0
-2493 16 0
-2493 18 0
-2493 19 0
-2493 21 0
-2493 24 0
-2493 26 0
2493 -3 -5 -7 -10 -11 -14 -16 -18 -19 -21 -24 -26 0
-2494 4 0
-2494 6 0
-2494 8 0
-2494 9 0
-2494 11 0
-2494 14 0
-2494 15 0
-2494 18 0
-2494 19 0
-2494 21 0
-2494 23 0
-2494 26 0
2494 -4 -6 -8 -9 -11 -14 -15 -18 -19 -21 -23 -26 0
-2495 4 0
-2495 5 0
-2495 7 0
-2495 10 0
-2495 11 0
-2495 14 0
-2495 16 0
-2495 18 0
-2495 19 0
-2495 21 0
-2495 24 0
-2495 26 0
2495 -4 -5 -7 -10 -11 -14 -16 -18 -19 -21 -24 -26 0
-2496 3 0
-2496 5 0
-2496 8 0
-2496 10 0
-2496 11 0
-2496 14 0
-2496 16 0
-2496 18 0
-2496 19 0
-2496 21 0
-2496 24 0
-2496 26 0
2496 -3 -5 -8 -10 -11 -14 -16 -18 -19 -21 -24 -26 0
-2497 4 0
-2497 5 0
-2497 8 0
-2497 10 0
-2497 11 0
-2497 14 0
-2497 16 0
-2497 18 0
-2497 19 0
-2497 21 0
-2497 24 0
-2497 26 0
2497 -4 -5 -8 -10 -11 -14 -16 -18 -19 -21 -24 -26 0
-2498 3 0
-2498 6 0
-2498 8 0
-2498 10 0
-2498 11 0
-2498 14 0
-2498 16 0
-2498 18 0
-2498 19 0
-2498 21 0
-2498 24 0
-2498 26 0
2498 -3 -6 -8 -10 -11 -14 -16 -18 -19 -21 -24 -26 0
-2499 4 0
-2499 6 0
-2499 8 0
-2499 10 0
-2499 11 0
-2499 14 0
-2499 15 0
-2499 18 0
-2499 19 0
-2499 21 0
-2499 23 0
-2499 26 0
2499 -4 -6 -8 -10 -11 -14 -15 -18 -19 -21 -23 -26 0
-2500 4 0
-2500 6 0
-2500 8 0
-2500 10 0
-2500 11 0
-2500 14 0
-2500 16 0
-2500 18 0
-2500 19 0
-2500 21 0
-2500 24 0
-2500 26 0
2500 -4 -6 -8 -10 -11 -14 -16 -18 -19 -21 -24 -26 0
-2501 3 0
-2501 6 0
-2501 8 0
-2501 9 0
-2501 11 0
-2501 14 0
-2501 16 0
-2501 18 0
-2501 19 0
-2501 21 0
-2501 24 0
-2501 26 0
2501 -3 -6 -8 -9 -11 -14 -16 -18 -19 -21 -24 -26 0
-2502 4 0
-2502 6 0
-2502 8 0
-2502 9 0
-2502 11 0
-2502 14 0
-2502 16 0
-2502 18 0
-2502 19 0
-2502 21 0
-2502 24 0
-2502 26 0
2502 -4 -6 -8 -9 -11 -14 -16 -18 -19 -21 -24 -26 0
-2503 3 0
-2503 5 0
-2503 8 0
-2503 9 0
-2503 11 0
-2503 14 0
-2503 16 0
-2503 18 0
-2503 19 0
-2503 21 0
-2503 24 0
-2503 26 0
2503 -3 -5 -8 -9 -11 -14 -16 -18 -19 -21 -24 -26 0
-2504 4 0
-2504 6 0
-2504 7 0
-2504 9 0
-2504 11 0
-2504 14 0
-2504 15 0
-2504 18 0
-2504 19 0
-2504 21 0
-2504 23 0
-2504 26 0
2504 -4 -6 -7 -9 -11 -14 -15 -18 -19 -21 -23 -26 0
-2505 4 0
-2505 5 0
-2505 8 0
-2505 9 0
-2505 11 0
-2505 14 0
-2505 16 0
-2505 18 0
-2505 19 0
-2505 21 0
-2505 24 0
-2505 26 0
2505 -4 -5 -8 -9 -11 -14 -16 -18 -19 -21 -24 -26 0
-2506 3 0
-2506 5 0
-2506 7 0
-2506 9 0
-2506 11 0
-2506 14 0
-2506 16 0
-2506 18 0
-2506 19 0
-2506 21 0
-2506 24 0
-2506 26 0
2506 -3 -5 -7 -9 -11 -14 -16 -18 -19 -21 -24 -26 0
-2507 4 0
-2507 5 0
-2507 7 0
-2507 9 0
-2507 11 0
-2507 14 0
-2507 16 0
-2507 18 0
-2507 19 0
-2507 21 0
-2507 24 0
-2507 26 0
2507 -4 -5 -7 -9 -11 -14 -16 -18 -19 -21 -24 -26 0
-2508 3 0
-2508 6 0
-2508 7 0
-2508 9 0
-2508 11 0
-2508 14 0
-2508 16 0
-2508 18 0
-2508 19 0
-2508 21 0
-2508 24 0
-2508 26 0
2508 -3 -6 -7 -9 -11 -14 -16 -18 -19 -21 -24 -26 0
-2509 4 0
-2509 6 0
-2509 7 0
-2509 9 0
-2509 11 0
-2509 14 0
-2509 16 0
-2509 18 0
-2509 19 0
-2509 21 0
-2509 23 0
-2509 26 0
2509 -4 -6 -7 -9 -11 -14 -16 -18 -19 -21 -23 -26 0
-2510 4 0
-2510 6 0
-2510 7 0
-2510 9 0
-2510 11 0
-2510 14 0
-2510 16 0
-2510 18 0
-2510 19 0
-2510 21 0
-2510 24 0
-2510 26 0
2510 -4 -6 -7 -9 -11 -14 -16 -18 -19 -21 -24 -26 0
-2511 3 0
-2511 6 0
-2511 7 0
-2511 9 0
-2511 11 0
-2511 14 0
-2511 15 0
-2511 18 0
-2511 19 0
-2511 21 0
-2511 24 0
-2511 26 0
2511 -3 -6 -7 -9 -11 -14 -15 -18 -19 -21 -24 -26 0
-2512 4 0
-2512 6 0
-2512 7 0
-2512 9 0
-2512 11 0
-2512 14 0
-2512 15 0
-2512 18 0
-2512 19 0
-2512 21 0
-2512 24 0
-2512 26 0
2512 -4 -6 -7 -9 -11 -14 -15 -18 -19 -21 -24 -26 0
-2513 3 0
-2513 5 0
-2513 7 0
-2513 9 0
-2513 11 0
-2513 14 0
-2513 15 0
-2513 18 0
-2513 19 0
-2513 21 0
-2513 24 0
-2513 26 0
2513 -3 -5 -7 -9 -11 -14 -15 -18 -19 -21 -24 -26 0
-2514 4 0
-2514 5 0
-2514 7 0
-2514 9 0
-2514 11 0
-2514 14 0
-2514 15 0
-2514 18 0
-2514 19 0
-2514 21 0
-2514 24 0
-2514 26 0
2514 -4 -5 -7 -9 -11 -14 -15 -18 -19 -21 -24 -26 0
-2515 3 0
-2515 5 0
-2515 8 0
-2515 9 0
-2515 11 0
-2515 14 0
-2515 15 0
-2515 18 0
-2515 19 0
-2515 21 0
-2515 24 0
-2515 26 0
2515 -3 -5 -8 -9 -11 -14 -15 -18 -19 -21 -24 -26 0
-2516 4 0
-2516 5 0
-2516 8 0
-2516 9 0
-2516 11 0
-2516 14 0
-2516 15 0
-2516 18 0
-2516 19 0
-2516 21 0
-2516 24 0
-2516 26 0
2516 -4 -5 -8 -9 -11 -14 -15 -18 -19 -21 -24 -26 0
-2517 3 0
-2517 6 0
-2517 8 0
-2517 9 0
-2517 11 0
-2517 14 0
-2517 15 0
-2517 18 0
-2517 19 0
-2517 21 0
-2517 24 0
-2517 26 0
2517 -3 -6 -8 -9 -11 -14 -15 -18 -19 -21 -24 -26 0
-2518 4 0
-2518 6 0
-2518 8 0
-2518 9 0
-2518 11 0
-2518 14 0
-2518 15 0
-2518 18 0
-2518 19 0
-2518 21 0
-2518 24 0
-2518 26 0
2518 -4 -6 -8 -9 -11 -14 -15 -18 -19 -21 -24 -26 0
-2519 3 0
-2519 6 0
-2519 8 0
-2519 10 0
-2519 11 0
-2519 14 0
-2519 15 0
-2519 18 0
-2519 19 0
-2519 21 0
-2519 24 0
-2519 26 0
2519 -3 -6 -8 -10 -11 -14 -15 -18 -19 -21 -24 -26 0
-2520 4 0
-2520 6 0
-2520 8 0
-2520 10 0
-2520 11 0
-2520 14 0
-2520 15 0
-2520 18 0
-2520 19 0
-2520 21 0
-2520 24 0
-2520 26 0
2520 -4 -6 -8 -10 -11 -14 -15 -18 -19 -21 -24 -26 0
-2521 3 0
-2521 5 0
-2521 8 0
-2521 10 0
-2521 11 0
-2521 14 0
-2521 15 0
-2521 18 0
-2521 19 0
-2521 21 0
-2521 24 0
-2521 26 0
2521 -3 -5 -8 -10 -11 -14 -15 -18 -19 -21 -24 -26 0
-2522 4 0
-2522 5 0
-2522 8 0
-2522 10 0
-2522 11 0
-2522 14 0
-2522 15 0
-2522 18 0
-2522 19 0
-2522 21 0
-2522 24 0
-2522 26 0
2522 -4 -5 -8 -10 -11 -14 -15 -18 -19 -21 -24 -26 0
-2523 3 0
-2523 5 0
-2523 7 0
-2523 10 0
-2523 11 0
-2523 14 0
-2523 15 0
-2523 18 0
-2523 19 0
-2523 21 0
-2523 24 0
-2523 26 0
2523 -3 -5 -7 -10 -11 -14 -15 -18 -19 -21 -24 -26 0
-2524 4 0
-2524 5 0
-2524 7 0
-2524 10 0
-2524 11 0
-2524 14 0
-2524 15 0
-2524 18 0
-2524 19 0
-2524 21 0
-2524 24 0
-2524 26 0
2524 -4 -5 -7 -10 -11 -14 -15 -18 -19 -21 -24 -26 0
-2525 3 0
-2525 6 0
-2525 7 0
-2525 10 0
-2525 11 0
-2525 14 0
-2525 15 0
-2525 18 0
-2525 19 0
-2525 21 0
-2525 24 0
-2525 26 0
2525 -3 -6 -7 -10 -11 -14 -15 -18 -19 -21 -24 -26 0
-2526 4 0
-2526 6 0
-2526 7 0
-2526 10 0
-2526 11 0
-2526 14 0
-2526 15 0
-2526 18 0
-2526 19 0
-2526 21 0
-2526 24 0
-2526 26 0
2526 -4 -6 -7 -10 -11 -14 -15 -18 -19 -21 -24 -26 0
-2527 3 0
-2527 6 0
-2527 7 0
-2527 10 0
-2527 12 0
-2527 14 0
-2527 15 0
-2527 18 0
-2527 19 0
-2527 21 0
-2527 24 0
-2527 26 0
2527 -3 -6 -7 -10 -12 -14 -15 -18 -19 -21 -24 -26 0
-2528 4 0
-2528 6 0
-2528 7 0
-2528 10 0
-2528 12 0
-2528 14 0
-2528 15 0
-2528 18 0
-2528 19 0
-2528 21 0
-2528 24 0
-2528 26 0
2528 -4 -6 -7 -10 -12 -14 -15 -18 -19 -21 -24 -26 0
-2529 3 0
-2529 5 0
-2529 7 0
-2529 10 0
-2529 12 0
-2529 14 0
-2529 15 0
-2529 18 0
-2529 19 0
-2529 21 0
-2529 24 0
-2529 26 0
2529 -3 -5 -7 -10 -12 -14 -15 -18 -19 -21 -24 -26 0
-2530 4 0
-2530 6 0
-2530 8 0
-2530 9 0
-2530 12 0
-2530 13 0
-2530 15 0
-2530 18 0
-2530 19 0
-2530 21 0
-2530 23 0
-2530 26 0
2530 -4 -6 -8 -9 -12 -13 -15 -18 -19 -21 -23 -26 0
-2531 4 0
-2531 5 0
-2531 7 0
-2531 10 0
-2531 12 0
-2531 14 0
-2531 15 0
-2531 18 0
-2531 19 0
-2531 21 0
-2531 24 0
-2531 26 0
2531 -4 -5 -7 -10 -12 -14 -15 -18 -19 -21 -24 -26 0
-2532 3 0
-2532 5 0
-2532 8 0
-2532 10 0
-2532 12 0
-2532 14 0
-2532 15 0
-2532 18 0
-2532 19 0
-2532 21 0
-2532 24 0
-2532 26 0
2532 -3 -5 -8 -10 -12 -14 -15 -18 -19 -21 -24 -26 0
-2533 4 0
-2533 5 0
-2533 8 0
-2533 10 0
-2533 12 0
-2533 14 0
-2533 15 0
-2533 18 0
-2533 19 0
-2533 21 0
-2533 24 0
-2533 26 0
2533 -4 -5 -8 -10 -12 -14 -15 -18 -19 -21 -24 -26 0
-2534 3 0
-2534 6 0
-2534 8 0
-2534 10 0
-2534 12 0
-2534 14 0
-2534 15 0
-2534 18 0
-2534 19 0
-2534 21 0
-2534 24 0
-2534 26 0
2534 -3 -6 -8 -10 -12 -14 -15 -18 -19 -21 -24 -26 0
-2535 4 0
-2535 6 0
-2535 8 0
-2535 10 0
-2535 12 0
-2535 13 0
-2535 15 0
-2535 18 0
-2535 19 0
-2535 21 0
-2535 23 0
-2535 26 0
2535 -4 -6 -8 -10 -12 -13 -15 -18 -19 -21 -23 -26 0
-2536 4 0
-2536 6 0
-2536 8 0
-2536 10 0
-2536 12 0
-2536 14 0
-2536 15 0
-2536 18 0
-2536 19 0
-2536 21 0
-2536 24 0
-2536 26 0
2536 -4 -6 -8 -10 -12 -14 -15 -18 -19 -21 -24 -26 0
-2537 3 0
-2537 6 0
-2537 8 0
-2537 9 0
-2537 12 0
-2537 14 0
-2537 15 0
-2537 18 0
-2537 19 0
-2537 21 0
-2537 24 0
-2537 26 0
2537 -3 -6 -8 -9 -12 -14 -15 -18 -19 -21 -24 -26 0
-2538 4 0
-2538 6 0
-2538 8 0
-2538 9 0
-2538 12 0
-2538 14 0
-2538 15 0
-2538 18 0
-2538 19 0
-2538 21 0
-2538 24 0
-2538 26 0
2538 -4 -6 -8 -9 -12 -14 -15 -18 -19 -21 -24 -26 0
-2539 3 0
-2539 5 0
-2539 8 0
-2539 9 0
-2539 12 0
-2539 14 0
-2539 15 0
-2539 18 0
-2539 19 0
-2539 21 0
-2539 24 0
-2539 26 0
2539 -3 -5 -8 -9 -12 -14 -15 -18 -19 -21 -24 -26 0
-2540 4 0
-2540 5 0
-2540 8 0
-2540 9 0
-2540 12 0
-2540 14 0
-2540 15 0
-2540 18 0
-2540 19 0
-2540 21 0
-2540 24 0
-2540 26 0
2540 -4 -5 -8 -9 -12 -14 -15 -18 -19 -21 -24 -26 0
-2541 3 0
-2541 5 0
-2541 7 0
-2541 9 0
-2541 12 0
-2541 14 0
-2541 15 0
-2541 18 0
-2541 19 0
-2541 21 0
-2541 24 0
-2541 26 0
2541 -3 -5 -7 -9 -12 -14 -15 -18 -19 -21 -24 -26 0
-2542 4 0
-2542 5 0
-2542 7 0
-2542 9 0
-2542 12 0
-2542 14 0
-2542 15 0
-2542 18 0
-2542 19 0
-2542 21 0
-2542 24 0
-2542 26 0
2542 -4 -5 -7 -9 -12 -14 -15 -18 -19 -21 -24 -26 0
-2543 3 0
-2543 6 0
-2543 7 0
-2543 9 0
-2543 12 0
-2543 14 0
-2543 15 0
-2543 18 0
-2543 19 0
-2543 21 0
-2543 24 0
-2543 26 0
2543 -3 -6 -7 -9 -12 -14 -15 -18 -19 -21 -24 -26 0
-2544 4 0
-2544 6 0
-2544 7 0
-2544 9 0
-2544 12 0
-2544 14 0
-2544 15 0
-2544 18 0
-2544 19 0
-2544 21 0
-2544 23 0
-2544 26 0
2544 -4 -6 -7 -9 -12 -14 -15 -18 -19 -21 -23 -26 0
-2545 4 0
-2545 6 0
-2545 7 0
-2545 9 0
-2545 12 0
-2545 14 0
-2545 15 0
-2545 18 0
-2545 19 0
-2545 21 0
-2545 24 0
-2545 26 0
2545 -4 -6 -7 -9 -12 -14 -15 -18 -19 -21 -24 -26 0
-2546 3 0
-2546 6 0
-2546 7 0
-2546 9 0
-2546 12 0
-2546 13 0
-2546 15 0
-2546 18 0
-2546 19 0
-2546 21 0
-2546 24 0
-2546 26 0
2546 -3 -6 -7 -9 -12 -13 -15 -18 -19 -21 -24 -26 0
-2547 4 0
-2547 6 0
-2547 7 0
-2547 9 0
-2547 12 0
-2547 13 0
-2547 15 0
-2547 18 0
-2547 19 0
-2547 21 0
-2547 24 0
-2547 26 0
2547 -4 -6 -7 -9 -12 -13 -15 -18 -19 -21 -24 -26 0
-2548 3 0
-2548 5 0
-2548 7 0
-2548 9 0
-2548 12 0
-2548 13 0
-2548 15 0
-2548 18 0
-2548 19 0
-2548 21 0
-2548 24 0
-2548 26 0
2548 -3 -5 -7 -9 -12 -13 -15 -18 -19 -21 -24 -26 0
-2549 4 0
-2549 5 0
-2549 7 0
-2549 9 0
-2549 12 0
-2549 13 0
-2549 15 0
-2549 18 0
-2549 19 0
-2549 21 0
-2549 24 0
-2549 26 0
2549 -4 -5 -7 -9 -12 -13 -15 -18 -19 -21 -24 -26 0
-2550 3 0
-2550 5 0
-2550 8 0
-2550 9 0
-2550 12 0
-2550 13 0
-2550 15 0
-2550 18 0
-2550 19 0
-2550 21 0
-2550 24 0
-2550 26 0
2550 -3 -5 -8 -9 -12 -13 -15 -18 -19 -21 -24 -26 0
-2551 4 0
-2551 5 0
-2551 8 0
-2551 9 0
-2551 12 0
-2551 13 0
-2551 15 0
-2551 18 0
-2551 19 0
-2551 21 0
-2551 24 0
-2551 26 0
2551 -4 -5 -8 -9 -12 -13 -15 -18 -19 -21 -24 -26 0
-2552 3 0
-2552 6 0
-2552 8 0
-2552 9 0
-2552 12 0
-2552 13 0
-2552 15 0
-2552 18 0
-2552 19 0
-2552 21 0
-2552 24 0
-2552 26 0
2552 -3 -6 -8 -9 -12 -13 -15 -18 -19 -21 -24 -26 0
-2553 4 0
-2553 6 0
-2553 8 0
-2553 9 0
-2553 12 0
-2553 13 0
-2553 15 0
-2553 18 0
-2553 19 0
-2553 21 0
-2553 24 0
-2553 26 0
2553 -4 -6 -8 -9 -12 -13 -15 -18 -19 -21 -24 -26 0
-2554 3 0
-2554 6 0
-2554 8 0
-2554 10 0
-2554 12 0
-2554 13 0
-2554 15 0
-2554 18 0
-2554 19 0
-2554 21 0
-2554 24 0
-2554 26 0
2554 -3 -6 -8 -10 -12 -13 -15 -18 -19 -21 -24 -26 0
-2555 4 0
-2555 6 0
-2555 8 0
-2555 10 0
-2555 12 0
-2555 13 0
-2555 15 0
-2555 18 0
-2555 19 0
-2555 21 0
-2555 24 0
-2555 26 0
2555 -4 -6 -8 -10 -12 -13 -15 -18 -19 -21 -24 -26 0
-2556 3 0
-2556 5 0
-2556 8 0
-2556 10 0
-2556 12 0
-2556 13 0
-2556 15 0
-2556 18 0
-2556 19 0
-2556 21 0
-2556 24 0
-2556 26 0
2556 -3 -5 -8 -10 -12 -13 -15 -18 -19 -21 -24 -26 0
-2557 4 0
-2557 5 0
-2557 8 0
-2557 10 0
-2557 12 0
-2557 13 0
-2557 15 0
-2557 18 0
-2557 19 0
-2557 21 0
-2557 24 0
-2557 26 0
2557 -4 -5 -8 -10 -12 -13 -15 -18 -19 -21 -24 -26 0
-2558 3 0
-2558 5 0
-2558 7 0
-2558 10 0
-2558 12 0
-2558 13 0
-2558 15 0
-2558 18 0
-2558 19 0
-2558 21 0
-2558 24 0
-2558 26 0
2558 -3 -5 -7 -10 -12 -13 -15 -18 -19 -21 -24 -26 0
-2559 4 0
-2559 5 0
-2559 7 0
-2559 10 0
-2559 12 0
-2559 13 0
-2559 15 0
-2559 18 0
-2559 19 0
-2559 21 0
-2559 24 0
-2559 26 0
2559 -4 -5 -7 -10 -12 -13 -15 -18 -19 -21 -24 -26 0
-2560 3 0
-2560 6 0
-2560 7 0
-2560 10 0
-2560 12 0
-2560 13 0
-2560 15 0
-2560 18 0
-2560 19 0
-2560 21 0
-2560 24 0
-2560 26 0
2560 -3 -6 -7 -10 -12 -13 -15 -18 -19 -21 -24 -26 0
-2561 4 0
-2561 6 0
-2561 7 0
-2561 10 0
-2561 12 0
-2561 13 0
-2561 15 0
-2561 18 0
-2561 19 0
-2561 21 0
-2561 23 0
-2561 26 0
2561 -4 -6 -7 -10 -12 -13 -15 -18 -19 -21 -23 -26 0
-2562 4 0
-2562 6 0
-2562 7 0
-2562 10 0
-2562 12 0
-2562 13 0
-2562 15 0
-2562 18 0
-2562 19 0
-2562 21 0
-2562 24 0
-2562 26 0
2562 -4 -6 -7 -10 -12 -13 -15 -18 -19 -21 -24 -26 0
-2563 3 0
-2563 6 0
-2563 7 0
-2563 10 0
-2563 11 0
-2563 13 0
-2563 15 0
-2563 18 0
-2563 19 0
-2563 21 0
-2563 24 0
-2563 26 0
2563 -3 -6 -7 -10 -11 -13 -15 -18 -19 -21 -24 -26 0
-2564 4 0
-2564 6 0
-2564 7 0
-2564 10 0
-2564 11 0
-2564 13 0
-2564 15 0
-2564 18 0
-2564 19 0
-2564 21 0
-2564 24 0
-2564 26 0
2564 -4 -6 -7 -10 -11 -13 -15 -18 -19 -21 -24 -26 0
-2565 3 0
-2565 5 0
-2565 7 0
-2565 10 0
-2565 11 0
-2565 13 0
-2565 15 0
-2565 18 0
-2565 19 0
-2565 21 0
-2565 24 0
-2565 26 0
2565 -3 -5 -7 -10 -11 -13 -15 -18 -19 -21 -24 -26 0
-2566 4 0
-2566 6 0
-2566 8 0
-2566 9 0
-2566 11 0
-2566 13 0
-2566 15 0
-2566 18 0
-2566 19 0
-2566 21 0
-2566 23 0
-2566 26 0
2566 -4 -6 -8 -9 -11 -13 -15 -18 -19 -21 -23 -26 0
-2567 4 0
-2567 5 0
-2567 7 0
-2567 10 0
-2567 11 0
-2567 13 0
-2567 15 0
-2567 18 0
-2567 19 0
-2567 21 0
-2567 24 0
-2567 26 0
2567 -4 -5 -7 -10 -11 -13 -15 -18 -19 -21 -24 -26 0
-2568 3 0
-2568 5 0
-2568 8 0
-2568 10 0
-2568 11 0
-2568 13 0
-2568 15 0
-2568 18 0
-2568 19 0
-2568 21 0
-2568 24 0
-2568 26 0
2568 -3 -5 -8 -10 -11 -13 -15 -18 -19 -21 -24 -26 0
-2569 4 0
-2569 5 0
-2569 8 0
-2569 10 0
-2569 11 0
-2569 13 0
-2569 15 0
-2569 18 0
-2569 19 0
-2569 21 0
-2569 24 0
-2569 26 0
2569 -4 -5 -8 -10 -11 -13 -15 -18 -19 -21 -24 -26 0
-2570 3 0
-2570 6 0
-2570 8 0
-2570 10 0
-2570 11 0
-2570 13 0
-2570 15 0
-2570 18 0
-2570 19 0
-2570 21 0
-2570 24 0
-2570 26 0
2570 -3 -6 -8 -10 -11 -13 -15 -18 -19 -21 -24 -26 0
-2571 4 0
-2571 6 0
-2571 8 0
-2571 10 0
-2571 11 0
-2571 13 0
-2571 15 0
-2571 18 0
-2571 19 0
-2571 21 0
-2571 23 0
-2571 26 0
2571 -4 -6 -8 -10 -11 -13 -15 -18 -19 -21 -23 -26 0
-2572 4 0
-2572 6 0
-2572 8 0
-2572 10 0
-2572 11 0
-2572 13 0
-2572 15 0
-2572 18 0
-2572 19 0
-2572 21 0
-2572 24 0
-2572 26 0
2572 -4 -6 -8 -10 -11 -13 -15 -18 -19 -21 -24 -26 0
-2573 3 0
-2573 6 0
-2573 8 0
-2573 9 0
-2573 11 0
-2573 13 0
-2573 15 0
-2573 18 0
-2573 19 0
-2573 21 0
-2573 24 0
-2573 26 0
2573 -3 -6 -8 -9 -11 -13 -15 -18 -19 -21 -24 -26 0
-2574 4 0
-2574 6 0
-2574 8 0
-2574 9 0
-2574 11 0
-2574 13 0
-2574 15 0
-2574 18 0
-2574 19 0
-2574 21 0
-2574 24 0
-2574 26 0
2574 -4 -6 -8 -9 -11 -13 -15 -18 -19 -21 -24 -26 0
-2575 3 0
-2575 5 0
-2575 8 0
-2575 9 0
-2575 11 0
-2575 13 0
-2575 15 0
-2575 18 0
-2575 19 0
-2575 21 0
-2575 24 0
-2575 26 0
2575 -3 -5 -8 -9 -11 -13 -15 -18 -19 -21 -24 -26 0
-2576 4 0
-2576 6 0
-2576 7 0
-2576 9 0
-2576 11 0
-2576 13 0
-2576 15 0
-2576 18 0
-2576 19 0
-2576 21 0
-2576 23 0
-2576 26 0
2576 -4 -6 -7 -9 -11 -13 -15 -18 -19 -21 -23 -26 0
-2577 4 0
-2577 5 0
-2577 8 0
-2577 9 0
-2577 11 0
-2577 13 0
-2577 15 0
-2577 18 0
-2577 19 0
-2577 21 0
-2577 24 0
-2577 26 0
2577 -4 -5 -8 -9 -11 -13 -15 -18 -19 -21 -24 -26 0
-2578 3 0
-2578 5 0
-2578 7 0
-2578 9 0
-2578 11 0
-2578 13 0
-2578 15 0
-2578 18 0
-2578 19 0
-2578 21 0
-2578 24 0
-2578 26 0
2578 -3 -5 -7 -9 -11 -13 -15 -18 -19 -21 -24 -26 0
-2579 4 0
-2579 5 0
-2579 7 0
-2579 9 0
-2579 11 0
-2579 13 0
-2579 15 0
-2579 18 0
-2579 19 0
-2579 21 0
-2579 24 0
-2579 26 0
2579 -4 -5 -7 -9 -11 -13 -15 -18 -19 -21 -24 -26 0
-2580 3 0
-2580 6 0
-2580 7 0
-2580 9 0
-2580 11 0
-2580 13 0
-2580 15 0
-2580 18 0
-2580 19 0
-2580 21 0
-2580 24 0
-2580 26 0
2580 -3 -6 -7 -9 -11 -13 -15 -18 -19 -21 -24 -26 0
-2581 3 0
-2581 5 0
-2581 7 0
-2581 9 0
-2581 11 0
-2581 13 0
-2581 15 0
-2581 17 0
-2581 20 0
-2581 21 0
-2581 23 0
-2581 26 0
2581 -3 -5 -7 -9 -11 -13 -15 -17 -20 -21 -23 -26 0
-2582 3 0
-2582 6 0
-2582 7 0
-2582 9 0
-2582 11 0
-2582 13 0
-2582 15 0
-2582 17 0
-2582 20 0
-2582 21 0
-2582 23 0
-2582 26 0
2582 -3 -6 -7 -9 -11 -13 -15 -17 -20 -21 -23 -26 0
-2583 4 0
-2583 5 0
-2583 7 0
-2583 9 0
-2583 11 0
-2583 13 0
-2583 15 0
-2583 17 0
-2583 20 0
-2583 21 0
-2583 23 0
-2583 26 0
2583 -4 -5 -7 -9 -11 -13 -15 -17 -20 -21 -23 -26 0
-2584 4 0
-2584 6 0
-2584 7 0
-2584 9 0
-2584 11 0
-2584 13 0
-2584 15 0
-2584 18 0
-2584 19 0
-2584 21 0
-2584 24 0
-2584 26 0
2584 -4 -6 -7 -9 -11 -13 -15 -18 -19 -21 -24 -26 0
-2585 3 0
-2585 6 0
-2585 7 0
-2585 9 0
-2585 11 0
-2585 13 0
-2585 15 0
-2585 18 0
-2585 20 0
-2585 21 0
-2585 24 0
-2585 26 0
2585 -3 -6 -7 -9 -11 -13 -15 -18 -20 -21 -24 -26 0
-2586 4 0
-2586 6 0
-2586 7 0
-2586 9 0
-2586 11 0
-2586 13 0
-2586 15 0
-2586 18 0
-2586 20 0
-2586 21 0
-2586 24 0
-2586 26 0
2586 -4 -6 -7 -9 -11 -13 -15 -18 -20 -21 -24 -26 0
-2587 3 0
-2587 5 0
-2587 7 0
-2587 9 0
-2587 11 0
-2587 13 0
-2587 15 0
-2587 18 0
-2587 20 0
-2587 21 0
-2587 24 0
-2587 26 0
2587 -3 -5 -7 -9 -11 -13 -15 -18 -20 -21 -24 -26 0
-2588 3 0
-2588 5 0
-2588 8 0
-2588 9 0
-2588 11 0
-2588 13 0
-2588 15 0
-2588 17 0
-2588 20 0
-2588 21 0
-2588 23 0
-2588 26 0
2588 -3 -5 -8 -9 -11 -13 -15 -17 -20 -21 -23 -26 0
-2589 3 0
-2589 6 0
-2589 8 0
-2589 9 0
-2589 11 0
-2589 13 0
-2589 15 0
-2589 17 0
-2589 20 0
-2589 21 0
-2589 23 0
-2589 26 0
2589 -3 -6 -8 -9 -11 -13 -15 -17 -20 -21 -23 -26 0
-2590 4 0
-2590 5 0
-2590 8 0
-2590 9 0
-2590 11 0
-2590 13 0
-2590 15 0
-2590 17 0
-2590 20 0
-2590 21 0
-2590 23 0
-2590 26 0
2590 -4 -5 -8 -9 -11 -13 -15 -17 -20 -21 -23 -26 0
-2591 4 0
-2591 5 0
-2591 7 0
-2591 9 0
-2591 11 0
-2591 13 0
-2591 15 0
-2591 18 0
-2591 20 0
-2591 21 0
-2591 24 0
-2591 26 0
2591 -4 -5 -7 -9 -11 -13 -15 -18 -20 -21 -24 -26 0
-2592 3 0
-2592 5 0
-2592 8 0
-2592 9 0
-2592 11 0
-2592 13 0
-2592 15 0
-2592 18 0
-2592 20 0
-2592 21 0
-2592 24 0
-2592 26 0
2592 -3 -5 -8 -9 -11 -13 -15 -18 -20 -21 -24 -26 0
-2593 4 0
-2593 5 0
-2593 8 0
-2593 9 0
-2593 11 0
-2593 13 0
-2593 15 0
-2593 18 0
-2593 20 0
-2593 21 0
-2593 24 0
-2593 26 0
2593 -4 -5 -8 -9 -11 -13 -15 -18 -20 -21 -24 -26 0
-2594 3 0
-2594 6 0
-2594 8 0
-2594 9 0
-2594 11 0
-2594 13 0
-2594 15 0
-2594 18 0
-2594 20 0
-2594 21 0
-2594 24 0
-2594 26 0
2594 -3 -6 -8 -9 -11 -13 -15 -18 -20 -21 -24 -26 0
-2595 3 0
-2595 5 0
-2595 7 0
-2595 10 0
-2595 11 0
-2595 13 0
-2595 15 0
-2595 17 0
-2595 20 0
-2595 21 0
-2595 23 0
-2595 26 0
2595 -3 -5 -7 -10 -11 -13 -15 -17 -20 -21 -23 -26 0
-2596 3 0
-2596 6 0
-2596 7 0
-2596 10 0
-2596 11 0
-2596 13 0
-2596 15 0
-2596 17 0
-2596 20 0
-2596 21 0
-2596 23 0
-2596 26 0
2596 -3 -6 -7 -10 -11 -13 -15 -17 -20 -21 -23 -26 0
-2597 4 0
-2597 5 0
-2597 7 0
-2597 10 0
-2597 11 0
-2597 13 0
-2597 15 0
-2597 17 0
-2597 20 0
-2597 21 0
-2597 23 0
-2597 26 0
2597 -4 -5 -7 -10 -11 -13 -15 -17 -20 -21 -23 -26 0
-2598 4 0
-2598 6 0
-2598 8 0
-2598 9 0
-2598 11 0
-2598 13 0
-2598 15 0
-2598 18 0
-2598 20 0
-2598 21 0
-2598 24 0
-2598 26 0
2598 -4 -6 -8 -9 -11 -13 -15 -18 -20 -21 -24 -26 0
-2599 3 0
-2599 6 0
-2599 8 0
-2599 10 0
-2599 11 0
-2599 13 0
-2599 15 0
-2599 18 0
-2599 20 0
-2599 21 0
-2599 24 0
-2599 26 0
2599 -3 -6 -8 -10 -11 -13 -15 -18 -20 -21 -24 -26 0
-2600 4 0
-2600 6 0
-2600 8 0
-2600 10 0
-2600 11 0
-2600 13 0
-2600 15 0
-2600 18 0
-2600 20 0
-2600 21 0
-2600 24 0
-2600 26 0
2600 -4 -6 -8 -10 -11 -13 -15 -18 -20 -21 -24 -26 0
-2601 3 0
-2601 5 0
-2601 8 0
-2601 10 0
-2601 11 0
-2601 13 0
-2601 15 0
-2601 18 0
-2601 20 0
-2601 21 0
-2601 24 0
-2601 26 0
2601 -3 -5 -8 -10 -11 -13 -15 -18 -20 -21 -24 -26 0
-2602 4 0
-2602 5 0
-2602 8 0
-2602 10 0
-2602 11 0
-2602 13 0
-2602 15 0
-2602 17 0
-2602 20 0
-2602 21 0
-2602 23 0
-2602 26 0
2602 -4 -5 -8 -10 -11 -13 -15 -17 -20 -21 -23 -26 0
-2603 4 0
-2603 6 0
-2603 7 0
-2603 10 0
-2603 11 0
-2603 13 0
-2603 15 0
-2603 17 0
-2603 20 0
-2603 21 0
-2603 23 0
-2603 26 0
2603 -4 -6 -7 -10 -11 -13 -15 -17 -20 -21 -23 -26 0
-2604 4 0
-2604 5 0
-2604 8 0
-2604 10 0
-2604 11 0
-2604 13 0
-2604 15 0
-2604 18 0
-2604 20 0
-2604 21 0
-2604 24 0
-2604 26 0
2604 -4 -5 -8 -10 -11 -13 -15 -18 -20 -21 -24 -26 0
-2605 3 0
-2605 5 0
-2605 7 0
-2605 10 0
-2605 11 0
-2605 13 0
-2605 15 0
-2605 18 0
-2605 20 0
-2605 21 0
-2605 24 0
-2605 26 0
2605 -3 -5 -7 -10 -11 -13 -15 -18 -20 -21 -24 -26 0
-2606 4 0
-2606 5 0
-2606 7 0
-2606 10 0
-2606 11 0
-2606 13 0
-2606 15 0
-2606 18 0
-2606 20 0
-2606 21 0
-2606 24 0
-2606 26 0
2606 -4 -5 -7 -10 -11 -13 -15 -18 -20 -21 -24 -26 0
-2607 3 0
-2607 6 0
-2607 7 0
-2607 10 0
-2607 11 0
-2607 13 0
-2607 15 0
-2607 18 0
-2607 20 0
-2607 21 0
-2607 24 0
-2607 26 0
2607 -3 -6 -7 -10 -11 -13 -15 -18 -20 -21 -24 -26 0
-2608 3 0
-2608 5 0
-2608 7 0
-2608 9 0
-2608 12 0
-2608 13 0
-2608 15 0
-2608 17 0
-2608 20 0
-2608 21 0
-2608 23 0
-2608 26 0
2608 -3 -5 -7 -9 -12 -13 -15 -17 -20 -21 -23 -26 0
-2609 3 0
-2609 6 0
-2609 7 0
-2609 9 0
-2609 12 0
-2609 13 0
-2609 15 0
-2609 17 0
-2609 20 0
-2609 21 0
-2609 23 0
-2609 26 0
2609 -3 -6 -7 -9 -12 -13 -15 -17 -20 -21 -23 -26 0
-2610 4 0
-2610 5 0
-2610 7 0
-2610 9 0
-2610 12 0
-2610 13 0
-2610 15 0
-2610 17 0
-2610 20 0
-2610 21 0
-2610 23 0
-2610 26 0
2610 -4 -5 -7 -9 -12 -13 -15 -17 -20 -21 -23 -26 0
-2611 4 0
-2611 6 0
-2611 7 0
-2611 10 0
-2611 11 0
-2611 13 0
-2611 15 0
-2611 18 0
-2611 20 0
-2611 21 0
-2611 24 0
-2611 26 0
2611 -4 -6 -7 -10 -11 -13 -15 -18 -20 -21 -24 -26 0
-2612 3 0
-2612 6 0
-2612 7 0
-2612 10 0
-2612 12 0
-2612 13 0
-2612 15 0
-2612 18 0
-2612 20 0
-2612 21 0
-2612 24 0
-2612 26 0
2612 -3 -6 -7 -10 -12 -13 -15 -18 -20 -21 -24 -26 0
-2613 4 0
-2613 6 0
-2613 7 0
-2613 10 0
-2613 12 0
-2613 13 0
-2613 15 0
-2613 18 0
-2613 20 0
-2613 21 0
-2613 24 0
-2613 26 0
2613 -4 -6 -7 -10 -12 -13 -15 -18 -20 -21 -24 -26 0
-2614 3 0
-2614 5 0
-2614 7 0
-2614 10 0
-2614 12 0
-2614 13 0
-2614 15 0
-2614 18 0
-2614 20 0
-2614 21 0
-2614 24 0
-2614 26 0
2614 -3 -5 -7 -10 -12 -13 -15 -18 -20 -21 -24 -26 0
-2615 3 0
-2615 5 0
-2615 8 0
-2615 9 0
-2615 12 0
-2615 13 0
-2615 15 0
-2615 17 0
-2615 20 0
-2615 21 0
-2615 23 0
-2615 26 0
2615 -3 -5 -8 -9 -12 -13 -15 -17 -20 -21 -23 -26 0
-2616 3 0
-2616 6 0
-2616 8 0
-2616 9 0
-2616 12 0
-2616 13 0
-2616 15 0
-2616 17 0
-2616 20 0
-2616 21 0
-2616 23 0
-2616 26 0
2616 -3 -6 -8 -9 -12 -13 -15 -17 -20 -21 -23 -26 0
-2617 4 0
-2617 5 0
-2617 8 0
-2617 9 0
-2617 12 0
-2617 13 0
-2617 15 0
-2617 17 0
-2617 20 0
-2617 21 0
-2617 23 0
-2617 26 0
2617 -4 -5 -8 -9 -12 -13 -15 -17 -20 -21 -23 -26 0
-2618 4 0
-2618 5 0
-2618 7 0
-2618 10 0
-2618 12 0
-2618 13 0
-2618 15 0
-2618 18 0
-2618 20 0
-2618 21 0
-2618 24 0
-2618 26 0
2618 -4 -5 -7 -10 -12 -13 -15 -18 -20 -21 -24 -26 0
-2619 3 0
-2619 5 0
-2619 8 0
-2619 10 0
-2619 12 0
-2619 13 0
-2619 15 0
-2619 18 0
-2619 20 0
-2619 21 0
-2619 24 0
-2619 26 0
2619 -3 -5 -8 -10 -12 -13 -15 -18 -20 -21 -24 -26 0
-2620 4 0
-2620 5 0
-2620 8 0
-2620 10 0
-2620 12 0
-2620 13 0
-2620 15 0
-2620 18 0
-2620 20 0
-2620 21 0
-2620 24 0
-2620 26 0
2620 -4 -5 -8 -10 -12 -13 -15 -18 -20 -21 -24 -26 0
-2621 3 0
-2621 6 0
-2621 8 0
-2621 10 0
-2621 12 0
-2621 13 0
-2621 15 0
-2621 18 0
-2621 20 0
-2621 21 0
-2621 24 0
-2621 26 0
2621 -3 -6 -8 -10 -12 -13 -15 -18 -20 -21 -24 -26 0
-2622 4 0
-2622 6 0
-2622 7 0
-2622 9 0
-2622 12 0
-2622 13 0
-2622 15 0
-2622 17 0
-2622 20 0
-2622 21 0
-2622 23 0
-2622 26 0
2622 -4 -6 -7 -9 -12 -13 -15 -17 -20 -21 -23 -26 0
-2623 4 0
-2623 6 0
-2623 8 0
-2623 10 0
-2623 12 0
-2623 13 0
-2623 15 0
-2623 18 0
-2623 20 0
-2623 21 0
-2623 24 0
-2623 26 0
2623 -4 -6 -8 -10 -12 -13 -15 -18 -20 -21 -24 -26 0
-2624 3 0
-2624 6 0
-2624 8 0
-2624 9 0
-2624 12 0
-2624 13 0
-2624 15 0
-2624 18 0
-2624 20 0
-2624 21 0
-2624 24 0
-2624 26 0
2624 -3 -6 -8 -9 -12 -13 -15 -18 -20 -21 -24 -26 0
-2625 4 0
-2625 6 0
-2625 8 0
-2625 9 0
-2625 12 0
-2625 13 0
-2625 15 0
-2625 18 0
-2625 20 0
-2625 21 0
-2625 24 0
-2625 26 0
2625 -4 -6 -8 -9 -12 -13 -15 -18 -20 -21 -24 -26 0
-2626 3 0
-2626 5 0
-2626 8 0
-2626 9 0
-2626 12 0
-2626 13 0
-2626 15 0
-2626 18 0
-2626 20 0
-2626 21 0
-2626 24 0
-2626 26 0
2626 -3 -5 -8 -9 -12 -13 -15 -18 -20 -21 -24 -26 0
-2627 4 0
-2627 5 0
-2627 8 0
-2627 9 0
-2627 12 0
-2627 13 0
-2627 15 0
-2627 18 0
-2627 20 0
-2627 21 0
-2627 24 0
-2627 26 0
2627 -4 -5 -8 -9 -12 -13 -15 -18 -20 -21 -24 -26 0
-2628 3 0
-2628 5 0
-2628 7 0
-2628 9 0
-2628 12 0
-2628 13 0
-2628 15 0
-2628 18 0
-2628 20 0
-2628 21 0
-2628 24 0
-2628 26 0
2628 -3 -5 -7 -9 -12 -13 -15 -18 -20 -21 -24 -26 0
-2629 4 0
-2629 5 0
-2629 7 0
-2629 9 0
-2629 12 0
-2629 13 0
-2629 15 0
-2629 18 0
-2629 20 0
-2629 21 0
-2629 24 0
-2629 26 0
2629 -4 -5 -7 -9 -12 -13 -15 -18 -20 -21 -24 -26 0
-2630 3 0
-2630 6 0
-2630 7 0
-2630 9 0
-2630 12 0
-2630 13 0
-2630 15 0
-2630 18 0
-2630 20 0
-2630 21 0
-2630 24 0
-2630 26 0
2630 -3 -6 -7 -9 -12 -13 -15 -18 -20 -21 -24 -26 0
-2631 3 0
-2631 5 0
-2631 7 0
-2631 9 0
-2631 11 0
-2631 14 0
-2631 15 0
-2631 17 0
-2631 20 0
-2631 21 0
-2631 23 0
-2631 26 0
2631 -3 -5 -7 -9 -11 -14 -15 -17 -20 -21 -23 -26 0
-2632 3 0
-2632 6 0
-2632 7 0
-2632 9 0
-2632 11 0
-2632 14 0
-2632 15 0
-2632 17 0
-2632 20 0
-2632 21 0
-2632 23 0
-2632 26 0
2632 -3 -6 -7 -9 -11 -14 -15 -17 -20 -21 -23 -26 0
-2633 4 0
-2633 5 0
-2633 7 0
-2633 9 0
-2633 11 0
-2633 14 0
-2633 15 0
-2633 17 0
-2633 20 0
-2633 21 0
-2633 23 0
-2633 26 0
2633 -4 -5 -7 -9 -11 -14 -15 -17 -20 -21 -23 -26 0
-2634 4 0
-2634 6 0
-2634 7 0
-2634 9 0
-2634 12 0
-2634 13 0
-2634 15 0
-2634 18 0
-2634 20 0
-2634 21 0
-2634 24 0
-2634 26 0
2634 -4 -6 -7 -9 -12 -13 -15 -18 -20 -21 -24 -26 0
-2635 3 0
-2635 6 0
-2635 7 0
-2635 9 0
-2635 12 0
-2635 14 0
-2635 15 0
-2635 18 0
-2635 20 0
-2635 21 0
-2635 24 0
-2635 26 0
2635 -3 -6 -7 -9 -12 -14 -15 -18 -20 -21 -24 -26 0
-2636 4 0
-2636 6 0
-2636 7 0
-2636 9 0
-2636 12 0
-2636 14 0
-2636 15 0
-2636 18 0
-2636 20 0
-2636 21 0
-2636 24 0
-2636 26 0
2636 -4 -6 -7 -9 -12 -14 -15 -18 -20 -21 -24 -26 0
-2637 3 0
-2637 5 0
-2637 7 0
-2637 9 0
-2637 12 0
-2637 14 0
-2637 15 0
-2637 18 0
-2637 20 0
-2637 21 0
-2637 24 0
-2637 26 0
2637 -3 -5 -7 -9 -12 -14 -15 -18 -20 -21 -24 -26 0
-2638 3 0
-2638 5 0
-2638 8 0
-2638 9 0
-2638 11 0
-2638 14 0
-2638 15 0
-2638 17 0
-2638 20 0
-2638 21 0
-2638 23 0
-2638 26 0
2638 -3 -5 -8 -9 -11 -14 -15 -17 -20 -21 -23 -26 0
-2639 3 0
-2639 6 0
-2639 8 0
-2639 9 0
-2639 11 0
-2639 14 0
-2639 15 0
-2639 17 0
-2639 20 0
-2639 21 0
-2639 23 0
-2639 26 0
2639 -3 -6 -8 -9 -11 -14 -15 -17 -20 -21 -23 -26 0
-2640 4 0
-2640 5 0
-2640 8 0
-2640 9 0
-2640 11 0
-2640 14 0
-2640 15 0
-2640 17 0
-2640 20 0
-2640 21 0
-2640 23 0
-2640 26 0
2640 -4 -5 -8 -9 -11 -14 -15 -17 -20 -21 -23 -26 0
-2641 4 0
-2641 5 0
-2641 7 0
-2641 9 0
-2641 12 0
-2641 14 0
-2641 15 0
-2641 18 0
-2641 20 0
-2641 21 0
-2641 24 0
-2641 26 0
2641 -4 -5 -7 -9 -12 -14 -15 -18 -20 -21 -24 -26 0
-2642 3 0
-2642 5 0
-2642 8 0
-2642 9 0
-2642 12 0
-2642 14 0
-2642 15 0
-2642 18 0
-2642 20 0
-2642 21 0
-2642 24 0
-2642 26 0
2642 -3 -5 -8 -9 -12 -14 -15 -18 -20 -21 -24 -26 0
-2643 4 0
-2643 5 0
-2643 8 0
-2643 9 0
-2643 12 0
-2643 14 0
-2643 15 0
-2643 18 0
-2643 20 0
-2643 21 0
-2643 24 0
-2643 26 0
2643 -4 -5 -8 -9 -12 -14 -15 -18 -20 -21 -24 -26 0
-2644 3 0
-2644 6 0
-2644 8 0
-2644 9 0
-2644 12 0
-2644 14 0
-2644 15 0
-2644 18 0
-2644 20 0
-2644 21 0
-2644 24 0
-2644 26 0
2644 -3 -6 -8 -9 -12 -14 -15 -18 -20 -21 -24 -26 0
-2645 3 0
-2645 5 0
-2645 7 0
-2645 10 0
-2645 11 0
-2645 14 0
-2645 15 0
-2645 17 0
-2645 20 0
-2645 21 0
-2645 23 0
-2645 26 0
2645 -3 -5 -7 -10 -11 -14 -15 -17 -20 -21 -23 -26 0
-2646 3 0
-2646 6 0
-2646 7 0
-2646 10 0
-2646 11 0
-2646 14 0
-2646 15 0
-2646 17 0
-2646 20 0
-2646 21 0
-2646 23 0
-2646 26 0
2646 -3 -6 -7 -10 -11 -14 -15 -17 -20 -21 -23 -26 0
-2647 4 0
-2647 5 0
-2647 7 0
-2647 10 0
-2647 11 0
-2647 14 0
-2647 15 0
-2647 17 0
-2647 20 0
-2647 21 0
-2647 23 0
-2647 26 0
2647 -4 -5 -7 -10 -11 -14 -15 -17 -20 -21 -23 -26 0
-2648 4 0
-2648 6 0
-2648 8 0
-2648 9 0
-2648 12 0
-2648 14 0
-2648 15 0
-2648 18 0
-2648 20 0
-2648 21 0
-2648 24 0
-2648 26 0
2648 -4 -6 -8 -9 -12 -14 -15 -18 -20 -21 -24 -26 0
-2649 3 0
-2649 6 0
-2649 8 0
-2649 10 0
-2649 12 0
-2649 14 0
-2649 15 0
-2649 18 0
-2649 20 0
-2649 21 0
-2649 24 0
-2649 26 0
2649 -3 -6 -8 -10 -12 -14 -15 -18 -20 -21 -24 -26 0
-2650 4 0
-2650 6 0
-2650 8 0
-2650 10 0
-2650 12 0
-2650 14 0
-2650 15 0
-2650 18 0
-2650 20 0
-2650 21 0
-2650 24 0
-2650 26 0
2650 -4 -6 -8 -10 -12 -14 -15 -18 -20 -21 -24 -26 0
-2651 3 0
-2651 5 0
-2651 8 0
-2651 10 0
-2651 12 0
-2651 14 0
-2651 15 0
-2651 18 0
-2651 20 0
-2651 21 0
-2651 24 0
-2651 26 0
2651 -3 -5 -8 -10 -12 -14 -15 -18 -20 -21 -24 -26 0
-2652 4 0
-2652 5 0
-2652 8 0
-2652 10 0
-2652 11 0
-2652 14 0
-2652 15 0
-2652 17 0
-2652 20 0
-2652 21 0
-2652 23 0
-2652 26 0
2652 -4 -5 -8 -10 -11 -14 -15 -17 -20 -21 -23 -26 0
-2653 4 0
-2653 6 0
-2653 7 0
-2653 10 0
-2653 11 0
-2653 14 0
-2653 15 0
-2653 17 0
-2653 20 0
-2653 21 0
-2653 23 0
-2653 26 0
2653 -4 -6 -7 -10 -11 -14 -15 -17 -20 -21 -23 -26 0
-2654 4 0
-2654 5 0
-2654 8 0
-2654 10 0
-2654 12 0
-2654 14 0
-2654 15 0
-2654 18 0
-2654 20 0
-2654 21 0
-2654 24 0
-2654 26 0
2654 -4 -5 -8 -10 -12 -14 -15 -18 -20 -21 -24 -26 0
-2655 3 0
-2655 5 0
-2655 7 0
-2655 10 0
-2655 12 0
-2655 14 0
-2655 15 0
-2655 18 0
-2655 20 0
-2655 21 0
-2655 24 0
-2655 26 0
2655 -3 -5 -7 -10 -12 -14 -15 -18 -20 -21 -24 -26 0
-2656 4 0
-2656 5 0
-2656 7 0
-2656 10 0
-2656 12 0
-2656 14 0
-2656 15 0
-2656 18 0
-2656 20 0
-2656 21 0
-2656 24 0
-2656 26 0
2656 -4 -5 -7 -10 -12 -14 -15 -18 -20 -21 -24 -26 0
-2657 3 0
-2657 6 0
-2657 7 0
-2657 10 0
-2657 12 0
-2657 14 0
-2657 15 0
-2657 18 0
-2657 20 0
-2657 21 0
-2657 24 0
-2657 26 0
2657 -3 -6 -7 -10 -12 -14 -15 -18 -20 -21 -24 -26 0
-2658 4 0
-2658 6 0
-2658 7 0
-2658 10 0
-2658 12 0
-2658 14 0
-2658 15 0
-2658 17 0
-2658 20 0
-2658 21 0
-2658 23 0
-2658 26 0
2658 -4 -6 -7 -10 -12 -14 -15 -17 -20 -21 -23 -26 0
-2659 4 0
-2659 6 0
-2659 7 0
-2659 10 0
-2659 12 0
-2659 14 0
-2659 15 0
-2659 18 0
-2659 20 0
-2659 21 0
-2659 24 0
-2659 26 0
2659 -4 -6 -7 -10 -12 -14 -15 -18 -20 -21 -24 -26 0
-2660 3 0
-2660 6 0
-2660 7 0
-2660 10 0
-2660 11 0
-2660 14 0
-2660 15 0
-2660 18 0
-2660 20 0
-2660 21 0
-2660 24 0
-2660 26 0
2660 -3 -6 -7 -10 -11 -14 -15 -18 -20 -21 -24 -26 0
-2661 4 0
-2661 6 0
-2661 7 0
-2661 10 0
-2661 11 0
-2661 14 0
-2661 15 0
-2661 18 0
-2661 20 0
-2661 21 0
-2661 24 0
-2661 26 0
2661 -4 -6 -7 -10 -11 -14 -15 -18 -20 -21 -24 -26 0
-2662 3 0
-2662 5 0
-2662 7 0
-2662 10 0
-2662 11 0
-2662 14 0
-2662 15 0
-2662 18 0
-2662 20 0
-2662 21 0
-2662 24 0
-2662 26 0
2662 -3 -5 -7 -10 -11 -14 -15 -18 -20 -21 -24 -26 0
-2663 4 0
-2663 6 0
-2663 8 0
-2663 9 0
-2663 11 0
-2663 14 0
-2663 15 0
-2663 17 0
-2663 20 0
-2663 21 0
-2663 23 0
-2663 26 0
2663 -4 -6 -8 -9 -11 -14 -15 -17 -20 -21 -23 -26 0
-2664 4 0
-2664 5 0
-2664 7 0
-2664 10 0
-2664 11 0
-2664 14 0
-2664 15 0
-2664 18 0
-2664 20 0
-2664 21 0
-2664 24 0
-2664 26 0
2664 -4 -5 -7 -10 -11 -14 -15 -18 -20 -21 -24 -26 0
-2665 3 0
-2665 5 0
-2665 8 0
-2665 10 0
-2665 11 0
-2665 14 0
-2665 15 0
-2665 18 0
-2665 20 0
-2665 21 0
-2665 24 0
-2665 26 0
2665 -3 -5 -8 -10 -11 -14 -15 -18 -20 -21 -24 -26 0
-2666 4 0
-2666 5 0
-2666 8 0
-2666 10 0
-2666 11 0
-2666 14 0
-2666 15 0
-2666 18 0
-2666 20 0
-2666 21 0
-2666 24 0
-2666 26 0
2666 -4 -5 -8 -10 -11 -14 -15 -18 -20 -21 -24 -26 0
-2667 3 0
-2667 6 0
-2667 8 0
-2667 10 0
-2667 11 0
-2667 14 0
-2667 15 0
-2667 18 0
-2667 20 0
-2667 21 0
-2667 24 0
-2667 26 0
2667 -3 -6 -8 -10 -11 -14 -15 -18 -20 -21 -24 -26 0
-2668 4 0
-2668 6 0
-2668 8 0
-2668 10 0
-2668 11 0
-2668 14 0
-2668 15 0
-2668 17 0
-2668 20 0
-2668 21 0
-2668 23 0
-2668 26 0
2668 -4 -6 -8 -10 -11 -14 -15 -17 -20 -21 -23 -26 0
-2669 4 0
-2669 6 0
-2669 8 0
-2669 10 0
-2669 11 0
-2669 14 0
-2669 15 0
-2669 18 0
-2669 20 0
-2669 21 0
-2669 24 0
-2669 26 0
2669 -4 -6 -8 -10 -11 -14 -15 -18 -20 -21 -24 -26 0
-2670 3 0
-2670 6 0
-2670 8 0
-2670 9 0
-2670 11 0
-2670 14 0
-2670 15 0
-2670 18 0
-2670 20 0
-2670 21 0
-2670 24 0
-2670 26 0
2670 -3 -6 -8 -9 -11 -14 -15 -18 -20 -21 -24 -26 0
-2671 4 0
-2671 6 0
-2671 8 0
-2671 9 0
-2671 11 0
-2671 14 0
-2671 15 0
-2671 18 0
-2671 20 0
-2671 21 0
-2671 24 0
-2671 26 0
2671 -4 -6 -8 -9 -11 -14 -15 -18 -20 -21 -24 -26 0
-2672 3 0
-2672 5 0
-2672 8 0
-2672 9 0
-2672 11 0
-2672 14 0
-2672 15 0
-2672 18 0
-2672 20 0
-2672 21 0
-2672 24 0
-2672 26 0
2672 -3 -5 -8 -9 -11 -14 -15 -18 -20 -21 -24 -26 0
-2673 4 0
-2673 6 0
-2673 7 0
-2673 9 0
-2673 11 0
-2673 14 0
-2673 15 0
-2673 17 0
-2673 20 0
-2673 21 0
-2673 23 0
-2673 26 0
2673 -4 -6 -7 -9 -11 -14 -15 -17 -20 -21 -23 -26 0
-2674 4 0
-2674 5 0
-2674 8 0
-2674 9 0
-2674 11 0
-2674 14 0
-2674 15 0
-2674 18 0
-2674 20 0
-2674 21 0
-2674 24 0
-2674 26 0
2674 -4 -5 -8 -9 -11 -14 -15 -18 -20 -21 -24 -26 0
-2675 3 0
-2675 5 0
-2675 7 0
-2675 9 0
-2675 11 0
-2675 14 0
-2675 15 0
-2675 18 0
-2675 20 0
-2675 21 0
-2675 24 0
-2675 26 0
2675 -3 -5 -7 -9 -11 -14 -15 -18 -20 -21 -24 -26 0
-2676 4 0
-2676 5 0
-2676 7 0
-2676 9 0
-2676 11 0
-2676 14 0
-2676 15 0
-2676 18 0
-2676 20 0
-2676 21 0
-2676 24 0
-2676 26 0
2676 -4 -5 -7 -9 -11 -14 -15 -18 -20 -21 -24 -26 0
-2677 3 0
-2677 6 0
-2677 7 0
-2677 9 0
-2677 11 0
-2677 14 0
-2677 15 0
-2677 18 0
-2677 20 0
-2677 21 0
-2677 24 0
-2677 26 0
2677 -3 -6 -7 -9 -11 -14 -15 -18 -20 -21 -24 -26 0
-2678 3 0
-2678 5 0
-2678 7 0
-2678 9 0
-2678 11 0
-2678 13 0
-2678 16 0
-2678 17 0
-2678 20 0
-2678 21 0
-2678 23 0
-2678 26 0
2678 -3 -5 -7 -9 -11 -13 -16 -17 -20 -21 -23 -26 0
-2679 3 0
-2679 6 0
-2679 7 0
-2679 9 0
-2679 11 0
-2679 13 0
-2679 16 0
-2679 17 0
-2679 20 0
-2679 21 0
-2679 23 0
-2679 26 0
2679 -3 -6 -7 -9 -11 -13 -16 -17 -20 -21 -23 -26 0
-2680 4 0
-2680 5 0
-2680 7 0
-2680 9 0
-2680 11 0
-2680 13 0
-2680 16 0
-2680 17 0
-2680 20 0
-2680 21 0
-2680 23 0
-2680 26 0
2680 -4 -5 -7 -9 -11 -13 -16 -17 -20 -21 -23 -26 0
-2681 4 0
-2681 6 0
-2681 7 0
-2681 9 0
-2681 11 0
-2681 14 0
-2681 15 0
-2681 18 0
-2681 20 0
-2681 21 0
-2681 24 0
-2681 26 0
2681 -4 -6 -7 -9 -11 -14 -15 -18 -20 -21 -24 -26 0
-2682 3 0
-2682 6 0
-2682 7 0
-2682 9 0
-2682 11 0
-2682 14 0
-2682 16 0
-2682 18 0
-2682 20 0
-2682 21 0
-2682 24 0
-2682 26 0
2682 -3 -6 -7 -9 -11 -14 -16 -18 -20 -21 -24 -26 0
-2683 4 0
-2683 6 0
-2683 7 0
-2683 9 0
-2683 11 0
-2683 14 0
-2683 16 0
-2683 18 0
-2683 20 0
-2683 21 0
-2683 24 0
-2683 26 0
2683 -4 -6 -7 -9 -11 -14 -16 -18 -20 -21 -24 -26 0
-2684 3 0
-2684 5 0
-2684 7 0
-2684 9 0
-2684 11 0
-2684 14 0
-2684 16 0
-2684 18 0
-2684 20 0
-2684 21 0
-2684 24 0
-2684 26 0
2684 -3 -5 -7 -9 -11 -14 -16 -18 -20 -21 -24 -26 0
-2685 3 0
-2685 5 0
-2685 8 0
-2685 9 0
-2685 11 0
-2685 13 0
-2685 16 0
-2685 17 0
-2685 20 0
-2685 21 0
-2685 23 0
-2685 26 0
2685 -3 -5 -8 -9 -11 -13 -16 -17 -20 -21 -23 -26 0
-2686 3 0
-2686 6 0
-2686 8 0
-2686 9 0
-2686 11 0
-2686 13 0
-2686 16 0
-2686 17 0
-2686 20 0
-2686 21 0
-2686 23 0
-2686 26 0
2686 -3 -6 -8 -9 -11 -13 -16 -17 -20 -21 -23 -26 0
-2687 4 0
-2687 5 0
-2687 8 0
-2687 9 0
-2687 11 0
-2687 13 0
-2687 16 0
-2687 17 0
-2687 20 0
-2687 21 0
-2687 23 0
-2687 26 0
2687 -4 -5 -8 -9 -11 -13 -16 -17 -20 -21 -23 -26 0
-2688 4 0
-2688 5 0
-2688 7 0
-2688 9 0
-2688 11 0
-2688 14 0
-2688 16 0
-2688 18 0
-2688 20 0
-2688 21 0
-2688 24 0
-2688 26 0
2688 -4 -5 -7 -9 -11 -14 -16 -18 -20 -21 -24 -26 0
-2689 3 0
-2689 5 0
-2689 8 0
-2689 9 0
-2689 11 0
-2689 14 0
-2689 16 0
-2689 18 0
-2689 20 0
-2689 21 0
-2689 24 0
-2689 26 0
2689 -3 -5 -8 -9 -11 -14 -16 -18 -20 -21 -24 -26 0
-2690 4 0
-2690 5 0
-2690 8 0
-2690 9 0
-2690 11 0
-2690 14 0
-2690 16 0
-2690 18 0
-2690 20 0
-2690 21 0
-2690 24 0
-2690 26 0
2690 -4 -5 -8 -9 -11 -14 -16 -18 -20 -21 -24 -26 0
-2691 3 0
-2691 6 0
-2691 8 0
-2691 9 0
-2691 11 0
-2691 14 0
-2691 16 0
-2691 18 0
-2691 20 0
-2691 21 0
-2691 24 0
-2691 26 0
2691 -3 -6 -8 -9 -11 -14 -16 -18 -20 -21 -24 -26 0
-2692 3 0
-2692 5 0
-2692 7 0
-2692 10 0
-2692 11 0
-2692 13 0
-2692 16 0
-2692 17 0
-2692 20 0
-2692 21 0
-2692 23 0
-2692 26 0
2692 -3 -5 -7 -10 -11 -13 -16 -17 -20 -21 -23 -26 0
-2693 3 0
-2693 6 0
-2693 7 0
-2693 10 0
-2693 11 0
-2693 13 0
-2693 16 0
-2693 17 0
-2693 20 0
-2693 21 0
-2693 23 0
-2693 26 0
2693 -3 -6 -7 -10 -11 -13 -16 -17 -20 -21 -23 -26 0
-2694 4 0
-2694 5 0
-2694 7 0
-2694 10 0
-2694 11 0
-2694 13 0
-2694 16 0
-2694 17 0
-2694 20 0
-2694 21 0
-2694 23 0
-2694 26 0
2694 -4 -5 -7 -10 -11 -13 -16 -17 -20 -21 -23 -26 0
-2695 4 0
-2695 6 0
-2695 8 0
-2695 9 0
-2695 11 0
-2695 14 0
-2695 16 0
-2695 18 0
-2695 20 0
-2695 21 0
-2695 24 0
-2695 26 0
2695 -4 -6 -8 -9 -11 -14 -16 -18 -20 -21 -24 -26 0
-2696 3 0
-2696 6 0
-2696 8 0
-2696 10 0
-2696 11 0
-2696 14 0
-2696 16 0
-2696 18 0
-2696 20 0
-2696 21 0
-2696 24 0
-2696 26 0
2696 -3 -6 -8 -10 -11 -14 -16 -18 -20 -21 -24 -26 0
-2697 4 0
-2697 6 0
-2697 8 0
-2697 10 0
-2697 11 0
-2697 14 0
-2697 16 0
-2697 18 0
-2697 20 0
-2697 21 0
-2697 24 0
-2697 26 0
2697 -4 -6 -8 -10 -11 -14 -16 -18 -20 -21 -24 -26 0
-2698 3 0
-2698 5 0
-2698 8 0
-2698 10 0
-2698 11 0
-2698 14 0
-2698 16 0
-2698 18 0
-2698 20 0
-2698 21 0
-2698 24 0
-2698 26 0
2698 -3 -5 -8 -10 -11 -14 -16 -18 -20 -21 -24 -26 0
-2699 4 0
-2699 5 0
-2699 8 0
-2699 10 0
-2699 11 0
-2699 13 0
-2699 16 0
-2699 17 0
-2699 20 0
-2699 21 0
-2699 23 0
-2699 26 0
2699 -4 -5 -8 -10 -11 -13 -16 -17 -20 -21 -23 -26 0
-2700 4 0
-2700 6 0
-2700 7 0
-2700 10 0
-2700 11 0
-2700 13 0
-2700 16 0
-2700 17 0
-2700 20 0
-2700 21 0
-2700 23 0
-2700 26 0
2700 -4 -6 -7 -10 -11 -13 -16 -17 -20 -21 -23 -26 0
-2701 4 0
-2701 5 0
-2701 8 0
-2701 10 0
-2701 11 0
-2701 14 0
-2701 16 0
-2701 18 0
-2701 20 0
-2701 21 0
-2701 24 0
-2701 26 0
2701 -4 -5 -8 -10 -11 -14 -16 -18 -20 -21 -24 -26 0
-2702 3 0
-2702 5 0
-2702 7 0
-2702 10 0
-2702 11 0
-2702 14 0
-2702 16 0
-2702 18 0
-2702 20 0
-2702 21 0
-2702 24 0
-2702 26 0
2702 -3 -5 -7 -10 -11 -14 -16 -18 -20 -21 -24 -26 0
-2703 4 0
-2703 5 0
-2703 7 0
-2703 10 0
-2703 11 0
-2703 14 0
-2703 16 0
-2703 18 0
-2703 20 0
-2703 21 0
-2703 24 0
-2703 26 0
2703 -4 -5 -7 -10 -11 -14 -16 -18 -20 -21 -24 -26 0
-2704 3 0
-2704 6 0
-2704 7 0
-2704 10 0
-2704 11 0
-2704 14 0
-2704 16 0
-2704 18 0
-2704 20 0
-2704 21 0
-2704 24 0
-2704 26 0
2704 -3 -6 -7 -10 -11 -14 -16 -18 -20 -21 -24 -26 0
-2705 3 0
-2705 5 0
-2705 7 0
-2705 9 0
-2705 12 0
-2705 13 0
-2705 16 0
-2705 17 0
-2705 20 0
-2705 21 0
-2705 23 0
-2705 26 0
2705 -3 -5 -7 -9 -12 -13 -16 -17 -20 -21 -23 -26 0
-2706 3 0
-2706 6 0
-2706 7 0
-2706 9 0
-2706 12 0
-2706 13 0
-2706 16 0
-2706 17 0
-2706 20 0
-2706 21 0
-2706 23 0
-2706 26 0
2706 -3 -6 -7 -9 -12 -13 -16 -17 -20 -21 -23 -26 0
-2707 4 0
-2707 5 0
-2707 7 0
-2707 9 0
-2707 12 0
-2707 13 0
-2707 16 0
-2707 17 0
-2707 20 0
-2707 21 0
-2707 23 0
-2707 26 0
2707 -4 -5 -7 -9 -12 -13 -16 -17 -20 -21 -23 -26 0
-2708 4 0
-2708 6 0
-2708 7 0
-2708 10 0
-2708 11 0
-2708 14 0
-2708 16 0
-2708 18 0
-2708 20 0
-2708 21 0
-2708 24 0
-2708 26 0
2708 -4 -6 -7 -10 -11 -14 -16 -18 -20 -21 -24 -26 0
-2709 3 0
-2709 6 0
-2709 7 0
-2709 10 0
-2709 12 0
-2709 14 0
-2709 16 0
-2709 18 0
-2709 20 0
-2709 21 0
-2709 24 0
-2709 26 0
2709 -3 -6 -7 -10 -12 -14 -16 -18 -20 -21 -24 -26 0
-2710 4 0
-2710 6 0
-2710 7 0
-2710 10 0
-2710 12 0
-2710 14 0
-2710 16 0
-2710 18 0
-2710 20 0
-2710 21 0
-2710 24 0
-2710 26 0
2710 -4 -6 -7 -10 -12 -14 -16 -18 -20 -21 -24 -26 0
-2711 3 0
-2711 5 0
-2711 7 0
-2711 10 0
-2711 12 0
-2711 14 0
-2711 16 0
-2711 18 0
-2711 20 0
-2711 21 0
-2711 24 0
-2711 26 0
2711 -3 -5 -7 -10 -12 -14 -16 -18 -20 -21 -24 -26 0
-2712 3 0
-2712 5 0
-2712 8 0
-2712 9 0
-2712 12 0
-2712 13 0
-2712 16 0
-2712 17 0
-2712 20 0
-2712 21 0
-2712 23 0
-2712 26 0
2712 -3 -5 -8 -9 -12 -13 -16 -17 -20 -21 -23 -26 0
-2713 3 0
-2713 6 0
-2713 8 0
-2713 9 0
-2713 12 0
-2713 13 0
-2713 16 0
-2713 17 0
-2713 20 0
-2713 21 0
-2713 23 0
-2713 26 0
2713 -3 -6 -8 -9 -12 -13 -16 -17 -20 -21 -23 -26 0
-2714 4 0
-2714 5 0
-2714 8 0
-2714 9 0
-2714 12 0
-2714 13 0
-2714 16 0
-2714 17 0
-2714 20 0
-2714 21 0
-2714 23 0
-2714 26 0
2714 -4 -5 -8 -9 -12 -13 -16 -17 -20 -21 -23 -26 0
-2715 4 0
-2715 5 0
-2715 7 0
-2715 10 0
-2715 12 0
-2715 14 0
-2715 16 0
-2715 18 0
-2715 20 0
-2715 21 0
-2715 24 0
-2715 26 0
2715 -4 -5 -7 -10 -12 -14 -16 -18 -20 -21 -24 -26 0
-2716 3 0
-2716 5 0
-2716 8 0
-2716 10 0
-2716 12 0
-2716 14 0
-2716 16 0
-2716 18 0
-2716 20 0
-2716 21 0
-2716 24 0
-2716 26 0
2716 -3 -5 -8 -10 -12 -14 -16 -18 -20 -21 -24 -26 0
-2717 4 0
-2717 5 0
-2717 8 0
-2717 10 0
-2717 12 0
-2717 14 0
-2717 16 0
-2717 18 0
-2717 20 0
-2717 21 0
-2717 24 0
-2717 26 0
2717 -4 -5 -8 -10 -12 -14 -16 -18 -20 -21 -24 -26 0
-2718 3 0
-2718 6 0
-2718 8 0
-2718 10 0
-2718 12 0
-2718 14 0
-2718 16 0
-2718 18 0
-2718 20 0
-2718 21 0
-2718 24 0
-2718 26 0
2718 -3 -6 -8 -10 -12 -14 -16 -18 -20 -21 -24 -26 0
-2719 4 0
-2719 6 0
-2719 7 0
-2719 9 0
-2719 12 0
-2719 13 0
-2719 16 0
-2719 17 0
-2719 20 0
-2719 21 0
-2719 23 0
-2719 26 0
2719 -4 -6 -7 -9 -12 -13 -16 -17 -20 -21 -23 -26 0
-2720 3 0
-2720 6 0
-2720 8 0
-2720 9 0
-2720 12 0
-2720 14 0
-2720 16 0
-2720 18 0
-2720 20 0
-2720 21 0
-2720 24 0
-2720 26 0
2720 -3 -6 -8 -9 -12 -14 -16 -18 -20 -21 -24 -26 0
-2721 4 0
-2721 6 0
-2721 8 0
-2721 9 0
-2721 12 0
-2721 14 0
-2721 16 0
-2721 18 0
-2721 20 0
-2721 21 0
-2721 24 0
-2721 26 0
2721 -4 -6 -8 -9 -12 -14 -16 -18 -20 -21 -24 -26 0
-2722 3 0
-2722 5 0
-2722 8 0
-2722 9 0
-2722 12 0
-2722 14 0
-2722 16 0
-2722 18 0
-2722 20 0
-2722 21 0
-2722 24 0
-2722 26 0
2722 -3 -5 -8 -9 -12 -14 -16 -18 -20 -21 -24 -26 0
-2723 4 0
-2723 5 0
-2723 8 0
-2723 9 0
-2723 12 0
-2723 14 0
-2723 16 0
-2723 18 0
-2723 20 0
-2723 21 0
-2723 24 0
-2723 26 0
2723 -4 -5 -8 -9 -12 -14 -16 -18 -20 -21 -24 -26 0
-2724 3 0
-2724 5 0
-2724 7 0
-2724 9 0
-2724 12 0
-2724 14 0
-2724 16 0
-2724 18 0
-2724 20 0
-2724 21 0
-2724 24 0
-2724 26 0
2724 -3 -5 -7 -9 -12 -14 -16 -18 -20 -21 -24 -26 0
-2725 4 0
-2725 5 0
-2725 7 0
-2725 9 0
-2725 12 0
-2725 14 0
-2725 16 0
-2725 18 0
-2725 20 0
-2725 21 0
-2725 24 0
-2725 26 0
2725 -4 -5 -7 -9 -12 -14 -16 -18 -20 -21 -24 -26 0
-2726 3 0
-2726 6 0
-2726 7 0
-2726 9 0
-2726 12 0
-2726 14 0
-2726 16 0
-2726 18 0
-2726 20 0
-2726 21 0
-2726 24 0
-2726 26 0
2726 -3 -6 -7 -9 -12 -14 -16 -18 -20 -21 -24 -26 0
-2727 4 0
-2727 6 0
-2727 7 0
-2727 9 0
-2727 12 0
-2727 14 0
-2727 16 0
-2727 17 0
-2727 20 0
-2727 21 0
-2727 23 0
-2727 26 0
2727 -4 -6 -7 -9 -12 -14 -16 -17 -20 -21 -23 -26 0
-2728 4 0
-2728 6 0
-2728 7 0
-2728 9 0
-2728 12 0
-2728 14 0
-2728 16 0
-2728 18 0
-2728 20 0
-2728 21 0
-2728 24 0
-2728 26 0
2728 -4 -6 -7 -9 -12 -14 -16 -18 -20 -21 -24 -26 0
-2729 3 0
-2729 6 0
-2729 7 0
-2729 9 0
-2729 12 0
-2729 13 0
-2729 16 0
-2729 18 0
-2729 20 0
-2729 21 0
-2729 24 0
-2729 26 0
2729 -3 -6 -7 -9 -12 -13 -16 -18 -20 -21 -24 -26 0
-2730 4 0
-2730 6 0
-2730 7 0
-2730 9 0
-2730 12 0
-2730 13 0
-2730 16 0
-2730 18 0
-2730 20 0
-2730 21 0
-2730 24 0
-2730 26 0
2730 -4 -6 -7 -9 -12 -13 -16 -18 -20 -21 -24 -26 0
-2731 3 0
-2731 5 0
-2731 7 0
-2731 9 0
-2731 12 0
-2731 13 0
-2731 16 0
-2731 18 0
-2731 20 0
-2731 21 0
-2731 24 0
-2731 26 0
2731 -3 -5 -7 -9 -12 -13 -16 -18 -20 -21 -24 -26 0
-2732 4 0
-2732 6 0
-2732 8 0
-2732 9 0
-2732 11 0
-2732 13 0
-2732 16 0
-2732 17 0
-2732 20 0
-2732 21 0
-2732 23 0
-2732 26 0
2732 -4 -6 -8 -9 -11 -13 -16 -17 -20 -21 -23 -26 0
-2733 4 0
-2733 5 0
-2733 7 0
-2733 9 0
-2733 12 0
-2733 13 0
-2733 16 0
-2733 18 0
-2733 20 0
-2733 21 0
-2733 24 0
-2733 26 0
2733 -4 -5 -7 -9 -12 -13 -16 -18 -20 -21 -24 -26 0
-2734 3 0
-2734 5 0
-2734 8 0
-2734 9 0
-2734 12 0
-2734 13 0
-2734 16 0
-2734 18 0
-2734 20 0
-2734 21 0
-2734 24 0
-2734 26 0
2734 -3 -5 -8 -9 -12 -13 -16 -18 -20 -21 -24 -26 0
-2735 4 0
-2735 5 0
-2735 8 0
-2735 9 0
-2735 12 0
-2735 13 0
-2735 16 0
-2735 18 0
-2735 20 0
-2735 21 0
-2735 24 0
-2735 26 0
2735 -4 -5 -8 -9 -12 -13 -16 -18 -20 -21 -24 -26 0
-2736 3 0
-2736 6 0
-2736 8 0
-2736 9 0
-2736 12 0
-2736 13 0
-2736 16 0
-2736 18 0
-2736 20 0
-2736 21 0
-2736 24 0
-2736 26 0
2736 -3 -6 -8 -9 -12 -13 -16 -18 -20 -21 -24 -26 0
-2737 4 0
-2737 6 0
-2737 8 0
-2737 9 0
-2737 12 0
-2737 13 0
-2737 16 0
-2737 18 0
-2737 20 0
-2737 21 0
-2737 24 0
-2737 26 0
2737 -4 -6 -8 -9 -12 -13 -16 -18 -20 -21 -24 -26 0
-2738 3 0
-2738 6 0
-2738 8 0
-2738 10 0
-2738 12 0
-2738 13 0
-2738 16 0
-2738 18 0
-2738 20 0
-2738 21 0
-2738 24 0
-2738 26 0
2738 -3 -6 -8 -10 -12 -13 -16 -18 -20 -21 -24 -26 0
-2739 4 0
-2739 6 0
-2739 8 0
-2739 10 0
-2739 12 0
-2739 13 0
-2739 16 0
-2739 18 0
-2739 20 0
-2739 21 0
-2739 24 0
-2739 26 0
2739 -4 -6 -8 -10 -12 -13 -16 -18 -20 -21 -24 -26 0
-2740 3 0
-2740 5 0
-2740 8 0
-2740 10 0
-2740 12 0
-2740 13 0
-2740 16 0
-2740 18 0
-2740 20 0
-2740 21 0
-2740 24 0
-2740 26 0
2740 -3 -5 -8 -10 -12 -13 -16 -18 -20 -21 -24 -26 0
-2741 4 0
-2741 5 0
-2741 8 0
-2741 10 0
-2741 12 0
-2741 13 0
-2741 16 0
-2741 18 0
-2741 20 0
-2741 21 0
-2741 24 0
-2741 26 0
2741 -4 -5 -8 -10 -12 -13 -16 -18 -20 -21 -24 -26 0
-2742 3 0
-2742 5 0
-2742 7 0
-2742 10 0
-2742 12 0
-2742 13 0
-2742 16 0
-2742 18 0
-2742 20 0
-2742 21 0
-2742 24 0
-2742 26 0
2742 -3 -5 -7 -10 -12 -13 -16 -18 -20 -21 -24 -26 0
-2743 4 0
-2743 5 0
-2743 7 0
-2743 10 0
-2743 12 0
-2743 13 0
-2743 16 0
-2743 18 0
-2743 20 0
-2743 21 0
-2743 24 0
-2743 26 0
2743 -4 -5 -7 -10 -12 -13 -16 -18 -20 -21 -24 -26 0
-2744 3 0
-2744 6 0
-2744 7 0
-2744 10 0
-2744 12 0
-2744 13 0
-2744 16 0
-2744 18 0
-2744 20 0
-2744 21 0
-2744 24 0
-2744 26 0
2744 -3 -6 -7 -10 -12 -13 -16 -18 -20 -21 -24 -26 0
-2745 4 0
-2745 6 0
-2745 7 0
-2745 10 0
-2745 12 0
-2745 13 0
-2745 16 0
-2745 17 0
-2745 20 0
-2745 21 0
-2745 23 0
-2745 26 0
2745 -4 -6 -7 -10 -12 -13 -16 -17 -20 -21 -23 -26 0
-2746 4 0
-2746 6 0
-2746 7 0
-2746 10 0
-2746 12 0
-2746 13 0
-2746 16 0
-2746 18 0
-2746 20 0
-2746 21 0
-2746 24 0
-2746 26 0
2746 -4 -6 -7 -10 -12 -13 -16 -18 -20 -21 -24 -26 0
-2747 3 0
-2747 6 0
-2747 7 0
-2747 10 0
-2747 11 0
-2747 13 0
-2747 16 0
-2747 18 0
-2747 20 0
-2747 21 0
-2747 24 0
-2747 26 0
2747 -3 -6 -7 -10 -11 -13 -16 -18 -20 -21 -24 -26 0
-2748 4 0
-2748 6 0
-2748 7 0
-2748 10 0
-2748 11 0
-2748 13 0
-2748 16 0
-2748 18 0
-2748 20 0
-2748 21 0
-2748 24 0
-2748 26 0
2748 -4 -6 -7 -10 -11 -13 -16 -18 -20 -21 -24 -26 0
-2749 3 0
-2749 5 0
-2749 7 0
-2749 10 0
-2749 11 0
-2749 13 0
-2749 16 0
-2749 18 0
-2749 20 0
-2749 21 0
-2749 24 0
-2749 26 0
2749 -3 -5 -7 -10 -11 -13 -16 -18 -20 -21 -24 -26 0
-2750 4 0
-2750 5 0
-2750 7 0
-2750 10 0
-2750 11 0
-2750 13 0
-2750 16 0
-2750 18 0
-2750 20 0
-2750 21 0
-2750 24 0
-2750 26 0
2750 -4 -5 -7 -10 -11 -13 -16 -18 -20 -21 -24 -26 0
-2751 3 0
-2751 5 0
-2751 8 0
-2751 10 0
-2751 11 0
-2751 13 0
-2751 16 0
-2751 18 0
-2751 20 0
-2751 21 0
-2751 24 0
-2751 26 0
2751 -3 -5 -8 -10 -11 -13 -16 -18 -20 -21 -24 -26 0
-2752 4 0
-2752 5 0
-2752 8 0
-2752 10 0
-2752 11 0
-2752 13 0
-2752 16 0
-2752 18 0
-2752 20 0
-2752 21 0
-2752 24 0
-2752 26 0
2752 -4 -5 -8 -10 -11 -13 -16 -18 -20 -21 -24 -26 0
-2753 3 0
-2753 6 0
-2753 8 0
-2753 10 0
-2753 11 0
-2753 13 0
-2753 16 0
-2753 18 0
-2753 20 0
-2753 21 0
-2753 24 0
-2753 26 0
2753 -3 -6 -8 -10 -11 -13 -16 -18 -20 -21 -24 -26 0
-2754 4 0
-2754 6 0
-2754 8 0
-2754 10 0
-2754 11 0
-2754 13 0
-2754 16 0
-2754 17 0
-2754 20 0
-2754 21 0
-2754 23 0
-2754 26 0
2754 -4 -6 -8 -10 -11 -13 -16 -17 -20 -21 -23 -26 0
-2755 4 0
-2755 6 0
-2755 8 0
-2755 10 0
-2755 11 0
-2755 13 0
-2755 16 0
-2755 18 0
-2755 20 0
-2755 21 0
-2755 24 0
-2755 26 0
2755 -4 -6 -8 -10 -11 -13 -16 -18 -20 -21 -24 -26 0
-2756 3 0
-2756 6 0
-2756 8 0
-2756 9 0
-2756 11 0
-2756 13 0
-2756 16 0
-2756 18 0
-2756 20 0
-2756 21 0
-2756 24 0
-2756 26 0
2756 -3 -6 -8 -9 -11 -13 -16 -18 -20 -21 -24 -26 0
-2757 4 0
-2757 6 0
-2757 8 0
-2757 9 0
-2757 11 0
-2757 13 0
-2757 16 0
-2757 18 0
-2757 20 0
-2757 21 0
-2757 24 0
-2757 26 0
2757 -4 -6 -8 -9 -11 -13 -16 -18 -20 -21 -24 -26 0
-2758 3 0
-2758 5 0
-2758 8 0
-2758 9 0
-2758 11 0
-2758 13 0
-2758 16 0
-2758 18 0
-2758 20 0
-2758 21 0
-2758 24 0
-2758 26 0
2758 -3 -5 -8 -9 -11 -13 -16 -18 -20 -21 -24 -26 0
-2759 4 0
-2759 6 0
-2759 7 0
-2759 9 0
-2759 11 0
-2759 13 0
-2759 16 0
-2759 17 0
-2759 20 0
-2759 21 0
-2759 23 0
-2759 26 0
2759 -4 -6 -7 -9 -11 -13 -16 -17 -20 -21 -23 -26 0
-2760 4 0
-2760 5 0
-2760 8 0
-2760 9 0
-2760 11 0
-2760 13 0
-2760 16 0
-2760 18 0
-2760 20 0
-2760 21 0
-2760 24 0
-2760 26 0
2760 -4 -5 -8 -9 -11 -13 -16 -18 -20 -21 -24 -26 0
-2761 3 0
-2761 5 0
-2761 7 0
-2761 9 0
-2761 11 0
-2761 13 0
-2761 16 0
-2761 18 0
-2761 20 0
-2761 21 0
-2761 24 0
-2761 26 0
2761 -3 -5 -7 -9 -11 -13 -16 -18 -20 -21 -24 -26 0
-2762 4 0
-2762 5 0
-2762 7 0
-2762 9 0
-2762 11 0
-2762 13 0
-2762 16 0
-2762 18 0
-2762 20 0
-2762 21 0
-2762 24 0
-2762 26 0
2762 -4 -5 -7 -9 -11 -13 -16 -18 -20 -21 -24 -26 0
-2763 3 0
-2763 6 0
-2763 7 0
-2763 9 0
-2763 11 0
-2763 13 0
-2763 16 0
-2763 18 0
-2763 20 0
-2763 21 0
-2763 24 0
-2763 26 0
2763 -3 -6 -7 -9 -11 -13 -16 -18 -20 -21 -24 -26 0
-2764 4 0
-2764 6 0
-2764 7 0
-2764 9 0
-2764 11 0
-2764 13 0
-2764 16 0
-2764 18 0
-2764 20 0
-2764 21 0
-2764 23 0
-2764 26 0
2764 -4 -6 -7 -9 -11 -13 -16 -18 -20 -21 -23 -26 0
-2765 4 0
-2765 6 0
-2765 7 0
-2765 9 0
-2765 11 0
-2765 13 0
-2765 16 0
-2765 18 0
-2765 20 0
-2765 21 0
-2765 24 0
-2765 26 0
2765 -4 -6 -7 -9 -11 -13 -16 -18 -20 -21 -24 -26 0
-2766 3 0
-2766 6 0
-2766 7 0
-2766 9 0
-2766 11 0
-2766 13 0
-2766 16 0
-2766 17 0
-2766 20 0
-2766 21 0
-2766 24 0
-2766 26 0
2766 -3 -6 -7 -9 -11 -13 -16 -17 -20 -21 -24 -26 0
-2767 4 0
-2767 6 0
-2767 7 0
-2767 9 0
-2767 11 0
-2767 13 0
-2767 16 0
-2767 17 0
-2767 20 0
-2767 21 0
-2767 24 0
-2767 26 0
2767 -4 -6 -7 -9 -11 -13 -16 -17 -20 -21 -24 -26 0
-2768 3 0
-2768 5 0
-2768 7 0
-2768 9 0
-2768 11 0
-2768 13 0
-2768 16 0
-2768 17 0
-2768 20 0
-2768 21 0
-2768 24 0
-2768 26 0
2768 -3 -5 -7 -9 -11 -13 -16 -17 -20 -21 -24 -26 0
-2769 4 0
-2769 5 0
-2769 7 0
-2769 9 0
-2769 11 0
-2769 13 0
-2769 16 0
-2769 17 0
-2769 20 0
-2769 21 0
-2769 24 0
-2769 26 0
2769 -4 -5 -7 -9 -11 -13 -16 -17 -20 -21 -24 -26 0
-2770 3 0
-2770 5 0
-2770 8 0
-2770 9 0
-2770 11 0
-2770 13 0
-2770 16 0
-2770 17 0
-2770 20 0
-2770 21 0
-2770 24 0
-2770 26 0
2770 -3 -5 -8 -9 -11 -13 -16 -17 -20 -21 -24 -26 0
-2771 4 0
-2771 5 0
-2771 8 0
-2771 9 0
-2771 11 0
-2771 13 0
-2771 16 0
-2771 17 0
-2771 20 0
-2771 21 0
-2771 24 0
-2771 26 0
2771 -4 -5 -8 -9 -11 -13 -16 -17 -20 -21 -24 -26 0
-2772 3 0
-2772 6 0
-2772 8 0
-2772 9 0
-2772 11 0
-2772 13 0
-2772 16 0
-2772 17 0
-2772 20 0
-2772 21 0
-2772 24 0
-2772 26 0
2772 -3 -6 -8 -9 -11 -13 -16 -17 -20 -21 -24 -26 0
-2773 4 0
-2773 6 0
-2773 8 0
-2773 9 0
-2773 11 0
-2773 13 0
-2773 16 0
-2773 17 0
-2773 20 0
-2773 21 0
-2773 24 0
-2773 26 0
2773 -4 -6 -8 -9 -11 -13 -16 -17 -20 -21 -24 -26 0
-2774 3 0
-2774 6 0
-2774 8 0
-2774 10 0
-2774 11 0
-2774 13 0
-2774 16 0
-2774 17 0
-2774 20 0
-2774 21 0
-2774 24 0
-2774 26 0
2774 -3 -6 -8 -10 -11 -13 -16 -17 -20 -21 -24 -26 0
-2775 4 0
-2775 6 0
-2775 8 0
-2775 10 0
-2775 11 0
-2775 13 0
-2775 16 0
-2775 17 0
-2775 20 0
-2775 21 0
-2775 24 0
-2775 26 0
2775 -4 -6 -8 -10 -11 -13 -16 -17 -20 -21 -24 -26 0
-2776 3 0
-2776 5 0
-2776 8 0
-2776 10 0
-2776 11 0
-2776 13 0
-2776 16 0
-2776 17 0
-2776 20 0
-2776 21 0
-2776 24 0
-2776 26 0
2776 -3 -5 -8 -10 -11 -13 -16 -17 -20 -21 -24 -26 0
-2777 4 0
-2777 5 0
-2777 8 0
-2777 10 0
-2777 11 0
-2777 13 0
-2777 16 0
-2777 17 0
-2777 20 0
-2777 21 0
-2777 24 0
-2777 26 0
2777 -4 -5 -8 -10 -11 -13 -16 -17 -20 -21 -24 -26 0
-2778 3 0
-2778 5 0
-2778 7 0
-2778 10 0
-2778 11 0
-2778 13 0
-2778 16 0
-2778 17 0
-2778 20 0
-2778 21 0
-2778 24 0
-2778 26 0
2778 -3 -5 -7 -10 -11 -13 -16 -17 -20 -21 -24 -26 0
-2779 4 0
-2779 5 0
-2779 7 0
-2779 10 0
-2779 11 0
-2779 13 0
-2779 16 0
-2779 17 0
-2779 20 0
-2779 21 0
-2779 24 0
-2779 26 0
2779 -4 -5 -7 -10 -11 -13 -16 -17 -20 -21 -24 -26 0
-2780 3 0
-2780 6 0
-2780 7 0
-2780 10 0
-2780 11 0
-2780 13 0
-2780 16 0
-2780 17 0
-2780 20 0
-2780 21 0
-2780 24 0
-2780 26 0
2780 -3 -6 -7 -10 -11 -13 -16 -17 -20 -21 -24 -26 0
-2781 4 0
-2781 6 0
-2781 7 0
-2781 10 0
-2781 11 0
-2781 13 0
-2781 16 0
-2781 17 0
-2781 20 0
-2781 21 0
-2781 24 0
-2781 26 0
2781 -4 -6 -7 -10 -11 -13 -16 -17 -20 -21 -24 -26 0
-2782 3 0
-2782 6 0
-2782 7 0
-2782 10 0
-2782 12 0
-2782 13 0
-2782 16 0
-2782 17 0
-2782 20 0
-2782 21 0
-2782 24 0
-2782 26 0
2782 -3 -6 -7 -10 -12 -13 -16 -17 -20 -21 -24 -26 0
-2783 4 0
-2783 6 0
-2783 7 0
-2783 10 0
-2783 12 0
-2783 13 0
-2783 16 0
-2783 17 0
-2783 20 0
-2783 21 0
-2783 24 0
-2783 26 0
2783 -4 -6 -7 -10 -12 -13 -16 -17 -20 -21 -24 -26 0
-2784 3 0
-2784 5 0
-2784 7 0
-2784 10 0
-2784 12 0
-2784 13 0
-2784 16 0
-2784 17 0
-2784 20 0
-2784 21 0
-2784 24 0
-2784 26 0
2784 -3 -5 -7 -10 -12 -13 -16 -17 -20 -21 -24 -26 0
-2785 4 0
-2785 6 0
-2785 8 0
-2785 9 0
-2785 12 0
-2785 13 0
-2785 15 0
-2785 17 0
-2785 20 0
-2785 21 0
-2785 23 0
-2785 26 0
2785 -4 -6 -8 -9 -12 -13 -15 -17 -20 -21 -23 -26 0
-2786 4 0
-2786 5 0
-2786 7 0
-2786 10 0
-2786 12 0
-2786 13 0
-2786 16 0
-2786 17 0
-2786 20 0
-2786 21 0
-2786 24 0
-2786 26 0
2786 -4 -5 -7 -10 -12 -13 -16 -17 -20 -21 -24 -26 0
-2787 3 0
-2787 5 0
-2787 8 0
-2787 10 0
-2787 12 0
-2787 13 0
-2787 16 0
-2787 17 0
-2787 20 0
-2787 21 0
-2787 24 0
-2787 26 0
2787 -3 -5 -8 -10 -12 -13 -16 -17 -20 -21 -24 -26 0
-2788 4 0
-2788 5 0
-2788 8 0
-2788 10 0
-2788 12 0
-2788 13 0
-2788 16 0
-2788 17 0
-2788 20 0
-2788 21 0
-2788 24 0
-2788 26 0
2788 -4 -5 -8 -10 -12 -13 -16 -17 -20 -21 -24 -26 0
-2789 3 0
-2789 6 0
-2789 8 0
-2789 10 0
-2789 12 0
-2789 13 0
-2789 16 0
-2789 17 0
-2789 20 0
-2789 21 0
-2789 24 0
-2789 26 0
2789 -3 -6 -8 -10 -12 -13 -16 -17 -20 -21 -24 -26 0
-2790 4 0
-2790 6 0
-2790 8 0
-2790 10 0
-2790 12 0
-2790 13 0
-2790 15 0
-2790 17 0
-2790 20 0
-2790 21 0
-2790 23 0
-2790 26 0
2790 -4 -6 -8 -10 -12 -13 -15 -17 -20 -21 -23 -26 0
-2791 4 0
-2791 6 0
-2791 8 0
-2791 10 0
-2791 12 0
-2791 13 0
-2791 16 0
-2791 17 0
-2791 20 0
-2791 21 0
-2791 24 0
-2791 26 0
2791 -4 -6 -8 -10 -12 -13 -16 -17 -20 -21 -24 -26 0
-2792 3 0
-2792 6 0
-2792 8 0
-2792 9 0
-2792 12 0
-2792 13 0
-2792 16 0
-2792 17 0
-2792 20 0
-2792 21 0
-2792 24 0
-2792 26 0
2792 -3 -6 -8 -9 -12 -13 -16 -17 -20 -21 -24 -26 0
-2793 4 0
-2793 6 0
-2793 8 0
-2793 9 0
-2793 12 0
-2793 13 0
-2793 16 0
-2793 17 0
-2793 20 0
-2793 21 0
-2793 24 0
-2793 26 0
2793 -4 -6 -8 -9 -12 -13 -16 -17 -20 -21 -24 -26 0
-2794 3 0
-2794 5 0
-2794 8 0
-2794 9 0
-2794 12 0
-2794 13 0
-2794 16 0
-2794 17 0
-2794 20 0
-2794 21 0
-2794 24 0
-2794 26 0
2794 -3 -5 -8 -9 -12 -13 -16 -17 -20 -21 -24 -26 0
-2795 4 0
-2795 5 0
-2795 8 0
-2795 9 0
-2795 12 0
-2795 13 0
-2795 16 0
-2795 17 0
-2795 20 0
-2795 21 0
-2795 24 0
-2795 26 0
2795 -4 -5 -8 -9 -12 -13 -16 -17 -20 -21 -24 -26 0
-2796 3 0
-2796 5 0
-2796 7 0
-2796 9 0
-2796 12 0
-2796 13 0
-2796 16 0
-2796 17 0
-2796 20 0
-2796 21 0
-2796 24 0
-2796 26 0
2796 -3 -5 -7 -9 -12 -13 -16 -17 -20 -21 -24 -26 0
-2797 4 0
-2797 5 0
-2797 7 0
-2797 9 0
-2797 12 0
-2797 13 0
-2797 16 0
-2797 17 0
-2797 20 0
-2797 21 0
-2797 24 0
-2797 26 0
2797 -4 -5 -7 -9 -12 -13 -16 -17 -20 -21 -24 -26 0
-2798 3 0
-2798 6 0
-2798 7 0
-2798 9 0
-2798 12 0
-2798 13 0
-2798 16 0
-2798 17 0
-2798 20 0
-2798 21 0
-2798 24 0
-2798 26 0
2798 -3 -6 -7 -9 -12 -13 -16 -17 -20 -21 -24 -26 0
-2799 4 0
-2799 6 0
-2799 7 0
-2799 9 0
-2799 12 0
-2799 13 0
-2799 16 0
-2799 17 0
-2799 20 0
-2799 21 0
-2799 24 0
-2799 26 0
2799 -4 -6 -7 -9 -12 -13 -16 -17 -20 -21 -24 -26 0
-2800 3 0
-2800 6 0
-2800 7 0
-2800 9 0
-2800 12 0
-2800 14 0
-2800 16 0
-2800 17 0
-2800 20 0
-2800 21 0
-2800 24 0
-2800 26 0
2800 -3 -6 -7 -9 -12 -14 -16 -17 -20 -21 -24 -26 0
-2801 4 0
-2801 6 0
-2801 7 0
-2801 9 0
-2801 12 0
-2801 14 0
-2801 16 0
-2801 17 0
-2801 20 0
-2801 21 0
-2801 24 0
-2801 26 0
2801 -4 -6 -7 -9 -12 -14 -16 -17 -20 -21 -24 -26 0
-2802 3 0
-2802 5 0
-2802 7 0
-2802 9 0
-2802 12 0
-2802 14 0
-2802 16 0
-2802 17 0
-2802 20 0
-2802 21 0
-2802 24 0
-2802 26 0
2802 -3 -5 -7 -9 -12 -14 -16 -17 -20 -21 -24 -26 0
-2803 4 0
-2803 5 0
-2803 7 0
-2803 9 0
-2803 12 0
-2803 14 0
-2803 16 0
-2803 17 0
-2803 20 0
-2803 21 0
-2803 24 0
-2803 26 0
2803 -4 -5 -7 -9 -12 -14 -16 -17 -20 -21 -24 -26 0
-2804 3 0
-2804 5 0
-2804 8 0
-2804 9 0
-2804 12 0
-2804 14 0
-2804 16 0
-2804 17 0
-2804 20 0
-2804 21 0
-2804 24 0
-2804 26 0
2804 -3 -5 -8 -9 -12 -14 -16 -17 -20 -21 -24 -26 0
-2805 4 0
-2805 5 0
-2805 8 0
-2805 9 0
-2805 12 0
-2805 14 0
-2805 16 0
-2805 17 0
-2805 20 0
-2805 21 0
-2805 24 0
-2805 26 0
2805 -4 -5 -8 -9 -12 -14 -16 -17 -20 -21 -24 -26 0
-2806 3 0
-2806 6 0
-2806 8 0
-2806 9 0
-2806 12 0
-2806 14 0
-2806 16 0
-2806 17 0
-2806 20 0
-2806 21 0
-2806 24 0
-2806 26 0
2806 -3 -6 -8 -9 -12 -14 -16 -17 -20 -21 -24 -26 0
-2807 4 0
-2807 6 0
-2807 8 0
-2807 9 0
-2807 12 0
-2807 14 0
-2807 16 0
-2807 17 0
-2807 20 0
-2807 21 0
-2807 24 0
-2807 26 0
2807 -4 -6 -8 -9 -12 -14 -16 -17 -20 -21 -24 -26 0
-2808 3 0
-2808 6 0
-2808 8 0
-2808 10 0
-2808 12 0
-2808 14 0
-2808 16 0
-2808 17 0
-2808 20 0
-2808 21 0
-2808 24 0
-2808 26 0
2808 -3 -6 -8 -10 -12 -14 -16 -17 -20 -21 -24 -26 0
-2809 4 0
-2809 6 0
-2809 8 0
-2809 10 0
-2809 12 0
-2809 14 0
-2809 16 0
-2809 17 0
-2809 20 0
-2809 21 0
-2809 24 0
-2809 26 0
2809 -4 -6 -8 -10 -12 -14 -16 -17 -20 -21 -24 -26 0
-2810 3 0
-2810 5 0
-2810 8 0
-2810 10 0
-2810 12 0
-2810 14 0
-2810 16 0
-2810 17 0
-2810 20 0
-2810 21 0
-2810 24 0
-2810 26 0
2810 -3 -5 -8 -10 -12 -14 -16 -17 -20 -21 -24 -26 0
-2811 4 0
-2811 5 0
-2811 8 0
-2811 10 0
-2811 12 0
-2811 14 0
-2811 16 0
-2811 17 0
-2811 20 0
-2811 21 0
-2811 24 0
-2811 26 0
2811 -4 -5 -8 -10 -12 -14 -16 -17 -20 -21 -24 -26 0
-2812 3 0
-2812 5 0
-2812 7 0
-2812 10 0
-2812 12 0
-2812 14 0
-2812 16 0
-2812 17 0
-2812 20 0
-2812 21 0
-2812 24 0
-2812 26 0
2812 -3 -5 -7 -10 -12 -14 -16 -17 -20 -21 -24 -26 0
-2813 4 0
-2813 5 0
-2813 7 0
-2813 10 0
-2813 12 0
-2813 14 0
-2813 16 0
-2813 17 0
-2813 20 0
-2813 21 0
-2813 24 0
-2813 26 0
2813 -4 -5 -7 -10 -12 -14 -16 -17 -20 -21 -24 -26 0
-2814 3 0
-2814 6 0
-2814 7 0
-2814 10 0
-2814 12 0
-2814 14 0
-2814 16 0
-2814 17 0
-2814 20 0
-2814 21 0
-2814 24 0
-2814 26 0
2814 -3 -6 -7 -10 -12 -14 -16 -17 -20 -21 -24 -26 0
-2815 4 0
-2815 6 0
-2815 7 0
-2815 10 0
-2815 12 0
-2815 14 0
-2815 16 0
-2815 17 0
-2815 20 0
-2815 21 0
-2815 24 0
-2815 26 0
2815 -4 -6 -7 -10 -12 -14 -16 -17 -20 -21 -24 -26 0
-2816 3 0
-2816 6 0
-2816 7 0
-2816 10 0
-2816 11 0
-2816 14 0
-2816 16 0
-2816 17 0
-2816 20 0
-2816 21 0
-2816 24 0
-2816 26 0
2816 -3 -6 -7 -10 -11 -14 -16 -17 -20 -21 -24 -26 0
-2817 4 0
-2817 6 0
-2817 7 0
-2817 10 0
-2817 11 0
-2817 14 0
-2817 16 0
-2817 17 0
-2817 20 0
-2817 21 0
-2817 24 0
-2817 26 0
2817 -4 -6 -7 -10 -11 -14 -16 -17 -20 -21 -24 -26 0
-2818 3 0
-2818 5 0
-2818 7 0
-2818 10 0
-2818 11 0
-2818 14 0
-2818 16 0
-2818 17 0
-2818 20 0
-2818 21 0
-2818 24 0
-2818 26 0
2818 -3 -5 -7 -10 -11 -14 -16 -17 -20 -21 -24 -26 0
-2819 4 0
-2819 5 0
-2819 7 0
-2819 10 0
-2819 11 0
-2819 14 0
-2819 16 0
-2819 17 0
-2819 20 0
-2819 21 0
-2819 24 0
-2819 26 0
2819 -4 -5 -7 -10 -11 -14 -16 -17 -20 -21 -24 -26 0
-2820 3 0
-2820 5 0
-2820 8 0
-2820 10 0
-2820 11 0
-2820 14 0
-2820 16 0
-2820 17 0
-2820 20 0
-2820 21 0
-2820 24 0
-2820 26 0
2820 -3 -5 -8 -10 -11 -14 -16 -17 -20 -21 -24 -26 0
-2821 4 0
-2821 5 0
-2821 8 0
-2821 10 0
-2821 11 0
-2821 14 0
-2821 16 0
-2821 17 0
-2821 20 0
-2821 21 0
-2821 24 0
-2821 26 0
2821 -4 -5 -8 -10 -11 -14 -16 -17 -20 -21 -24 -26 0
-2822 3 0
-2822 6 0
-2822 8 0
-2822 10 0
-2822 11 0
-2822 14 0
-2822 16 0
-2822 17 0
-2822 20 0
-2822 21 0
-2822 24 0
-2822 26 0
2822 -3 -6 -8 -10 -11 -14 -16 -17 -20 -21 -24 -26 0
-2823 4 0
-2823 6 0
-2823 8 0
-2823 10 0
-2823 11 0
-2823 14 0
-2823 16 0
-2823 17 0
-2823 20 0
-2823 21 0
-2823 24 0
-2823 26 0
2823 -4 -6 -8 -10 -11 -14 -16 -17 -20 -21 -24 -26 0
-2824 3 0
-2824 6 0
-2824 8 0
-2824 9 0
-2824 11 0
-2824 14 0
-2824 16 0
-2824 17 0
-2824 20 0
-2824 21 0
-2824 24 0
-2824 26 0
2824 -3 -6 -8 -9 -11 -14 -16 -17 -20 -21 -24 -26 0
-2825 4 0
-2825 6 0
-2825 8 0
-2825 9 0
-2825 11 0
-2825 14 0
-2825 16 0
-2825 17 0
-2825 20 0
-2825 21 0
-2825 24 0
-2825 26 0
2825 -4 -6 -8 -9 -11 -14 -16 -17 -20 -21 -24 -26 0
-2826 3 0
-2826 5 0
-2826 8 0
-2826 9 0
-2826 11 0
-2826 14 0
-2826 16 0
-2826 17 0
-2826 20 0
-2826 21 0
-2826 24 0
-2826 26 0
2826 -3 -5 -8 -9 -11 -14 -16 -17 -20 -21 -24 -26 0
-2827 4 0
-2827 5 0
-2827 8 0
-2827 9 0
-2827 11 0
-2827 14 0
-2827 16 0
-2827 17 0
-2827 20 0
-2827 21 0
-2827 24 0
-2827 26 0
2827 -4 -5 -8 -9 -11 -14 -16 -17 -20 -21 -24 -26 0
-2828 3 0
-2828 5 0
-2828 7 0
-2828 9 0
-2828 11 0
-2828 14 0
-2828 16 0
-2828 17 0
-2828 20 0
-2828 21 0
-2828 24 0
-2828 26 0
2828 -3 -5 -7 -9 -11 -14 -16 -17 -20 -21 -24 -26 0
-2829 4 0
-2829 5 0
-2829 7 0
-2829 9 0
-2829 11 0
-2829 14 0
-2829 16 0
-2829 17 0
-2829 20 0
-2829 21 0
-2829 24 0
-2829 26 0
2829 -4 -5 -7 -9 -11 -14 -16 -17 -20 -21 -24 -26 0
-2830 3 0
-2830 6 0
-2830 7 0
-2830 9 0
-2830 11 0
-2830 14 0
-2830 16 0
-2830 17 0
-2830 20 0
-2830 21 0
-2830 24 0
-2830 26 0
2830 -3 -6 -7 -9 -11 -14 -16 -17 -20 -21 -24 -26 0
-2831 4 0
-2831 6 0
-2831 7 0
-2831 9 0
-2831 11 0
-2831 14 0
-2831 16 0
-2831 17 0
-2831 20 0
-2831 21 0
-2831 23 0
-2831 26 0
2831 -4 -6 -7 -9 -11 -14 -16 -17 -20 -21 -23 -26 0
-2832 4 0
-2832 6 0
-2832 7 0
-2832 9 0
-2832 11 0
-2832 14 0
-2832 16 0
-2832 17 0
-2832 20 0
-2832 21 0
-2832 24 0
-2832 26 0
2832 -4 -6 -7 -9 -11 -14 -16 -17 -20 -21 -24 -26 0
-2833 3 0
-2833 6 0
-2833 7 0
-2833 9 0
-2833 11 0
-2833 14 0
-2833 15 0
-2833 17 0
-2833 20 0
-2833 21 0
-2833 24 0
-2833 26 0
2833 -3 -6 -7 -9 -11 -14 -15 -17 -20 -21 -24 -26 0
-2834 4 0
-2834 6 0
-2834 7 0
-2834 9 0
-2834 11 0
-2834 14 0
-2834 15 0
-2834 17 0
-2834 20 0
-2834 21 0
-2834 24 0
-2834 26 0
2834 -4 -6 -7 -9 -11 -14 -15 -17 -20 -21 -24 -26 0
-2835 3 0
-2835 5 0
-2835 7 0
-2835 9 0
-2835 11 0
-2835 14 0
-2835 15 0
-2835 17 0
-2835 20 0
-2835 21 0
-2835 24 0
-2835 26 0
2835 -3 -5 -7 -9 -11 -14 -15 -17 -20 -21 -24 -26 0
-2836 4 0
-2836 5 0
-2836 7 0
-2836 9 0
-2836 11 0
-2836 14 0
-2836 15 0
-2836 17 0
-2836 20 0
-2836 21 0
-2836 24 0
-2836 26 0
2836 -4 -5 -7 -9 -11 -14 -15 -17 -20 -21 -24 -26 0
-2837 3 0
-2837 5 0
-2837 8 0
-2837 9 0
-2837 11 0
-2837 14 0
-2837 15 0
-2837 17 0
-2837 20 0
-2837 21 0
-2837 24 0
-2837 26 0
2837 -3 -5 -8 -9 -11 -14 -15 -17 -20 -21 -24 -26 0
-2838 4 0
-2838 5 0
-2838 8 0
-2838 9 0
-2838 11 0
-2838 14 0
-2838 15 0
-2838 17 0
-2838 20 0
-2838 21 0
-2838 24 0
-2838 26 0
2838 -4 -5 -8 -9 -11 -14 -15 -17 -20 -21 -24 -26 0
-2839 3 0
-2839 6 0
-2839 8 0
-2839 9 0
-2839 11 0
-2839 14 0
-2839 15 0
-2839 17 0
-2839 20 0
-2839 21 0
-2839 24 0
-2839 26 0
2839 -3 -6 -8 -9 -11 -14 -15 -17 -20 -21 -24 -26 0
-2840 4 0
-2840 6 0
-2840 8 0
-2840 9 0
-2840 11 0
-2840 14 0
-2840 15 0
-2840 17 0
-2840 20 0
-2840 21 0
-2840 24 0
-2840 26 0
2840 -4 -6 -8 -9 -11 -14 -15 -17 -20 -21 -24 -26 0
-2841 3 0
-2841 6 0
-2841 8 0
-2841 10 0
-2841 11 0
-2841 14 0
-2841 15 0
-2841 17 0
-2841 20 0
-2841 21 0
-2841 24 0
-2841 26 0
2841 -3 -6 -8 -10 -11 -14 -15 -17 -20 -21 -24 -26 0
-2842 4 0
-2842 6 0
-2842 8 0
-2842 10 0
-2842 11 0
-2842 14 0
-2842 15 0
-2842 17 0
-2842 20 0
-2842 21 0
-2842 24 0
-2842 26 0
2842 -4 -6 -8 -10 -11 -14 -15 -17 -20 -21 -24 -26 0
-2843 3 0
-2843 5 0
-2843 8 0
-2843 10 0
-2843 11 0
-2843 14 0
-2843 15 0
-2843 17 0
-2843 20 0
-2843 21 0
-2843 24 0
-2843 26 0
2843 -3 -5 -8 -10 -11 -14 -15 -17 -20 -21 -24 -26 0
-2844 4 0
-2844 5 0
-2844 8 0
-2844 10 0
-2844 11 0
-2844 14 0
-2844 15 0
-2844 17 0
-2844 20 0
-2844 21 0
-2844 24 0
-2844 26 0
2844 -4 -5 -8 -10 -11 -14 -15 -17 -20 -21 -24 -26 0
-2845 3 0
-2845 5 0
-2845 7 0
-2845 10 0
-2845 11 0
-2845 14 0
-2845 15 0
-2845 17 0
-2845 20 0
-2845 21 0
-2845 24 0
-2845 26 0
2845 -3 -5 -7 -10 -11 -14 -15 -17 -20 -21 -24 -26 0
-2846 4 0
-2846 5 0
-2846 7 0
-2846 10 0
-2846 11 0
-2846 14 0
-2846 15 0
-2846 17 0
-2846 20 0
-2846 21 0
-2846 24 0
-2846 26 0
2846 -4 -5 -7 -10 -11 -14 -15 -17 -20 -21 -24 -26 0
-2847 3 0
-2847 6 0
-2847 7 0
-2847 10 0
-2847 11 0
-2847 14 0
-2847 15 0
-2847 17 0
-2847 20 0
-2847 21 0
-2847 24 0
-2847 26 0
2847 -3 -6 -7 -10 -11 -14 -15 -17 -20 -21 -24 -26 0
-2848 4 0
-2848 6 0
-2848 7 0
-2848 10 0
-2848 11 0
-2848 14 0
-2848 15 0
-2848 17 0
-2848 20 0
-2848 21 0
-2848 24 0
-2848 26 0
2848 -4 -6 -7 -10 -11 -14 -15 -17 -20 -21 -24 -26 0
-2849 3 0
-2849 6 0
-2849 7 0
-2849 10 0
-2849 12 0
-2849 14 0
-2849 15 0
-2849 17 0
-2849 20 0
-2849 21 0
-2849 24 0
-2849 26 0
2849 -3 -6 -7 -10 -12 -14 -15 -17 -20 -21 -24 -26 0
-2850 4 0
-2850 6 0
-2850 7 0
-2850 10 0
-2850 12 0
-2850 14 0
-2850 15 0
-2850 17 0
-2850 20 0
-2850 21 0
-2850 24 0
-2850 26 0
2850 -4 -6 -7 -10 -12 -14 -15 -17 -20 -21 -24 -26 0
-2851 3 0
-2851 5 0
-2851 7 0
-2851 10 0
-2851 12 0
-2851 14 0
-2851 15 0
-2851 17 0
-2851 20 0
-2851 21 0
-2851 24 0
-2851 26 0
2851 -3 -5 -7 -10 -12 -14 -15 -17 -20 -21 -24 -26 0
-2852 4 0
-2852 5 0
-2852 7 0
-2852 10 0
-2852 12 0
-2852 14 0
-2852 15 0
-2852 17 0
-2852 20 0
-2852 21 0
-2852 24 0
-2852 26 0
2852 -4 -5 -7 -10 -12 -14 -15 -17 -20 -21 -24 -26 0
-2853 3 0
-2853 5 0
-2853 8 0
-2853 10 0
-2853 12 0
-2853 14 0
-2853 15 0
-2853 17 0
-2853 20 0
-2853 21 0
-2853 24 0
-2853 26 0
2853 -3 -5 -8 -10 -12 -14 -15 -17 -20 -21 -24 -26 0
-2854 4 0
-2854 5 0
-2854 8 0
-2854 10 0
-2854 12 0
-2854 14 0
-2854 15 0
-2854 17 0
-2854 20 0
-2854 21 0
-2854 24 0
-2854 26 0
2854 -4 -5 -8 -10 -12 -14 -15 -17 -20 -21 -24 -26 0
-2855 3 0
-2855 6 0
-2855 8 0
-2855 10 0
-2855 12 0
-2855 14 0
-2855 15 0
-2855 17 0
-2855 20 0
-2855 21 0
-2855 24 0
-2855 26 0
2855 -3 -6 -8 -10 -12 -14 -15 -17 -20 -21 -24 -26 0
-2856 4 0
-2856 6 0
-2856 8 0
-2856 10 0
-2856 12 0
-2856 14 0
-2856 15 0
-2856 17 0
-2856 20 0
-2856 21 0
-2856 24 0
-2856 26 0
2856 -4 -6 -8 -10 -12 -14 -15 -17 -20 -21 -24 -26 0
-2857 3 0
-2857 6 0
-2857 8 0
-2857 9 0
-2857 12 0
-2857 14 0
-2857 15 0
-2857 17 0
-2857 20 0
-2857 21 0
-2857 24 0
-2857 26 0
2857 -3 -6 -8 -9 -12 -14 -15 -17 -20 -21 -24 -26 0
-2858 4 0
-2858 6 0
-2858 8 0
-2858 9 0
-2858 12 0
-2858 14 0
-2858 15 0
-2858 17 0
-2858 20 0
-2858 21 0
-2858 24 0
-2858 26 0
2858 -4 -6 -8 -9 -12 -14 -15 -17 -20 -21 -24 -26 0
-2859 3 0
-2859 5 0
-2859 8 0
-2859 9 0
-2859 12 0
-2859 14 0
-2859 15 0
-2859 17 0
-2859 20 0
-2859 21 0
-2859 24 0
-2859 26 0
2859 -3 -5 -8 -9 -12 -14 -15 -17 -20 -21 -24 -26 0
-2860 4 0
-2860 5 0
-2860 8 0
-2860 9 0
-2860 12 0
-2860 14 0
-2860 15 0
-2860 17 0
-2860 20 0
-2860 21 0
-2860 24 0
-2860 26 0
2860 -4 -5 -8 -9 -12 -14 -15 -17 -20 -21 -24 -26 0
-2861 3 0
-2861 5 0
-2861 7 0
-2861 9 0
-2861 12 0
-2861 14 0
-2861 15 0
-2861 17 0
-2861 20 0
-2861 21 0
-2861 24 0
-2861 26 0
2861 -3 -5 -7 -9 -12 -14 -15 -17 -20 -21 -24 -26 0
-2862 4 0
-2862 5 0
-2862 7 0
-2862 9 0
-2862 12 0
-2862 14 0
-2862 15 0
-2862 17 0
-2862 20 0
-2862 21 0
-2862 24 0
-2862 26 0
2862 -4 -5 -7 -9 -12 -14 -15 -17 -20 -21 -24 -26 0
-2863 3 0
-2863 6 0
-2863 7 0
-2863 9 0
-2863 12 0
-2863 14 0
-2863 15 0
-2863 17 0
-2863 20 0
-2863 21 0
-2863 24 0
-2863 26 0
2863 -3 -6 -7 -9 -12 -14 -15 -17 -20 -21 -24 -26 0
-2864 4 0
-2864 6 0
-2864 7 0
-2864 9 0
-2864 12 0
-2864 14 0
-2864 15 0
-2864 17 0
-2864 20 0
-2864 21 0
-2864 23 0
-2864 26 0
2864 -4 -6 -7 -9 -12 -14 -15 -17 -20 -21 -23 -26 0
-2865 4 0
-2865 6 0
-2865 7 0
-2865 9 0
-2865 12 0
-2865 14 0
-2865 15 0
-2865 17 0
-2865 20 0
-2865 21 0
-2865 24 0
-2865 26 0
2865 -4 -6 -7 -9 -12 -14 -15 -17 -20 -21 -24 -26 0
-2866 3 0
-2866 6 0
-2866 7 0
-2866 9 0
-2866 12 0
-2866 13 0
-2866 15 0
-2866 17 0
-2866 20 0
-2866 21 0
-2866 24 0
-2866 26 0
2866 -3 -6 -7 -9 -12 -13 -15 -17 -20 -21 -24 -26 0
-2867 4 0
-2867 6 0
-2867 7 0
-2867 9 0
-2867 12 0
-2867 13 0
-2867 15 0
-2867 17 0
-2867 20 0
-2867 21 0
-2867 24 0
-2867 26 0
2867 -4 -6 -7 -9 -12 -13 -15 -17 -20 -21 -24 -26 0
-2868 3 0
-2868 5 0
-2868 7 0
-2868 9 0
-2868 12 0
-2868 13 0
-2868 15 0
-2868 17 0
-2868 20 0
-2868 21 0
-2868 24 0
-2868 26 0
2868 -3 -5 -7 -9 -12 -13 -15 -17 -20 -21 -24 -26 0
-2869 4 0
-2869 5 0
-2869 7 0
-2869 9 0
-2869 12 0
-2869 13 0
-2869 15 0
-2869 17 0
-2869 20 0
-2869 21 0
-2869 24 0
-2869 26 0
2869 -4 -5 -7 -9 -12 -13 -15 -17 -20 -21 -24 -26 0
-2870 3 0
-2870 5 0
-2870 8 0
-2870 9 0
-2870 12 0
-2870 13 0
-2870 15 0
-2870 17 0
-2870 20 0
-2870 21 0
-2870 24 0
-2870 26 0
2870 -3 -5 -8 -9 -12 -13 -15 -17 -20 -21 -24 -26 0
-2871 4 0
-2871 5 0
-2871 8 0
-2871 9 0
-2871 12 0
-2871 13 0
-2871 15 0
-2871 17 0
-2871 20 0
-2871 21 0
-2871 24 0
-2871 26 0
2871 -4 -5 -8 -9 -12 -13 -15 -17 -20 -21 -24 -26 0
-2872 3 0
-2872 6 0
-2872 8 0
-2872 9 0
-2872 12 0
-2872 13 0
-2872 15 0
-2872 17 0
-2872 20 0
-2872 21 0
-2872 24 0
-2872 26 0
2872 -3 -6 -8 -9 -12 -13 -15 -17 -20 -21 -24 -26 0
-2873 4 0
-2873 6 0
-2873 8 0
-2873 9 0
-2873 12 0
-2873 13 0
-2873 15 0
-2873 17 0
-2873 20 0
-2873 21 0
-2873 24 0
-2873 26 0
2873 -4 -6 -8 -9 -12 -13 -15 -17 -20 -21 -24 -26 0
-2874 3 0
-2874 6 0
-2874 8 0
-2874 10 0
-2874 12 0
-2874 13 0
-2874 15 0
-2874 17 0
-2874 20 0
-2874 21 0
-2874 24 0
-2874 26 0
2874 -3 -6 -8 -10 -12 -13 -15 -17 -20 -21 -24 -26 0
-2875 4 0
-2875 6 0
-2875 8 0
-2875 10 0
-2875 12 0
-2875 13 0
-2875 15 0
-2875 17 0
-2875 20 0
-2875 21 0
-2875 24 0
-2875 26 0
2875 -4 -6 -8 -10 -12 -13 -15 -17 -20 -21 -24 -26 0
-2876 3 0
-2876 5 0
-2876 8 0
-2876 10 0
-2876 12 0
-2876 13 0
-2876 15 0
-2876 17 0
-2876 20 0
-2876 21 0
-2876 24 0
-2876 26 0
2876 -3 -5 -8 -10 -12 -13 -15 -17 -20 -21 -24 -26 0
-2877 4 0
-2877 5 0
-2877 8 0
-2877 10 0
-2877 12 0
-2877 13 0
-2877 15 0
-2877 17 0
-2877 20 0
-2877 21 0
-2877 24 0
-2877 26 0
2877 -4 -5 -8 -10 -12 -13 -15 -17 -20 -21 -24 -26 0
-2878 3 0
-2878 5 0
-2878 7 0
-2878 10 0
-2878 12 0
-2878 13 0
-2878 15 0
-2878 17 0
-2878 20 0
-2878 21 0
-2878 24 0
-2878 26 0
2878 -3 -5 -7 -10 -12 -13 -15 -17 -20 -21 -24 -26 0
-2879 4 0
-2879 5 0
-2879 7 0
-2879 10 0
-2879 12 0
-2879 13 0
-2879 15 0
-2879 17 0
-2879 20 0
-2879 21 0
-2879 24 0
-2879 26 0
2879 -4 -5 -7 -10 -12 -13 -15 -17 -20 -21 -24 -26 0
-2880 3 0
-2880 6 0
-2880 7 0
-2880 10 0
-2880 12 0
-2880 13 0
-2880 15 0
-2880 17 0
-2880 20 0
-2880 21 0
-2880 24 0
-2880 26 0
2880 -3 -6 -7 -10 -12 -13 -15 -17 -20 -21 -24 -26 0
-2881 4 0
-2881 6 0
-2881 7 0
-2881 10 0
-2881 12 0
-2881 13 0
-2881 15 0
-2881 17 0
-2881 20 0
-2881 21 0
-2881 23 0
-2881 26 0
2881 -4 -6 -7 -10 -12 -13 -15 -17 -20 -21 -23 -26 0
-2882 4 0
-2882 6 0
-2882 7 0
-2882 10 0
-2882 12 0
-2882 13 0
-2882 15 0
-2882 17 0
-2882 20 0
-2882 21 0
-2882 24 0
-2882 26 0
2882 -4 -6 -7 -10 -12 -13 -15 -17 -20 -21 -24 -26 0
-2883 3 0
-2883 6 0
-2883 7 0
-2883 10 0
-2883 11 0
-2883 13 0
-2883 15 0
-2883 17 0
-2883 20 0
-2883 21 0
-2883 24 0
-2883 26 0
2883 -3 -6 -7 -10 -11 -13 -15 -17 -20 -21 -24 -26 0
-2884 4 0
-2884 6 0
-2884 7 0
-2884 10 0
-2884 11 0
-2884 13 0
-2884 15 0
-2884 17 0
-2884 20 0
-2884 21 0
-2884 24 0
-2884 26 0
2884 -4 -6 -7 -10 -11 -13 -15 -17 -20 -21 -24 -26 0
-2885 3 0
-2885 5 0
-2885 7 0
-2885 10 0
-2885 11 0
-2885 13 0
-2885 15 0
-2885 17 0
-2885 20 0
-2885 21 0
-2885 24 0
-2885 26 0
2885 -3 -5 -7 -10 -11 -13 -15 -17 -20 -21 -24 -26 0
-2886 4 0
-2886 6 0
-2886 8 0
-2886 9 0
-2886 11 0
-2886 13 0
-2886 15 0
-2886 17 0
-2886 20 0
-2886 21 0
-2886 23 0
-2886 26 0
2886 -4 -6 -8 -9 -11 -13 -15 -17 -20 -21 -23 -26 0
-2887 4 0
-2887 5 0
-2887 7 0
-2887 10 0
-2887 11 0
-2887 13 0
-2887 15 0
-2887 17 0
-2887 20 0
-2887 21 0
-2887 24 0
-2887 26 0
2887 -4 -5 -7 -10 -11 -13 -15 -17 -20 -21 -24 -26 0
-2888 3 0
-2888 5 0
-2888 8 0
-2888 10 0
-2888 11 0
-2888 13 0
-2888 15 0
-2888 17 0
-2888 20 0
-2888 21 0
-2888 24 0
-2888 26 0
2888 -3 -5 -8 -10 -11 -13 -15 -17 -20 -21 -24 -26 0
-2889 4 0
-2889 5 0
-2889 8 0
-2889 10 0
-2889 11 0
-2889 13 0
-2889 15 0
-2889 17 0
-2889 20 0
-2889 21 0
-2889 24 0
-2889 26 0
2889 -4 -5 -8 -10 -11 -13 -15 -17 -20 -21 -24 -26 0
-2890 3 0
-2890 6 0
-2890 8 0
-2890 10 0
-2890 11 0
-2890 13 0
-2890 15 0
-2890 17 0
-2890 20 0
-2890 21 0
-2890 24 0
-2890 26 0
2890 -3 -6 -8 -10 -11 -13 -15 -17 -20 -21 -24 -26 0
-2891 4 0
-2891 6 0
-2891 8 0
-2891 10 0
-2891 11 0
-2891 13 0
-2891 15 0
-2891 17 0
-2891 20 0
-2891 21 0
-2891 23 0
-2891 26 0
2891 -4 -6 -8 -10 -11 -13 -15 -17 -20 -21 -23 -26 0
-2892 4 0
-2892 6 0
-2892 8 0
-2892 10 0
-2892 11 0
-2892 13 0
-2892 15 0
-2892 17 0
-2892 20 0
-2892 21 0
-2892 24 0
-2892 26 0
2892 -4 -6 -8 -10 -11 -13 -15 -17 -20 -21 -24 -26 0
-2893 3 0
-2893 6 0
-2893 8 0
-2893 9 0
-2893 11 0
-2893 13 0
-2893 15 0
-2893 17 0
-2893 20 0
-2893 21 0
-2893 24 0
-2893 26 0
2893 -3 -6 -8 -9 -11 -13 -15 -17 -20 -21 -24 -26 0
-2894 4 0
-2894 6 0
-2894 8 0
-2894 9 0
-2894 11 0
-2894 13 0
-2894 15 0
-2894 17 0
-2894 20 0
-2894 21 0
-2894 24 0
-2894 26 0
2894 -4 -6 -8 -9 -11 -13 -15 -17 -20 -21 -24 -26 0
-2895 3 0
-2895 5 0
-2895 8 0
-2895 9 0
-2895 11 0
-2895 13 0
-2895 15 0
-2895 17 0
-2895 20 0
-2895 21 0
-2895 24 0
-2895 26 0
2895 -3 -5 -8 -9 -11 -13 -15 -17 -20 -21 -24 -26 0
-2896 4 0
-2896 6 0
-2896 7 0
-2896 9 0
-2896 11 0
-2896 13 0
-2896 15 0
-2896 17 0
-2896 20 0
-2896 21 0
-2896 23 0
-2896 26 0
2896 -4 -6 -7 -9 -11 -13 -15 -17 -20 -21 -23 -26 0
-2897 4 0
-2897 5 0
-2897 8 0
-2897 9 0
-2897 11 0
-2897 13 0
-2897 15 0
-2897 17 0
-2897 20 0
-2897 21 0
-2897 24 0
-2897 26 0
2897 -4 -5 -8 -9 -11 -13 -15 -17 -20 -21 -24 -26 0
-2898 3 0
-2898 5 0
-2898 7 0
-2898 9 0
-2898 11 0
-2898 13 0
-2898 15 0
-2898 17 0
-2898 20 0
-2898 21 0
-2898 24 0
-2898 26 0
2898 -3 -5 -7 -9 -11 -13 -15 -17 -20 -21 -24 -26 0
-2899 4 0
-2899 5 0
-2899 7 0
-2899 9 0
-2899 11 0
-2899 13 0
-2899 15 0
-2899 17 0
-2899 20 0
-2899 21 0
-2899 24 0
-2899 26 0
2899 -4 -5 -7 -9 -11 -13 -15 -17 -20 -21 -24 -26 0
-2900 3 0
-2900 6 0
-2900 7 0
-2900 9 0
-2900 11 0
-2900 13 0
-2900 15 0
-2900 17 0
-2900 20 0
-2900 21 0
-2900 24 0
-2900 26 0
2900 -3 -6 -7 -9 -11 -13 -15 -17 -20 -21 -24 -26 0
-2901 3 0
-2901 5 0
-2901 7 0
-2901 9 0
-2901 11 0
-2901 13 0
-2901 15 0
-2901 17 0
-2901 19 0
-2901 22 0
-2901 23 0
-2901 26 0
2901 -3 -5 -7 -9 -11 -13 -15 -17 -19 -22 -23 -26 0
-2902 3 0
-2902 6 0
-2902 7 0
-2902 9 0
-2902 11 0
-2902 13 0
-2902 15 0
-2902 17 0
-2902 19 0
-2902 22 0
-2902 23 0
-2902 26 0
2902 -3 -6 -7 -9 -11 -13 -15 -17 -19 -22 -23 -26 0
-2903 4 0
-2903 5 0
-2903 7 0
-2903 9 0
-2903 11 0
-2903 13 0
-2903 15 0
-2903 17 0
-2903 19 0
-2903 22 0
-2903 23 0
-2903 26 0
2903 -4 -5 -7 -9 -11 -13 -15 -17 -19 -22 -23 -26 0
-2904 4 0
-2904 6 0
-2904 7 0
-2904 9 0
-2904 11 0
-2904 13 0
-2904 15 0
-2904 17 0
-2904 20 0
-2904 21 0
-2904 24 0
-2904 26 0
2904 -4 -6 -7 -9 -11 -13 -15 -17 -20 -21 -24 -26 0
-2905 3 0
-2905 6 0
-2905 7 0
-2905 9 0
-2905 11 0
-2905 13 0
-2905 15 0
-2905 17 0
-2905 20 0
-2905 22 0
-2905 24 0
-2905 26 0
2905 -3 -6 -7 -9 -11 -13 -15 -17 -20 -22 -24 -26 0
-2906 4 0
-2906 6 0
-2906 7 0
-2906 9 0
-2906 11 0
-2906 13 0
-2906 15 0
-2906 17 0
-2906 20 0
-2906 22 0
-2906 24 0
-2906 26 0
2906 -4 -6 -7 -9 -11 -13 -15 -17 -20 -22 -24 -26 0
-2907 3 0
-2907 5 0
-2907 7 0
-2907 9 0
-2907 11 0
-2907 13 0
-2907 15 0
-2907 17 0
-2907 20 0
-2907 22 0
-2907 24 0
-2907 26 0
2907 -3 -5 -7 -9 -11 -13 -15 -17 -20 -22 -24 -26 0
-2908 3 0
-2908 5 0
-2908 8 0
-2908 9 0
-2908 11 0
-2908 13 0
-2908 15 0
-2908 17 0
-2908 19 0
-2908 22 0
-2908 23 0
-2908 26 0
2908 -3 -5 -8 -9 -11 -13 -15 -17 -19 -22 -23 -26 0
-2909 3 0
-2909 6 0
-2909 8 0
-2909 9 0
-2909 11 0
-2909 13 0
-2909 15 0
-2909 17 0
-2909 19 0
-2909 22 0
-2909 23 0
-2909 26 0
2909 -3 -6 -8 -9 -11 -13 -15 -17 -19 -22 -23 -26 0
-2910 4 0
-2910 5 0
-2910 8 0
-2910 9 0
-2910 11 0
-2910 13 0
-2910 15 0
-2910 17 0
-2910 19 0
-2910 22 0
-2910 23 0
-2910 26 0
2910 -4 -5 -8 -9 -11 -13 -15 -17 -19 -22 -23 -26 0
-2911 4 0
-2911 5 0
-2911 7 0
-2911 9 0
-2911 11 0
-2911 13 0
-2911 15 0
-2911 17 0
-2911 20 0
-2911 22 0
-2911 24 0
-2911 26 0
2911 -4 -5 -7 -9 -11 -13 -15 -17 -20 -22 -24 -26 0
-2912 3 0
-2912 5 0
-2912 8 0
-2912 9 0
-2912 11 0
-2912 13 0
-2912 15 0
-2912 17 0
-2912 20 0
-2912 22 0
-2912 24 0
-2912 26 0
2912 -3 -5 -8 -9 -11 -13 -15 -17 -20 -22 -24 -26 0
-2913 4 0
-2913 5 0
-2913 8 0
-2913 9 0
-2913 11 0
-2913 13 0
-2913 15 0
-2913 17 0
-2913 20 0
-2913 22 0
-2913 24 0
-2913 26 0
2913 -4 -5 -8 -9 -11 -13 -15 -17 -20 -22 -24 -26 0
-2914 3 0
-2914 6 0
-2914 8 0
-2914 9 0
-2914 11 0
-2914 13 0
-2914 15 0
-2914 17 0
-2914 20 0
-2914 22 0
-2914 24 0
-2914 26 0
2914 -3 -6 -8 -9 -11 -13 -15 -17 -20 -22 -24 -26 0
-2915 3 0
-2915 5 0
-2915 7 0
-2915 10 0
-2915 11 0
-2915 13 0
-2915 15 0
-2915 17 0
-2915 19 0
-2915 22 0
-2915 23 0
-2915 26 0
2915 -3 -5 -7 -10 -11 -13 -15 -17 -19 -22 -23 -26 0
-2916 3 0
-2916 6 0
-2916 7 0
-2916 10 0
-2916 11 0
-2916 13 0
-2916 15 0
-2916 17 0
-2916 19 0
-2916 22 0
-2916 23 0
-2916 26 0
2916 -3 -6 -7 -10 -11 -13 -15 -17 -19 -22 -23 -26 0
-2917 4 0
-2917 5 0
-2917 7 0
-2917 10 0
-2917 11 0
-2917 13 0
-2917 15 0
-2917 17 0
-2917 19 0
-2917 22 0
-2917 23 0
-2917 26 0
2917 -4 -5 -7 -10 -11 -13 -15 -17 -19 -22 -23 -26 0
-2918 4 0
-2918 6 0
-2918 8 0
-2918 9 0
-2918 11 0
-2918 13 0
-2918 15 0
-2918 17 0
-2918 20 0
-2918 22 0
-2918 24 0
-2918 26 0
2918 -4 -6 -8 -9 -11 -13 -15 -17 -20 -22 -24 -26 0
-2919 3 0
-2919 6 0
-2919 8 0
-2919 10 0
-2919 11 0
-2919 13 0
-2919 15 0
-2919 17 0
-2919 20 0
-2919 22 0
-2919 24 0
-2919 26 0
2919 -3 -6 -8 -10 -11 -13 -15 -17 -20 -22 -24 -26 0
-2920 4 0
-2920 6 0
-2920 8 0
-2920 10 0
-2920 11 0
-2920 13 0
-2920 15 0
-2920 17 0
-2920 20 0
-2920 22 0
-2920 24 0
-2920 26 0
2920 -4 -6 -8 -10 -11 -13 -15 -17 -20 -22 -24 -26 0
-2921 3 0
-2921 5 0
-2921 8 0
-2921 10 0
-2921 11 0
-2921 13 0
-2921 15 0
-2921 17 0
-2921 20 0
-2921 22 0
-2921 24 0
-2921 26 0
2921 -3 -5 -8 -10 -11 -13 -15 -17 -20 -22 -24 -26 0
-2922 4 0
-2922 5 0
-2922 8 0
-2922 10 0
-2922 11 0
-2922 13 0
-2922 15 0
-2922 17 0
-2922 19 0
-2922 22 0
-2922 23 0
-2922 26 0
2922 -4 -5 -8 -10 -11 -13 -15 -17 -19 -22 -23 -26 0
-2923 4 0
-2923 6 0
-2923 7 0
-2923 10 0
-2923 11 0
-2923 13 0
-2923 15 0
-2923 17 0
-2923 19 0
-2923 22 0
-2923 23 0
-2923 26 0
2923 -4 -6 -7 -10 -11 -13 -15 -17 -19 -22 -23 -26 0
-2924 4 0
-2924 5 0
-2924 8 0
-2924 10 0
-2924 11 0
-2924 13 0
-2924 15 0
-2924 17 0
-2924 20 0
-2924 22 0
-2924 24 0
-2924 26 0
2924 -4 -5 -8 -10 -11 -13 -15 -17 -20 -22 -24 -26 0
-2925 3 0
-2925 5 0
-2925 7 0
-2925 10 0
-2925 11 0
-2925 13 0
-2925 15 0
-2925 17 0
-2925 20 0
-2925 22 0
-2925 24 0
-2925 26 0
2925 -3 -5 -7 -10 -11 -13 -15 -17 -20 -22 -24 -26 0
-2926 4 0
-2926 5 0
-2926 7 0
-2926 10 0
-2926 11 0
-2926 13 0
-2926 15 0
-2926 17 0
-2926 20 0
-2926 22 0
-2926 24 0
-2926 26 0
2926 -4 -5 -7 -10 -11 -13 -15 -17 -20 -22 -24 -26 0
-2927 3 0
-2927 6 0
-2927 7 0
-2927 10 0
-2927 11 0
-2927 13 0
-2927 15 0
-2927 17 0
-2927 20 0
-2927 22 0
-2927 24 0
-2927 26 0
2927 -3 -6 -7 -10 -11 -13 -15 -17 -20 -22 -24 -26 0
-2928 3 0
-2928 5 0
-2928 7 0
-2928 9 0
-2928 12 0
-2928 13 0
-2928 15 0
-2928 17 0
-2928 19 0
-2928 22 0
-2928 23 0
-2928 26 0
2928 -3 -5 -7 -9 -12 -13 -15 -17 -19 -22 -23 -26 0
-2929 3 0
-2929 6 0
-2929 7 0
-2929 9 0
-2929 12 0
-2929 13 0
-2929 15 0
-2929 17 0
-2929 19 0
-2929 22 0
-2929 23 0
-2929 26 0
2929 -3 -6 -7 -9 -12 -13 -15 -17 -19 -22 -23 -26 0
-2930 4 0
-2930 5 0
-2930 7 0
-2930 9 0
-2930 12 0
-2930 13 0
-2930 15 0
-2930 17 0
-2930 19 0
-2930 22 0
-2930 23 0
-2930 26 0
2930 -4 -5 -7 -9 -12 -13 -15 -17 -19 -22 -23 -26 0
-2931 4 0
-2931 6 0
-2931 7 0
-2931 10 0
-2931 11 0
-2931 13 0
-2931 15 0
-2931 17 0
-2931 20 0
-2931 22 0
-2931 24 0
-2931 26 0
2931 -4 -6 -7 -10 -11 -13 -15 -17 -20 -22 -24 -26 0
-2932 3 0
-2932 6 0
-2932 7 0
-2932 10 0
-2932 12 0
-2932 13 0
-2932 15 0
-2932 17 0
-2932 20 0
-2932 22 0
-2932 24 0
-2932 26 0
2932 -3 -6 -7 -10 -12 -13 -15 -17 -20 -22 -24 -26 0
-2933 4 0
-2933 6 0
-2933 7 0
-2933 10 0
-2933 12 0
-2933 13 0
-2933 15 0
-2933 17 0
-2933 20 0
-2933 22 0
-2933 24 0
-2933 26 0
2933 -4 -6 -7 -10 -12 -13 -15 -17 -20 -22 -24 -26 0
-2934 3 0
-2934 5 0
-2934 7 0
-2934 10 0
-2934 12 0
-2934 13 0
-2934 15 0
-2934 17 0
-2934 20 0
-2934 22 0
-2934 24 0
-2934 26 0
2934 -3 -5 -7 -10 -12 -13 -15 -17 -20 -22 -24 -26 0
-2935 3 0
-2935 5 0
-2935 8 0
-2935 9 0
-2935 12 0
-2935 13 0
-2935 15 0
-2935 17 0
-2935 19 0
-2935 22 0
-2935 23 0
-2935 26 0
2935 -3 -5 -8 -9 -12 -13 -15 -17 -19 -22 -23 -26 0
-2936 3 0
-2936 6 0
-2936 8 0
-2936 9 0
-2936 12 0
-2936 13 0
-2936 15 0
-2936 17 0
-2936 19 0
-2936 22 0
-2936 23 0
-2936 26 0
2936 -3 -6 -8 -9 -12 -13 -15 -17 -19 -22 -23 -26 0
-2937 4 0
-2937 5 0
-2937 8 0
-2937 9 0
-2937 12 0
-2937 13 0
-2937 15 0
-2937 17 0
-2937 19 0
-2937 22 0
-2937 23 0
-2937 26 0
2937 -4 -5 -8 -9 -12 -13 -15 -17 -19 -22 -23 -26 0
-2938 4 0
-2938 5 0
-2938 7 0
-2938 10 0
-2938 12 0
-2938 13 0
-2938 15 0
-2938 17 0
-2938 20 0
-2938 22 0
-2938 24 0
-2938 26 0
2938 -4 -5 -7 -10 -12 -13 -15 -17 -20 -22 -24 -26 0
-2939 3 0
-2939 5 0
-2939 8 0
-2939 10 0
-2939 12 0
-2939 13 0
-2939 15 0
-2939 17 0
-2939 20 0
-2939 22 0
-2939 24 0
-2939 26 0
2939 -3 -5 -8 -10 -12 -13 -15 -17 -20 -22 -24 -26 0
-2940 4 0
-2940 5 0
-2940 8 0
-2940 10 0
-2940 12 0
-2940 13 0
-2940 15 0
-2940 17 0
-2940 20 0
-2940 22 0
-2940 24 0
-2940 26 0
2940 -4 -5 -8 -10 -12 -13 -15 -17 -20 -22 -24 -26 0
-2941 3 0
-2941 6 0
-2941 8 0
-2941 10 0
-2941 12 0
-2941 13 0
-2941 15 0
-2941 17 0
-2941 20 0
-2941 22 0
-2941 24 0
-2941 26 0
2941 -3 -6 -8 -10 -12 -13 -15 -17 -20 -22 -24 -26 0
-2942 4 0
-2942 6 0
-2942 7 0
-2942 9 0
-2942 12 0
-2942 13 0
-2942 15 0
-2942 17 0
-2942 19 0
-2942 22 0
-2942 23 0
-2942 26 0
2942 -4 -6 -7 -9 -12 -13 -15 -17 -19 -22 -23 -26 0
-2943 4 0
-2943 6 0
-2943 8 0
-2943 10 0
-2943 12 0
-2943 13 0
-2943 15 0
-2943 17 0
-2943 20 0
-2943 22 0
-2943 24 0
-2943 26 0
2943 -4 -6 -8 -10 -12 -13 -15 -17 -20 -22 -24 -26 0
-2944 3 0
-2944 6 0
-2944 8 0
-2944 9 0
-2944 12 0
-2944 13 0
-2944 15 0
-2944 17 0
-2944 20 0
-2944 22 0
-2944 24 0
-2944 26 0
2944 -3 -6 -8 -9 -12 -13 -15 -17 -20 -22 -24 -26 0
-2945 4 0
-2945 6 0
-2945 8 0
-2945 9 0
-2945 12 0
-2945 13 0
-2945 15 0
-2945 17 0
-2945 20 0
-2945 22 0
-2945 24 0
-2945 26 0
2945 -4 -6 -8 -9 -12 -13 -15 -17 -20 -22 -24 -26 0
-2946 3 0
-2946 5 0
-2946 8 0
-2946 9 0
-2946 12 0
-2946 13 0
-2946 15 0
-2946 17 0
-2946 20 0
-2946 22 0
-2946 24 0
-2946 26 0
2946 -3 -5 -8 -9 -12 -13 -15 -17 -20 -22 -24 -26 0
-2947 4 0
-2947 5 0
-2947 8 0
-2947 9 0
-2947 12 0
-2947 13 0
-2947 15 0
-2947 17 0
-2947 20 0
-2947 22 0
-2947 24 0
-2947 26 0
2947 -4 -5 -8 -9 -12 -13 -15 -17 -20 -22 -24 -26 0
-2948 3 0
-2948 5 0
-2948 7 0
-2948 9 0
-2948 12 0
-2948 13 0
-2948 15 0
-2948 17 0
-2948 20 0
-2948 22 0
-2948 24 0
-2948 26 0
2948 -3 -5 -7 -9 -12 -13 -15 -17 -20 -22 -24 -26 0
-2949 4 0
-2949 5 0
-2949 7 0
-2949 9 0
-2949 12 0
-2949 13 0
-2949 15 0
-2949 17 0
-2949 20 0
-2949 22 0
-2949 24 0
-2949 26 0
2949 -4 -5 -7 -9 -12 -13 -15 -17 -20 -22 -24 -26 0
-2950 3 0
-2950 6 0
-2950 7 0
-2950 9 0
-2950 12 0
-2950 13 0
-2950 15 0
-2950 17 0
-2950 20 0
-2950 22 0
-2950 24 0
-2950 26 0
2950 -3 -6 -7 -9 -12 -13 -15 -17 -20 -22 -24 -26 0
-2951 3 0
-2951 5 0
-2951 7 0
-2951 9 0
-2951 11 0
-2951 14 0
-2951 15 0
-2951 17 0
-2951 19 0
-2951 22 0
-2951 23 0
-2951 26 0
2951 -3 -5 -7 -9 -11 -14 -15 -17 -19 -22 -23 -26 0
-2952 3 0
-2952 6 0
-2952 7 0
-2952 9 0
-2952 11 0
-2952 14 0
-2952 15 0
-2952 17 0
-2952 19 0
-2952 22 0
-2952 23 0
-2952 26 0
2952 -3 -6 -7 -9 -11 -14 -15 -17 -19 -22 -23 -26 0
-2953 4 0
-2953 5 0
-2953 7 0
-2953 9 0
-2953 11 0
-2953 14 0
-2953 15 0
-2953 17 0
-2953 19 0
-2953 22 0
-2953 23 0
-2953 26 0
2953 -4 -5 -7 -9 -11 -14 -15 -17 -19 -22 -23 -26 0
-2954 4 0
-2954 6 0
-2954 7 0
-2954 9 0
-2954 12 0
-2954 13 0
-2954 15 0
-2954 17 0
-2954 20 0
-2954 22 0
-2954 24 0
-2954 26 0
2954 -4 -6 -7 -9 -12 -13 -15 -17 -20 -22 -24 -26 0
-2955 3 0
-2955 6 0
-2955 7 0
-2955 9 0
-2955 12 0
-2955 14 0
-2955 15 0
-2955 17 0
-2955 20 0
-2955 22 0
-2955 24 0
-2955 26 0
2955 -3 -6 -7 -9 -12 -14 -15 -17 -20 -22 -24 -26 0
-2956 4 0
-2956 6 0
-2956 7 0
-2956 9 0
-2956 12 0
-2956 14 0
-2956 15 0
-2956 17 0
-2956 20 0
-2956 22 0
-2956 24 0
-2956 26 0
2956 -4 -6 -7 -9 -12 -14 -15 -17 -20 -22 -24 -26 0
-2957 3 0
-2957 5 0
-2957 7 0
-2957 9 0
-2957 12 0
-2957 14 0
-2957 15 0
-2957 17 0
-2957 20 0
-2957 22 0
-2957 24 0
-2957 26 0
2957 -3 -5 -7 -9 -12 -14 -15 -17 -20 -22 -24 -26 0
-2958 3 0
-2958 5 0
-2958 8 0
-2958 9 0
-2958 11 0
-2958 14 0
-2958 15 0
-2958 17 0
-2958 19 0
-2958 22 0
-2958 23 0
-2958 26 0
2958 -3 -5 -8 -9 -11 -14 -15 -17 -19 -22 -23 -26 0
-2959 3 0
-2959 6 0
-2959 8 0
-2959 9 0
-2959 11 0
-2959 14 0
-2959 15 0
-2959 17 0
-2959 19 0
-2959 22 0
-2959 23 0
-2959 26 0
2959 -3 -6 -8 -9 -11 -14 -15 -17 -19 -22 -23 -26 0
-2960 4 0
-2960 5 0
-2960 8 0
-2960 9 0
-2960 11 0
-2960 14 0
-2960 15 0
-2960 17 0
-2960 19 0
-2960 22 0
-2960 23 0
-2960 26 0
2960 -4 -5 -8 -9 -11 -14 -15 -17 -19 -22 -23 -26 0
-2961 4 0
-2961 5 0
-2961 7 0
-2961 9 0
-2961 12 0
-2961 14 0
-2961 15 0
-2961 17 0
-2961 20 0
-2961 22 0
-2961 24 0
-2961 26 0
2961 -4 -5 -7 -9 -12 -14 -15 -17 -20 -22 -24 -26 0
-2962 3 0
-2962 5 0
-2962 8 0
-2962 9 0
-2962 12 0
-2962 14 0
-2962 15 0
-2962 17 0
-2962 20 0
-2962 22 0
-2962 24 0
-2962 26 0
2962 -3 -5 -8 -9 -12 -14 -15 -17 -20 -22 -24 -26 0
-2963 4 0
-2963 5 0
-2963 8 0
-2963 9 0
-2963 12 0
-2963 14 0
-2963 15 0
-2963 17 0
-2963 20 0
-2963 22 0
-2963 24 0
-2963 26 0
2963 -4 -5 -8 -9 -12 -14 -15 -17 -20 -22 -24 -26 0
-2964 3 0
-2964 6 0
-2964 8 0
-2964 9 0
-2964 12 0
-2964 14 0
-2964 15 0
-2964 17 0
-2964 20 0
-2964 22 0
-2964 24 0
-2964 26 0
2964 -3 -6 -8 -9 -12 -14 -15 -17 -20 -22 -24 -26 0
-2965 3 0
-2965 5 0
-2965 7 0
-2965 10 0
-2965 11 0
-2965 14 0
-2965 15 0
-2965 17 0
-2965 19 0
-2965 22 0
-2965 23 0
-2965 26 0
2965 -3 -5 -7 -10 -11 -14 -15 -17 -19 -22 -23 -26 0
-2966 3 0
-2966 6 0
-2966 7 0
-2966 10 0
-2966 11 0
-2966 14 0
-2966 15 0
-2966 17 0
-2966 19 0
-2966 22 0
-2966 23 0
-2966 26 0
2966 -3 -6 -7 -10 -11 -14 -15 -17 -19 -22 -23 -26 0
-2967 4 0
-2967 5 0
-2967 7 0
-2967 10 0
-2967 11 0
-2967 14 0
-2967 15 0
-2967 17 0
-2967 19 0
-2967 22 0
-2967 23 0
-2967 26 0
2967 -4 -5 -7 -10 -11 -14 -15 -17 -19 -22 -23 -26 0
-2968 4 0
-2968 6 0
-2968 8 0
-2968 9 0
-2968 12 0
-2968 14 0
-2968 15 0
-2968 17 0
-2968 20 0
-2968 22 0
-2968 24 0
-2968 26 0
2968 -4 -6 -8 -9 -12 -14 -15 -17 -20 -22 -24 -26 0
-2969 3 0
-2969 6 0
-2969 8 0
-2969 10 0
-2969 12 0
-2969 14 0
-2969 15 0
-2969 17 0
-2969 20 0
-2969 22 0
-2969 24 0
-2969 26 0
2969 -3 -6 -8 -10 -12 -14 -15 -17 -20 -22 -24 -26 0
-2970 4 0
-2970 6 0
-2970 8 0
-2970 10 0
-2970 12 0
-2970 14 0
-2970 15 0
-2970 17 0
-2970 20 0
-2970 22 0
-2970 24 0
-2970 26 0
2970 -4 -6 -8 -10 -12 -14 -15 -17 -20 -22 -24 -26 0
-2971 3 0
-2971 5 0
-2971 8 0
-2971 10 0
-2971 12 0
-2971 14 0
-2971 15 0
-2971 17 0
-2971 20 0
-2971 22 0
-2971 24 0
-2971 26 0
2971 -3 -5 -8 -10 -12 -14 -15 -17 -20 -22 -24 -26 0
-2972 4 0
-2972 5 0
-2972 8 0
-2972 10 0
-2972 11 0
-2972 14 0
-2972 15 0
-2972 17 0
-2972 19 0
-2972 22 0
-2972 23 0
-2972 26 0
2972 -4 -5 -8 -10 -11 -14 -15 -17 -19 -22 -23 -26 0
-2973 4 0
-2973 6 0
-2973 7 0
-2973 10 0
-2973 11 0
-2973 14 0
-2973 15 0
-2973 17 0
-2973 19 0
-2973 22 0
-2973 23 0
-2973 26 0
2973 -4 -6 -7 -10 -11 -14 -15 -17 -19 -22 -23 -26 0
-2974 4 0
-2974 5 0
-2974 8 0
-2974 10 0
-2974 12 0
-2974 14 0
-2974 15 0
-2974 17 0
-2974 20 0
-2974 22 0
-2974 24 0
-2974 26 0
2974 -4 -5 -8 -10 -12 -14 -15 -17 -20 -22 -24 -26 0
-2975 3 0
-2975 5 0
-2975 7 0
-2975 10 0
-2975 12 0
-2975 14 0
-2975 15 0
-2975 17 0
-2975 20 0
-2975 22 0
-2975 24 0
-2975 26 0
2975 -3 -5 -7 -10 -12 -14 -15 -17 -20 -22 -24 -26 0
-2976 4 0
-2976 5 0
-2976 7 0
-2976 10 0
-2976 12 0
-2976 14 0
-2976 15 0
-2976 17 0
-2976 20 0
-2976 22 0
-2976 24 0
-2976 26 0
2976 -4 -5 -7 -10 -12 -14 -15 -17 -20 -22 -24 -26 0
-2977 3 0
-2977 6 0
-2977 7 0
-2977 10 0
-2977 12 0
-2977 14 0
-2977 15 0
-2977 17 0
-2977 20 0
-2977 22 0
-2977 24 0
-2977 26 0
2977 -3 -6 -7 -10 -12 -14 -15 -17 -20 -22 -24 -26 0
-2978 4 0
-2978 6 0
-2978 7 0
-2978 10 0
-2978 12 0
-2978 14 0
-2978 15 0
-2978 17 0
-2978 19 0
-2978 22 0
-2978 23 0
-2978 26 0
2978 -4 -6 -7 -10 -12 -14 -15 -17 -19 -22 -23 -26 0
-2979 4 0
-2979 6 0
-2979 7 0
-2979 10 0
-2979 12 0
-2979 14 0
-2979 15 0
-2979 17 0
-2979 20 0
-2979 22 0
-2979 24 0
-2979 26 0
2979 -4 -6 -7 -10 -12 -14 -15 -17 -20 -22 -24 -26 0
-2980 3 0
-2980 6 0
-2980 7 0
-2980 10 0
-2980 11 0
-2980 14 0
-2980 15 0
-2980 17 0
-2980 20 0
-2980 22 0
-2980 24 0
-2980 26 0
2980 -3 -6 -7 -10 -11 -14 -15 -17 -20 -22 -24 -26 0
-2981 4 0
-2981 6 0
-2981 7 0
-2981 10 0
-2981 11 0
-2981 14 0
-2981 15 0
-2981 17 0
-2981 20 0
-2981 22 0
-2981 24 0
-2981 26 0
2981 -4 -6 -7 -10 -11 -14 -15 -17 -20 -22 -24 -26 0
-2982 3 0
-2982 5 0
-2982 7 0
-2982 10 0
-2982 11 0
-2982 14 0
-2982 15 0
-2982 17 0
-2982 20 0
-2982 22 0
-2982 24 0
-2982 26 0
2982 -3 -5 -7 -10 -11 -14 -15 -17 -20 -22 -24 -26 0
-2983 4 0
-2983 6 0
-2983 8 0
-2983 9 0
-2983 11 0
-2983 14 0
-2983 15 0
-2983 17 0
-2983 19 0
-2983 22 0
-2983 23 0
-2983 26 0
2983 -4 -6 -8 -9 -11 -14 -15 -17 -19 -22 -23 -26 0
-2984 4 0
-2984 5 0
-2984 7 0
-2984 10 0
-2984 11 0
-2984 14 0
-2984 15 0
-2984 17 0
-2984 20 0
-2984 22 0
-2984 24 0
-2984 26 0
2984 -4 -5 -7 -10 -11 -14 -15 -17 -20 -22 -24 -26 0
-2985 3 0
-2985 5 0
-2985 8 0
-2985 10 0
-2985 11 0
-2985 14 0
-2985 15 0
-2985 17 0
-2985 20 0
-2985 22 0
-2985 24 0
-2985 26 0
2985 -3 -5 -8 -10 -11 -14 -15 -17 -20 -22 -24 -26 0
-2986 4 0
-2986 5 0
-2986 8 0
-2986 10 0
-2986 11 0
-2986 14 0
-2986 15 0
-2986 17 0
-2986 20 0
-2986 22 0
-2986 24 0
-2986 26 0
2986 -4 -5 -8 -10 -11 -14 -15 -17 -20 -22 -24 -26 0
-2987 3 0
-2987 6 0
-2987 8 0
-2987 10 0
-2987 11 0
-2987 14 0
-2987 15 0
-2987 17 0
-2987 20 0
-2987 22 0
-2987 24 0
-2987 26 0
2987 -3 -6 -8 -10 -11 -14 -15 -17 -20 -22 -24 -26 0
-2988 4 0
-2988 6 0
-2988 8 0
-2988 10 0
-2988 11 0
-2988 14 0
-2988 15 0
-2988 17 0
-2988 19 0
-2988 22 0
-2988 23 0
-2988 26 0
2988 -4 -6 -8 -10 -11 -14 -15 -17 -19 -22 -23 -26 0
-2989 4 0
-2989 6 0
-2989 8 0
-2989 10 0
-2989 11 0
-2989 14 0
-2989 15 0
-2989 17 0
-2989 20 0
-2989 22 0
-2989 24 0
-2989 26 0
2989 -4 -6 -8 -10 -11 -14 -15 -17 -20 -22 -24 -26 0
-2990 3 0
-2990 6 0
-2990 8 0
-2990 9 0
-2990 11 0
-2990 14 0
-2990 15 0
-2990 17 0
-2990 20 0
-2990 22 0
-2990 24 0
-2990 26 0
2990 -3 -6 -8 -9 -11 -14 -15 -17 -20 -22 -24 -26 0
-2991 4 0
-2991 6 0
-2991 8 0
-2991 9 0
-2991 11 0
-2991 14 0
-2991 15 0
-2991 17 0
-2991 20 0
-2991 22 0
-2991 24 0
-2991 26 0
2991 -4 -6 -8 -9 -11 -14 -15 -17 -20 -22 -24 -26 0
-2992 3 0
-2992 5 0
-2992 8 0
-2992 9 0
-2992 11 0
-2992 14 0
-2992 15 0
-2992 17 0
-2992 20 0
-2992 22 0
-2992 24 0
-2992 26 0
2992 -3 -5 -8 -9 -11 -14 -15 -17 -20 -22 -24 -26 0
-2993 4 0
-2993 6 0
-2993 7 0
-2993 9 0
-2993 11 0
-2993 14 0
-2993 15 0
-2993 17 0
-2993 19 0
-2993 22 0
-2993 23 0
-2993 26 0
2993 -4 -6 -7 -9 -11 -14 -15 -17 -19 -22 -23 -26 0
-2994 4 0
-2994 5 0
-2994 8 0
-2994 9 0
-2994 11 0
-2994 14 0
-2994 15 0
-2994 17 0
-2994 20 0
-2994 22 0
-2994 24 0
-2994 26 0
2994 -4 -5 -8 -9 -11 -14 -15 -17 -20 -22 -24 -26 0
-2995 3 0
-2995 5 0
-2995 7 0
-2995 9 0
-2995 11 0
-2995 14 0
-2995 15 0
-2995 17 0
-2995 20 0
-2995 22 0
-2995 24 0
-2995 26 0
2995 -3 -5 -7 -9 -11 -14 -15 -17 -20 -22 -24 -26 0
-2996 4 0
-2996 5 0
-2996 7 0
-2996 9 0
-2996 11 0
-2996 14 0
-2996 15 0
-2996 17 0
-2996 20 0
-2996 22 0
-2996 24 0
-2996 26 0
2996 -4 -5 -7 -9 -11 -14 -15 -17 -20 -22 -24 -26 0
-2997 3 0
-2997 6 0
-2997 7 0
-2997 9 0
-2997 11 0
-2997 14 0
-2997 15 0
-2997 17 0
-2997 20 0
-2997 22 0
-2997 24 0
-2997 26 0
2997 -3 -6 -7 -9 -11 -14 -15 -17 -20 -22 -24 -26 0
-2998 3 0
-2998 5 0
-2998 7 0
-2998 9 0
-2998 11 0
-2998 13 0
-2998 16 0
-2998 17 0
-2998 19 0
-2998 22 0
-2998 23 0
-2998 26 0
2998 -3 -5 -7 -9 -11 -13 -16 -17 -19 -22 -23 -26 0
-2999 3 0
-2999 6 0
-2999 7 0
-2999 9 0
-2999 11 0
-2999 13 0
-2999 16 0
-2999 17 0
-2999 19 0
-2999 22 0
-2999 23 0
-2999 26 0
2999 -3 -6 -7 -9 -11 -13 -16 -17 -19 -22 -23 -26 0
-3000 4 0
-3000 5 0
-3000 7 0
-3000 9 0
-3000 11 0
-3000 13 0
-3000 16 0
-3000 17 0
-3000 19 0
-3000 22 0
-3000 23 0
-3000 26 0
3000 -4 -5 -7 -9 -11 -13 -16 -17 -19 -22 -23 -26 0
-3001 4 0
-3001 6 0
-3001 7 0
-3001 9 0
-3001 11 0
-3001 14 0
-3001 15 0
-3001 17 0
-3001 20 0
-3001 22 0
-3001 24 0
-3001 26 0
3001 -4 -6 -7 -9 -11 -14 -15 -17 -20 -22 -24 -26 0
-3002 3 0
-3002 6 0
-3002 7 0
-3002 9 0
-3002 11 0
-3002 14 0
-3002 16 0
-3002 17 0
-3002 20 0
-3002 22 0
-3002 24 0
-3002 26 0
3002 -3 -6 -7 -9 -11 -14 -16 -17 -20 -22 -24 -26 0
-3003 4 0
-3003 6 0
-3003 7 0
-3003 9 0
-3003 11 0
-3003 14 0
-3003 16 0
-3003 17 0
-3003 20 0
-3003 22 0
-3003 24 0
-3003 26 0
3003 -4 -6 -7 -9 -11 -14 -16 -17 -20 -22 -24 -26 0
-3004 3 0
-3004 5 0
-3004 7 0
-3004 9 0
-3004 11 0
-3004 14 0
-3004 16 0
-3004 17 0
-3004 20 0
-3004 22 0
-3004 24 0
-3004 26 0
3004 -3 -5 -7 -9 -11 -14 -16 -17 -20 -22 -24 -26 0
-3005 3 0
-3005 5 0
-3005 8 0
-3005 9 0
-3005 11 0
-3005 13 0
-3005 16 0
-3005 17 0
-3005 19 0
-3005 22 0
-3005 23 0
-3005 26 0
3005 -3 -5 -8 -9 -11 -13 -16 -17 -19 -22 -23 -26 0
-3006 3 0
-3006 6 0
-3006 8 0
-3006 9 0
-3006 11 0
-3006 13 0
-3006 16 0
-3006 17 0
-3006 19 0
-3006 22 0
-3006 23 0
-3006 26 0
3006 -3 -6 -8 -9 -11 -13 -16 -17 -19 -22 -23 -26 0
-3007 4 0
-3007 5 0
-3007 8 0
-3007 9 0
-3007 11 0
-3007 13 0
-3007 16 0
-3007 17 0
-3007 19 0
-3007 22 0
-3007 23 0
-3007 26 0
3007 -4 -5 -8 -9 -11 -13 -16 -17 -19 -22 -23 -26 0
-3008 4 0
-3008 5 0
-3008 7 0
-3008 9 0
-3008 11 0
-3008 14 0
-3008 16 0
-3008 17 0
-3008 20 0
-3008 22 0
-3008 24 0
-3008 26 0
3008 -4 -5 -7 -9 -11 -14 -16 -17 -20 -22 -24 -26 0
-3009 3 0
-3009 5 0
-3009 8 0
-3009 9 0
-3009 11 0
-3009 14 0
-3009 16 0
-3009 17 0
-3009 20 0
-3009 22 0
-3009 24 0
-3009 26 0
3009 -3 -5 -8 -9 -11 -14 -16 -17 -20 -22 -24 -26 0
-3010 4 0
-3010 5 0
-3010 8 0
-3010 9 0
-3010 11 0
-3010 14 0
-3010 16 0
-3010 17 0
-3010 20 0
-3010 22 0
-3010 24 0
-3010 26 0
3010 -4 -5 -8 -9 -11 -14 -16 -17 -20 -22 -24 -26 0
-3011 3 0
-3011 6 0
-3011 8 0
-3011 9 0
-3011 11 0
-3011 14 0
-3011 16 0
-3011 17 0
-3011 20 0
-3011 22 0
-3011 24 0
-3011 26 0
3011 -3 -6 -8 -9 -11 -14 -16 -17 -20 -22 -24 -26 0
-3012 3 0
-3012 5 0
-3012 7 0
-3012 10 0
-3012 11 0
-3012 13 0
-3012 16 0
-3012 17 0
-3012 19 0
-3012 22 0
-3012 23 0
-3012 26 0
3012 -3 -5 -7 -10 -11 -13 -16 -17 -19 -22 -23 -26 0
-3013 3 0
-3013 6 0
-3013 7 0
-3013 10 0
-3013 11 0
-3013 13 0
-3013 16 0
-3013 17 0
-3013 19 0
-3013 22 0
-3013 23 0
-3013 26 0
3013 -3 -6 -7 -10 -11 -13 -16 -17 -19 -22 -23 -26 0
-3014 4 0
-3014 5 0
-3014 7 0
-3014 10 0
-3014 11 0
-3014 13 0
-3014 16 0
-3014 17 0
-3014 19 0
-3014 22 0
-3014 23 0
-3014 26 0
3014 -4 -5 -7 -10 -11 -13 -16 -17 -19 -22 -23 -26 0
-3015 4 0
-3015 6 0
-3015 8 0
-3015 9 0
-3015 11 0
-3015 14 0
-3015 16 0
-3015 17 0
-3015 20 0
-3015 22 0
-3015 24 0
-3015 26 0
3015 -4 -6 -8 -9 -11 -14 -16 -17 -20 -22 -24 -26 0
-3016 3 0
-3016 6 0
-3016 8 0
-3016 10 0
-3016 11 0
-3016 14 0
-3016 16 0
-3016 17 0
-3016 20 0
-3016 22 0
-3016 24 0
-3016 26 0
3016 -3 -6 -8 -10 -11 -14 -16 -17 -20 -22 -24 -26 0
-3017 4 0
-3017 6 0
-3017 8 0
-3017 10 0
-3017 11 0
-3017 14 0
-3017 16 0
-3017 17 0
-3017 20 0
-3017 22 0
-3017 24 0
-3017 26 0
3017 -4 -6 -8 -10 -11 -14 -16 -17 -20 -22 -24 -26 0
-3018 3 0
-3018 5 0
-3018 8 0
-3018 10 0
-3018 11 0
-3018 14 0
-3018 16 0
-3018 17 0
-3018 20 0
-3018 22 0
-3018 24 0
-3018 26 0
3018 -3 -5 -8 -10 -11 -14 -16 -17 -20 -22 -24 -26 0
-3019 4 0
-3019 5 0
-3019 8 0
-3019 10 0
-3019 11 0
-3019 13 0
-3019 16 0
-3019 17 0
-3019 19 0
-3019 22 0
-3019 23 0
-3019 26 0
3019 -4 -5 -8 -10 -11 -13 -16 -17 -19 -22 -23 -26 0
-3020 4 0
-3020 6 0
-3020 7 0
-3020 10 0
-3020 11 0
-3020 13 0
-3020 16 0
-3020 17 0
-3020 19 0
-3020 22 0
-3020 23 0
-3020 26 0
3020 -4 -6 -7 -10 -11 -13 -16 -17 -19 -22 -23 -26 0
-3021 4 0
-3021 5 0
-3021 8 0
-3021 10 0
-3021 11 0
-3021 14 0
-3021 16 0
-3021 17 0
-3021 20 0
-3021 22 0
-3021 24 0
-3021 26 0
3021 -4 -5 -8 -10 -11 -14 -16 -17 -20 -22 -24 -26 0
-3022 3 0
-3022 5 0
-3022 7 0
-3022 10 0
-3022 11 0
-3022 14 0
-3022 16 0
-3022 17 0
-3022 20 0
-3022 22 0
-3022 24 0
-3022 26 0
3022 -3 -5 -7 -10 -11 -14 -16 -17 -20 -22 -24 -26 0
-3023 4 0
-3023 5 0
-3023 7 0
-3023 10 0
-3023 11 0
-3023 14 0
-3023 16 0
-3023 17 0
-3023 20 0
-3023 22 0
-3023 24 0
-3023 26 0
3023 -4 -5 -7 -10 -11 -14 -16 -17 -20 -22 -24 -26 0
-3024 3 0
-3024 6 0
-3024 7 0
-3024 10 0
-3024 11 0
-3024 14 0
-3024 16 0
-3024 17 0
-3024 20 0
-3024 22 0
-3024 24 0
-3024 26 0
3024 -3 -6 -7 -10 -11 -14 -16 -17 -20 -22 -24 -26 0
-3025 3 0
-3025 5 0
-3025 7 0
-3025 9 0
-3025 12 0
-3025 13 0
-3025 16 0
-3025 17 0
-3025 19 0
-3025 22 0
-3025 23 0
-3025 26 0
3025 -3 -5 -7 -9 -12 -13 -16 -17 -19 -22 -23 -26 0
-3026 3 0
-3026 6 0
-3026 7 0
-3026 9 0
-3026 12 0
-3026 13 0
-3026 16 0
-3026 17 0
-3026 19 0
-3026 22 0
-3026 23 0
-3026 26 0
3026 -3 -6 -7 -9 -12 -13 -16 -17 -19 -22 -23 -26 0
-3027 4 0
-3027 5 0
-3027 7 0
-3027 9 0
-3027 12 0
-3027 13 0
-3027 16 0
-3027 17 0
-3027 19 0
-3027 22 0
-3027 23 0
-3027 26 0
3027 -4 -5 -7 -9 -12 -13 -16 -17 -19 -22 -23 -26 0
-3028 4 0
-3028 6 0
-3028 7 0
-3028 10 0
-3028 11 0
-3028 14 0
-3028 16 0
-3028 17 0
-3028 20 0
-3028 22 0
-3028 24 0
-3028 26 0
3028 -4 -6 -7 -10 -11 -14 -16 -17 -20 -22 -24 -26 0
-3029 3 0
-3029 6 0
-3029 7 0
-3029 10 0
-3029 12 0
-3029 14 0
-3029 16 0
-3029 17 0
-3029 20 0
-3029 22 0
-3029 24 0
-3029 26 0
3029 -3 -6 -7 -10 -12 -14 -16 -17 -20 -22 -24 -26 0
-3030 4 0
-3030 6 0
-3030 7 0
-3030 10 0
-3030 12 0
-3030 14 0
-3030 16 0
-3030 17 0
-3030 20 0
-3030 22 0
-3030 24 0
-3030 26 0
3030 -4 -6 -7 -10 -12 -14 -16 -17 -20 -22 -24 -26 0
-3031 3 0
-3031 5 0
-3031 7 0
-3031 10 0
-3031 12 0
-3031 14 0
-3031 16 0
-3031 17 0
-3031 20 0
-3031 22 0
-3031 24 0
-3031 26 0
3031 -3 -5 -7 -10 -12 -14 -16 -17 -20 -22 -24 -26 0
-3032 3 0
-3032 5 0
-3032 8 0
-3032 9 0
-3032 12 0
-3032 13 0
-3032 16 0
-3032 17 0
-3032 19 0
-3032 22 0
-3032 23 0
-3032 26 0
3032 -3 -5 -8 -9 -12 -13 -16 -17 -19 -22 -23 -26 0
-3033 3 0
-3033 6 0
-3033 8 0
-3033 9 0
-3033 12 0
-3033 13 0
-3033 16 0
-3033 17 0
-3033 19 0
-3033 22 0
-3033 23 0
-3033 26 0
3033 -3 -6 -8 -9 -12 -13 -16 -17 -19 -22 -23 -26 0
-3034 4 0
-3034 5 0
-3034 8 0
-3034 9 0
-3034 12 0
-3034 13 0
-3034 16 0
-3034 17 0
-3034 19 0
-3034 22 0
-3034 23 0
-3034 26 0
3034 -4 -5 -8 -9 -12 -13 -16 -17 -19 -22 -23 -26 0
-3035 4 0
-3035 5 0
-3035 7 0
-3035 10 0
-3035 12 0
-3035 14 0
-3035 16 0
-3035 17 0
-3035 20 0
-3035 22 0
-3035 24 0
-3035 26 0
3035 -4 -5 -7 -10 -12 -14 -16 -17 -20 -22 -24 -26 0
-3036 3 0
-3036 5 0
-3036 8 0
-3036 10 0
-3036 12 0
-3036 14 0
-3036 16 0
-3036 17 0
-3036 20 0
-3036 22 0
-3036 24 0
-3036 26 0
3036 -3 -5 -8 -10 -12 -14 -16 -17 -20 -22 -24 -26 0
-3037 4 0
-3037 5 0
-3037 8 0
-3037 10 0
-3037 12 0
-3037 14 0
-3037 16 0
-3037 17 0
-3037 20 0
-3037 22 0
-3037 24 0
-3037 26 0
3037 -4 -5 -8 -10 -12 -14 -16 -17 -20 -22 -24 -26 0
-3038 3 0
-3038 6 0
-3038 8 0
-3038 10 0
-3038 12 0
-3038 14 0
-3038 16 0
-3038 17 0
-3038 20 0
-3038 22 0
-3038 24 0
-3038 26 0
3038 -3 -6 -8 -10 -12 -14 -16 -17 -20 -22 -24 -26 0
-3039 4 0
-3039 6 0
-3039 7 0
-3039 9 0
-3039 12 0
-3039 13 0
-3039 16 0
-3039 17 0
-3039 19 0
-3039 22 0
-3039 23 0
-3039 26 0
3039 -4 -6 -7 -9 -12 -13 -16 -17 -19 -22 -23 -26 0
-3040 4 0
-3040 6 0
-3040 8 0
-3040 10 0
-3040 12 0
-3040 14 0
-3040 16 0
-3040 17 0
-3040 20 0
-3040 22 0
-3040 24 0
-3040 26 0
3040 -4 -6 -8 -10 -12 -14 -16 -17 -20 -22 -24 -26 0
-3041 3 0
-3041 6 0
-3041 8 0
-3041 9 0
-3041 12 0
-3041 14 0
-3041 16 0
-3041 17 0
-3041 20 0
-3041 22 0
-3041 24 0
-3041 26 0
3041 -3 -6 -8 -9 -12 -14 -16 -17 -20 -22 -24 -26 0
-3042 4 0
-3042 6 0
-3042 8 0
-3042 9 0
-3042 12 0
-3042 14 0
-3042 16 0
-3042 17 0
-3042 20 0
-3042 22 0
-3042 24 0
-3042 26 0
3042 -4 -6 -8 -9 -12 -14 -16 -17 -20 -22 -24 -26 0
-3043 3 0
-3043 5 0
-3043 8 0
-3043 9 0
-3043 12 0
-3043 14 0
-3043 16 0
-3043 17 0
-3043 20 0
-3043 22 0
-3043 24 0
-3043 26 0
3043 -3 -5 -8 -9 -12 -14 -16 -17 -20 -22 -24 -26 0
-3044 4 0
-3044 5 0
-3044 8 0
-3044 9 0
-3044 12 0
-3044 14 0
-3044 16 0
-3044 17 0
-3044 20 0
-3044 22 0
-3044 24 0
-3044 26 0
3044 -4 -5 -8 -9 -12 -14 -16 -17 -20 -22 -24 -26 0
-3045 3 0
-3045 5 0
-3045 7 0
-3045 9 0
-3045 12 0
-3045 14 0
-3045 16 0
-3045 17 0
-3045 20 0
-3045 22 0
-3045 24 0
-3045 26 0
3045 -3 -5 -7 -9 -12 -14 -16 -17 -20 -22 -24 -26 0
-3046 4 0
-3046 5 0
-3046 7 0
-3046 9 0
-3046 12 0
-3046 14 0
-3046 16 0
-3046 17 0
-3046 20 0
-3046 22 0
-3046 24 0
-3046 26 0
3046 -4 -5 -7 -9 -12 -14 -16 -17 -20 -22 -24 -26 0
-3047 3 0
-3047 6 0
-3047 7 0
-3047 9 0
-3047 12 0
-3047 14 0
-3047 16 0
-3047 17 0
-3047 20 0
-3047 22 0
-3047 24 0
-3047 26 0
3047 -3 -6 -7 -9 -12 -14 -16 -17 -20 -22 -24 -26 0
-3048 4 0
-3048 6 0
-3048 7 0
-3048 9 0
-3048 12 0
-3048 14 0
-3048 16 0
-3048 17 0
-3048 19 0
-3048 22 0
-3048 23 0
-3048 26 0
3048 -4 -6 -7 -9 -12 -14 -16 -17 -19 -22 -23 -26 0
-3049 4 0
-3049 6 0
-3049 7 0
-3049 9 0
-3049 12 0
-3049 14 0
-3049 16 0
-3049 17 0
-3049 20 0
-3049 22 0
-3049 24 0
-3049 26 0
3049 -4 -6 -7 -9 -12 -14 -16 -17 -20 -22 -24 -26 0
-3050 3 0
-3050 6 0
-3050 7 0
-3050 9 0
-3050 12 0
-3050 13 0
-3050 16 0
-3050 17 0
-3050 20 0
-3050 22 0
-3050 24 0
-3050 26 0
3050 -3 -6 -7 -9 -12 -13 -16 -17 -20 -22 -24 -26 0
-3051 4 0
-3051 6 0
-3051 7 0
-3051 9 0
-3051 12 0
-3051 13 0
-3051 16 0
-3051 17 0
-3051 20 0
-3051 22 0
-3051 24 0
-3051 26 0
3051 -4 -6 -7 -9 -12 -13 -16 -17 -20 -22 -24 -26 0
-3052 3 0
-3052 5 0
-3052 7 0
-3052 9 0
-3052 12 0
-3052 13 0
-3052 16 0
-3052 17 0
-3052 20 0
-3052 22 0
-3052 24 0
-3052 26 0
3052 -3 -5 -7 -9 -12 -13 -16 -17 -20 -22 -24 -26 0
-3053 4 0
-3053 6 0
-3053 8 0
-3053 9 0
-3053 11 0
-3053 13 0
-3053 16 0
-3053 17 0
-3053 19 0
-3053 22 0
-3053 23 0
-3053 26 0
3053 -4 -6 -8 -9 -11 -13 -16 -17 -19 -22 -23 -26 0
-3054 4 0
-3054 5 0
-3054 7 0
-3054 9 0
-3054 12 0
-3054 13 0
-3054 16 0
-3054 17 0
-3054 20 0
-3054 22 0
-3054 24 0
-3054 26 0
3054 -4 -5 -7 -9 -12 -13 -16 -17 -20 -22 -24 -26 0
-3055 3 0
-3055 5 0
-3055 8 0
-3055 9 0
-3055 12 0
-3055 13 0
-3055 16 0
-3055 17 0
-3055 20 0
-3055 22 0
-3055 24 0
-3055 26 0
3055 -3 -5 -8 -9 -12 -13 -16 -17 -20 -22 -24 -26 0
-3056 4 0
-3056 5 0
-3056 8 0
-3056 9 0
-3056 12 0
-3056 13 0
-3056 16 0
-3056 17 0
-3056 20 0
-3056 22 0
-3056 24 0
-3056 26 0
3056 -4 -5 -8 -9 -12 -13 -16 -17 -20 -22 -24 -26 0
-3057 3 0
-3057 6 0
-3057 8 0
-3057 9 0
-3057 12 0
-3057 13 0
-3057 16 0
-3057 17 0
-3057 20 0
-3057 22 0
-3057 24 0
-3057 26 0
3057 -3 -6 -8 -9 -12 -13 -16 -17 -20 -22 -24 -26 0
-3058 4 0
-3058 6 0
-3058 8 0
-3058 9 0
-3058 12 0
-3058 13 0
-3058 16 0
-3058 17 0
-3058 20 0
-3058 22 0
-3058 24 0
-3058 26 0
3058 -4 -6 -8 -9 -12 -13 -16 -17 -20 -22 -24 -26 0
-3059 3 0
-3059 6 0
-3059 8 0
-3059 10 0
-3059 12 0
-3059 13 0
-3059 16 0
-3059 17 0
-3059 20 0
-3059 22 0
-3059 24 0
-3059 26 0
3059 -3 -6 -8 -10 -12 -13 -16 -17 -20 -22 -24 -26 0
-3060 4 0
-3060 6 0
-3060 8 0
-3060 10 0
-3060 12 0
-3060 13 0
-3060 16 0
-3060 17 0
-3060 20 0
-3060 22 0
-3060 24 0
-3060 26 0
3060 -4 -6 -8 -10 -12 -13 -16 -17 -20 -22 -24 -26 0
-3061 3 0
-3061 5 0
-3061 8 0
-3061 10 0
-3061 12 0
-3061 13 0
-3061 16 0
-3061 17 0
-3061 20 0
-3061 22 0
-3061 24 0
-3061 26 0
3061 -3 -5 -8 -10 -12 -13 -16 -17 -20 -22 -24 -26 0
-3062 4 0
-3062 5 0
-3062 8 0
-3062 10 0
-3062 12 0
-3062 13 0
-3062 16 0
-3062 17 0
-3062 20 0
-3062 22 0
-3062 24 0
-3062 26 0
3062 -4 -5 -8 -10 -12 -13 -16 -17 -20 -22 -24 -26 0
-3063 3 0
-3063 5 0
-3063 7 0
-3063 10 0
-3063 12 0
-3063 13 0
-3063 16 0
-3063 17 0
-3063 20 0
-3063 22 0
-3063 24 0
-3063 26 0
3063 -3 -5 -7 -10 -12 -13 -16 -17 -20 -22 -24 -26 0
-3064 4 0
-3064 5 0
-3064 7 0
-3064 10 0
-3064 12 0
-3064 13 0
-3064 16 0
-3064 17 0
-3064 20 0
-3064 22 0
-3064 24 0
-3064 26 0
3064 -4 -5 -7 -10 -12 -13 -16 -17 -20 -22 -24 -26 0
-3065 3 0
-3065 6 0
-3065 7 0
-3065 10 0
-3065 12 0
-3065 13 0
-3065 16 0
-3065 17 0
-3065 20 0
-3065 22 0
-3065 24 0
-3065 26 0
3065 -3 -6 -7 -10 -12 -13 -16 -17 -20 -22 -24 -26 0
-3066 4 0
-3066 6 0
-3066 7 0
-3066 10 0
-3066 12 0
-3066 13 0
-3066 16 0
-3066 17 0
-3066 19 0
-3066 22 0
-3066 23 0
-3066 26 0
3066 -4 -6 -7 -10 -12 -13 -16 -17 -19 -22 -23 -26 0
-3067 4 0
-3067 6 0
-3067 7 0
-3067 10 0
-3067 12 0
-3067 13 0
-3067 16 0
-3067 17 0
-3067 20 0
-3067 22 0
-3067 24 0
-3067 26 0
3067 -4 -6 -7 -10 -12 -13 -16 -17 -20 -22 -24 -26 0
-3068 3 0
-3068 6 0
-3068 7 0
-3068 10 0
-3068 11 0
-3068 13 0
-3068 16 0
-3068 17 0
-3068 20 0
-3068 22 0
-3068 24 0
-3068 26 0
3068 -3 -6 -7 -10 -11 -13 -16 -17 -20 -22 -24 -26 0
-3069 4 0
-3069 6 0
-3069 7 0
-3069 10 0
-3069 11 0
-3069 13 0
-3069 16 0
-3069 17 0
-3069 20 0
-3069 22 0
-3069 24 0
-3069 26 0
3069 -4 -6 -7 -10 -11 -13 -16 -17 -20 -22 -24 -26 0
-3070 3 0
-3070 5 0
-3070 7 0
-3070 10 0
-3070 11 0
-3070 13 0
-3070 16 0
-3070 17 0
-3070 20 0
-3070 22 0
-3070 24 0
-3070 26 0
3070 -3 -5 -7 -10 -11 -13 -16 -17 -20 -22 -24 -26 0
-3071 4 0
-3071 5 0
-3071 7 0
-3071 10 0
-3071 11 0
-3071 13 0
-3071 16 0
-3071 17 0
-3071 20 0
-3071 22 0
-3071 24 0
-3071 26 0
3071 -4 -5 -7 -10 -11 -13 -16 -17 -20 -22 -24 -26 0
-3072 3 0
-3072 5 0
-3072 8 0
-3072 10 0
-3072 11 0
-3072 13 0
-3072 16 0
-3072 17 0
-3072 20 0
-3072 22 0
-3072 24 0
-3072 26 0
3072 -3 -5 -8 -10 -11 -13 -16 -17 -20 -22 -24 -26 0
-3073 4 0
-3073 5 0
-3073 8 0
-3073 10 0
-3073 11 0
-3073 13 0
-3073 16 0
-3073 17 0
-3073 20 0
-3073 22 0
-3073 24 0
-3073 26 0
3073 -4 -5 -8 -10 -11 -13 -16 -17 -20 -22 -24 -26 0
-3074 3 0
-3074 6 0
-3074 8 0
-3074 10 0
-3074 11 0
-3074 13 0
-3074 16 0
-3074 17 0
-3074 20 0
-3074 22 0
-3074 24 0
-3074 26 0
3074 -3 -6 -8 -10 -11 -13 -16 -17 -20 -22 -24 -26 0
-3075 4 0
-3075 6 0
-3075 8 0
-3075 10 0
-3075 11 0
-3075 13 0
-3075 16 0
-3075 17 0
-3075 19 0
-3075 22 0
-3075 23 0
-3075 26 0
3075 -4 -6 -8 -10 -11 -13 -16 -17 -19 -22 -23 -26 0
-3076 4 0
-3076 6 0
-3076 8 0
-3076 10 0
-3076 11 0
-3076 13 0
-3076 16 0
-3076 17 0
-3076 20 0
-3076 22 0
-3076 24 0
-3076 26 0
3076 -4 -6 -8 -10 -11 -13 -16 -17 -20 -22 -24 -26 0
-3077 3 0
-3077 6 0
-3077 8 0
-3077 9 0
-3077 11 0
-3077 13 0
-3077 16 0
-3077 17 0
-3077 20 0
-3077 22 0
-3077 24 0
-3077 26 0
3077 -3 -6 -8 -9 -11 -13 -16 -17 -20 -22 -24 -26 0
-3078 4 0
-3078 6 0
-3078 8 0
-3078 9 0
-3078 11 0
-3078 13 0
-3078 16 0
-3078 17 0
-3078 20 0
-3078 22 0
-3078 24 0
-3078 26 0
3078 -4 -6 -8 -9 -11 -13 -16 -17 -20 -22 -24 -26 0
-3079 3 0
-3079 5 0
-3079 8 0
-3079 9 0
-3079 11 0
-3079 13 0
-3079 16 0
-3079 17 0
-3079 20 0
-3079 22 0
-3079 24 0
-3079 26 0
3079 -3 -5 -8 -9 -11 -13 -16 -17 -20 -22 -24 -26 0
-3080 4 0
-3080 6 0
-3080 7 0
-3080 9 0
-3080 11 0
-3080 13 0
-3080 16 0
-3080 17 0
-3080 19 0
-3080 22 0
-3080 23 0
-3080 26 0
3080 -4 -6 -7 -9 -11 -13 -16 -17 -19 -22 -23 -26 0
-3081 4 0
-3081 5 0
-3081 8 0
-3081 9 0
-3081 11 0
-3081 13 0
-3081 16 0
-3081 17 0
-3081 20 0
-3081 22 0
-3081 24 0
-3081 26 0
3081 -4 -5 -8 -9 -11 -13 -16 -17 -20 -22 -24 -26 0
-3082 3 0
-3082 5 0
-3082 7 0
-3082 9 0
-3082 11 0
-3082 13 0
-3082 16 0
-3082 17 0
-3082 20 0
-3082 22 0
-3082 24 0
-3082 26 0
3082 -3 -5 -7 -9 -11 -13 -16 -17 -20 -22 -24 -26 0
-3083 4 0
-3083 5 0
-3083 7 0
-3083 9 0
-3083 11 0
-3083 13 0
-3083 16 0
-3083 17 0
-3083 20 0
-3083 22 0
-3083 24 0
-3083 26 0
3083 -4 -5 -7 -9 -11 -13 -16 -17 -20 -22 -24 -26 0
-3084 3 0
-3084 6 0
-3084 7 0
-3084 9 0
-3084 11 0
-3084 13 0
-3084 16 0
-3084 17 0
-3084 20 0
-3084 22 0
-3084 24 0
-3084 26 0
3084 -3 -6 -7 -9 -11 -13 -16 -17 -20 -22 -24 -26 0
-3085 3 0
-3085 5 0
-3085 7 0
-3085 9 0
-3085 11 0
-3085 13 0
-3085 15 0
-3085 18 0
-3085 19 0
-3085 22 0
-3085 23 0
-3085 26 0
3085 -3 -5 -7 -9 -11 -13 -15 -18 -19 -22 -23 -26 0
-3086 3 0
-3086 6 0
-3086 7 0
-3086 9 0
-3086 11 0
-3086 13 0
-3086 15 0
-3086 18 0
-3086 19 0
-3086 22 0
-3086 23 0
-3086 26 0
3086 -3 -6 -7 -9 -11 -13 -15 -18 -19 -22 -23 -26 0
-3087 4 0
-3087 5 0
-3087 7 0
-3087 9 0
-3087 11 0
-3087 13 0
-3087 15 0
-3087 18 0
-3087 19 0
-3087 22 0
-3087 23 0
-3087 26 0
3087 -4 -5 -7 -9 -11 -13 -15 -18 -19 -22 -23 -26 0
-3088 4 0
-3088 6 0
-3088 7 0
-3088 9 0
-3088 11 0
-3088 13 0
-3088 16 0
-3088 17 0
-3088 20 0
-3088 22 0
-3088 24 0
-3088 26 0
3088 -4 -6 -7 -9 -11 -13 -16 -17 -20 -22 -24 -26 0
-3089 3 0
-3089 6 0
-3089 7 0
-3089 9 0
-3089 11 0
-3089 13 0
-3089 16 0
-3089 18 0
-3089 20 0
-3089 22 0
-3089 24 0
-3089 26 0
3089 -3 -6 -7 -9 -11 -13 -16 -18 -20 -22 -24 -26 0
-3090 4 0
-3090 6 0
-3090 7 0
-3090 9 0
-3090 11 0
-3090 13 0
-3090 16 0
-3090 18 0
-3090 20 0
-3090 22 0
-3090 24 0
-3090 26 0
3090 -4 -6 -7 -9 -11 -13 -16 -18 -20 -22 -24 -26 0
-3091 3 0
-3091 5 0
-3091 7 0
-3091 9 0
-3091 11 0
-3091 13 0
-3091 16 0
-3091 18 0
-3091 20 0
-3091 22 0
-3091 24 0
-3091 26 0
3091 -3 -5 -7 -9 -11 -13 -16 -18 -20 -22 -24 -26 0
-3092 3 0
-3092 5 0
-3092 8 0
-3092 9 0
-3092 11 0
-3092 13 0
-3092 15 0
-3092 18 0
-3092 19 0
-3092 22 0
-3092 23 0
-3092 26 0
3092 -3 -5 -8 -9 -11 -13 -15 -18 -19 -22 -23 -26 0
-3093 3 0
-3093 6 0
-3093 8 0
-3093 9 0
-3093 11 0
-3093 13 0
-3093 15 0
-3093 18 0
-3093 19 0
-3093 22 0
-3093 23 0
-3093 26 0
3093 -3 -6 -8 -9 -11 -13 -15 -18 -19 -22 -23 -26 0
-3094 4 0
-3094 5 0
-3094 8 0
-3094 9 0
-3094 11 0
-3094 13 0
-3094 15 0
-3094 18 0
-3094 19 0
-3094 22 0
-3094 23 0
-3094 26 0
3094 -4 -5 -8 -9 -11 -13 -15 -18 -19 -22 -23 -26 0
-3095 4 0
-3095 5 0
-3095 7 0
-3095 9 0
-3095 11 0
-3095 13 0
-3095 16 0
-3095 18 0
-3095 20 0
-3095 22 0
-3095 24 0
-3095 26 0
3095 -4 -5 -7 -9 -11 -13 -16 -18 -20 -22 -24 -26 0
-3096 3 0
-3096 5 0
-3096 8 0
-3096 9 0
-3096 11 0
-3096 13 0
-3096 16 0
-3096 18 0
-3096 20 0
-3096 22 0
-3096 24 0
-3096 26 0
3096 -3 -5 -8 -9 -11 -13 -16 -18 -20 -22 -24 -26 0
-3097 4 0
-3097 5 0
-3097 8 0
-3097 9 0
-3097 11 0
-3097 13 0
-3097 16 0
-3097 18 0
-3097 20 0
-3097 22 0
-3097 24 0
-3097 26 0
3097 -4 -5 -8 -9 -11 -13 -16 -18 -20 -22 -24 -26 0
-3098 3 0
-3098 6 0
-3098 8 0
-3098 9 0
-3098 11 0
-3098 13 0
-3098 16 0
-3098 18 0
-3098 20 0
-3098 22 0
-3098 24 0
-3098 26 0
3098 -3 -6 -8 -9 -11 -13 -16 -18 -20 -22 -24 -26 0
-3099 3 0
-3099 5 0
-3099 7 0
-3099 10 0
-3099 11 0
-3099 13 0
-3099 15 0
-3099 18 0
-3099 19 0
-3099 22 0
-3099 23 0
-3099 26 0
3099 -3 -5 -7 -10 -11 -13 -15 -18 -19 -22 -23 -26 0
-3100 3 0
-3100 6 0
-3100 7 0
-3100 10 0
-3100 11 0
-3100 13 0
-3100 15 0
-3100 18 0
-3100 19 0
-3100 22 0
-3100 23 0
-3100 26 0
3100 -3 -6 -7 -10 -11 -13 -15 -18 -19 -22 -23 -26 0
-3101 4 0
-3101 5 0
-3101 7 0
-3101 10 0
-3101 11 0
-3101 13 0
-3101 15 0
-3101 18 0
-3101 19 0
-3101 22 0
-3101 23 0
-3101 26 0
3101 -4 -5 -7 -10 -11 -13 -15 -18 -19 -22 -23 -26 0
-3102 4 0
-3102 6 0
-3102 8 0
-3102 9 0
-3102 11 0
-3102 13 0
-3102 16 0
-3102 18 0
-3102 20 0
-3102 22 0
-3102 24 0
-3102 26 0
3102 -4 -6 -8 -9 -11 -13 -16 -18 -20 -22 -24 -26 0
-3103 3 0
-3103 6 0
-3103 8 0
-3103 10 0
-3103 11 0
-3103 13 0
-3103 16 0
-3103 18 0
-3103 20 0
-3103 22 0
-3103 24 0
-3103 26 0
3103 -3 -6 -8 -10 -11 -13 -16 -18 -20 -22 -24 -26 0
-3104 4 0
-3104 6 0
-3104 8 0
-3104 10 0
-3104 11 0
-3104 13 0
-3104 16 0
-3104 18 0
-3104 20 0
-3104 22 0
-3104 24 0
-3104 26 0
3104 -4 -6 -8 -10 -11 -13 -16 -18 -20 -22 -24 -26 0
-3105 3 0
-3105 5 0
-3105 8 0
-3105 10 0
-3105 11 0
-3105 13 0
-3105 16 0
-3105 18 0
-3105 20 0
-3105 22 0
-3105 24 0
-3105 26 0
3105 -3 -5 -8 -10 -11 -13 -16 -18 -20 -22 -24 -26 0
-3106 4 0
-3106 5 0
-3106 8 0
-3106 10 0
-3106 11 0
-3106 13 0
-3106 15 0
-3106 18 0
-3106 19 0
-3106 22 0
-3106 23 0
-3106 26 0
3106 -4 -5 -8 -10 -11 -13 -15 -18 -19 -22 -23 -26 0
-3107 4 0
-3107 6 0
-3107 7 0
-3107 10 0
-3107 11 0
-3107 13 0
-3107 15 0
-3107 18 0
-3107 19 0
-3107 22 0
-3107 23 0
-3107 26 0
3107 -4 -6 -7 -10 -11 -13 -15 -18 -19 -22 -23 -26 0
-3108 4 0
-3108 5 0
-3108 8 0
-3108 10 0
-3108 11 0
-3108 13 0
-3108 16 0
-3108 18 0
-3108 20 0
-3108 22 0
-3108 24 0
-3108 26 0
3108 -4 -5 -8 -10 -11 -13 -16 -18 -20 -22 -24 -26 0
-3109 3 0
-3109 5 0
-3109 7 0
-3109 10 0
-3109 11 0
-3109 13 0
-3109 16 0
-3109 18 0
-3109 20 0
-3109 22 0
-3109 24 0
-3109 26 0
3109 -3 -5 -7 -10 -11 -13 -16 -18 -20 -22 -24 -26 0
-3110 4 0
-3110 5 0
-3110 7 0
-3110 10 0
-3110 11 0
-3110 13 0
-3110 16 0
-3110 18 0
-3110 20 0
-3110 22 0
-3110 24 0
-3110 26 0
3110 -4 -5 -7 -10 -11 -13 -16 -18 -20 -22 -24 -26 0
-3111 3 0
-3111 6 0
-3111 7 0
-3111 10 0
-3111 11 0
-3111 13 0
-3111 16 0
-3111 18 0
-3111 20 0
-3111 22 0
-3111 24 0
-3111 26 0
3111 -3 -6 -7 -10 -11 -13 -16 -18 -20 -22 -24 -26 0
-3112 3 0
-3112 5 0
-3112 7 0
-3112 9 0
-3112 12 0
-3112 13 0
-3112 15 0
-3112 18 0
-3112 19 0
-3112 22 0
-3112 23 0
-3112 26 0
3112 -3 -5 -7 -9 -12 -13 -15 -18 -19 -22 -23 -26 0
-3113 3 0
-3113 6 0
-3113 7 0
-3113 9 0
-3113 12 0
-3113 13 0
-3113 15 0
-3113 18 0
-3113 19 0
-3113 22 0
-3113 23 0
-3113 26 0
3113 -3 -6 -7 -9 -12 -13 -15 -18 -19 -22 -23 -26 0
-3114 4 0
-3114 5 0
-3114 7 0
-3114 9 0
-3114 12 0
-3114 13 0
-3114 15 0
-3114 18 0
-3114 19 0
-3114 22 0
-3114 23 0
-3114 26 0
3114 -4 -5 -7 -9 -12 -13 -15 -18 -19 -22 -23 -26 0
-3115 4 0
-3115 6 0
-3115 7 0
-3115 10 0
-3115 11 0
-3115 13 0
-3115 16 0
-3115 18 0
-3115 20 0
-3115 22 0
-3115 24 0
-3115 26 0
3115 -4 -6 -7 -10 -11 -13 -16 -18 -20 -22 -24 -26 0
-3116 3 0
-3116 6 0
-3116 7 0
-3116 10 0
-3116 12 0
-3116 13 0
-3116 16 0
-3116 18 0
-3116 20 0
-3116 22 0
-3116 24 0
-3116 26 0
3116 -3 -6 -7 -10 -12 -13 -16 -18 -20 -22 -24 -26 0
-3117 4 0
-3117 6 0
-3117 7 0
-3117 10 0
-3117 12 0
-3117 13 0
-3117 16 0
-3117 18 0
-3117 20 0
-3117 22 0
-3117 24 0
-3117 26 0
3117 -4 -6 -7 -10 -12 -13 -16 -18 -20 -22 -24 -26 0
-3118 3 0
-3118 5 0
-3118 7 0
-3118 10 0
-3118 12 0
-3118 13 0
-3118 16 0
-3118 18 0
-3118 20 0
-3118 22 0
-3118 24 0
-3118 26 0
3118 -3 -5 -7 -10 -12 -13 -16 -18 -20 -22 -24 -26 0
-3119 3 0
-3119 5 0
-3119 8 0
-3119 9 0
-3119 12 0
-3119 13 0
-3119 15 0
-3119 18 0
-3119 19 0
-3119 22 0
-3119 23 0
-3119 26 0
3119 -3 -5 -8 -9 -12 -13 -15 -18 -19 -22 -23 -26 0
-3120 3 0
-3120 6 0
-3120 8 0
-3120 9 0
-3120 12 0
-3120 13 0
-3120 15 0
-3120 18 0
-3120 19 0
-3120 22 0
-3120 23 0
-3120 26 0
3120 -3 -6 -8 -9 -12 -13 -15 -18 -19 -22 -23 -26 0
-3121 4 0
-3121 5 0
-3121 8 0
-3121 9 0
-3121 12 0
-3121 13 0
-3121 15 0
-3121 18 0
-3121 19 0
-3121 22 0
-3121 23 0
-3121 26 0
3121 -4 -5 -8 -9 -12 -13 -15 -18 -19 -22 -23 -26 0
-3122 4 0
-3122 5 0
-3122 7 0
-3122 10 0
-3122 12 0
-3122 13 0
-3122 16 0
-3122 18 0
-3122 20 0
-3122 22 0
-3122 24 0
-3122 26 0
3122 -4 -5 -7 -10 -12 -13 -16 -18 -20 -22 -24 -26 0
-3123 3 0
-3123 5 0
-3123 8 0
-3123 10 0
-3123 12 0
-3123 13 0
-3123 16 0
-3123 18 0
-3123 20 0
-3123 22 0
-3123 24 0
-3123 26 0
3123 -3 -5 -8 -10 -12 -13 -16 -18 -20 -22 -24 -26 0
-3124 4 0
-3124 5 0
-3124 8 0
-3124 10 0
-3124 12 0
-3124 13 0
-3124 16 0
-3124 18 0
-3124 20 0
-3124 22 0
-3124 24 0
-3124 26 0
3124 -4 -5 -8 -10 -12 -13 -16 -18 -20 -22 -24 -26 0
-3125 3 0
-3125 6 0
-3125 8 0
-3125 10 0
-3125 12 0
-3125 13 0
-3125 16 0
-3125 18 0
-3125 20 0
-3125 22 0
-3125 24 0
-3125 26 0
3125 -3 -6 -8 -10 -12 -13 -16 -18 -20 -22 -24 -26 0
-3126 4 0
-3126 6 0
-3126 7 0
-3126 9 0
-3126 12 0
-3126 13 0
-3126 15 0
-3126 18 0
-3126 19 0
-3126 22 0
-3126 23 0
-3126 26 0
3126 -4 -6 -7 -9 -12 -13 -15 -18 -19 -22 -23 -26 0
-3127 4 0
-3127 6 0
-3127 8 0
-3127 10 0
-3127 12 0
-3127 13 0
-3127 16 0
-3127 18 0
-3127 20 0
-3127 22 0
-3127 24 0
-3127 26 0
3127 -4 -6 -8 -10 -12 -13 -16 -18 -20 -22 -24 -26 0
-3128 3 0
-3128 6 0
-3128 8 0
-3128 9 0
-3128 12 0
-3128 13 0
-3128 16 0
-3128 18 0
-3128 20 0
-3128 22 0
-3128 24 0
-3128 26 0
3128 -3 -6 -8 -9 -12 -13 -16 -18 -20 -22 -24 -26 0
-3129 4 0
-3129 6 0
-3129 8 0
-3129 9 0
-3129 12 0
-3129 13 0
-3129 16 0
-3129 18 0
-3129 20 0
-3129 22 0
-3129 24 0
-3129 26 0
3129 -4 -6 -8 -9 -12 -13 -16 -18 -20 -22 -24 -26 0
-3130 3 0
-3130 5 0
-3130 8 0
-3130 9 0
-3130 12 0
-3130 13 0
-3130 16 0
-3130 18 0
-3130 20 0
-3130 22 0
-3130 24 0
-3130 26 0
3130 -3 -5 -8 -9 -12 -13 -16 -18 -20 -22 -24 -26 0
-3131 4 0
-3131 5 0
-3131 8 0
-3131 9 0
-3131 12 0
-3131 13 0
-3131 16 0
-3131 18 0
-3131 20 0
-3131 22 0
-3131 24 0
-3131 26 0
3131 -4 -5 -8 -9 -12 -13 -16 -18 -20 -22 -24 -26 0
-3132 3 0
-3132 5 0
-3132 7 0
-3132 9 0
-3132 12 0
-3132 13 0
-3132 16 0
-3132 18 0
-3132 20 0
-3132 22 0
-3132 24 0
-3132 26 0
3132 -3 -5 -7 -9 -12 -13 -16 -18 -20 -22 -24 -26 0
-3133 4 0
-3133 5 0
-3133 7 0
-3133 9 0
-3133 12 0
-3133 13 0
-3133 16 0
-3133 18 0
-3133 20 0
-3133 22 0
-3133 24 0
-3133 26 0
3133 -4 -5 -7 -9 -12 -13 -16 -18 -20 -22 -24 -26 0
-3134 3 0
-3134 6 0
-3134 7 0
-3134 9 0
-3134 12 0
-3134 13 0
-3134 16 0
-3134 18 0
-3134 20 0
-3134 22 0
-3134 24 0
-3134 26 0
3134 -3 -6 -7 -9 -12 -13 -16 -18 -20 -22 -24 -26 0
-3135 3 0
-3135 5 0
-3135 7 0
-3135 9 0
-3135 11 0
-3135 14 0
-3135 15 0
-3135 18 0
-3135 19 0
-3135 22 0
-3135 23 0
-3135 26 0
3135 -3 -5 -7 -9 -11 -14 -15 -18 -19 -22 -23 -26 0
-3136 3 0
-3136 6 0
-3136 7 0
-3136 9 0
-3136 11 0
-3136 14 0
-3136 15 0
-3136 18 0
-3136 19 0
-3136 22 0
-3136 23 0
-3136 26 0
3136 -3 -6 -7 -9 -11 -14 -15 -18 -19 -22 -23 -26 0
-3137 4 0
-3137 5 0
-3137 7 0
-3137 9 0
-3137 11 0
-3137 14 0
-3137 15 0
-3137 18 0
-3137 19 0
-3137 22 0
-3137 23 0
-3137 26 0
3137 -4 -5 -7 -9 -11 -14 -15 -18 -19 -22 -23 -26 0
-3138 4 0
-3138 6 0
-3138 7 0
-3138 9 0
-3138 12 0
-3138 13 0
-3138 16 0
-3138 18 0
-3138 20 0
-3138 22 0
-3138 24 0
-3138 26 0
3138 -4 -6 -7 -9 -12 -13 -16 -18 -20 -22 -24 -26 0
-3139 3 0
-3139 6 0
-3139 7 0
-3139 9 0
-3139 12 0
-3139 14 0
-3139 16 0
-3139 18 0
-3139 20 0
-3139 22 0
-3139 24 0
-3139 26 0
3139 -3 -6 -7 -9 -12 -14 -16 -18 -20 -22 -24 -26 0
-3140 4 0
-3140 6 0
-3140 7 0
-3140 9 0
-3140 12 0
-3140 14 0
-3140 16 0
-3140 18 0
-3140 20 0
-3140 22 0
-3140 24 0
-3140 26 0
3140 -4 -6 -7 -9 -12 -14 -16 -18 -20 -22 -24 -26 0
-3141 3 0
-3141 5 0
-3141 7 0
-3141 9 0
-3141 12 0
-3141 14 0
-3141 16 0
-3141 18 0
-3141 20 0
-3141 22 0
-3141 24 0
-3141 26 0
3141 -3 -5 -7 -9 -12 -14 -16 -18 -20 -22 -24 -26 0
-3142 3 0
-3142 5 0
-3142 8 0
-3142 9 0
-3142 11 0
-3142 14 0
-3142 15 0
-3142 18 0
-3142 19 0
-3142 22 0
-3142 23 0
-3142 26 0
3142 -3 -5 -8 -9 -11 -14 -15 -18 -19 -22 -23 -26 0
-3143 3 0
-3143 6 0
-3143 8 0
-3143 9 0
-3143 11 0
-3143 14 0
-3143 15 0
-3143 18 0
-3143 19 0
-3143 22 0
-3143 23 0
-3143 26 0
3143 -3 -6 -8 -9 -11 -14 -15 -18 -19 -22 -23 -26 0
-3144 4 0
-3144 5 0
-3144 8 0
-3144 9 0
-3144 11 0
-3144 14 0
-3144 15 0
-3144 18 0
-3144 19 0
-3144 22 0
-3144 23 0
-3144 26 0
3144 -4 -5 -8 -9 -11 -14 -15 -18 -19 -22 -23 -26 0
-3145 4 0
-3145 5 0
-3145 7 0
-3145 9 0
-3145 12 0
-3145 14 0
-3145 16 0
-3145 18 0
-3145 20 0
-3145 22 0
-3145 24 0
-3145 26 0
3145 -4 -5 -7 -9 -12 -14 -16 -18 -20 -22 -24 -26 0
-3146 3 0
-3146 5 0
-3146 8 0
-3146 9 0
-3146 12 0
-3146 14 0
-3146 16 0
-3146 18 0
-3146 20 0
-3146 22 0
-3146 24 0
-3146 26 0
3146 -3 -5 -8 -9 -12 -14 -16 -18 -20 -22 -24 -26 0
-3147 4 0
-3147 5 0
-3147 8 0
-3147 9 0
-3147 12 0
-3147 14 0
-3147 16 0
-3147 18 0
-3147 20 0
-3147 22 0
-3147 24 0
-3147 26 0
3147 -4 -5 -8 -9 -12 -14 -16 -18 -20 -22 -24 -26 0
-3148 3 0
-3148 6 0
-3148 8 0
-3148 9 0
-3148 12 0
-3148 14 0
-3148 16 0
-3148 18 0
-3148 20 0
-3148 22 0
-3148 24 0
-3148 26 0
3148 -3 -6 -8 -9 -12 -14 -16 -18 -20 -22 -24 -26 0
-3149 3 0
-3149 5 0
-3149 7 0
-3149 10 0
-3149 11 0
-3149 14 0
-3149 15 0
-3149 18 0
-3149 19 0
-3149 22 0
-3149 23 0
-3149 26 0
3149 -3 -5 -7 -10 -11 -14 -15 -18 -19 -22 -23 -26 0
-3150 3 0
-3150 6 0
-3150 7 0
-3150 10 0
-3150 11 0
-3150 14 0
-3150 15 0
-3150 18 0
-3150 19 0
-3150 22 0
-3150 23 0
-3150 26 0
3150 -3 -6 -7 -10 -11 -14 -15 -18 -19 -22 -23 -26 0
-3151 4 0
-3151 5 0
-3151 7 0
-3151 10 0
-3151 11 0
-3151 14 0
-3151 15 0
-3151 18 0
-3151 19 0
-3151 22 0
-3151 23 0
-3151 26 0
3151 -4 -5 -7 -10 -11 -14 -15 -18 -19 -22 -23 -26 0
-3152 4 0
-3152 6 0
-3152 8 0
-3152 9 0
-3152 12 0
-3152 14 0
-3152 16 0
-3152 18 0
-3152 20 0
-3152 22 0
-3152 24 0
-3152 26 0
3152 -4 -6 -8 -9 -12 -14 -16 -18 -20 -22 -24 -26 0
-3153 3 0
-3153 6 0
-3153 8 0
-3153 10 0
-3153 12 0
-3153 14 0
-3153 16 0
-3153 18 0
-3153 20 0
-3153 22 0
-3153 24 0
-3153 26 0
3153 -3 -6 -8 -10 -12 -14 -16 -18 -20 -22 -24 -26 0
-3154 3 0
-3154 5 0
-3154 8 0
-3154 10 0
-3154 12 0
-3154 14 0
-3154 16 0
-3154 18 0
-3154 20 0
-3154 22 0
-3154 24 0
-3154 26 0
3154 -3 -5 -8 -10 -12 -14 -16 -18 -20 -22 -24 -26 0
-3155 4 0
-3155 5 0
-3155 8 0
-3155 10 0
-3155 11 0
-3155 14 0
-3155 15 0
-3155 18 0
-3155 19 0
-3155 22 0
-3155 23 0
-3155 26 0
3155 -4 -5 -8 -10 -11 -14 -15 -18 -19 -22 -23 -26 0
-3156 4 0
-3156 6 0
-3156 7 0
-3156 10 0
-3156 11 0
-3156 14 0
-3156 15 0
-3156 18 0
-3156 19 0
-3156 22 0
-3156 23 0
-3156 26 0
3156 -4 -6 -7 -10 -11 -14 -15 -18 -19 -22 -23 -26 0
-3157 4 0
-3157 5 0
-3157 8 0
-3157 10 0
-3157 12 0
-3157 14 0
-3157 16 0
-3157 18 0
-3157 20 0
-3157 22 0
-3157 24 0
-3157 26 0
3157 -4 -5 -8 -10 -12 -14 -16 -18 -20 -22 -24 -26 0
-3158 3 0
-3158 5 0
-3158 7 0
-3158 10 0
-3158 12 0
-3158 14 0
-3158 16 0
-3158 18 0
-3158 20 0
-3158 22 0
-3158 24 0
-3158 26 0
3158 -3 -5 -7 -10 -12 -14 -16 -18 -20 -22 -24 -26 0
-3159 4 0
-3159 5 0
-3159 7 0
-3159 10 0
-3159 12 0
-3159 14 0
-3159 16 0
-3159 18 0
-3159 20 0
-3159 22 0
-3159 24 0
-3159 26 0
3159 -4 -5 -7 -10 -12 -14 -16 -18 -20 -22 -24 -26 0
-3160 3 0
-3160 6 0
-3160 7 0
-3160 10 0
-3160 12 0
-3160 14 0
-3160 16 0
-3160 18 0
-3160 20 0
-3160 22 0
-3160 24 0
-3160 26 0
3160 -3 -6 -7 -10 -12 -14 -16 -18 -20 -22 -24 -26 0
-3161 4 0
-3161 6 0
-3161 7 0
-3161 10 0
-3161 12 0
-3161 14 0
-3161 15 0
-3161 18 0
-3161 19 0
-3161 22 0
-3161 23 0
-3161 26 0
3161 -4 -6 -7 -10 -12 -14 -15 -18 -19 -22 -23 -26 0
-3162 4 0
-3162 6 0
-3162 7 0
-3162 10 0
-3162 12 0
-3162 14 0
-3162 16 0
-3162 18 0
-3162 20 0
-3162 22 0
-3162 24 0
-3162 26 0
3162 -4 -6 -7 -10 -12 -14 -16 -18 -20 -22 -24 -26 0
-3163 3 0
-3163 6 0
-3163 7 0
-3163 10 0
-3163 11 0
-3163 14 0
-3163 16 0
-3163 18 0
-3163 20 0
-3163 22 0
-3163 24 0
-3163 26 0
3163 -3 -6 -7 -10 -11 -14 -16 -18 -20 -22 -24 -26 0
-3164 4 0
-3164 6 0
-3164 7 0
-3164 10 0
-3164 11 0
-3164 14 0
-3164 16 0
-3164 18 0
-3164 20 0
-3164 22 0
-3164 24 0
-3164 26 0
3164 -4 -6 -7 -10 -11 -14 -16 -18 -20 -22 -24 -26 0
-3165 3 0
-3165 5 0
-3165 7 0
-3165 10 0
-3165 11 0
-3165 14 0
-3165 16 0
-3165 18 0
-3165 20 0
-3165 22 0
-3165 24 0
-3165 26 0
3165 -3 -5 -7 -10 -11 -14 -16 -18 -20 -22 -24 -26 0
-3166 4 0
-3166 6 0
-3166 8 0
-3166 9 0
-3166 11 0
-3166 14 0
-3166 15 0
-3166 18 0
-3166 19 0
-3166 22 0
-3166 23 0
-3166 26 0
3166 -4 -6 -8 -9 -11 -14 -15 -18 -19 -22 -23 -26 0
-3167 4 0
-3167 5 0
-3167 7 0
-3167 10 0
-3167 11 0
-3167 14 0
-3167 16 0
-3167 18 0
-3167 20 0
-3167 22 0
-3167 24 0
-3167 26 0
3167 -4 -5 -7 -10 -11 -14 -16 -18 -20 -22 -24 -26 0
-3168 3 0
-3168 5 0
-3168 8 0
-3168 10 0
-3168 11 0
-3168 14 0
-3168 16 0
-3168 18 0
-3168 20 0
-3168 22 0
-3168 24 0
-3168 26 0
3168 -3 -5 -8 -10 -11 -14 -16 -18 -20 -22 -24 -26 0
-3169 4 0
-3169 5 0
-3169 8 0
-3169 10 0
-3169 11 0
-3169 14 0
-3169 16 0
-3169 18 0
-3169 20 0
-3169 22 0
-3169 24 0
-3169 26 0
3169 -4 -5 -8 -10 -11 -14 -16 -18 -20 -22 -24 -26 0
-3170 3 0
-3170 6 0
-3170 8 0
-3170 10 0
-3170 11 0
-3170 14 0
-3170 16 0
-3170 18 0
-3170 20 0
-3170 22 0
-3170 24 0
-3170 26 0
3170 -3 -6 -8 -10 -11 -14 -16 -18 -20 -22 -24 -26 0
-3171 4 0
-3171 6 0
-3171 8 0
-3171 10 0
-3171 11 0
-3171 14 0
-3171 15 0
-3171 18 0
-3171 19 0
-3171 22 0
-3171 23 0
-3171 26 0
3171 -4 -6 -8 -10 -11 -14 -15 -18 -19 -22 -23 -26 0
-3172 4 0
-3172 6 0
-3172 8 0
-3172 10 0
-3172 11 0
-3172 14 0
-3172 16 0
-3172 18 0
-3172 20 0
-3172 22 0
-3172 24 0
-3172 26 0
3172 -4 -6 -8 -10 -11 -14 -16 -18 -20 -22 -24 -26 0
-3173 3 0
-3173 6 0
-3173 8 0
-3173 9 0
-3173 11 0
-3173 14 0
-3173 16 0
-3173 18 0
-3173 20 0
-3173 22 0
-3173 24 0
-3173 26 0
3173 -3 -6 -8 -9 -11 -14 -16 -18 -20 -22 -24 -26 0
-3174 4 0
-3174 6 0
-3174 8 0
-3174 9 0
-3174 11 0
-3174 14 0
-3174 16 0
-3174 18 0
-3174 20 0
-3174 22 0
-3174 24 0
-3174 26 0
3174 -4 -6 -8 -9 -11 -14 -16 -18 -20 -22 -24 -26 0
-3175 3 0
-3175 5 0
-3175 8 0
-3175 9 0
-3175 11 0
-3175 14 0
-3175 16 0
-3175 18 0
-3175 20 0
-3175 22 0
-3175 24 0
-3175 26 0
3175 -3 -5 -8 -9 -11 -14 -16 -18 -20 -22 -24 -26 0
-3176 4 0
-3176 6 0
-3176 7 0
-3176 9 0
-3176 11 0
-3176 14 0
-3176 15 0
-3176 18 0
-3176 19 0
-3176 22 0
-3176 23 0
-3176 26 0
3176 -4 -6 -7 -9 -11 -14 -15 -18 -19 -22 -23 -26 0
-3177 4 0
-3177 5 0
-3177 8 0
-3177 9 0
-3177 11 0
-3177 14 0
-3177 16 0
-3177 18 0
-3177 20 0
-3177 22 0
-3177 24 0
-3177 26 0
3177 -4 -5 -8 -9 -11 -14 -16 -18 -20 -22 -24 -26 0
-3178 3 0
-3178 5 0
-3178 7 0
-3178 9 0
-3178 11 0
-3178 14 0
-3178 16 0
-3178 18 0
-3178 20 0
-3178 22 0
-3178 24 0
-3178 26 0
3178 -3 -5 -7 -9 -11 -14 -16 -18 -20 -22 -24 -26 0
-3179 4 0
-3179 5 0
-3179 7 0
-3179 9 0
-3179 11 0
-3179 14 0
-3179 16 0
-3179 18 0
-3179 20 0
-3179 22 0
-3179 24 0
-3179 26 0
3179 -4 -5 -7 -9 -11 -14 -16 -18 -20 -22 -24 -26 0
-3180 3 0
-3180 6 0
-3180 7 0
-3180 9 0
-3180 11 0
-3180 14 0
-3180 16 0
-3180 18 0
-3180 20 0
-3180 22 0
-3180 24 0
-3180 26 0
3180 -3 -6 -7 -9 -11 -14 -16 -18 -20 -22 -24 -26 0
-3181 4 0
-3181 6 0
-3181 7 0
-3181 9 0
-3181 11 0
-3181 14 0
-3181 16 0
-3181 18 0
-3181 19 0
-3181 22 0
-3181 23 0
-3181 26 0
3181 -4 -6 -7 -9 -11 -14 -16 -18 -19 -22 -23 -26 0
-3182 4 0
-3182 6 0
-3182 7 0
-3182 9 0
-3182 11 0
-3182 14 0
-3182 16 0
-3182 18 0
-3182 20 0
-3182 22 0
-3182 24 0
-3182 26 0
3182 -4 -6 -7 -9 -11 -14 -16 -18 -20 -22 -24 -26 0
-3183 3 0
-3183 6 0
-3183 7 0
-3183 9 0
-3183 11 0
-3183 14 0
-3183 15 0
-3183 18 0
-3183 20 0
-3183 22 0
-3183 24 0
-3183 26 0
3183 -3 -6 -7 -9 -11 -14 -15 -18 -20 -22 -24 -26 0
-3184 4 0
-3184 6 0
-3184 7 0
-3184 9 0
-3184 11 0
-3184 14 0
-3184 15 0
-3184 18 0
-3184 20 0
-3184 22 0
-3184 24 0
-3184 26 0
3184 -4 -6 -7 -9 -11 -14 -15 -18 -20 -22 -24 -26 0
-3185 3 0
-3185 5 0
-3185 7 0
-3185 9 0
-3185 11 0
-3185 14 0
-3185 15 0
-3185 18 0
-3185 20 0
-3185 22 0
-3185 24 0
-3185 26 0
3185 -3 -5 -7 -9 -11 -14 -15 -18 -20 -22 -24 -26 0
-3186 4 0
-3186 5 0
-3186 7 0
-3186 9 0
-3186 11 0
-3186 14 0
-3186 15 0
-3186 18 0
-3186 20 0
-3186 22 0
-3186 24 0
-3186 26 0
3186 -4 -5 -7 -9 -11 -14 -15 -18 -20 -22 -24 -26 0
-3187 3 0
-3187 5 0
-3187 8 0
-3187 9 0
-3187 11 0
-3187 14 0
-3187 15 0
-3187 18 0
-3187 20 0
-3187 22 0
-3187 24 0
-3187 26 0
3187 -3 -5 -8 -9 -11 -14 -15 -18 -20 -22 -24 -26 0
-3188 4 0
-3188 5 0
-3188 8 0
-3188 9 0
-3188 11 0
-3188 14 0
-3188 15 0
-3188 18 0
-3188 20 0
-3188 22 0
-3188 24 0
-3188 26 0
3188 -4 -5 -8 -9 -11 -14 -15 -18 -20 -22 -24 -26 0
-3189 3 0
-3189 6 0
-3189 8 0
-3189 9 0
-3189 11 0
-3189 14 0
-3189 15 0
-3189 18 0
-3189 20 0
-3189 22 0
-3189 24 0
-3189 26 0
3189 -3 -6 -8 -9 -11 -14 -15 -18 -20 -22 -24 -26 0
-3190 4 0
-3190 6 0
-3190 8 0
-3190 9 0
-3190 11 0
-3190 14 0
-3190 15 0
-3190 18 0
-3190 20 0
-3190 22 0
-3190 24 0
-3190 26 0
3190 -4 -6 -8 -9 -11 -14 -15 -18 -20 -22 -24 -26 0
-3191 3 0
-3191 6 0
-3191 8 0
-3191 10 0
-3191 11 0
-3191 14 0
-3191 15 0
-3191 18 0
-3191 20 0
-3191 22 0
-3191 24 0
-3191 26 0
3191 -3 -6 -8 -10 -11 -14 -15 -18 -20 -22 -24 -26 0
-3192 4 0
-3192 6 0
-3192 8 0
-3192 10 0
-3192 11 0
-3192 14 0
-3192 15 0
-3192 18 0
-3192 20 0
-3192 22 0
-3192 24 0
-3192 26 0
3192 -4 -6 -8 -10 -11 -14 -15 -18 -20 -22 -24 -26 0
-3193 3 0
-3193 5 0
-3193 8 0
-3193 10 0
-3193 11 0
-3193 14 0
-3193 15 0
-3193 18 0
-3193 20 0
-3193 22 0
-3193 24 0
-3193 26 0
3193 -3 -5 -8 -10 -11 -14 -15 -18 -20 -22 -24 -26 0
-3194 4 0
-3194 5 0
-3194 8 0
-3194 10 0
-3194 11 0
-3194 14 0
-3194 15 0
-3194 18 0
-3194 20 0
-3194 22 0
-3194 24 0
-3194 26 0
3194 -4 -5 -8 -10 -11 -14 -15 -18 -20 -22 -24 -26 0
-3195 3 0
-3195 5 0
-3195 7 0
-3195 10 0
-3195 11 0
-3195 14 0
-3195 15 0
-3195 18 0
-3195 20 0
-3195 22 0
-3195 24 0
-3195 26 0
3195 -3 -5 -7 -10 -11 -14 -15 -18 -20 -22 -24 -26 0
-3196 4 0
-3196 5 0
-3196 7 0
-3196 10 0
-3196 11 0
-3196 14 0
-3196 15 0
-3196 18 0
-3196 20 0
-3196 22 0
-3196 24 0
-3196 26 0
3196 -4 -5 -7 -10 -11 -14 -15 -18 -20 -22 -24 -26 0
-3197 3 0
-3197 6 0
-3197 7 0
-3197 10 0
-3197 11 0
-3197 14 0
-3197 15 0
-3197 18 0
-3197 20 0
-3197 22 0
-3197 24 0
-3197 26 0
3197 -3 -6 -7 -10 -11 -14 -15 -18 -20 -22 -24 -26 0
-3198 4 0
-3198 6 0
-3198 7 0
-3198 10 0
-3198 11 0
-3198 14 0
-3198 15 0
-3198 18 0
-3198 20 0
-3198 22 0
-3198 24 0
-3198 26 0
3198 -4 -6 -7 -10 -11 -14 -15 -18 -20 -22 -24 -26 0
-3199 3 0
-3199 6 0
-3199 7 0
-3199 10 0
-3199 12 0
-3199 14 0
-3199 15 0
-3199 18 0
-3199 20 0
-3199 22 0
-3199 24 0
-3199 26 0
3199 -3 -6 -7 -10 -12 -14 -15 -18 -20 -22 -24 -26 0
-3200 4 0
-3200 6 0
-3200 7 0
-3200 10 0
-3200 12 0
-3200 14 0
-3200 15 0
-3200 18 0
-3200 20 0
-3200 22 0
-3200 24 0
-3200 26 0
3200 -4 -6 -7 -10 -12 -14 -15 -18 -20 -22 -24 -26 0
-3201 3 0
-3201 5 0
-3201 7 0
-3201 10 0
-3201 12 0
-3201 14 0
-3201 15 0
-3201 18 0
-3201 20 0
-3201 22 0
-3201 24 0
-3201 26 0
3201 -3 -5 -7 -10 -12 -14 -15 -18 -20 -22 -24 -26 0
-3202 4 0
-3202 6 0
-3202 8 0
-3202 9 0
-3202 12 0
-3202 13 0
-3202 15 0
-3202 18 0
-3202 19 0
-3202 22 0
-3202 23 0
-3202 26 0
3202 -4 -6 -8 -9 -12 -13 -15 -18 -19 -22 -23 -26 0
-3203 4 0
-3203 5 0
-3203 7 0
-3203 10 0
-3203 12 0
-3203 14 0
-3203 15 0
-3203 18 0
-3203 20 0
-3203 22 0
-3203 24 0
-3203 26 0
3203 -4 -5 -7 -10 -12 -14 -15 -18 -20 -22 -24 -26 0
-3204 3 0
-3204 5 0
-3204 8 0
-3204 10 0
-3204 12 0
-3204 14 0
-3204 15 0
-3204 18 0
-3204 20 0
-3204 22 0
-3204 24 0
-3204 26 0
3204 -3 -5 -8 -10 -12 -14 -15 -18 -20 -22 -24 -26 0
-3205 4 0
-3205 5 0
-3205 8 0
-3205 10 0
-3205 12 0
-3205 14 0
-3205 15 0
-3205 18 0
-3205 20 0
-3205 22 0
-3205 24 0
-3205 26 0
3205 -4 -5 -8 -10 -12 -14 -15 -18 -20 -22 -24 -26 0
-3206 3 0
-3206 6 0
-3206 8 0
-3206 10 0
-3206 12 0
-3206 14 0
-3206 15 0
-3206 18 0
-3206 20 0
-3206 22 0
-3206 24 0
-3206 26 0
3206 -3 -6 -8 -10 -12 -14 -15 -18 -20 -22 -24 -26 0
-3207 4 0
-3207 6 0
-3207 8 0
-3207 10 0
-3207 12 0
-3207 13 0
-3207 15 0
-3207 18 0
-3207 19 0
-3207 22 0
-3207 23 0
-3207 26 0
3207 -4 -6 -8 -10 -12 -13 -15 -18 -19 -22 -23 -26 0
-3208 4 0
-3208 6 0
-3208 8 0
-3208 10 0
-3208 12 0
-3208 14 0
-3208 15 0
-3208 18 0
-3208 20 0
-3208 22 0
-3208 24 0
-3208 26 0
3208 -4 -6 -8 -10 -12 -14 -15 -18 -20 -22 -24 -26 0
-3209 3 0
-3209 6 0
-3209 8 0
-3209 9 0
-3209 12 0
-3209 14 0
-3209 15 0
-3209 18 0
-3209 20 0
-3209 22 0
-3209 24 0
-3209 26 0
3209 -3 -6 -8 -9 -12 -14 -15 -18 -20 -22 -24 -26 0
-3210 4 0
-3210 6 0
-3210 8 0
-3210 9 0
-3210 12 0
-3210 14 0
-3210 15 0
-3210 18 0
-3210 20 0
-3210 22 0
-3210 24 0
-3210 26 0
3210 -4 -6 -8 -9 -12 -14 -15 -18 -20 -22 -24 -26 0
-3211 3 0
-3211 5 0
-3211 8 0
-3211 9 0
-3211 12 0
-3211 14 0
-3211 15 0
-3211 18 0
-3211 20 0
-3211 22 0
-3211 24 0
-3211 26 0
3211 -3 -5 -8 -9 -12 -14 -15 -18 -20 -22 -24 -26 0
-3212 4 0
-3212 5 0
-3212 8 0
-3212 9 0
-3212 12 0
-3212 14 0
-3212 15 0
-3212 18 0
-3212 20 0
-3212 22 0
-3212 24 0
-3212 26 0
3212 -4 -5 -8 -9 -12 -14 -15 -18 -20 -22 -24 -26 0
-3213 3 0
-3213 5 0
-3213 7 0
-3213 9 0
-3213 12 0
-3213 14 0
-3213 15 0
-3213 18 0
-3213 20 0
-3213 22 0
-3213 24 0
-3213 26 0
3213 -3 -5 -7 -9 -12 -14 -15 -18 -20 -22 -24 -26 0
-3214 4 0
-3214 5 0
-3214 7 0
-3214 9 0
-3214 12 0
-3214 14 0
-3214 15 0
-3214 18 0
-3214 20 0
-3214 22 0
-3214 24 0
-3214 26 0
3214 -4 -5 -7 -9 -12 -14 -15 -18 -20 -22 -24 -26 0
-3215 3 0
-3215 6 0
-3215 7 0
-3215 9 0
-3215 12 0
-3215 14 0
-3215 15 0
-3215 18 0
-3215 20 0
-3215 22 0
-3215 24 0
-3215 26 0
3215 -3 -6 -7 -9 -12 -14 -15 -18 -20 -22 -24 -26 0
-3216 4 0
-3216 6 0
-3216 7 0
-3216 9 0
-3216 12 0
-3216 14 0
-3216 15 0
-3216 18 0
-3216 19 0
-3216 22 0
-3216 23 0
-3216 26 0
3216 -4 -6 -7 -9 -12 -14 -15 -18 -19 -22 -23 -26 0
-3217 4 0
-3217 6 0
-3217 7 0
-3217 9 0
-3217 12 0
-3217 14 0
-3217 15 0
-3217 18 0
-3217 20 0
-3217 22 0
-3217 24 0
-3217 26 0
3217 -4 -6 -7 -9 -12 -14 -15 -18 -20 -22 -24 -26 0
-3218 3 0
-3218 6 0
-3218 7 0
-3218 9 0
-3218 12 0
-3218 13 0
-3218 15 0
-3218 18 0
-3218 20 0
-3218 22 0
-3218 24 0
-3218 26 0
3218 -3 -6 -7 -9 -12 -13 -15 -18 -20 -22 -24 -26 0
-3219 4 0
-3219 6 0
-3219 7 0
-3219 9 0
-3219 12 0
-3219 13 0
-3219 15 0
-3219 18 0
-3219 20 0
-3219 22 0
-3219 24 0
-3219 26 0
3219 -4 -6 -7 -9 -12 -13 -15 -18 -20 -22 -24 -26 0
-3220 3 0
-3220 5 0
-3220 7 0
-3220 9 0
-3220 12 0
-3220 13 0
-3220 15 0
-3220 18 0
-3220 20 0
-3220 22 0
-3220 24 0
-3220 26 0
3220 -3 -5 -7 -9 -12 -13 -15 -18 -20 -22 -24 -26 0
-3221 4 0
-3221 5 0
-3221 7 0
-3221 9 0
-3221 12 0
-3221 13 0
-3221 15 0
-3221 18 0
-3221 20 0
-3221 22 0
-3221 24 0
-3221 26 0
3221 -4 -5 -7 -9 -12 -13 -15 -18 -20 -22 -24 -26 0
-3222 3 0
-3222 5 0
-3222 8 0
-3222 9 0
-3222 12 0
-3222 13 0
-3222 15 0
-3222 18 0
-3222 20 0
-3222 22 0
-3222 24 0
-3222 26 0
3222 -3 -5 -8 -9 -12 -13 -15 -18 -20 -22 -24 -26 0
-3223 4 0
-3223 5 0
-3223 8 0
-3223 9 0
-3223 12 0
-3223 13 0
-3223 15 0
-3223 18 0
-3223 20 0
-3223 22 0
-3223 24 0
-3223 26 0
3223 -4 -5 -8 -9 -12 -13 -15 -18 -20 -22 -24 -26 0
-3224 3 0
-3224 6 0
-3224 8 0
-3224 9 0
-3224 12 0
-3224 13 0
-3224 15 0
-3224 18 0
-3224 20 0
-3224 22 0
-3224 24 0
-3224 26 0
3224 -3 -6 -8 -9 -12 -13 -15 -18 -20 -22 -24 -26 0
-3225 4 0
-3225 6 0
-3225 8 0
-3225 9 0
-3225 12 0
-3225 13 0
-3225 15 0
-3225 18 0
-3225 20 0
-3225 22 0
-3225 24 0
-3225 26 0
3225 -4 -6 -8 -9 -12 -13 -15 -18 -20 -22 -24 -26 0
-3226 3 0
-3226 6 0
-3226 8 0
-3226 10 0
-3226 12 0
-3226 13 0
-3226 15 0
-3226 18 0
-3226 20 0
-3226 22 0
-3226 24 0
-3226 26 0
3226 -3 -6 -8 -10 -12 -13 -15 -18 -20 -22 -24 -26 0
-3227 4 0
-3227 6 0
-3227 8 0
-3227 10 0
-3227 12 0
-3227 13 0
-3227 15 0
-3227 18 0
-3227 20 0
-3227 22 0
-3227 24 0
-3227 26 0
3227 -4 -6 -8 -10 -12 -13 -15 -18 -20 -22 -24 -26 0
-3228 3 0
-3228 5 0
-3228 8 0
-3228 10 0
-3228 12 0
-3228 13 0
-3228 15 0
-3228 18 0
-3228 20 0
-3228 22 0
-3228 24 0
-3228 26 0
3228 -3 -5 -8 -10 -12 -13 -15 -18 -20 -22 -24 -26 0
-3229 4 0
-3229 5 0
-3229 8 0
-3229 10 0
-3229 12 0
-3229 13 0
-3229 15 0
-3229 18 0
-3229 20 0
-3229 22 0
-3229 24 0
-3229 26 0
3229 -4 -5 -8 -10 -12 -13 -15 -18 -20 -22 -24 -26 0
-3230 3 0
-3230 5 0
-3230 7 0
-3230 10 0
-3230 12 0
-3230 13 0
-3230 15 0
-3230 18 0
-3230 20 0
-3230 22 0
-3230 24 0
-3230 26 0
3230 -3 -5 -7 -10 -12 -13 -15 -18 -20 -22 -24 -26 0
-3231 4 0
-3231 5 0
-3231 7 0
-3231 10 0
-3231 12 0
-3231 13 0
-3231 15 0
-3231 18 0
-3231 20 0
-3231 22 0
-3231 24 0
-3231 26 0
3231 -4 -5 -7 -10 -12 -13 -15 -18 -20 -22 -24 -26 0
-3232 3 0
-3232 6 0
-3232 7 0
-3232 10 0
-3232 12 0
-3232 13 0
-3232 15 0
-3232 18 0
-3232 20 0
-3232 22 0
-3232 24 0
-3232 26 0
3232 -3 -6 -7 -10 -12 -13 -15 -18 -20 -22 -24 -26 0
-3233 4 0
-3233 6 0
-3233 7 0
-3233 10 0
-3233 12 0
-3233 13 0
-3233 15 0
-3233 18 0
-3233 19 0
-3233 22 0
-3233 23 0
-3233 26 0
3233 -4 -6 -7 -10 -12 -13 -15 -18 -19 -22 -23 -26 0
-3234 4 0
-3234 6 0
-3234 7 0
-3234 10 0
-3234 12 0
-3234 13 0
-3234 15 0
-3234 18 0
-3234 20 0
-3234 22 0
-3234 24 0
-3234 26 0
3234 -4 -6 -7 -10 -12 -13 -15 -18 -20 -22 -24 -26 0
-3235 3 0
-3235 6 0
-3235 7 0
-3235 10 0
-3235 11 0
-3235 13 0
-3235 15 0
-3235 18 0
-3235 20 0
-3235 22 0
-3235 24 0
-3235 26 0
3235 -3 -6 -7 -10 -11 -13 -15 -18 -20 -22 -24 -26 0
-3236 4 0
-3236 6 0
-3236 7 0
-3236 10 0
-3236 11 0
-3236 13 0
-3236 15 0
-3236 18 0
-3236 20 0
-3236 22 0
-3236 24 0
-3236 26 0
3236 -4 -6 -7 -10 -11 -13 -15 -18 -20 -22 -24 -26 0
-3237 3 0
-3237 5 0
-3237 7 0
-3237 10 0
-3237 11 0
-3237 13 0
-3237 15 0
-3237 18 0
-3237 20 0
-3237 22 0
-3237 24 0
-3237 26 0
3237 -3 -5 -7 -10 -11 -13 -15 -18 -20 -22 -24 -26 0
-3238 4 0
-3238 6 0
-3238 8 0
-3238 9 0
-3238 11 0
-3238 13 0
-3238 15 0
-3238 18 0
-3238 19 0
-3238 22 0
-3238 23 0
-3238 26 0
3238 -4 -6 -8 -9 -11 -13 -15 -18 -19 -22 -23 -26 0
-3239 4 0
-3239 5 0
-3239 7 0
-3239 10 0
-3239 11 0
-3239 13 0
-3239 15 0
-3239 18 0
-3239 20 0
-3239 22 0
-3239 24 0
-3239 26 0
3239 -4 -5 -7 -10 -11 -13 -15 -18 -20 -22 -24 -26 0
-3240 3 0
-3240 5 0
-3240 8 0
-3240 10 0
-3240 11 0
-3240 13 0
-3240 15 0
-3240 18 0
-3240 20 0
-3240 22 0
-3240 24 0
-3240 26 0
3240 -3 -5 -8 -10 -11 -13 -15 -18 -20 -22 -24 -26 0
-3241 4 0
-3241 5 0
-3241 8 0
-3241 10 0
-3241 11 0
-3241 13 0
-3241 15 0
-3241 18 0
-3241 20 0
-3241 22 0
-3241 24 0
-3241 26 0
3241 -4 -5 -8 -10 -11 -13 -15 -18 -20 -22 -24 -26 0
-3242 3 0
-3242 6 0
-3242 8 0
-3242 10 0
-3242 11 0
-3242 13 0
-3242 15 0
-3242 18 0
-3242 20 0
-3242 22 0
-3242 24 0
-3242 26 0
3242 -3 -6 -8 -10 -11 -13 -15 -18 -20 -22 -24 -26 0
-3243 4 0
-3243 6 0
-3243 8 0
-3243 10 0
-3243 11 0
-3243 13 0
-3243 15 0
-3243 18 0
-3243 19 0
-3243 22 0
-3243 23 0
-3243 26 0
3243 -4 -6 -8 -10 -11 -13 -15 -18 -19 -22 -23 -26 0
-3244 4 0
-3244 6 0
-3244 8 0
-3244 10 0
-3244 11 0
-3244 13 0
-3244 15 0
-3244 18 0
-3244 20 0
-3244 22 0
-3244 24 0
-3244 26 0
3244 -4 -6 -8 -10 -11 -13 -15 -18 -20 -22 -24 -26 0
-3245 3 0
-3245 6 0
-3245 8 0
-3245 9 0
-3245 11 0
-3245 13 0
-3245 15 0
-3245 18 0
-3245 20 0
-3245 22 0
-3245 24 0
-3245 26 0
3245 -3 -6 -8 -9 -11 -13 -15 -18 -20 -22 -24 -26 0
-3246 4 0
-3246 6 0
-3246 8 0
-3246 9 0
-3246 11 0
-3246 13 0
-3246 15 0
-3246 18 0
-3246 20 0
-3246 22 0
-3246 24 0
-3246 26 0
3246 -4 -6 -8 -9 -11 -13 -15 -18 -20 -22 -24 -26 0
-3247 3 0
-3247 5 0
-3247 8 0
-3247 9 0
-3247 11 0
-3247 13 0
-3247 15 0
-3247 18 0
-3247 20 0
-3247 22 0
-3247 24 0
-3247 26 0
3247 -3 -5 -8 -9 -11 -13 -15 -18 -20 -22 -24 -26 0
-3248 4 0
-3248 6 0
-3248 7 0
-3248 9 0
-3248 11 0
-3248 13 0
-3248 15 0
-3248 18 0
-3248 19 0
-3248 22 0
-3248 23 0
-3248 26 0
3248 -4 -6 -7 -9 -11 -13 -15 -18 -19 -22 -23 -26 0
-3249 4 0
-3249 5 0
-3249 8 0
-3249 9 0
-3249 11 0
-3249 13 0
-3249 15 0
-3249 18 0
-3249 20 0
-3249 22 0
-3249 24 0
-3249 26 0
3249 -4 -5 -8 -9 -11 -13 -15 -18 -20 -22 -24 -26 0
-3250 3 0
-3250 5 0
-3250 7 0
-3250 9 0
-3250 11 0
-3250 13 0
-3250 15 0
-3250 18 0
-3250 20 0
-3250 22 0
-3250 24 0
-3250 26 0
3250 -3 -5 -7 -9 -11 -13 -15 -18 -20 -22 -24 -26 0
-3251 4 0
-3251 5 0
-3251 7 0
-3251 9 0
-3251 11 0
-3251 13 0
-3251 15 0
-3251 18 0
-3251 20 0
-3251 22 0
-3251 24 0
-3251 26 0
3251 -4 -5 -7 -9 -11 -13 -15 -18 -20 -22 -24 -26 0
-3252 3 0
-3252 6 0
-3252 7 0
-3252 9 0
-3252 11 0
-3252 13 0
-3252 15 0
-3252 18 0
-3252 20 0
-3252 22 0
-3252 24 0
-3252 26 0
3252 -3 -6 -7 -9 -11 -13 -15 -18 -20 -22 -24 -26 0
-3253 4 0
-3253 6 0
-3253 7 0
-3253 9 0
-3253 11 0
-3253 13 0
-3253 15 0
-3253 18 0
-3253 20 0
-3253 22 0
-3253 23 0
-3253 26 0
3253 -4 -6 -7 -9 -11 -13 -15 -18 -20 -22 -23 -26 0
-3254 4 0
-3254 6 0
-3254 7 0
-3254 9 0
-3254 11 0
-3254 13 0
-3254 15 0
-3254 18 0
-3254 20 0
-3254 22 0
-3254 24 0
-3254 26 0
3254 -4 -6 -7 -9 -11 -13 -15 -18 -20 -22 -24 -26 0
-3255 3 0
-3255 6 0
-3255 7 0
-3255 9 0
-3255 11 0
-3255 13 0
-3255 15 0
-3255 18 0
-3255 19 0
-3255 22 0
-3255 24 0
-3255 26 0
3255 -3 -6 -7 -9 -11 -13 -15 -18 -19 -22 -24 -26 0
-3256 4 0
-3256 6 0
-3256 7 0
-3256 9 0
-3256 11 0
-3256 13 0
-3256 15 0
-3256 18 0
-3256 19 0
-3256 22 0
-3256 24 0
-3256 26 0
3256 -4 -6 -7 -9 -11 -13 -15 -18 -19 -22 -24 -26 0
-3257 3 0
-3257 5 0
-3257 7 0
-3257 9 0
-3257 11 0
-3257 13 0
-3257 15 0
-3257 18 0
-3257 19 0
-3257 22 0
-3257 24 0
-3257 26 0
3257 -3 -5 -7 -9 -11 -13 -15 -18 -19 -22 -24 -26 0
-3258 4 0
-3258 5 0
-3258 7 0
-3258 9 0
-3258 11 0
-3258 13 0
-3258 15 0
-3258 18 0
-3258 19 0
-3258 22 0
-3258 24 0
-3258 26 0
3258 -4 -5 -7 -9 -11 -13 -15 -18 -19 -22 -24 -26 0
-3259 3 0
-3259 5 0
-3259 8 0
-3259 9 0
-3259 11 0
-3259 13 0
-3259 15 0
-3259 18 0
-3259 19 0
-3259 22 0
-3259 24 0
-3259 26 0
3259 -3 -5 -8 -9 -11 -13 -15 -18 -19 -22 -24 -26 0
-3260 4 0
-3260 5 0
-3260 8 0
-3260 9 0
-3260 11 0
-3260 13 0
-3260 15 0
-3260 18 0
-3260 19 0
-3260 22 0
-3260 24 0
-3260 26 0
3260 -4 -5 -8 -9 -11 -13 -15 -18 -19 -22 -24 -26 0
-3261 3 0
-3261 6 0
-3261 8 0
-3261 9 0
-3261 11 0
-3261 13 0
-3261 15 0
-3261 18 0
-3261 19 0
-3261 22 0
-3261 24 0
-3261 26 0
3261 -3 -6 -8 -9 -11 -13 -15 -18 -19 -22 -24 -26 0
-3262 4 0
-3262 6 0
-3262 8 0
-3262 9 0
-3262 11 0
-3262 13 0
-3262 15 0
-3262 18 0
-3262 19 0
-3262 22 0
-3262 24 0
-3262 26 0
3262 -4 -6 -8 -9 -11 -13 -15 -18 -19 -22 -24 -26 0
-3263 3 0
-3263 6 0
-3263 8 0
-3263 10 0
-3263 11 0
-3263 13 0
-3263 15 0
-3263 18 0
-3263 19 0
-3263 22 0
-3263 24 0
-3263 26 0
3263 -3 -6 -8 -10 -11 -13 -15 -18 -19 -22 -24 -26 0
-3264 4 0
-3264 6 0
-3264 8 0
-3264 10 0
-3264 11 0
-3264 13 0
-3264 15 0
-3264 18 0
-3264 19 0
-3264 22 0
-3264 24 0
-3264 26 0
3264 -4 -6 -8 -10 -11 -13 -15 -18 -19 -22 -24 -26 0
-3265 3 0
-3265 5 0
-3265 8 0
-3265 10 0
-3265 11 0
-3265 13 0
-3265 15 0
-3265 18 0
-3265 19 0
-3265 22 0
-3265 24 0
-3265 26 0
3265 -3 -5 -8 -10 -11 -13 -15 -18 -19 -22 -24 -26 0
-3266 4 0
-3266 5 0
-3266 8 0
-3266 10 0
-3266 11 0
-3266 13 0
-3266 15 0
-3266 18 0
-3266 19 0
-3266 22 0
-3266 24 0
-3266 26 0
3266 -4 -5 -8 -10 -11 -13 -15 -18 -19 -22 -24 -26 0
-3267 3 0
-3267 5 0
-3267 7 0
-3267 10 0
-3267 11 0
-3267 13 0
-3267 15 0
-3267 18 0
-3267 19 0
-3267 22 0
-3267 24 0
-3267 26 0
3267 -3 -5 -7 -10 -11 -13 -15 -18 -19 -22 -24 -26 0
-3268 4 0
-3268 5 0
-3268 7 0
-3268 10 0
-3268 11 0
-3268 13 0
-3268 15 0
-3268 18 0
-3268 19 0
-3268 22 0
-3268 24 0
-3268 26 0
3268 -4 -5 -7 -10 -11 -13 -15 -18 -19 -22 -24 -26 0
-3269 3 0
-3269 6 0
-3269 7 0
-3269 10 0
-3269 11 0
-3269 13 0
-3269 15 0
-3269 18 0
-3269 19 0
-3269 22 0
-3269 24 0
-3269 26 0
3269 -3 -6 -7 -10 -11 -13 -15 -18 -19 -22 -24 -26 0
-3270 4 0
-3270 6 0
-3270 7 0
-3270 10 0
-3270 11 0
-3270 13 0
-3270 15 0
-3270 18 0
-3270 19 0
-3270 22 0
-3270 24 0
-3270 26 0
3270 -4 -6 -7 -10 -11 -13 -15 -18 -19 -22 -24 -26 0
-3271 3 0
-3271 6 0
-3271 7 0
-3271 10 0
-3271 12 0
-3271 13 0
-3271 15 0
-3271 18 0
-3271 19 0
-3271 22 0
-3271 24 0
-3271 26 0
3271 -3 -6 -7 -10 -12 -13 -15 -18 -19 -22 -24 -26 0
-3272 4 0
-3272 6 0
-3272 7 0
-3272 10 0
-3272 12 0
-3272 13 0
-3272 15 0
-3272 18 0
-3272 19 0
-3272 22 0
-3272 24 0
-3272 26 0
3272 -4 -6 -7 -10 -12 -13 -15 -18 -19 -22 -24 -26 0
-3273 3 0
-3273 5 0
-3273 7 0
-3273 10 0
-3273 12 0
-3273 13 0
-3273 15 0
-3273 18 0
-3273 19 0
-3273 22 0
-3273 24 0
-3273 26 0
3273 -3 -5 -7 -10 -12 -13 -15 -18 -19 -22 -24 -26 0
-3274 4 0
-3274 5 0
-3274 7 0
-3274 10 0
-3274 12 0
-3274 13 0
-3274 15 0
-3274 18 0
-3274 19 0
-3274 22 0
-3274 24 0
-3274 26 0
3274 -4 -5 -7 -10 -12 -13 -15 -18 -19 -22 -24 -26 0
-3275 3 0
-3275 5 0
-3275 8 0
-3275 10 0
-3275 12 0
-3275 13 0
-3275 15 0
-3275 18 0
-3275 19 0
-3275 22 0
-3275 24 0
-3275 26 0
3275 -3 -5 -8 -10 -12 -13 -15 -18 -19 -22 -24 -26 0
-3276 4 0
-3276 5 0
-3276 8 0
-3276 10 0
-3276 12 0
-3276 13 0
-3276 15 0
-3276 18 0
-3276 19 0
-3276 22 0
-3276 24 0
-3276 26 0
3276 -4 -5 -8 -10 -12 -13 -15 -18 -19 -22 -24 -26 0
-3277 3 0
-3277 6 0
-3277 8 0
-3277 10 0
-3277 12 0
-3277 13 0
-3277 15 0
-3277 18 0
-3277 19 0
-3277 22 0
-3277 24 0
-3277 26 0
3277 -3 -6 -8 -10 -12 -13 -15 -18 -19 -22 -24 -26 0
-3278 4 0
-3278 6 0
-3278 8 0
-3278 10 0
-3278 12 0
-3278 13 0
-3278 15 0
-3278 18 0
-3278 19 0
-3278 22 0
-3278 24 0
-3278 26 0
3278 -4 -6 -8 -10 -12 -13 -15 -18 -19 -22 -24 -26 0
-3279 3 0
-3279 6 0
-3279 8 0
-3279 9 0
-3279 12 0
-3279 13 0
-3279 15 0
-3279 18 0
-3279 19 0
-3279 22 0
-3279 24 0
-3279 26 0
3279 -3 -6 -8 -9 -12 -13 -15 -18 -19 -22 -24 -26 0
-3280 4 0
-3280 6 0
-3280 8 0
-3280 9 0
-3280 12 0
-3280 13 0
-3280 15 0
-3280 18 0
-3280 19 0
-3280 22 0
-3280 24 0
-3280 26 0
3280 -4 -6 -8 -9 -12 -13 -15 -18 -19 -22 -24 -26 0
-3281 3 0
-3281 5 0
-3281 8 0
-3281 9 0
-3281 12 0
-3281 13 0
-3281 15 0
-3281 18 0
-3281 19 0
-3281 22 0
-3281 24 0
-3281 26 0
3281 -3 -5 -8 -9 -12 -13 -15 -18 -19 -22 -24 -26 0
-3282 4 0
-3282 5 0
-3282 8 0
-3282 9 0
-3282 12 0
-3282 13 0
-3282 15 0
-3282 18 0
-3282 19 0
-3282 22 0
-3282 24 0
-3282 26 0
3282 -4 -5 -8 -9 -12 -13 -15 -18 -19 -22 -24 -26 0
-3283 3 0
-3283 5 0
-3283 7 0
-3283 9 0
-3283 12 0
-3283 13 0
-3283 15 0
-3283 18 0
-3283 19 0
-3283 22 0
-3283 24 0
-3283 26 0
3283 -3 -5 -7 -9 -12 -13 -15 -18 -19 -22 -24 -26 0
-3284 4 0
-3284 5 0
-3284 7 0
-3284 9 0
-3284 12 0
-3284 13 0
-3284 15 0
-3284 18 0
-3284 19 0
-3284 22 0
-3284 24 0
-3284 26 0
3284 -4 -5 -7 -9 -12 -13 -15 -18 -19 -22 -24 -26 0
-3285 3 0
-3285 6 0
-3285 7 0
-3285 9 0
-3285 12 0
-3285 13 0
-3285 15 0
-3285 18 0
-3285 19 0
-3285 22 0
-3285 24 0
-3285 26 0
3285 -3 -6 -7 -9 -12 -13 -15 -18 -19 -22 -24 -26 0
-3286 4 0
-3286 6 0
-3286 7 0
-3286 9 0
-3286 12 0
-3286 13 0
-3286 15 0
-3286 18 0
-3286 19 0
-3286 22 0
-3286 24 0
-3286 26 0
3286 -4 -6 -7 -9 -12 -13 -15 -18 -19 -22 -24 -26 0
-3287 3 0
-3287 6 0
-3287 7 0
-3287 9 0
-3287 12 0
-3287 14 0
-3287 15 0
-3287 18 0
-3287 19 0
-3287 22 0
-3287 24 0
-3287 26 0
3287 -3 -6 -7 -9 -12 -14 -15 -18 -19 -22 -24 -26 0
-3288 4 0
-3288 6 0
-3288 7 0
-3288 9 0
-3288 12 0
-3288 14 0
-3288 15 0
-3288 18 0
-3288 19 0
-3288 22 0
-3288 24 0
-3288 26 0
3288 -4 -6 -7 -9 -12 -14 -15 -18 -19 -22 -24 -26 0
-3289 3 0
-3289 5 0
-3289 7 0
-3289 9 0
-3289 12 0
-3289 14 0
-3289 15 0
-3289 18 0
-3289 19 0
-3289 22 0
-3289 24 0
-3289 26 0
3289 -3 -5 -7 -9 -12 -14 -15 -18 -19 -22 -24 -26 0
-3290 4 0
-3290 5 0
-3290 7 0
-3290 9 0
-3290 12 0
-3290 14 0
-3290 15 0
-3290 18 0
-3290 19 0
-3290 22 0
-3290 24 0
-3290 26 0
3290 -4 -5 -7 -9 -12 -14 -15 -18 -19 -22 -24 -26 0
-3291 3 0
-3291 5 0
-3291 8 0
-3291 9 0
-3291 12 0
-3291 14 0
-3291 15 0
-3291 18 0
-3291 19 0
-3291 22 0
-3291 24 0
-3291 26 0
3291 -3 -5 -8 -9 -12 -14 -15 -18 -19 -22 -24 -26 0
-3292 4 0
-3292 5 0
-3292 8 0
-3292 9 0
-3292 12 0
-3292 14 0
-3292 15 0
-3292 18 0
-3292 19 0
-3292 22 0
-3292 24 0
-3292 26 0
3292 -4 -5 -8 -9 -12 -14 -15 -18 -19 -22 -24 -26 0
-3293 3 0
-3293 6 0
-3293 8 0
-3293 9 0
-3293 12 0
-3293 14 0
-3293 15 0
-3293 18 0
-3293 19 0
-3293 22 0
-3293 24 0
-3293 26 0
3293 -3 -6 -8 -9 -12 -14 -15 -18 -19 -22 -24 -26 0
-3294 4 0
-3294 6 0
-3294 8 0
-3294 9 0
-3294 12 0
-3294 14 0
-3294 15 0
-3294 18 0
-3294 19 0
-3294 22 0
-3294 24 0
-3294 26 0
3294 -4 -6 -8 -9 -12 -14 -15 -18 -19 -22 -24 -26 0
-3295 3 0
-3295 6 0
-3295 8 0
-3295 10 0
-3295 12 0
-3295 14 0
-3295 15 0
-3295 18 0
-3295 19 0
-3295 22 0
-3295 24 0
-3295 26 0
3295 -3 -6 -8 -10 -12 -14 -15 -18 -19 -22 -24 -26 0
-3296 4 0
-3296 6 0
-3296 8 0
-3296 10 0
-3296 12 0
-3296 14 0
-3296 15 0
-3296 18 0
-3296 19 0
-3296 22 0
-3296 24 0
-3296 26 0
3296 -4 -6 -8 -10 -12 -14 -15 -18 -19 -22 -24 -26 0
-3297 3 0
-3297 5 0
-3297 8 0
-3297 10 0
-3297 12 0
-3297 14 0
-3297 15 0
-3297 18 0
-3297 19 0
-3297 22 0
-3297 24 0
-3297 26 0
3297 -3 -5 -8 -10 -12 -14 -15 -18 -19 -22 -24 -26 0
-3298 4 0
-3298 5 0
-3298 8 0
-3298 10 0
-3298 12 0
-3298 14 0
-3298 15 0
-3298 18 0
-3298 19 0
-3298 22 0
-3298 24 0
-3298 26 0
3298 -4 -5 -8 -10 -12 -14 -15 -18 -19 -22 -24 -26 0
-3299 3 0
-3299 5 0
-3299 7 0
-3299 10 0
-3299 12 0
-3299 14 0
-3299 15 0
-3299 18 0
-3299 19 0
-3299 22 0
-3299 24 0
-3299 26 0
3299 -3 -5 -7 -10 -12 -14 -15 -18 -19 -22 -24 -26 0
-3300 4 0
-3300 5 0
-3300 7 0
-3300 10 0
-3300 12 0
-3300 14 0
-3300 15 0
-3300 18 0
-3300 19 0
-3300 22 0
-3300 24 0
-3300 26 0
3300 -4 -5 -7 -10 -12 -14 -15 -18 -19 -22 -24 -26 0
-3301 3 0
-3301 6 0
-3301 7 0
-3301 10 0
-3301 12 0
-3301 14 0
-3301 15 0
-3301 18 0
-3301 19 0
-3301 22 0
-3301 24 0
-3301 26 0
3301 -3 -6 -7 -10 -12 -14 -15 -18 -19 -22 -24 -26 0
-3302 4 0
-3302 6 0
-3302 7 0
-3302 10 0
-3302 12 0
-3302 14 0
-3302 15 0
-3302 18 0
-3302 19 0
-3302 22 0
-3302 24 0
-3302 26 0
3302 -4 -6 -7 -10 -12 -14 -15 -18 -19 -22 -24 -26 0
-3303 3 0
-3303 6 0
-3303 7 0
-3303 10 0
-3303 11 0
-3303 14 0
-3303 15 0
-3303 18 0
-3303 19 0
-3303 22 0
-3303 24 0
-3303 26 0
3303 -3 -6 -7 -10 -11 -14 -15 -18 -19 -22 -24 -26 0
-3304 4 0
-3304 6 0
-3304 7 0
-3304 10 0
-3304 11 0
-3304 14 0
-3304 15 0
-3304 18 0
-3304 19 0
-3304 22 0
-3304 24 0
-3304 26 0
3304 -4 -6 -7 -10 -11 -14 -15 -18 -19 -22 -24 -26 0
-3305 3 0
-3305 5 0
-3305 7 0
-3305 10 0
-3305 11 0
-3305 14 0
-3305 15 0
-3305 18 0
-3305 19 0
-3305 22 0
-3305 24 0
-3305 26 0
3305 -3 -5 -7 -10 -11 -14 -15 -18 -19 -22 -24 -26 0
-3306 4 0
-3306 5 0
-3306 7 0
-3306 10 0
-3306 11 0
-3306 14 0
-3306 15 0
-3306 18 0
-3306 19 0
-3306 22 0
-3306 24 0
-3306 26 0
3306 -4 -5 -7 -10 -11 -14 -15 -18 -19 -22 -24 -26 0
-3307 3 0
-3307 5 0
-3307 8 0
-3307 10 0
-3307 11 0
-3307 14 0
-3307 15 0
-3307 18 0
-3307 19 0
-3307 22 0
-3307 24 0
-3307 26 0
3307 -3 -5 -8 -10 -11 -14 -15 -18 -19 -22 -24 -26 0
-3308 4 0
-3308 5 0
-3308 8 0
-3308 10 0
-3308 11 0
-3308 14 0
-3308 15 0
-3308 18 0
-3308 19 0
-3308 22 0
-3308 24 0
-3308 26 0
3308 -4 -5 -8 -10 -11 -14 -15 -18 -19 -22 -24 -26 0
-3309 3 0
-3309 6 0
-3309 8 0
-3309 10 0
-3309 11 0
-3309 14 0
-3309 15 0
-3309 18 0
-3309 19 0
-3309 22 0
-3309 24 0
-3309 26 0
3309 -3 -6 -8 -10 -11 -14 -15 -18 -19 -22 -24 -26 0
-3310 4 0
-3310 6 0
-3310 8 0
-3310 10 0
-3310 11 0
-3310 14 0
-3310 15 0
-3310 18 0
-3310 19 0
-3310 22 0
-3310 24 0
-3310 26 0
3310 -4 -6 -8 -10 -11 -14 -15 -18 -19 -22 -24 -26 0
-3311 3 0
-3311 6 0
-3311 8 0
-3311 9 0
-3311 11 0
-3311 14 0
-3311 15 0
-3311 18 0
-3311 19 0
-3311 22 0
-3311 24 0
-3311 26 0
3311 -3 -6 -8 -9 -11 -14 -15 -18 -19 -22 -24 -26 0
-3312 4 0
-3312 6 0
-3312 8 0
-3312 9 0
-3312 11 0
-3312 14 0
-3312 15 0
-3312 18 0
-3312 19 0
-3312 22 0
-3312 24 0
-3312 26 0
3312 -4 -6 -8 -9 -11 -14 -15 -18 -19 -22 -24 -26 0
-3313 3 0
-3313 5 0
-3313 8 0
-3313 9 0
-3313 11 0
-3313 14 0
-3313 15 0
-3313 18 0
-3313 19 0
-3313 22 0
-3313 24 0
-3313 26 0
3313 -3 -5 -8 -9 -11 -14 -15 -18 -19 -22 -24 -26 0
-3314 4 0
-3314 5 0
-3314 8 0
-3314 9 0
-3314 11 0
-3314 14 0
-3314 15 0
-3314 18 0
-3314 19 0
-3314 22 0
-3314 24 0
-3314 26 0
3314 -4 -5 -8 -9 -11 -14 -15 -18 -19 -22 -24 -26 0
-3315 3 0
-3315 5 0
-3315 7 0
-3315 9 0
-3315 11 0
-3315 14 0
-3315 15 0
-3315 18 0
-3315 19 0
-3315 22 0
-3315 24 0
-3315 26 0
3315 -3 -5 -7 -9 -11 -14 -15 -18 -19 -22 -24 -26 0
-3316 4 0
-3316 5 0
-3316 7 0
-3316 9 0
-3316 11 0
-3316 14 0
-3316 15 0
-3316 18 0
-3316 19 0
-3316 22 0
-3316 24 0
-3316 26 0
3316 -4 -5 -7 -9 -11 -14 -15 -18 -19 -22 -24 -26 0
-3317 3 0
-3317 6 0
-3317 7 0
-3317 9 0
-3317 11 0
-3317 14 0
-3317 15 0
-3317 18 0
-3317 19 0
-3317 22 0
-3317 24 0
-3317 26 0
3317 -3 -6 -7 -9 -11 -14 -15 -18 -19 -22 -24 -26 0
-3318 4 0
-3318 6 0
-3318 7 0
-3318 9 0
-3318 11 0
-3318 14 0
-3318 15 0
-3318 18 0
-3318 19 0
-3318 22 0
-3318 24 0
-3318 26 0
3318 -4 -6 -7 -9 -11 -14 -15 -18 -19 -22 -24 -26 0
-3319 3 0
-3319 6 0
-3319 7 0
-3319 9 0
-3319 11 0
-3319 14 0
-3319 16 0
-3319 18 0
-3319 19 0
-3319 22 0
-3319 24 0
-3319 26 0
3319 -3 -6 -7 -9 -11 -14 -16 -18 -19 -22 -24 -26 0
-3320 4 0
-3320 6 0
-3320 7 0
-3320 9 0
-3320 11 0
-3320 14 0
-3320 16 0
-3320 18 0
-3320 19 0
-3320 22 0
-3320 24 0
-3320 26 0
3320 -4 -6 -7 -9 -11 -14 -16 -18 -19 -22 -24 -26 0
-3321 3 0
-3321 5 0
-3321 7 0
-3321 9 0
-3321 11 0
-3321 14 0
-3321 16 0
-3321 18 0
-3321 19 0
-3321 22 0
-3321 24 0
-3321 26 0
3321 -3 -5 -7 -9 -11 -14 -16 -18 -19 -22 -24 -26 0
-3322 4 0
-3322 5 0
-3322 7 0
-3322 9 0
-3322 11 0
-3322 14 0
-3322 16 0
-3322 18 0
-3322 19 0
-3322 22 0
-3322 24 0
-3322 26 0
3322 -4 -5 -7 -9 -11 -14 -16 -18 -19 -22 -24 -26 0
-3323 3 0
-3323 5 0
-3323 8 0
-3323 9 0
-3323 11 0
-3323 14 0
-3323 16 0
-3323 18 0
-3323 19 0
-3323 22 0
-3323 24 0
-3323 26 0
3323 -3 -5 -8 -9 -11 -14 -16 -18 -19 -22 -24 -26 0
-3324 4 0
-3324 5 0
-3324 8 0
-3324 9 0
-3324 11 0
-3324 14 0
-3324 16 0
-3324 18 0
-3324 19 0
-3324 22 0
-3324 24 0
-3324 26 0
3324 -4 -5 -8 -9 -11 -14 -16 -18 -19 -22 -24 -26 0
-3325 3 0
-3325 6 0
-3325 8 0
-3325 9 0
-3325 11 0
-3325 14 0
-3325 16 0
-3325 18 0
-3325 19 0
-3325 22 0
-3325 24 0
-3325 26 0
3325 -3 -6 -8 -9 -11 -14 -16 -18 -19 -22 -24 -26 0
-3326 4 0
-3326 6 0
-3326 8 0
-3326 9 0
-3326 11 0
-3326 14 0
-3326 16 0
-3326 18 0
-3326 19 0
-3326 22 0
-3326 24 0
-3326 26 0
3326 -4 -6 -8 -9 -11 -14 -16 -18 -19 -22 -24 -26 0
-3327 3 0
-3327 6 0
-3327 8 0
-3327 10 0
-3327 11 0
-3327 14 0
-3327 16 0
-3327 18 0
-3327 19 0
-3327 22 0
-3327 24 0
-3327 26 0
3327 -3 -6 -8 -10 -11 -14 -16 -18 -19 -22 -24 -26 0
-3328 4 0
-3328 6 0
-3328 8 0
-3328 10 0
-3328 11 0
-3328 14 0
-3328 16 0
-3328 18 0
-3328 19 0
-3328 22 0
-3328 24 0
-3328 26 0
3328 -4 -6 -8 -10 -11 -14 -16 -18 -19 -22 -24 -26 0
-3329 3 0
-3329 5 0
-3329 8 0
-3329 10 0
-3329 11 0
-3329 14 0
-3329 16 0
-3329 18 0
-3329 19 0
-3329 22 0
-3329 24 0
-3329 26 0
3329 -3 -5 -8 -10 -11 -14 -16 -18 -19 -22 -24 -26 0
-3330 4 0
-3330 5 0
-3330 8 0
-3330 10 0
-3330 11 0
-3330 14 0
-3330 16 0
-3330 18 0
-3330 19 0
-3330 22 0
-3330 24 0
-3330 26 0
3330 -4 -5 -8 -10 -11 -14 -16 -18 -19 -22 -24 -26 0
-3331 3 0
-3331 5 0
-3331 7 0
-3331 10 0
-3331 11 0
-3331 14 0
-3331 16 0
-3331 18 0
-3331 19 0
-3331 22 0
-3331 24 0
-3331 26 0
3331 -3 -5 -7 -10 -11 -14 -16 -18 -19 -22 -24 -26 0
-3332 4 0
-3332 5 0
-3332 7 0
-3332 10 0
-3332 11 0
-3332 14 0
-3332 16 0
-3332 18 0
-3332 19 0
-3332 22 0
-3332 24 0
-3332 26 0
3332 -4 -5 -7 -10 -11 -14 -16 -18 -19 -22 -24 -26 0
-3333 3 0
-3333 6 0
-3333 7 0
-3333 10 0
-3333 11 0
-3333 14 0
-3333 16 0
-3333 18 0
-3333 19 0
-3333 22 0
-3333 24 0
-3333 26 0
3333 -3 -6 -7 -10 -11 -14 -16 -18 -19 -22 -24 -26 0
-3334 4 0
-3334 6 0
-3334 7 0
-3334 10 0
-3334 11 0
-3334 14 0
-3334 16 0
-3334 18 0
-3334 19 0
-3334 22 0
-3334 24 0
-3334 26 0
3334 -4 -6 -7 -10 -11 -14 -16 -18 -19 -22 -24 -26 0
-3335 3 0
-3335 6 0
-3335 7 0
-3335 10 0
-3335 12 0
-3335 14 0
-3335 16 0
-3335 18 0
-3335 19 0
-3335 22 0
-3335 24 0
-3335 26 0
3335 -3 -6 -7 -10 -12 -14 -16 -18 -19 -22 -24 -26 0
-3336 4 0
-3336 6 0
-3336 7 0
-3336 10 0
-3336 12 0
-3336 14 0
-3336 16 0
-3336 18 0
-3336 19 0
-3336 22 0
-3336 24 0
-3336 26 0
3336 -4 -6 -7 -10 -12 -14 -16 -18 -19 -22 -24 -26 0
-3337 3 0
-3337 5 0
-3337 7 0
-3337 10 0
-3337 12 0
-3337 14 0
-3337 16 0
-3337 18 0
-3337 19 0
-3337 22 0
-3337 24 0
-3337 26 0
3337 -3 -5 -7 -10 -12 -14 -16 -18 -19 -22 -24 -26 0
-3338 4 0
-3338 6 0
-3338 8 0
-3338 9 0
-3338 12 0
-3338 13 0
-3338 16 0
-3338 17 0
-3338 19 0
-3338 22 0
-3338 23 0
-3338 26 0
3338 -4 -6 -8 -9 -12 -13 -16 -17 -19 -22 -23 -26 0
-3339 4 0
-3339 5 0
-3339 7 0
-3339 10 0
-3339 12 0
-3339 14 0
-3339 16 0
-3339 18 0
-3339 19 0
-3339 22 0
-3339 24 0
-3339 26 0
3339 -4 -5 -7 -10 -12 -14 -16 -18 -19 -22 -24 -26 0
-3340 3 0
-3340 5 0
-3340 8 0
-3340 10 0
-3340 12 0
-3340 14 0
-3340 16 0
-3340 18 0
-3340 19 0
-3340 22 0
-3340 24 0
-3340 26 0
3340 -3 -5 -8 -10 -12 -14 -16 -18 -19 -22 -24 -26 0
-3341 4 0
-3341 5 0
-3341 8 0
-3341 10 0
-3341 12 0
-3341 14 0
-3341 16 0
-3341 18 0
-3341 19 0
-3341 22 0
-3341 24 0
-3341 26 0
3341 -4 -5 -8 -10 -12 -14 -16 -18 -19 -22 -24 -26 0
-3342 3 0
-3342 6 0
-3342 8 0
-3342 10 0
-3342 12 0
-3342 14 0
-3342 16 0
-3342 18 0
-3342 19 0
-3342 22 0
-3342 24 0
-3342 26 0
3342 -3 -6 -8 -10 -12 -14 -16 -18 -19 -22 -24 -26 0
-3343 4 0
-3343 6 0
-3343 8 0
-3343 10 0
-3343 12 0
-3343 13 0
-3343 16 0
-3343 17 0
-3343 19 0
-3343 22 0
-3343 23 0
-3343 26 0
3343 -4 -6 -8 -10 -12 -13 -16 -17 -19 -22 -23 -26 0
-3344 4 0
-3344 6 0
-3344 8 0
-3344 10 0
-3344 12 0
-3344 14 0
-3344 16 0
-3344 18 0
-3344 19 0
-3344 22 0
-3344 24 0
-3344 26 0
3344 -4 -6 -8 -10 -12 -14 -16 -18 -19 -22 -24 -26 0
-3345 3 0
-3345 6 0
-3345 8 0
-3345 9 0
-3345 12 0
-3345 14 0
-3345 16 0
-3345 18 0
-3345 19 0
-3345 22 0
-3345 24 0
-3345 26 0
3345 -3 -6 -8 -9 -12 -14 -16 -18 -19 -22 -24 -26 0
-3346 4 0
-3346 6 0
-3346 8 0
-3346 9 0
-3346 12 0
-3346 14 0
-3346 16 0
-3346 18 0
-3346 19 0
-3346 22 0
-3346 24 0
-3346 26 0
3346 -4 -6 -8 -9 -12 -14 -16 -18 -19 -22 -24 -26 0
-3347 3 0
-3347 5 0
-3347 8 0
-3347 9 0
-3347 12 0
-3347 14 0
-3347 16 0
-3347 18 0
-3347 19 0
-3347 22 0
-3347 24 0
-3347 26 0
3347 -3 -5 -8 -9 -12 -14 -16 -18 -19 -22 -24 -26 0
-3348 4 0
-3348 5 0
-3348 8 0
-3348 9 0
-3348 12 0
-3348 14 0
-3348 16 0
-3348 18 0
-3348 19 0
-3348 22 0
-3348 24 0
-3348 26 0
3348 -4 -5 -8 -9 -12 -14 -16 -18 -19 -22 -24 -26 0
-3349 3 0
-3349 5 0
-3349 7 0
-3349 9 0
-3349 12 0
-3349 14 0
-3349 16 0
-3349 18 0
-3349 19 0
-3349 22 0
-3349 24 0
-3349 26 0
3349 -3 -5 -7 -9 -12 -14 -16 -18 -19 -22 -24 -26 0
-3350 4 0
-3350 5 0
-3350 7 0
-3350 9 0
-3350 12 0
-3350 14 0
-3350 16 0
-3350 18 0
-3350 19 0
-3350 22 0
-3350 24 0
-3350 26 0
3350 -4 -5 -7 -9 -12 -14 -16 -18 -19 -22 -24 -26 0
-3351 3 0
-3351 6 0
-3351 7 0
-3351 9 0
-3351 12 0
-3351 14 0
-3351 16 0
-3351 18 0
-3351 19 0
-3351 22 0
-3351 24 0
-3351 26 0
3351 -3 -6 -7 -9 -12 -14 -16 -18 -19 -22 -24 -26 0
-3352 4 0
-3352 6 0
-3352 7 0
-3352 9 0
-3352 12 0
-3352 14 0
-3352 16 0
-3352 18 0
-3352 19 0
-3352 22 0
-3352 24 0
-3352 26 0
3352 -4 -6 -7 -9 -12 -14 -16 -18 -19 -22 -24 -26 0
-3353 3 0
-3353 6 0
-3353 7 0
-3353 9 0
-3353 12 0
-3353 13 0
-3353 16 0
-3353 18 0
-3353 19 0
-3353 22 0
-3353 24 0
-3353 26 0
3353 -3 -6 -7 -9 -12 -13 -16 -18 -19 -22 -24 -26 0
-3354 4 0
-3354 6 0
-3354 7 0
-3354 9 0
-3354 12 0
-3354 13 0
-3354 16 0
-3354 18 0
-3354 19 0
-3354 22 0
-3354 24 0
-3354 26 0
3354 -4 -6 -7 -9 -12 -13 -16 -18 -19 -22 -24 -26 0
-3355 3 0
-3355 5 0
-3355 7 0
-3355 9 0
-3355 12 0
-3355 13 0
-3355 16 0
-3355 18 0
-3355 19 0
-3355 22 0
-3355 24 0
-3355 26 0
3355 -3 -5 -7 -9 -12 -13 -16 -18 -19 -22 -24 -26 0
-3356 4 0
-3356 5 0
-3356 7 0
-3356 9 0
-3356 12 0
-3356 13 0
-3356 16 0
-3356 18 0
-3356 19 0
-3356 22 0
-3356 24 0
-3356 26 0
3356 -4 -5 -7 -9 -12 -13 -16 -18 -19 -22 -24 -26 0
-3357 3 0
-3357 5 0
-3357 8 0
-3357 9 0
-3357 12 0
-3357 13 0
-3357 16 0
-3357 18 0
-3357 19 0
-3357 22 0
-3357 24 0
-3357 26 0
3357 -3 -5 -8 -9 -12 -13 -16 -18 -19 -22 -24 -26 0
-3358 4 0
-3358 5 0
-3358 8 0
-3358 9 0
-3358 12 0
-3358 13 0
-3358 16 0
-3358 18 0
-3358 19 0
-3358 22 0
-3358 24 0
-3358 26 0
3358 -4 -5 -8 -9 -12 -13 -16 -18 -19 -22 -24 -26 0
-3359 3 0
-3359 6 0
-3359 8 0
-3359 9 0
-3359 12 0
-3359 13 0
-3359 16 0
-3359 18 0
-3359 19 0
-3359 22 0
-3359 24 0
-3359 26 0
3359 -3 -6 -8 -9 -12 -13 -16 -18 -19 -22 -24 -26 0
-3360 4 0
-3360 6 0
-3360 8 0
-3360 9 0
-3360 12 0
-3360 13 0
-3360 16 0
-3360 18 0
-3360 19 0
-3360 22 0
-3360 24 0
-3360 26 0
3360 -4 -6 -8 -9 -12 -13 -16 -18 -19 -22 -24 -26 0
-3361 3 0
-3361 6 0
-3361 8 0
-3361 10 0
-3361 12 0
-3361 13 0
-3361 16 0
-3361 18 0
-3361 19 0
-3361 22 0
-3361 24 0
-3361 26 0
3361 -3 -6 -8 -10 -12 -13 -16 -18 -19 -22 -24 -26 0
-3362 4 0
-3362 6 0
-3362 8 0
-3362 10 0
-3362 12 0
-3362 13 0
-3362 16 0
-3362 18 0
-3362 19 0
-3362 22 0
-3362 24 0
-3362 26 0
3362 -4 -6 -8 -10 -12 -13 -16 -18 -19 -22 -24 -26 0
-3363 3 0
-3363 5 0
-3363 8 0
-3363 10 0
-3363 12 0
-3363 13 0
-3363 16 0
-3363 18 0
-3363 19 0
-3363 22 0
-3363 24 0
-3363 26 0
3363 -3 -5 -8 -10 -12 -13 -16 -18 -19 -22 -24 -26 0
-3364 4 0
-3364 5 0
-3364 8 0
-3364 10 0
-3364 12 0
-3364 13 0
-3364 16 0
-3364 18 0
-3364 19 0
-3364 22 0
-3364 24 0
-3364 26 0
3364 -4 -5 -8 -10 -12 -13 -16 -18 -19 -22 -24 -26 0
-3365 3 0
-3365 5 0
-3365 7 0
-3365 10 0
-3365 12 0
-3365 13 0
-3365 16 0
-3365 18 0
-3365 19 0
-3365 22 0
-3365 24 0
-3365 26 0
3365 -3 -5 -7 -10 -12 -13 -16 -18 -19 -22 -24 -26 0
-3366 4 0
-3366 5 0
-3366 7 0
-3366 10 0
-3366 12 0
-3366 13 0
-3366 16 0
-3366 18 0
-3366 19 0
-3366 22 0
-3366 24 0
-3366 26 0
3366 -4 -5 -7 -10 -12 -13 -16 -18 -19 -22 -24 -26 0
-3367 3 0
-3367 6 0
-3367 7 0
-3367 10 0
-3367 12 0
-3367 13 0
-3367 16 0
-3367 18 0
-3367 19 0
-3367 22 0
-3367 24 0
-3367 26 0
3367 -3 -6 -7 -10 -12 -13 -16 -18 -19 -22 -24 -26 0
-3368 4 0
-3368 6 0
-3368 7 0
-3368 10 0
-3368 12 0
-3368 13 0
-3368 16 0
-3368 18 0
-3368 19 0
-3368 22 0
-3368 24 0
-3368 26 0
3368 -4 -6 -7 -10 -12 -13 -16 -18 -19 -22 -24 -26 0
-3369 3 0
-3369 6 0
-3369 7 0
-3369 10 0
-3369 11 0
-3369 13 0
-3369 16 0
-3369 18 0
-3369 19 0
-3369 22 0
-3369 24 0
-3369 26 0
3369 -3 -6 -7 -10 -11 -13 -16 -18 -19 -22 -24 -26 0
-3370 4 0
-3370 6 0
-3370 7 0
-3370 10 0
-3370 11 0
-3370 13 0
-3370 16 0
-3370 18 0
-3370 19 0
-3370 22 0
-3370 24 0
-3370 26 0
3370 -4 -6 -7 -10 -11 -13 -16 -18 -19 -22 -24 -26 0
-3371 3 0
-3371 5 0
-3371 7 0
-3371 10 0
-3371 11 0
-3371 13 0
-3371 16 0
-3371 18 0
-3371 19 0
-3371 22 0
-3371 24 0
-3371 26 0
3371 -3 -5 -7 -10 -11 -13 -16 -18 -19 -22 -24 -26 0
-3372 4 0
-3372 5 0
-3372 7 0
-3372 10 0
-3372 11 0
-3372 13 0
-3372 16 0
-3372 18 0
-3372 19 0
-3372 22 0
-3372 24 0
-3372 26 0
3372 -4 -5 -7 -10 -11 -13 -16 -18 -19 -22 -24 -26 0
-3373 3 0
-3373 5 0
-3373 8 0
-3373 10 0
-3373 11 0
-3373 13 0
-3373 16 0
-3373 18 0
-3373 19 0
-3373 22 0
-3373 24 0
-3373 26 0
3373 -3 -5 -8 -10 -11 -13 -16 -18 -19 -22 -24 -26 0
-3374 4 0
-3374 5 0
-3374 8 0
-3374 10 0
-3374 11 0
-3374 13 0
-3374 16 0
-3374 18 0
-3374 19 0
-3374 22 0
-3374 24 0
-3374 26 0
3374 -4 -5 -8 -10 -11 -13 -16 -18 -19 -22 -24 -26 0
-3375 3 0
-3375 6 0
-3375 8 0
-3375 10 0
-3375 11 0
-3375 13 0
-3375 16 0
-3375 18 0
-3375 19 0
-3375 22 0
-3375 24 0
-3375 26 0
3375 -3 -6 -8 -10 -11 -13 -16 -18 -19 -22 -24 -26 0
-3376 4 0
-3376 6 0
-3376 8 0
-3376 10 0
-3376 11 0
-3376 13 0
-3376 16 0
-3376 18 0
-3376 19 0
-3376 22 0
-3376 24 0
-3376 26 0
3376 -4 -6 -8 -10 -11 -13 -16 -18 -19 -22 -24 -26 0
-3377 3 0
-3377 6 0
-3377 8 0
-3377 9 0
-3377 11 0
-3377 13 0
-3377 16 0
-3377 18 0
-3377 19 0
-3377 22 0
-3377 24 0
-3377 26 0
3377 -3 -6 -8 -9 -11 -13 -16 -18 -19 -22 -24 -26 0
-3378 4 0
-3378 6 0
-3378 8 0
-3378 9 0
-3378 11 0
-3378 13 0
-3378 16 0
-3378 18 0
-3378 19 0
-3378 22 0
-3378 24 0
-3378 26 0
3378 -4 -6 -8 -9 -11 -13 -16 -18 -19 -22 -24 -26 0
-3379 3 0
-3379 5 0
-3379 8 0
-3379 9 0
-3379 11 0
-3379 13 0
-3379 16 0
-3379 18 0
-3379 19 0
-3379 22 0
-3379 24 0
-3379 26 0
3379 -3 -5 -8 -9 -11 -13 -16 -18 -19 -22 -24 -26 0
-3380 4 0
-3380 5 0
-3380 8 0
-3380 9 0
-3380 11 0
-3380 13 0
-3380 16 0
-3380 18 0
-3380 19 0
-3380 22 0
-3380 24 0
-3380 26 0
3380 -4 -5 -8 -9 -11 -13 -16 -18 -19 -22 -24 -26 0
-3381 3 0
-3381 5 0
-3381 7 0
-3381 9 0
-3381 11 0
-3381 13 0
-3381 16 0
-3381 18 0
-3381 19 0
-3381 22 0
-3381 24 0
-3381 26 0
3381 -3 -5 -7 -9 -11 -13 -16 -18 -19 -22 -24 -26 0
-3382 4 0
-3382 5 0
-3382 7 0
-3382 9 0
-3382 11 0
-3382 13 0
-3382 16 0
-3382 18 0
-3382 19 0
-3382 22 0
-3382 24 0
-3382 26 0
3382 -4 -5 -7 -9 -11 -13 -16 -18 -19 -22 -24 -26 0
-3383 3 0
-3383 6 0
-3383 7 0
-3383 9 0
-3383 11 0
-3383 13 0
-3383 16 0
-3383 18 0
-3383 19 0
-3383 22 0
-3383 24 0
-3383 26 0
3383 -3 -6 -7 -9 -11 -13 -16 -18 -19 -22 -24 -26 0
-3384 4 0
-3384 6 0
-3384 7 0
-3384 9 0
-3384 11 0
-3384 13 0
-3384 16 0
-3384 18 0
-3384 19 0
-3384 22 0
-3384 23 0
-3384 26 0
3384 -4 -6 -7 -9 -11 -13 -16 -18 -19 -22 -23 -26 0
-3385 4 0
-3385 6 0
-3385 7 0
-3385 9 0
-3385 11 0
-3385 13 0
-3385 16 0
-3385 18 0
-3385 19 0
-3385 22 0
-3385 24 0
-3385 26 0
3385 -4 -6 -7 -9 -11 -13 -16 -18 -19 -22 -24 -26 0
-3386 3 0
-3386 6 0
-3386 7 0
-3386 9 0
-3386 11 0
-3386 13 0
-3386 16 0
-3386 17 0
-3386 19 0
-3386 22 0
-3386 24 0
-3386 26 0
3386 -3 -6 -7 -9 -11 -13 -16 -17 -19 -22 -24 -26 0
-3387 4 0
-3387 6 0
-3387 7 0
-3387 9 0
-3387 11 0
-3387 13 0
-3387 16 0
-3387 17 0
-3387 19 0
-3387 22 0
-3387 24 0
-3387 26 0
3387 -4 -6 -7 -9 -11 -13 -16 -17 -19 -22 -24 -26 0
-3388 3 0
-3388 5 0
-3388 7 0
-3388 9 0
-3388 11 0
-3388 13 0
-3388 16 0
-3388 17 0
-3388 19 0
-3388 22 0
-3388 24 0
-3388 26 0
3388 -3 -5 -7 -9 -11 -13 -16 -17 -19 -22 -24 -26 0
-3389 4 0
-3389 5 0
-3389 7 0
-3389 9 0
-3389 11 0
-3389 13 0
-3389 16 0
-3389 17 0
-3389 19 0
-3389 22 0
-3389 24 0
-3389 26 0
3389 -4 -5 -7 -9 -11 -13 -16 -17 -19 -22 -24 -26 0
-3390 3 0
-3390 5 0
-3390 8 0
-3390 9 0
-3390 11 0
-3390 13 0
-3390 16 0
-3390 17 0
-3390 19 0
-3390 22 0
-3390 24 0
-3390 26 0
3390 -3 -5 -8 -9 -11 -13 -16 -17 -19 -22 -24 -26 0
-3391 4 0
-3391 5 0
-3391 8 0
-3391 9 0
-3391 11 0
-3391 13 0
-3391 16 0
-3391 17 0
-3391 19 0
-3391 22 0
-3391 24 0
-3391 26 0
3391 -4 -5 -8 -9 -11 -13 -16 -17 -19 -22 -24 -26 0
-3392 3 0
-3392 6 0
-3392 8 0
-3392 9 0
-3392 11 0
-3392 13 0
-3392 16 0
-3392 17 0
-3392 19 0
-3392 22 0
-3392 24 0
-3392 26 0
3392 -3 -6 -8 -9 -11 -13 -16 -17 -19 -22 -24 -26 0
-3393 4 0
-3393 6 0
-3393 8 0
-3393 9 0
-3393 11 0
-3393 13 0
-3393 16 0
-3393 17 0
-3393 19 0
-3393 22 0
-3393 24 0
-3393 26 0
3393 -4 -6 -8 -9 -11 -13 -16 -17 -19 -22 -24 -26 0
-3394 3 0
-3394 6 0
-3394 8 0
-3394 10 0
-3394 11 0
-3394 13 0
-3394 16 0
-3394 17 0
-3394 19 0
-3394 22 0
-3394 24 0
-3394 26 0
3394 -3 -6 -8 -10 -11 -13 -16 -17 -19 -22 -24 -26 0
-3395 4 0
-3395 6 0
-3395 8 0
-3395 10 0
-3395 11 0
-3395 13 0
-3395 16 0
-3395 17 0
-3395 19 0
-3395 22 0
-3395 24 0
-3395 26 0
3395 -4 -6 -8 -10 -11 -13 -16 -17 -19 -22 -24 -26 0
-3396 3 0
-3396 5 0
-3396 8 0
-3396 10 0
-3396 11 0
-3396 13 0
-3396 16 0
-3396 17 0
-3396 19 0
-3396 22 0
-3396 24 0
-3396 26 0
3396 -3 -5 -8 -10 -11 -13 -16 -17 -19 -22 -24 -26 0
-3397 4 0
-3397 5 0
-3397 8 0
-3397 10 0
-3397 11 0
-3397 13 0
-3397 16 0
-3397 17 0
-3397 19 0
-3397 22 0
-3397 24 0
-3397 26 0
3397 -4 -5 -8 -10 -11 -13 -16 -17 -19 -22 -24 -26 0
-3398 3 0
-3398 5 0
-3398 7 0
-3398 10 0
-3398 11 0
-3398 13 0
-3398 16 0
-3398 17 0
-3398 19 0
-3398 22 0
-3398 24 0
-3398 26 0
3398 -3 -5 -7 -10 -11 -13 -16 -17 -19 -22 -24 -26 0
-3399 4 0
-3399 5 0
-3399 7 0
-3399 10 0
-3399 11 0
-3399 13 0
-3399 16 0
-3399 17 0
-3399 19 0
-3399 22 0
-3399 24 0
-3399 26 0
3399 -4 -5 -7 -10 -11 -13 -16 -17 -19 -22 -24 -26 0
-3400 3 0
-3400 6 0
-3400 7 0
-3400 10 0
-3400 11 0
-3400 13 0
-3400 16 0
-3400 17 0
-3400 19 0
-3400 22 0
-3400 24 0
-3400 26 0
3400 -3 -6 -7 -10 -11 -13 -16 -17 -19 -22 -24 -26 0
-3401 4 0
-3401 6 0
-3401 7 0
-3401 10 0
-3401 11 0
-3401 13 0
-3401 16 0
-3401 17 0
-3401 19 0
-3401 22 0
-3401 24 0
-3401 26 0
3401 -4 -6 -7 -10 -11 -13 -16 -17 -19 -22 -24 -26 0
-3402 3 0
-3402 6 0
-3402 7 0
-3402 10 0
-3402 12 0
-3402 13 0
-3402 16 0
-3402 17 0
-3402 19 0
-3402 22 0
-3402 24 0
-3402 26 0
3402 -3 -6 -7 -10 -12 -13 -16 -17 -19 -22 -24 -26 0
-3403 4 0
-3403 6 0
-3403 7 0
-3403 10 0
-3403 12 0
-3403 13 0
-3403 16 0
-3403 17 0
-3403 19 0
-3403 22 0
-3403 24 0
-3403 26 0
3403 -4 -6 -7 -10 -12 -13 -16 -17 -19 -22 -24 -26 0
-3404 3 0
-3404 5 0
-3404 7 0
-3404 10 0
-3404 12 0
-3404 13 0
-3404 16 0
-3404 17 0
-3404 19 0
-3404 22 0
-3404 24 0
-3404 26 0
3404 -3 -5 -7 -10 -12 -13 -16 -17 -19 -22 -24 -26 0
-3405 4 0
-3405 5 0
-3405 7 0
-3405 10 0
-3405 12 0
-3405 13 0
-3405 16 0
-3405 17 0
-3405 19 0
-3405 22 0
-3405 24 0
-3405 26 0
3405 -4 -5 -7 -10 -12 -13 -16 -17 -19 -22 -24 -26 0
-3406 3 0
-3406 5 0
-3406 8 0
-3406 10 0
-3406 12 0
-3406 13 0
-3406 16 0
-3406 17 0
-3406 19 0
-3406 22 0
-3406 24 0
-3406 26 0
3406 -3 -5 -8 -10 -12 -13 -16 -17 -19 -22 -24 -26 0
-3407 4 0
-3407 5 0
-3407 8 0
-3407 10 0
-3407 12 0
-3407 13 0
-3407 16 0
-3407 17 0
-3407 19 0
-3407 22 0
-3407 24 0
-3407 26 0
3407 -4 -5 -8 -10 -12 -13 -16 -17 -19 -22 -24 -26 0
-3408 3 0
-3408 6 0
-3408 8 0
-3408 10 0
-3408 12 0
-3408 13 0
-3408 16 0
-3408 17 0
-3408 19 0
-3408 22 0
-3408 24 0
-3408 26 0
3408 -3 -6 -8 -10 -12 -13 -16 -17 -19 -22 -24 -26 0
-3409 4 0
-3409 6 0
-3409 8 0
-3409 10 0
-3409 12 0
-3409 13 0
-3409 16 0
-3409 17 0
-3409 19 0
-3409 22 0
-3409 24 0
-3409 26 0
3409 -4 -6 -8 -10 -12 -13 -16 -17 -19 -22 -24 -26 0
-3410 3 0
-3410 6 0
-3410 8 0
-3410 9 0
-3410 12 0
-3410 13 0
-3410 16 0
-3410 17 0
-3410 19 0
-3410 22 0
-3410 24 0
-3410 26 0
3410 -3 -6 -8 -9 -12 -13 -16 -17 -19 -22 -24 -26 0
-3411 4 0
-3411 6 0
-3411 8 0
-3411 9 0
-3411 12 0
-3411 13 0
-3411 16 0
-3411 17 0
-3411 19 0
-3411 22 0
-3411 24 0
-3411 26 0
3411 -4 -6 -8 -9 -12 -13 -16 -17 -19 -22 -24 -26 0
-3412 3 0
-3412 5 0
-3412 8 0
-3412 9 0
-3412 12 0
-3412 13 0
-3412 16 0
-3412 17 0
-3412 19 0
-3412 22 0
-3412 24 0
-3412 26 0
3412 -3 -5 -8 -9 -12 -13 -16 -17 -19 -22 -24 -26 0
-3413 4 0
-3413 5 0
-3413 8 0
-3413 9 0
-3413 12 0
-3413 13 0
-3413 16 0
-3413 17 0
-3413 19 0
-3413 22 0
-3413 24 0
-3413 26 0
3413 -4 -5 -8 -9 -12 -13 -16 -17 -19 -22 -24 -26 0
-3414 3 0
-3414 5 0
-3414 7 0
-3414 9 0
-3414 12 0
-3414 13 0
-3414 16 0
-3414 17 0
-3414 19 0
-3414 22 0
-3414 24 0
-3414 26 0
3414 -3 -5 -7 -9 -12 -13 -16 -17 -19 -22 -24 -26 0
-3415 4 0
-3415 5 0
-3415 7 0
-3415 9 0
-3415 12 0
-3415 13 0
-3415 16 0
-3415 17 0
-3415 19 0
-3415 22 0
-3415 24 0
-3415 26 0
3415 -4 -5 -7 -9 -12 -13 -16 -17 -19 -22 -24 -26 0
-3416 3 0
-3416 6 0
-3416 7 0
-3416 9 0
-3416 12 0
-3416 13 0
-3416 16 0
-3416 17 0
-3416 19 0
-3416 22 0
-3416 24 0
-3416 26 0
3416 -3 -6 -7 -9 -12 -13 -16 -17 -19 -22 -24 -26 0
-3417 4 0
-3417 6 0
-3417 7 0
-3417 9 0
-3417 12 0
-3417 13 0
-3417 16 0
-3417 17 0
-3417 19 0
-3417 22 0
-3417 24 0
-3417 26 0
3417 -4 -6 -7 -9 -12 -13 -16 -17 -19 -22 -24 -26 0
-3418 3 0
-3418 6 0
-3418 7 0
-3418 9 0
-3418 12 0
-3418 14 0
-3418 16 0
-3418 17 0
-3418 19 0
-3418 22 0
-3418 24 0
-3418 26 0
3418 -3 -6 -7 -9 -12 -14 -16 -17 -19 -22 -24 -26 0
-3419 4 0
-3419 6 0
-3419 7 0
-3419 9 0
-3419 12 0
-3419 14 0
-3419 16 0
-3419 17 0
-3419 19 0
-3419 22 0
-3419 24 0
-3419 26 0
3419 -4 -6 -7 -9 -12 -14 -16 -17 -19 -22 -24 -26 0
-3420 3 0
-3420 5 0
-3420 7 0
-3420 9 0
-3420 12 0
-3420 14 0
-3420 16 0
-3420 17 0
-3420 19 0
-3420 22 0
-3420 24 0
-3420 26 0
3420 -3 -5 -7 -9 -12 -14 -16 -17 -19 -22 -24 -26 0
-3421 4 0
-3421 5 0
-3421 7 0
-3421 9 0
-3421 12 0
-3421 14 0
-3421 16 0
-3421 17 0
-3421 19 0
-3421 22 0
-3421 24 0
-3421 26 0
3421 -4 -5 -7 -9 -12 -14 -16 -17 -19 -22 -24 -26 0
-3422 3 0
-3422 5 0
-3422 8 0
-3422 9 0
-3422 12 0
-3422 14 0
-3422 16 0
-3422 17 0
-3422 19 0
-3422 22 0
-3422 24 0
-3422 26 0
3422 -3 -5 -8 -9 -12 -14 -16 -17 -19 -22 -24 -26 0
-3423 4 0
-3423 5 0
-3423 8 0
-3423 9 0
-3423 12 0
-3423 14 0
-3423 16 0
-3423 17 0
-3423 19 0
-3423 22 0
-3423 24 0
-3423 26 0
3423 -4 -5 -8 -9 -12 -14 -16 -17 -19 -22 -24 -26 0
-3424 3 0
-3424 6 0
-3424 8 0
-3424 9 0
-3424 12 0
-3424 14 0
-3424 16 0
-3424 17 0
-3424 19 0
-3424 22 0
-3424 24 0
-3424 26 0
3424 -3 -6 -8 -9 -12 -14 -16 -17 -19 -22 -24 -26 0
-3425 4 0
-3425 6 0
-3425 8 0
-3425 9 0
-3425 12 0
-3425 14 0
-3425 16 0
-3425 17 0
-3425 19 0
-3425 22 0
-3425 24 0
-3425 26 0
3425 -4 -6 -8 -9 -12 -14 -16 -17 -19 -22 -24 -26 0
-3426 3 0
-3426 6 0
-3426 8 0
-3426 10 0
-3426 12 0
-3426 14 0
-3426 16 0
-3426 17 0
-3426 19 0
-3426 22 0
-3426 24 0
-3426 26 0
3426 -3 -6 -8 -10 -12 -14 -16 -17 -19 -22 -24 -26 0
-3427 4 0
-3427 6 0
-3427 8 0
-3427 10 0
-3427 12 0
-3427 14 0
-3427 16 0
-3427 17 0
-3427 19 0
-3427 22 0
-3427 24 0
-3427 26 0
3427 -4 -6 -8 -10 -12 -14 -16 -17 -19 -22 -24 -26 0
-3428 3 0
-3428 5 0
-3428 8 0
-3428 10 0
-3428 12 0
-3428 14 0
-3428 16 0
-3428 17 0
-3428 19 0
-3428 22 0
-3428 24 0
-3428 26 0
3428 -3 -5 -8 -10 -12 -14 -16 -17 -19 -22 -24 -26 0
-3429 4 0
-3429 5 0
-3429 8 0
-3429 10 0
-3429 12 0
-3429 14 0
-3429 16 0
-3429 17 0
-3429 19 0
-3429 22 0
-3429 24 0
-3429 26 0
3429 -4 -5 -8 -10 -12 -14 -16 -17 -19 -22 -24 -26 0
-3430 3 0
-3430 5 0
-3430 7 0
-3430 10 0
-3430 12 0
-3430 14 0
-3430 16 0
-3430 17 0
-3430 19 0
-3430 22 0
-3430 24 0
-3430 26 0
3430 -3 -5 -7 -10 -12 -14 -16 -17 -19 -22 -24 -26 0
-3431 4 0
-3431 5 0
-3431 7 0
-3431 10 0
-3431 12 0
-3431 14 0
-3431 16 0
-3431 17 0
-3431 19 0
-3431 22 0
-3431 24 0
-3431 26 0
3431 -4 -5 -7 -10 -12 -14 -16 -17 -19 -22 -24 -26 0
-3432 3 0
-3432 6 0
-3432 7 0
-3432 10 0
-3432 12 0
-3432 14 0
-3432 16 0
-3432 17 0
-3432 19 0
-3432 22 0
-3432 24 0
-3432 26 0
3432 -3 -6 -7 -10 -12 -14 -16 -17 -19 -22 -24 -26 0
-3433 4 0
-3433 6 0
-3433 7 0
-3433 10 0
-3433 12 0
-3433 14 0
-3433 16 0
-3433 17 0
-3433 19 0
-3433 22 0
-3433 24 0
-3433 26 0
3433 -4 -6 -7 -10 -12 -14 -16 -17 -19 -22 -24 -26 0
-3434 3 0
-3434 6 0
-3434 7 0
-3434 10 0
-3434 11 0
-3434 14 0
-3434 16 0
-3434 17 0
-3434 19 0
-3434 22 0
-3434 24 0
-3434 26 0
3434 -3 -6 -7 -10 -11 -14 -16 -17 -19 -22 -24 -26 0
-3435 4 0
-3435 6 0
-3435 7 0
-3435 10 0
-3435 11 0
-3435 14 0
-3435 16 0
-3435 17 0
-3435 19 0
-3435 22 0
-3435 24 0
-3435 26 0
3435 -4 -6 -7 -10 -11 -14 -16 -17 -19 -22 -24 -26 0
-3436 3 0
-3436 5 0
-3436 7 0
-3436 10 0
-3436 11 0
-3436 14 0
-3436 16 0
-3436 17 0
-3436 19 0
-3436 22 0
-3436 24 0
-3436 26 0
3436 -3 -5 -7 -10 -11 -14 -16 -17 -19 -22 -24 -26 0
-3437 4 0
-3437 5 0
-3437 7 0
-3437 10 0
-3437 11 0
-3437 14 0
-3437 16 0
-3437 17 0
-3437 19 0
-3437 22 0
-3437 24 0
-3437 26 0
3437 -4 -5 -7 -10 -11 -14 -16 -17 -19 -22 -24 -26 0
-3438 3 0
-3438 5 0
-3438 8 0
-3438 10 0
-3438 11 0
-3438 14 0
-3438 16 0
-3438 17 0
-3438 19 0
-3438 22 0
-3438 24 0
-3438 26 0
3438 -3 -5 -8 -10 -11 -14 -16 -17 -19 -22 -24 -26 0
-3439 4 0
-3439 5 0
-3439 8 0
-3439 10 0
-3439 11 0
-3439 14 0
-3439 16 0
-3439 17 0
-3439 19 0
-3439 22 0
-3439 24 0
-3439 26 0
3439 -4 -5 -8 -10 -11 -14 -16 -17 -19 -22 -24 -26 0
-3440 3 0
-3440 6 0
-3440 8 0
-3440 10 0
-3440 11 0
-3440 14 0
-3440 16 0
-3440 17 0
-3440 19 0
-3440 22 0
-3440 24 0
-3440 26 0
3440 -3 -6 -8 -10 -11 -14 -16 -17 -19 -22 -24 -26 0
-3441 4 0
-3441 6 0
-3441 8 0
-3441 10 0
-3441 11 0
-3441 14 0
-3441 16 0
-3441 17 0
-3441 19 0
-3441 22 0
-3441 24 0
-3441 26 0
3441 -4 -6 -8 -10 -11 -14 -16 -17 -19 -22 -24 -26 0
-3442 3 0
-3442 6 0
-3442 8 0
-3442 9 0
-3442 11 0
-3442 14 0
-3442 16 0
-3442 17 0
-3442 19 0
-3442 22 0
-3442 24 0
-3442 26 0
3442 -3 -6 -8 -9 -11 -14 -16 -17 -19 -22 -24 -26 0
-3443 4 0
-3443 6 0
-3443 8 0
-3443 9 0
-3443 11 0
-3443 14 0
-3443 16 0
-3443 17 0
-3443 19 0
-3443 22 0
-3443 24 0
-3443 26 0
3443 -4 -6 -8 -9 -11 -14 -16 -17 -19 -22 -24 -26 0
-3444 3 0
-3444 5 0
-3444 8 0
-3444 9 0
-3444 11 0
-3444 14 0
-3444 16 0
-3444 17 0
-3444 19 0
-3444 22 0
-3444 24 0
-3444 26 0
3444 -3 -5 -8 -9 -11 -14 -16 -17 -19 -22 -24 -26 0
-3445 4 0
-3445 5 0
-3445 8 0
-3445 9 0
-3445 11 0
-3445 14 0
-3445 16 0
-3445 17 0
-3445 19 0
-3445 22 0
-3445 24 0
-3445 26 0
3445 -4 -5 -8 -9 -11 -14 -16 -17 -19 -22 -24 -26 0
-3446 3 0
-3446 5 0
-3446 7 0
-3446 9 0
-3446 11 0
-3446 14 0
-3446 16 0
-3446 17 0
-3446 19 0
-3446 22 0
-3446 24 0
-3446 26 0
3446 -3 -5 -7 -9 -11 -14 -16 -17 -19 -22 -24 -26 0
-3447 4 0
-3447 5 0
-3447 7 0
-3447 9 0
-3447 11 0
-3447 14 0
-3447 16 0
-3447 17 0
-3447 19 0
-3447 22 0
-3447 24 0
-3447 26 0
3447 -4 -5 -7 -9 -11 -14 -16 -17 -19 -22 -24 -26 0
-3448 3 0
-3448 6 0
-3448 7 0
-3448 9 0
-3448 11 0
-3448 14 0
-3448 16 0
-3448 17 0
-3448 19 0
-3448 22 0
-3448 24 0
-3448 26 0
3448 -3 -6 -7 -9 -11 -14 -16 -17 -19 -22 -24 -26 0
-3449 4 0
-3449 6 0
-3449 7 0
-3449 9 0
-3449 11 0
-3449 14 0
-3449 16 0
-3449 17 0
-3449 19 0
-3449 22 0
-3449 23 0
-3449 26 0
3449 -4 -6 -7 -9 -11 -14 -16 -17 -19 -22 -23 -26 0
-3450 4 0
-3450 6 0
-3450 7 0
-3450 9 0
-3450 11 0
-3450 14 0
-3450 16 0
-3450 17 0
-3450 19 0
-3450 22 0
-3450 24 0
-3450 26 0
3450 -4 -6 -7 -9 -11 -14 -16 -17 -19 -22 -24 -26 0
-3451 3 0
-3451 6 0
-3451 7 0
-3451 9 0
-3451 11 0
-3451 14 0
-3451 15 0
-3451 17 0
-3451 19 0
-3451 22 0
-3451 24 0
-3451 26 0
3451 -3 -6 -7 -9 -11 -14 -15 -17 -19 -22 -24 -26 0
-3452 4 0
-3452 6 0
-3452 7 0
-3452 9 0
-3452 11 0
-3452 14 0
-3452 15 0
-3452 17 0
-3452 19 0
-3452 22 0
-3452 24 0
-3452 26 0
3452 -4 -6 -7 -9 -11 -14 -15 -17 -19 -22 -24 -26 0
-3453 3 0
-3453 5 0
-3453 7 0
-3453 9 0
-3453 11 0
-3453 14 0
-3453 15 0
-3453 17 0
-3453 19 0
-3453 22 0
-3453 24 0
-3453 26 0
3453 -3 -5 -7 -9 -11 -14 -15 -17 -19 -22 -24 -26 0
-3454 4 0
-3454 5 0
-3454 7 0
-3454 9 0
-3454 11 0
-3454 14 0
-3454 15 0
-3454 17 0
-3454 19 0
-3454 22 0
-3454 24 0
-3454 26 0
3454 -4 -5 -7 -9 -11 -14 -15 -17 -19 -22 -24 -26 0
-3455 3 0
-3455 5 0
-3455 8 0
-3455 9 0
-3455 11 0
-3455 14 0
-3455 15 0
-3455 17 0
-3455 19 0
-3455 22 0
-3455 24 0
-3455 26 0
3455 -3 -5 -8 -9 -11 -14 -15 -17 -19 -22 -24 -26 0
-3456 4 0
-3456 5 0
-3456 8 0
-3456 9 0
-3456 11 0
-3456 14 0
-3456 15 0
-3456 17 0
-3456 19 0
-3456 22 0
-3456 24 0
-3456 26 0
3456 -4 -5 -8 -9 -11 -14 -15 -17 -19 -22 -24 -26 0
-3457 3 0
-3457 6 0
-3457 8 0
-3457 9 0
-3457 11 0
-3457 14 0
-3457 15 0
-3457 17 0
-3457 19 0
-3457 22 0
-3457 24 0
-3457 26 0
3457 -3 -6 -8 -9 -11 -14 -15 -17 -19 -22 -24 -26 0
-3458 4 0
-3458 6 0
-3458 8 0
-3458 9 0
-3458 11 0
-3458 14 0
-3458 15 0
-3458 17 0
-3458 19 0
-3458 22 0
-3458 24 0
-3458 26 0
3458 -4 -6 -8 -9 -11 -14 -15 -17 -19 -22 -24 -26 0
-3459 3 0
-3459 6 0
-3459 8 0
-3459 10 0
-3459 11 0
-3459 14 0
-3459 15 0
-3459 17 0
-3459 19 0
-3459 22 0
-3459 24 0
-3459 26 0
3459 -3 -6 -8 -10 -11 -14 -15 -17 -19 -22 -24 -26 0
-3460 4 0
-3460 6 0
-3460 8 0
-3460 10 0
-3460 11 0
-3460 14 0
-3460 15 0
-3460 17 0
-3460 19 0
-3460 22 0
-3460 24 0
-3460 26 0
3460 -4 -6 -8 -10 -11 -14 -15 -17 -19 -22 -24 -26 0
-3461 3 0
-3461 5 0
-3461 8 0
-3461 10 0
-3461 11 0
-3461 14 0
-3461 15 0
-3461 17 0
-3461 19 0
-3461 22 0
-3461 24 0
-3461 26 0
3461 -3 -5 -8 -10 -11 -14 -15 -17 -19 -22 -24 -26 0
-3462 4 0
-3462 5 0
-3462 8 0
-3462 10 0
-3462 11 0
-3462 14 0
-3462 15 0
-3462 17 0
-3462 19 0
-3462 22 0
-3462 24 0
-3462 26 0
3462 -4 -5 -8 -10 -11 -14 -15 -17 -19 -22 -24 -26 0
-3463 3 0
-3463 5 0
-3463 7 0
-3463 10 0
-3463 11 0
-3463 14 0
-3463 15 0
-3463 17 0
-3463 19 0
-3463 22 0
-3463 24 0
-3463 26 0
3463 -3 -5 -7 -10 -11 -14 -15 -17 -19 -22 -24 -26 0
-3464 4 0
-3464 5 0
-3464 7 0
-3464 10 0
-3464 11 0
-3464 14 0
-3464 15 0
-3464 17 0
-3464 19 0
-3464 22 0
-3464 24 0
-3464 26 0
3464 -4 -5 -7 -10 -11 -14 -15 -17 -19 -22 -24 -26 0
-3465 3 0
-3465 6 0
-3465 7 0
-3465 10 0
-3465 11 0
-3465 14 0
-3465 15 0
-3465 17 0
-3465 19 0
-3465 22 0
-3465 24 0
-3465 26 0
3465 -3 -6 -7 -10 -11 -14 -15 -17 -19 -22 -24 -26 0
-3466 4 0
-3466 6 0
-3466 7 0
-3466 10 0
-3466 11 0
-3466 14 0
-3466 15 0
-3466 17 0
-3466 19 0
-3466 22 0
-3466 24 0
-3466 26 0
3466 -4 -6 -7 -10 -11 -14 -15 -17 -19 -22 -24 -26 0
-3467 3 0
-3467 6 0
-3467 7 0
-3467 10 0
-3467 12 0
-3467 14 0
-3467 15 0
-3467 17 0
-3467 19 0
-3467 22 0
-3467 24 0
-3467 26 0
3467 -3 -6 -7 -10 -12 -14 -15 -17 -19 -22 -24 -26 0
-3468 4 0
-3468 6 0
-3468 7 0
-3468 10 0
-3468 12 0
-3468 14 0
-3468 15 0
-3468 17 0
-3468 19 0
-3468 22 0
-3468 24 0
-3468 26 0
3468 -4 -6 -7 -10 -12 -14 -15 -17 -19 -22 -24 -26 0
-3469 3 0
-3469 5 0
-3469 7 0
-3469 10 0
-3469 12 0
-3469 14 0
-3469 15 0
-3469 17 0
-3469 19 0
-3469 22 0
-3469 24 0
-3469 26 0
3469 -3 -5 -7 -10 -12 -14 -15 -17 -19 -22 -24 -26 0
-3470 4 0
-3470 6 0
-3470 8 0
-3470 9 0
-3470 12 0
-3470 13 0
-3470 15 0
-3470 17 0
-3470 19 0
-3470 22 0
-3470 23 0
-3470 26 0
3470 -4 -6 -8 -9 -12 -13 -15 -17 -19 -22 -23 -26 0
-3471 4 0
-3471 5 0
-3471 7 0
-3471 10 0
-3471 12 0
-3471 14 0
-3471 15 0
-3471 17 0
-3471 19 0
-3471 22 0
-3471 24 0
-3471 26 0
3471 -4 -5 -7 -10 -12 -14 -15 -17 -19 -22 -24 -26 0
-3472 3 0
-3472 5 0
-3472 8 0
-3472 10 0
-3472 12 0
-3472 14 0
-3472 15 0
-3472 17 0
-3472 19 0
-3472 22 0
-3472 24 0
-3472 26 0
3472 -3 -5 -8 -10 -12 -14 -15 -17 -19 -22 -24 -26 0
-3473 4 0
-3473 5 0
-3473 8 0
-3473 10 0
-3473 12 0
-3473 14 0
-3473 15 0
-3473 17 0
-3473 19 0
-3473 22 0
-3473 24 0
-3473 26 0
3473 -4 -5 -8 -10 -12 -14 -15 -17 -19 -22 -24 -26 0
-3474 3 0
-3474 6 0
-3474 8 0
-3474 10 0
-3474 12 0
-3474 14 0
-3474 15 0
-3474 17 0
-3474 19 0
-3474 22 0
-3474 24 0
-3474 26 0
3474 -3 -6 -8 -10 -12 -14 -15 -17 -19 -22 -24 -26 0
-3475 4 0
-3475 6 0
-3475 8 0
-3475 10 0
-3475 12 0
-3475 13 0
-3475 15 0
-3475 17 0
-3475 19 0
-3475 22 0
-3475 23 0
-3475 26 0
3475 -4 -6 -8 -10 -12 -13 -15 -17 -19 -22 -23 -26 0
-3476 4 0
-3476 6 0
-3476 8 0
-3476 10 0
-3476 12 0
-3476 14 0
-3476 15 0
-3476 17 0
-3476 19 0
-3476 22 0
-3476 24 0
-3476 26 0
3476 -4 -6 -8 -10 -12 -14 -15 -17 -19 -22 -24 -26 0
-3477 3 0
-3477 6 0
-3477 8 0
-3477 9 0
-3477 12 0
-3477 14 0
-3477 15 0
-3477 17 0
-3477 19 0
-3477 22 0
-3477 24 0
-3477 26 0
3477 -3 -6 -8 -9 -12 -14 -15 -17 -19 -22 -24 -26 0
-3478 4 0
-3478 6 0
-3478 8 0
-3478 9 0
-3478 12 0
-3478 14 0
-3478 15 0
-3478 17 0
-3478 19 0
-3478 22 0
-3478 24 0
-3478 26 0
3478 -4 -6 -8 -9 -12 -14 -15 -17 -19 -22 -24 -26 0
-3479 3 0
-3479 5 0
-3479 8 0
-3479 9 0
-3479 12 0
-3479 14 0
-3479 15 0
-3479 17 0
-3479 19 0
-3479 22 0
-3479 24 0
-3479 26 0
3479 -3 -5 -8 -9 -12 -14 -15 -17 -19 -22 -24 -26 0
-3480 4 0
-3480 5 0
-3480 8 0
-3480 9 0
-3480 12 0
-3480 14 0
-3480 15 0
-3480 17 0
-3480 19 0
-3480 22 0
-3480 24 0
-3480 26 0
3480 -4 -5 -8 -9 -12 -14 -15 -17 -19 -22 -24 -26 0
-3481 3 0
-3481 5 0
-3481 7 0
-3481 9 0
-3481 12 0
-3481 14 0
-3481 15 0
-3481 17 0
-3481 19 0
-3481 22 0
-3481 24 0
-3481 26 0
3481 -3 -5 -7 -9 -12 -14 -15 -17 -19 -22 -24 -26 0
-3482 4 0
-3482 5 0
-3482 7 0
-3482 9 0
-3482 12 0
-3482 14 0
-3482 15 0
-3482 17 0
-3482 19 0
-3482 22 0
-3482 24 0
-3482 26 0
3482 -4 -5 -7 -9 -12 -14 -15 -17 -19 -22 -24 -26 0
-3483 3 0
-3483 6 0
-3483 7 0
-3483 9 0
-3483 12 0
-3483 14 0
-3483 15 0
-3483 17 0
-3483 19 0
-3483 22 0
-3483 24 0
-3483 26 0
3483 -3 -6 -7 -9 -12 -14 -15 -17 -19 -22 -24 -26 0
-3484 4 0
-3484 6 0
-3484 7 0
-3484 9 0
-3484 12 0
-3484 14 0
-3484 15 0
-3484 17 0
-3484 19 0
-3484 22 0
-3484 23 0
-3484 26 0
3484 -4 -6 -7 -9 -12 -14 -15 -17 -19 -22 -23 -26 0
-3485 4 0
-3485 6 0
-3485 7 0
-3485 9 0
-3485 12 0
-3485 14 0
-3485 15 0
-3485 17 0
-3485 19 0
-3485 22 0
-3485 24 0
-3485 26 0
3485 -4 -6 -7 -9 -12 -14 -15 -17 -19 -22 -24 -26 0
-3486 3 0
-3486 6 0
-3486 7 0
-3486 9 0
-3486 12 0
-3486 13 0
-3486 15 0
-3486 17 0
-3486 19 0
-3486 22 0
-3486 24 0
-3486 26 0
3486 -3 -6 -7 -9 -12 -13 -15 -17 -19 -22 -24 -26 0
-3487 4 0
-3487 6 0
-3487 7 0
-3487 9 0
-3487 12 0
-3487 13 0
-3487 15 0
-3487 17 0
-3487 19 0
-3487 22 0
-3487 24 0
-3487 26 0
3487 -4 -6 -7 -9 -12 -13 -15 -17 -19 -22 -24 -26 0
-3488 3 0
-3488 5 0
-3488 7 0
-3488 9 0
-3488 12 0
-3488 13 0
-3488 15 0
-3488 17 0
-3488 19 0
-3488 22 0
-3488 24 0
-3488 26 0
3488 -3 -5 -7 -9 -12 -13 -15 -17 -19 -22 -24 -26 0
-3489 4 0
-3489 5 0
-3489 7 0
-3489 9 0
-3489 12 0
-3489 13 0
-3489 15 0
-3489 17 0
-3489 19 0
-3489 22 0
-3489 24 0
-3489 26 0
3489 -4 -5 -7 -9 -12 -13 -15 -17 -19 -22 -24 -26 0
-3490 3 0
-3490 5 0
-3490 8 0
-3490 9 0
-3490 12 0
-3490 13 0
-3490 15 0
-3490 17 0
-3490 19 0
-3490 22 0
-3490 24 0
-3490 26 0
3490 -3 -5 -8 -9 -12 -13 -15 -17 -19 -22 -24 -26 0
-3491 4 0
-3491 5 0
-3491 8 0
-3491 9 0
-3491 12 0
-3491 13 0
-3491 15 0
-3491 17 0
-3491 19 0
-3491 22 0
-3491 24 0
-3491 26 0
3491 -4 -5 -8 -9 -12 -13 -15 -17 -19 -22 -24 -26 0
-3492 3 0
-3492 6 0
-3492 8 0
-3492 9 0
-3492 12 0
-3492 13 0
-3492 15 0
-3492 17 0
-3492 19 0
-3492 22 0
-3492 24 0
-3492 26 0
3492 -3 -6 -8 -9 -12 -13 -15 -17 -19 -22 -24 -26 0
-3493 4 0
-3493 6 0
-3493 8 0
-3493 9 0
-3493 12 0
-3493 13 0
-3493 15 0
-3493 17 0
-3493 19 0
-3493 22 0
-3493 24 0
-3493 26 0
3493 -4 -6 -8 -9 -12 -13 -15 -17 -19 -22 -24 -26 0
-3494 3 0
-3494 6 0
-3494 8 0
-3494 10 0
-3494 12 0
-3494 13 0
-3494 15 0
-3494 17 0
-3494 19 0
-3494 22 0
-3494 24 0
-3494 26 0
3494 -3 -6 -8 -10 -12 -13 -15 -17 -19 -22 -24 -26 0
-3495 4 0
-3495 6 0
-3495 8 0
-3495 10 0
-3495 12 0
-3495 13 0
-3495 15 0
-3495 17 0
-3495 19 0
-3495 22 0
-3495 24 0
-3495 26 0
3495 -4 -6 -8 -10 -12 -13 -15 -17 -19 -22 -24 -26 0
-3496 3 0
-3496 5 0
-3496 8 0
-3496 10 0
-3496 12 0
-3496 13 0
-3496 15 0
-3496 17 0
-3496 19 0
-3496 22 0
-3496 24 0
-3496 26 0
3496 -3 -5 -8 -10 -12 -13 -15 -17 -19 -22 -24 -26 0
-3497 4 0
-3497 5 0
-3497 8 0
-3497 10 0
-3497 12 0
-3497 13 0
-3497 15 0
-3497 17 0
-3497 19 0
-3497 22 0
-3497 24 0
-3497 26 0
3497 -4 -5 -8 -10 -12 -13 -15 -17 -19 -22 -24 -26 0
-3498 3 0
-3498 5 0
-3498 7 0
-3498 10 0
-3498 12 0
-3498 13 0
-3498 15 0
-3498 17 0
-3498 19 0
-3498 22 0
-3498 24 0
-3498 26 0
3498 -3 -5 -7 -10 -12 -13 -15 -17 -19 -22 -24 -26 0
-3499 4 0
-3499 5 0
-3499 7 0
-3499 10 0
-3499 12 0
-3499 13 0
-3499 15 0
-3499 17 0
-3499 19 0
-3499 22 0
-3499 24 0
-3499 26 0
3499 -4 -5 -7 -10 -12 -13 -15 -17 -19 -22 -24 -26 0
-3500 3 0
-3500 6 0
-3500 7 0
-3500 10 0
-3500 12 0
-3500 13 0
-3500 15 0
-3500 17 0
-3500 19 0
-3500 22 0
-3500 24 0
-3500 26 0
3500 -3 -6 -7 -10 -12 -13 -15 -17 -19 -22 -24 -26 0
-3501 4 0
-3501 6 0
-3501 7 0
-3501 10 0
-3501 12 0
-3501 13 0
-3501 15 0
-3501 17 0
-3501 19 0
-3501 22 0
-3501 23 0
-3501 26 0
3501 -4 -6 -7 -10 -12 -13 -15 -17 -19 -22 -23 -26 0
-3502 4 0
-3502 6 0
-3502 7 0
-3502 10 0
-3502 12 0
-3502 13 0
-3502 15 0
-3502 17 0
-3502 19 0
-3502 22 0
-3502 24 0
-3502 26 0
3502 -4 -6 -7 -10 -12 -13 -15 -17 -19 -22 -24 -26 0
-3503 3 0
-3503 6 0
-3503 7 0
-3503 10 0
-3503 11 0
-3503 13 0
-3503 15 0
-3503 17 0
-3503 19 0
-3503 22 0
-3503 24 0
-3503 26 0
3503 -3 -6 -7 -10 -11 -13 -15 -17 -19 -22 -24 -26 0
-3504 4 0
-3504 6 0
-3504 7 0
-3504 10 0
-3504 11 0
-3504 13 0
-3504 15 0
-3504 17 0
-3504 19 0
-3504 22 0
-3504 24 0
-3504 26 0
3504 -4 -6 -7 -10 -11 -13 -15 -17 -19 -22 -24 -26 0
-3505 3 0
-3505 5 0
-3505 7 0
-3505 10 0
-3505 11 0
-3505 13 0
-3505 15 0
-3505 17 0
-3505 19 0
-3505 22 0
-3505 24 0
-3505 26 0
3505 -3 -5 -7 -10 -11 -13 -15 -17 -19 -22 -24 -26 0
-3506 4 0
-3506 6 0
-3506 8 0
-3506 9 0
-3506 11 0
-3506 13 0
-3506 15 0
-3506 17 0
-3506 19 0
-3506 22 0
-3506 23 0
-3506 26 0
3506 -4 -6 -8 -9 -11 -13 -15 -17 -19 -22 -23 -26 0
-3507 4 0
-3507 5 0
-3507 7 0
-3507 10 0
-3507 11 0
-3507 13 0
-3507 15 0
-3507 17 0
-3507 19 0
-3507 22 0
-3507 24 0
-3507 26 0
3507 -4 -5 -7 -10 -11 -13 -15 -17 -19 -22 -24 -26 0
-3508 3 0
-3508 5 0
-3508 8 0
-3508 10 0
-3508 11 0
-3508 13 0
-3508 15 0
-3508 17 0
-3508 19 0
-3508 22 0
-3508 24 0
-3508 26 0
3508 -3 -5 -8 -10 -11 -13 -15 -17 -19 -22 -24 -26 0
-3509 4 0
-3509 5 0
-3509 8 0
-3509 10 0
-3509 11 0
-3509 13 0
-3509 15 0
-3509 17 0
-3509 19 0
-3509 22 0
-3509 24 0
-3509 26 0
3509 -4 -5 -8 -10 -11 -13 -15 -17 -19 -22 -24 -26 0
-3510 3 0
-3510 6 0
-3510 8 0
-3510 10 0
-3510 11 0
-3510 13 0
-3510 15 0
-3510 17 0
-3510 19 0
-3510 22 0
-3510 24 0
-3510 26 0
3510 -3 -6 -8 -10 -11 -13 -15 -17 -19 -22 -24 -26 0
-3511 4 0
-3511 6 0
-3511 8 0
-3511 10 0
-3511 11 0
-3511 13 0
-3511 15 0
-3511 17 0
-3511 19 0
-3511 22 0
-3511 23 0
-3511 26 0
3511 -4 -6 -8 -10 -11 -13 -15 -17 -19 -22 -23 -26 0
-3512 4 0
-3512 6 0
-3512 8 0
-3512 10 0
-3512 11 0
-3512 13 0
-3512 15 0
-3512 17 0
-3512 19 0
-3512 22 0
-3512 24 0
-3512 26 0
3512 -4 -6 -8 -10 -11 -13 -15 -17 -19 -22 -24 -26 0
-3513 3 0
-3513 6 0
-3513 8 0
-3513 9 0
-3513 11 0
-3513 13 0
-3513 15 0
-3513 17 0
-3513 19 0
-3513 22 0
-3513 24 0
-3513 26 0
3513 -3 -6 -8 -9 -11 -13 -15 -17 -19 -22 -24 -26 0
-3514 4 0
-3514 6 0
-3514 8 0
-3514 9 0
-3514 11 0
-3514 13 0
-3514 15 0
-3514 17 0
-3514 19 0
-3514 22 0
-3514 24 0
-3514 26 0
3514 -4 -6 -8 -9 -11 -13 -15 -17 -19 -22 -24 -26 0
-3515 3 0
-3515 5 0
-3515 8 0
-3515 9 0
-3515 11 0
-3515 13 0
-3515 15 0
-3515 17 0
-3515 19 0
-3515 22 0
-3515 24 0
-3515 26 0
3515 -3 -5 -8 -9 -11 -13 -15 -17 -19 -22 -24 -26 0
-3516 4 0
-3516 6 0
-3516 7 0
-3516 9 0
-3516 11 0
-3516 13 0
-3516 15 0
-3516 17 0
-3516 19 0
-3516 22 0
-3516 23 0
-3516 26 0
3516 -4 -6 -7 -9 -11 -13 -15 -17 -19 -22 -23 -26 0
-3517 4 0
-3517 5 0
-3517 8 0
-3517 9 0
-3517 11 0
-3517 13 0
-3517 15 0
-3517 17 0
-3517 19 0
-3517 22 0
-3517 24 0
-3517 26 0
3517 -4 -5 -8 -9 -11 -13 -15 -17 -19 -22 -24 -26 0
-3518 3 0
-3518 5 0
-3518 7 0
-3518 9 0
-3518 11 0
-3518 13 0
-3518 15 0
-3518 17 0
-3518 19 0
-3518 22 0
-3518 24 0
-3518 26 0
3518 -3 -5 -7 -9 -11 -13 -15 -17 -19 -22 -24 -26 0
-3519 4 0
-3519 5 0
-3519 7 0
-3519 9 0
-3519 11 0
-3519 13 0
-3519 15 0
-3519 17 0
-3519 19 0
-3519 22 0
-3519 24 0
-3519 26 0
3519 -4 -5 -7 -9 -11 -13 -15 -17 -19 -22 -24 -26 0
-3520 3 0
-3520 6 0
-3520 7 0
-3520 9 0
-3520 11 0
-3520 13 0
-3520 15 0
-3520 17 0
-3520 19 0
-3520 22 0
-3520 24 0
-3520 26 0
3520 -3 -6 -7 -9 -11 -13 -15 -17 -19 -22 -24 -26 0
-3521 4 0
-3521 6 0
-3521 7 0
-3521 9 0
-3521 11 0
-3521 13 0
-3521 15 0
-3521 17 0
-3521 19 0
-3521 22 0
-3521 24 0
-3521 26 0
3521 -4 -6 -7 -9 -11 -13 -15 -17 -19 -22 -24 -26 0
-3522 3 0
-3522 6 0
-3522 8 0
-3522 10 0
-3522 11 0
-3522 13 0
-3522 15 0
-3522 17 0
-3522 19 0
-3522 22 0
-3522 23 0
-3522 26 0
3522 -3 -6 -8 -10 -11 -13 -15 -17 -19 -22 -23 -26 0
-3523 4 0
-3523 6 0
-3523 8 0
-3523 10 0
-3523 12 0
-3523 14 0
-3523 16 0
-3523 18 0
-3523 19 0
-3523 22 0
-3523 23 0
-3523 26 0
3523 -4 -6 -8 -10 -12 -14 -16 -18 -19 -22 -23 -26 0
-3524 4 0
-3524 6 0
-3524 8 0
-3524 10 0
-3524 12 0
-3524 14 0
-3524 16 0
-3524 18 0
-3524 19 0
-3524 21 0
-3524 23 0
-3524 26 0
3524 -4 -6 -8 -10 -12 -14 -16 -18 -19 -21 -23 -26 0
-3525 3 0
-3525 5 0
-3525 8 0
-3525 10 0
-3525 11 0
-3525 13 0
-3525 15 0
-3525 17 0
-3525 19 0
-3525 22 0
-3525 23 0
-3525 26 0
3525 -3 -5 -8 -10 -11 -13 -15 -17 -19 -22 -23 -26 0
-3526 3 0
-3526 6 0
-3526 7 0
-3526 10 0
-3526 12 0
-3526 13 0
-3526 15 0
-3526 17 0
-3526 19 0
-3526 22 0
-3526 23 0
-3526 26 0
3526 -3 -6 -7 -10 -12 -13 -15 -17 -19 -22 -23 -26 0
-3527 3 0
-3527 5 0
-3527 7 0
-3527 10 0
-3527 12 0
-3527 13 0
-3527 15 0
-3527 17 0
-3527 19 0
-3527 22 0
-3527 23 0
-3527 26 0
3527 -3 -5 -7 -10 -12 -13 -15 -17 -19 -22 -23 -26 0
-3528 4 0
-3528 5 0
-3528 7 0
-3528 10 0
-3528 12 0
-3528 13 0
-3528 15 0
-3528 17 0
-3528 19 0
-3528 22 0
-3528 23 0
-3528 26 0
3528 -4 -5 -7 -10 -12 -13 -15 -17 -19 -22 -23 -26 0
-3529 3 0
-3529 5 0
-3529 8 0
-3529 10 0
-3529 12 0
-3529 13 0
-3529 15 0
-3529 17 0
-3529 19 0
-3529 22 0
-3529 23 0
-3529 26 0
3529 -3 -5 -8 -10 -12 -13 -15 -17 -19 -22 -23 -26 0
-3530 4 0
-3530 5 0
-3530 8 0
-3530 10 0
-3530 12 0
-3530 13 0
-3530 15 0
-3530 17 0
-3530 19 0
-3530 22 0
-3530 23 0
-3530 26 0
3530 -4 -5 -8 -10 -12 -13 -15 -17 -19 -22 -23 -26 0
-3531 3 0
-3531 6 0
-3531 8 0
-3531 10 0
-3531 12 0
-3531 13 0
-3531 15 0
-3531 17 0
-3531 19 0
-3531 22 0
-3531 23 0
-3531 26 0
3531 -3 -6 -8 -10 -12 -13 -15 -17 -19 -22 -23 -26 0
-3532 3 0
-3532 6 0
-3532 7 0
-3532 9 0
-3532 12 0
-3532 14 0
-3532 15 0
-3532 17 0
-3532 19 0
-3532 22 0
-3532 23 0
-3532 26 0
3532 -3 -6 -7 -9 -12 -14 -15 -17 -19 -22 -23 -26 0
-3533 3 0
-3533 5 0
-3533 7 0
-3533 9 0
-3533 12 0
-3533 14 0
-3533 15 0
-3533 17 0
-3533 19 0
-3533 22 0
-3533 23 0
-3533 26 0
3533 -3 -5 -7 -9 -12 -14 -15 -17 -19 -22 -23 -26 0
-3534 4 0
-3534 5 0
-3534 7 0
-3534 9 0
-3534 12 0
-3534 14 0
-3534 15 0
-3534 17 0
-3534 19 0
-3534 22 0
-3534 23 0
-3534 26 0
3534 -4 -5 -7 -9 -12 -14 -15 -17 -19 -22 -23 -26 0
-3535 3 0
-3535 5 0
-3535 8 0
-3535 9 0
-3535 12 0
-3535 14 0
-3535 15 0
-3535 17 0
-3535 19 0
-3535 22 0
-3535 23 0
-3535 26 0
3535 -3 -5 -8 -9 -12 -14 -15 -17 -19 -22 -23 -26 0
-3536 4 0
-3536 5 0
-3536 8 0
-3536 9 0
-3536 12 0
-3536 14 0
-3536 15 0
-3536 17 0
-3536 19 0
-3536 22 0
-3536 23 0
-3536 26 0
3536 -4 -5 -8 -9 -12 -14 -15 -17 -19 -22 -23 -26 0
-3537 3 0
-3537 6 0
-3537 8 0
-3537 9 0
-3537 12 0
-3537 14 0
-3537 15 0
-3537 17 0
-3537 19 0
-3537 22 0
-3537 23 0
-3537 26 0
3537 -3 -6 -8 -9 -12 -14 -15 -17 -19 -22 -23 -26 0
-3538 4 0
-3538 6 0
-3538 8 0
-3538 9 0
-3538 12 0
-3538 14 0
-3538 15 0
-3538 17 0
-3538 19 0
-3538 22 0
-3538 23 0
-3538 26 0
3538 -4 -6 -8 -9 -12 -14 -15 -17 -19 -22 -23 -26 0
-3539 3 0
-3539 6 0
-3539 8 0
-3539 10 0
-3539 12 0
-3539 14 0
-3539 15 0
-3539 17 0
-3539 19 0
-3539 22 0
-3539 23 0
-3539 26 0
3539 -3 -6 -8 -10 -12 -14 -15 -17 -19 -22 -23 -26 0
-3540 4 0
-3540 6 0
-3540 8 0
-3540 10 0
-3540 12 0
-3540 14 0
-3540 15 0
-3540 17 0
-3540 19 0
-3540 22 0
-3540 23 0
-3540 26 0
3540 -4 -6 -8 -10 -12 -14 -15 -17 -19 -22 -23 -26 0
-3541 3 0
-3541 5 0
-3541 8 0
-3541 10 0
-3541 12 0
-3541 14 0
-3541 15 0
-3541 17 0
-3541 19 0
-3541 22 0
-3541 23 0
-3541 26 0
3541 -3 -5 -8 -10 -12 -14 -15 -17 -19 -22 -23 -26 0
-3542 4 0
-3542 5 0
-3542 8 0
-3542 10 0
-3542 12 0
-3542 14 0
-3542 15 0
-3542 17 0
-3542 19 0
-3542 22 0
-3542 23 0
-3542 26 0
3542 -4 -5 -8 -10 -12 -14 -15 -17 -19 -22 -23 -26 0
-3543 3 0
-3543 5 0
-3543 7 0
-3543 10 0
-3543 12 0
-3543 14 0
-3543 15 0
-3543 17 0
-3543 19 0
-3543 22 0
-3543 23 0
-3543 26 0
3543 -3 -5 -7 -10 -12 -14 -15 -17 -19 -22 -23 -26 0
-3544 4 0
-3544 5 0
-3544 7 0
-3544 10 0
-3544 12 0
-3544 14 0
-3544 15 0
-3544 17 0
-3544 19 0
-3544 22 0
-3544 23 0
-3544 26 0
3544 -4 -5 -7 -10 -12 -14 -15 -17 -19 -22 -23 -26 0
-3545 3 0
-3545 6 0
-3545 7 0
-3545 10 0
-3545 12 0
-3545 14 0
-3545 15 0
-3545 17 0
-3545 19 0
-3545 22 0
-3545 23 0
-3545 26 0
3545 -3 -6 -7 -10 -12 -14 -15 -17 -19 -22 -23 -26 0
-3546 3 0
-3546 5 0
-3546 8 0
-3546 10 0
-3546 11 0
-3546 14 0
-3546 15 0
-3546 17 0
-3546 19 0
-3546 22 0
-3546 23 0
-3546 26 0
3546 -3 -5 -8 -10 -11 -14 -15 -17 -19 -22 -23 -26 0
-3547 3 0
-3547 6 0
-3547 8 0
-3547 10 0
-3547 11 0
-3547 14 0
-3547 15 0
-3547 17 0
-3547 19 0
-3547 22 0
-3547 23 0
-3547 26 0
3547 -3 -6 -8 -10 -11 -14 -15 -17 -19 -22 -23 -26 0
-3548 3 0
-3548 6 0
-3548 7 0
-3548 9 0
-3548 11 0
-3548 14 0
-3548 16 0
-3548 17 0
-3548 19 0
-3548 22 0
-3548 23 0
-3548 26 0
3548 -3 -6 -7 -9 -11 -14 -16 -17 -19 -22 -23 -26 0
-3549 3 0
-3549 5 0
-3549 7 0
-3549 9 0
-3549 11 0
-3549 14 0
-3549 16 0
-3549 17 0
-3549 19 0
-3549 22 0
-3549 23 0
-3549 26 0
3549 -3 -5 -7 -9 -11 -14 -16 -17 -19 -22 -23 -26 0
-3550 4 0
-3550 5 0
-3550 7 0
-3550 9 0
-3550 11 0
-3550 14 0
-3550 16 0
-3550 17 0
-3550 19 0
-3550 22 0
-3550 23 0
-3550 26 0
3550 -4 -5 -7 -9 -11 -14 -16 -17 -19 -22 -23 -26 0
-3551 3 0
-3551 5 0
-3551 8 0
-3551 9 0
-3551 11 0
-3551 14 0
-3551 16 0
-3551 17 0
-3551 19 0
-3551 22 0
-3551 23 0
-3551 26 0
3551 -3 -5 -8 -9 -11 -14 -16 -17 -19 -22 -23 -26 0
-3552 4 0
-3552 5 0
-3552 8 0
-3552 9 0
-3552 11 0
-3552 14 0
-3552 16 0
-3552 17 0
-3552 19 0
-3552 22 0
-3552 23 0
-3552 26 0
3552 -4 -5 -8 -9 -11 -14 -16 -17 -19 -22 -23 -26 0
-3553 3 0
-3553 6 0
-3553 8 0
-3553 9 0
-3553 11 0
-3553 14 0
-3553 16 0
-3553 17 0
-3553 19 0
-3553 22 0
-3553 23 0
-3553 26 0
3553 -3 -6 -8 -9 -11 -14 -16 -17 -19 -22 -23 -26 0
-3554 4 0
-3554 6 0
-3554 8 0
-3554 9 0
-3554 11 0
-3554 14 0
-3554 16 0
-3554 17 0
-3554 19 0
-3554 22 0
-3554 23 0
-3554 26 0
3554 -4 -6 -8 -9 -11 -14 -16 -17 -19 -22 -23 -26 0
-3555 3 0
-3555 6 0
-3555 8 0
-3555 10 0
-3555 11 0
-3555 14 0
-3555 16 0
-3555 17 0
-3555 19 0
-3555 22 0
-3555 23 0
-3555 26 0
3555 -3 -6 -8 -10 -11 -14 -16 -17 -19 -22 -23 -26 0
-3556 4 0
-3556 6 0
-3556 8 0
-3556 10 0
-3556 11 0
-3556 14 0
-3556 16 0
-3556 17 0
-3556 19 0
-3556 22 0
-3556 23 0
-3556 26 0
3556 -4 -6 -8 -10 -11 -14 -16 -17 -19 -22 -23 -26 0
-3557 3 0
-3557 5 0
-3557 8 0
-3557 10 0
-3557 11 0
-3557 14 0
-3557 16 0
-3557 17 0
-3557 19 0
-3557 22 0
-3557 23 0
-3557 26 0
3557 -3 -5 -8 -10 -11 -14 -16 -17 -19 -22 -23 -26 0
-3558 4 0
-3558 5 0
-3558 8 0
-3558 10 0
-3558 11 0
-3558 14 0
-3558 16 0
-3558 17 0
-3558 19 0
-3558 22 0
-3558 23 0
-3558 26 0
3558 -4 -5 -8 -10 -11 -14 -16 -17 -19 -22 -23 -26 0
-3559 3 0
-3559 5 0
-3559 7 0
-3559 10 0
-3559 11 0
-3559 14 0
-3559 16 0
-3559 17 0
-3559 19 0
-3559 22 0
-3559 23 0
-3559 26 0
3559 -3 -5 -7 -10 -11 -14 -16 -17 -19 -22 -23 -26 0
-3560 4 0
-3560 5 0
-3560 7 0
-3560 10 0
-3560 11 0
-3560 14 0
-3560 16 0
-3560 17 0
-3560 19 0
-3560 22 0
-3560 23 0
-3560 26 0
3560 -4 -5 -7 -10 -11 -14 -16 -17 -19 -22 -23 -26 0
-3561 3 0
-3561 6 0
-3561 7 0
-3561 10 0
-3561 11 0
-3561 14 0
-3561 16 0
-3561 17 0
-3561 19 0
-3561 22 0
-3561 23 0
-3561 26 0
3561 -3 -6 -7 -10 -11 -14 -16 -17 -19 -22 -23 -26 0
-3562 4 0
-3562 6 0
-3562 7 0
-3562 10 0
-3562 11 0
-3562 14 0
-3562 16 0
-3562 17 0
-3562 19 0
-3562 22 0
-3562 23 0
-3562 26 0
3562 -4 -6 -7 -10 -11 -14 -16 -17 -19 -22 -23 -26 0
-3563 3 0
-3563 6 0
-3563 7 0
-3563 10 0
-3563 12 0
-3563 14 0
-3563 16 0
-3563 17 0
-3563 19 0
-3563 22 0
-3563 23 0
-3563 26 0
3563 -3 -6 -7 -10 -12 -14 -16 -17 -19 -22 -23 -26 0
-3564 4 0
-3564 6 0
-3564 7 0
-3564 10 0
-3564 12 0
-3564 14 0
-3564 16 0
-3564 17 0
-3564 19 0
-3564 22 0
-3564 23 0
-3564 26 0
3564 -4 -6 -7 -10 -12 -14 -16 -17 -19 -22 -23 -26 0
-3565 3 0
-3565 5 0
-3565 7 0
-3565 10 0
-3565 12 0
-3565 14 0
-3565 16 0
-3565 17 0
-3565 19 0
-3565 22 0
-3565 23 0
-3565 26 0
3565 -3 -5 -7 -10 -12 -14 -16 -17 -19 -22 -23 -26 0
-3566 4 0
-3566 5 0
-3566 7 0
-3566 10 0
-3566 12 0
-3566 14 0
-3566 16 0
-3566 17 0
-3566 19 0
-3566 22 0
-3566 23 0
-3566 26 0
3566 -4 -5 -7 -10 -12 -14 -16 -17 -19 -22 -23 -26 0
-3567 3 0
-3567 5 0
-3567 8 0
-3567 10 0
-3567 12 0
-3567 14 0
-3567 16 0
-3567 17 0
-3567 19 0
-3567 22 0
-3567 23 0
-3567 26 0
3567 -3 -5 -8 -10 -12 -14 -16 -17 -19 -22 -23 -26 0
-3568 4 0
-3568 5 0
-3568 8 0
-3568 10 0
-3568 12 0
-3568 14 0
-3568 16 0
-3568 17 0
-3568 19 0
-3568 22 0
-3568 23 0
-3568 26 0
3568 -4 -5 -8 -10 -12 -14 -16 -17 -19 -22 -23 -26 0
-3569 3 0
-3569 6 0
-3569 8 0
-3569 10 0
-3569 12 0
-3569 14 0
-3569 16 0
-3569 17 0
-3569 19 0
-3569 22 0
-3569 23 0
-3569 26 0
3569 -3 -6 -8 -10 -12 -14 -16 -17 -19 -22 -23 -26 0
-3570 4 0
-3570 6 0
-3570 8 0
-3570 10 0
-3570 12 0
-3570 14 0
-3570 16 0
-3570 17 0
-3570 19 0
-3570 22 0
-3570 23 0
-3570 26 0
3570 -4 -6 -8 -10 -12 -14 -16 -17 -19 -22 -23 -26 0
-3571 3 0
-3571 6 0
-3571 8 0
-3571 9 0
-3571 12 0
-3571 14 0
-3571 16 0
-3571 17 0
-3571 19 0
-3571 22 0
-3571 23 0
-3571 26 0
3571 -3 -6 -8 -9 -12 -14 -16 -17 -19 -22 -23 -26 0
-3572 4 0
-3572 6 0
-3572 8 0
-3572 9 0
-3572 12 0
-3572 14 0
-3572 16 0
-3572 17 0
-3572 19 0
-3572 22 0
-3572 23 0
-3572 26 0
3572 -4 -6 -8 -9 -12 -14 -16 -17 -19 -22 -23 -26 0
-3573 3 0
-3573 5 0
-3573 8 0
-3573 9 0
-3573 12 0
-3573 14 0
-3573 16 0
-3573 17 0
-3573 19 0
-3573 22 0
-3573 23 0
-3573 26 0
3573 -3 -5 -8 -9 -12 -14 -16 -17 -19 -22 -23 -26 0
-3574 4 0
-3574 5 0
-3574 8 0
-3574 9 0
-3574 12 0
-3574 14 0
-3574 16 0
-3574 17 0
-3574 19 0
-3574 22 0
-3574 23 0
-3574 26 0
3574 -4 -5 -8 -9 -12 -14 -16 -17 -19 -22 -23 -26 0
-3575 3 0
-3575 5 0
-3575 7 0
-3575 9 0
-3575 12 0
-3575 14 0
-3575 16 0
-3575 17 0
-3575 19 0
-3575 22 0
-3575 23 0
-3575 26 0
3575 -3 -5 -7 -9 -12 -14 -16 -17 -19 -22 -23 -26 0
-3576 4 0
-3576 5 0
-3576 7 0
-3576 9 0
-3576 12 0
-3576 14 0
-3576 16 0
-3576 17 0
-3576 19 0
-3576 22 0
-3576 23 0
-3576 26 0
3576 -4 -5 -7 -9 -12 -14 -16 -17 -19 -22 -23 -26 0
-3577 3 0
-3577 6 0
-3577 7 0
-3577 9 0
-3577 12 0
-3577 14 0
-3577 16 0
-3577 17 0
-3577 19 0
-3577 22 0
-3577 23 0
-3577 26 0
3577 -3 -6 -7 -9 -12 -14 -16 -17 -19 -22 -23 -26 0
-3578 3 0
-3578 6 0
-3578 8 0
-3578 10 0
-3578 12 0
-3578 13 0
-3578 16 0
-3578 17 0
-3578 19 0
-3578 22 0
-3578 23 0
-3578 26 0
3578 -3 -6 -8 -10 -12 -13 -16 -17 -19 -22 -23 -26 0
-3579 3 0
-3579 5 0
-3579 8 0
-3579 10 0
-3579 12 0
-3579 13 0
-3579 16 0
-3579 17 0
-3579 19 0
-3579 22 0
-3579 23 0
-3579 26 0
3579 -3 -5 -8 -10 -12 -13 -16 -17 -19 -22 -23 -26 0
-3580 4 0
-3580 5 0
-3580 8 0
-3580 10 0
-3580 12 0
-3580 13 0
-3580 16 0
-3580 17 0
-3580 19 0
-3580 22 0
-3580 23 0
-3580 26 0
3580 -4 -5 -8 -10 -12 -13 -16 -17 -19 -22 -23 -26 0
-3581 3 0
-3581 5 0
-3581 7 0
-3581 10 0
-3581 12 0
-3581 13 0
-3581 16 0
-3581 17 0
-3581 19 0
-3581 22 0
-3581 23 0
-3581 26 0
3581 -3 -5 -7 -10 -12 -13 -16 -17 -19 -22 -23 -26 0
-3582 4 0
-3582 5 0
-3582 7 0
-3582 10 0
-3582 12 0
-3582 13 0
-3582 16 0
-3582 17 0
-3582 19 0
-3582 22 0
-3582 23 0
-3582 26 0
3582 -4 -5 -7 -10 -12 -13 -16 -17 -19 -22 -23 -26 0
-3583 3 0
-3583 6 0
-3583 7 0
-3583 10 0
-3583 12 0
-3583 13 0
-3583 16 0
-3583 17 0
-3583 19 0
-3583 22 0
-3583 23 0
-3583 26 0
3583 -3 -6 -7 -10 -12 -13 -16 -17 -19 -22 -23 -26 0
-3584 3 0
-3584 5 0
-3584 8 0
-3584 10 0
-3584 11 0
-3584 13 0
-3584 16 0
-3584 17 0
-3584 19 0
-3584 22 0
-3584 23 0
-3584 26 0
3584 -3 -5 -8 -10 -11 -13 -16 -17 -19 -22 -23 -26 0
-3585 3 0
-3585 6 0
-3585 8 0
-3585 10 0
-3585 11 0
-3585 13 0
-3585 16 0
-3585 17 0
-3585 19 0
-3585 22 0
-3585 23 0
-3585 26 0
3585 -3 -6 -8 -10 -11 -13 -16 -17 -19 -22 -23 -26 0
-3586 3 0
-3586 6 0
-3586 7 0
-3586 9 0
-3586 11 0
-3586 13 0
-3586 16 0
-3586 18 0
-3586 19 0
-3586 22 0
-3586 23 0
-3586 26 0
3586 -3 -6 -7 -9 -11 -13 -16 -18 -19 -22 -23 -26 0
-3587 3 0
-3587 5 0
-3587 7 0
-3587 9 0
-3587 11 0
-3587 13 0
-3587 16 0
-3587 18 0
-3587 19 0
-3587 22 0
-3587 23 0
-3587 26 0
3587 -3 -5 -7 -9 -11 -13 -16 -18 -19 -22 -23 -26 0
-3588 4 0
-3588 5 0
-3588 7 0
-3588 9 0
-3588 11 0
-3588 13 0
-3588 16 0
-3588 18 0
-3588 19 0
-3588 22 0
-3588 23 0
-3588 26 0
3588 -4 -5 -7 -9 -11 -13 -16 -18 -19 -22 -23 -26 0
-3589 3 0
-3589 5 0
-3589 8 0
-3589 9 0
-3589 11 0
-3589 13 0
-3589 16 0
-3589 18 0
-3589 19 0
-3589 22 0
-3589 23 0
-3589 26 0
3589 -3 -5 -8 -9 -11 -13 -16 -18 -19 -22 -23 -26 0
-3590 4 0
-3590 5 0
-3590 8 0
-3590 9 0
-3590 11 0
-3590 13 0
-3590 16 0
-3590 18 0
-3590 19 0
-3590 22 0
-3590 23 0
-3590 26 0
3590 -4 -5 -8 -9 -11 -13 -16 -18 -19 -22 -23 -26 0
-3591 3 0
-3591 6 0
-3591 8 0
-3591 9 0
-3591 11 0
-3591 13 0
-3591 16 0
-3591 18 0
-3591 19 0
-3591 22 0
-3591 23 0
-3591 26 0
3591 -3 -6 -8 -9 -11 -13 -16 -18 -19 -22 -23 -26 0
-3592 4 0
-3592 6 0
-3592 8 0
-3592 9 0
-3592 11 0
-3592 13 0
-3592 16 0
-3592 18 0
-3592 19 0
-3592 22 0
-3592 23 0
-3592 26 0
3592 -4 -6 -8 -9 -11 -13 -16 -18 -19 -22 -23 -26 0
-3593 3 0
-3593 6 0
-3593 8 0
-3593 10 0
-3593 11 0
-3593 13 0
-3593 16 0
-3593 18 0
-3593 19 0
-3593 22 0
-3593 23 0
-3593 26 0
3593 -3 -6 -8 -10 -11 -13 -16 -18 -19 -22 -23 -26 0
-3594 4 0
-3594 6 0
-3594 8 0
-3594 10 0
-3594 11 0
-3594 13 0
-3594 16 0
-3594 18 0
-3594 19 0
-3594 22 0
-3594 23 0
-3594 26 0
3594 -4 -6 -8 -10 -11 -13 -16 -18 -19 -22 -23 -26 0
-3595 3 0
-3595 5 0
-3595 8 0
-3595 10 0
-3595 11 0
-3595 13 0
-3595 16 0
-3595 18 0
-3595 19 0
-3595 22 0
-3595 23 0
-3595 26 0
3595 -3 -5 -8 -10 -11 -13 -16 -18 -19 -22 -23 -26 0
-3596 4 0
-3596 5 0
-3596 8 0
-3596 10 0
-3596 11 0
-3596 13 0
-3596 16 0
-3596 18 0
-3596 19 0
-3596 22 0
-3596 23 0
-3596 26 0
3596 -4 -5 -8 -10 -11 -13 -16 -18 -19 -22 -23 -26 0
-3597 3 0
-3597 5 0
-3597 7 0
-3597 10 0
-3597 11 0
-3597 13 0
-3597 16 0
-3597 18 0
-3597 19 0
-3597 22 0
-3597 23 0
-3597 26 0
3597 -3 -5 -7 -10 -11 -13 -16 -18 -19 -22 -23 -26 0
-3598 4 0
-3598 5 0
-3598 7 0
-3598 10 0
-3598 11 0
-3598 13 0
-3598 16 0
-3598 18 0
-3598 19 0
-3598 22 0
-3598 23 0
-3598 26 0
3598 -4 -5 -7 -10 -11 -13 -16 -18 -19 -22 -23 -26 0
-3599 3 0
-3599 6 0
-3599 7 0
-3599 10 0
-3599 11 0
-3599 13 0
-3599 16 0
-3599 18 0
-3599 19 0
-3599 22 0
-3599 23 0
-3599 26 0
3599 -3 -6 -7 -10 -11 -13 -16 -18 -19 -22 -23 -26 0
-3600 4 0
-3600 6 0
-3600 7 0
-3600 10 0
-3600 11 0
-3600 13 0
-3600 16 0
-3600 18 0
-3600 19 0
-3600 22 0
-3600 23 0
-3600 26 0
3600 -4 -6 -7 -10 -11 -13 -16 -18 -19 -22 -23 -26 0
-3601 3 0
-3601 6 0
-3601 7 0
-3601 10 0
-3601 12 0
-3601 13 0
-3601 16 0
-3601 18 0
-3601 19 0
-3601 22 0
-3601 23 0
-3601 26 0
3601 -3 -6 -7 -10 -12 -13 -16 -18 -19 -22 -23 -26 0
-3602 4 0
-3602 6 0
-3602 7 0
-3602 10 0
-3602 12 0
-3602 13 0
-3602 16 0
-3602 18 0
-3602 19 0
-3602 22 0
-3602 23 0
-3602 26 0
3602 -4 -6 -7 -10 -12 -13 -16 -18 -19 -22 -23 -26 0
-3603 3 0
-3603 5 0
-3603 7 0
-3603 10 0
-3603 12 0
-3603 13 0
-3603 16 0
-3603 18 0
-3603 19 0
-3603 22 0
-3603 23 0
-3603 26 0
3603 -3 -5 -7 -10 -12 -13 -16 -18 -19 -22 -23 -26 0
-3604 4 0
-3604 5 0
-3604 7 0
-3604 10 0
-3604 12 0
-3604 13 0
-3604 16 0
-3604 18 0
-3604 19 0
-3604 22 0
-3604 23 0
-3604 26 0
3604 -4 -5 -7 -10 -12 -13 -16 -18 -19 -22 -23 -26 0
-3605 3 0
-3605 5 0
-3605 8 0
-3605 10 0
-3605 12 0
-3605 13 0
-3605 16 0
-3605 18 0
-3605 19 0
-3605 22 0
-3605 23 0
-3605 26 0
3605 -3 -5 -8 -10 -12 -13 -16 -18 -19 -22 -23 -26 0
-3606 4 0
-3606 5 0
-3606 8 0
-3606 10 0
-3606 12 0
-3606 13 0
-3606 16 0
-3606 18 0
-3606 19 0
-3606 22 0
-3606 23 0
-3606 26 0
3606 -4 -5 -8 -10 -12 -13 -16 -18 -19 -22 -23 -26 0
-3607 3 0
-3607 6 0
-3607 8 0
-3607 10 0
-3607 12 0
-3607 13 0
-3607 16 0
-3607 18 0
-3607 19 0
-3607 22 0
-3607 23 0
-3607 26 0
3607 -3 -6 -8 -10 -12 -13 -16 -18 -19 -22 -23 -26 0
-3608 4 0
-3608 6 0
-3608 8 0
-3608 10 0
-3608 12 0
-3608 13 0
-3608 16 0
-3608 18 0
-3608 19 0
-3608 22 0
-3608 23 0
-3608 26 0
3608 -4 -6 -8 -10 -12 -13 -16 -18 -19 -22 -23 -26 0
-3609 3 0
-3609 6 0
-3609 8 0
-3609 9 0
-3609 12 0
-3609 13 0
-3609 16 0
-3609 18 0
-3609 19 0
-3609 22 0
-3609 23 0
-3609 26 0
3609 -3 -6 -8 -9 -12 -13 -16 -18 -19 -22 -23 -26 0
-3610 4 0
-3610 6 0
-3610 8 0
-3610 9 0
-3610 12 0
-3610 13 0
-3610 16 0
-3610 18 0
-3610 19 0
-3610 22 0
-3610 23 0
-3610 26 0
3610 -4 -6 -8 -9 -12 -13 -16 -18 -19 -22 -23 -26 0
-3611 3 0
-3611 5 0
-3611 8 0
-3611 9 0
-3611 12 0
-3611 13 0
-3611 16 0
-3611 18 0
-3611 19 0
-3611 22 0
-3611 23 0
-3611 26 0
3611 -3 -5 -8 -9 -12 -13 -16 -18 -19 -22 -23 -26 0
-3612 4 0
-3612 5 0
-3612 8 0
-3612 9 0
-3612 12 0
-3612 13 0
-3612 16 0
-3612 18 0
-3612 19 0
-3612 22 0
-3612 23 0
-3612 26 0
3612 -4 -5 -8 -9 -12 -13 -16 -18 -19 -22 -23 -26 0
-3613 3 0
-3613 5 0
-3613 7 0
-3613 9 0
-3613 12 0
-3613 13 0
-3613 16 0
-3613 18 0
-3613 19 0
-3613 22 0
-3613 23 0
-3613 26 0
3613 -3 -5 -7 -9 -12 -13 -16 -18 -19 -22 -23 -26 0
-3614 4 0
-3614 5 0
-3614 7 0
-3614 9 0
-3614 12 0
-3614 13 0
-3614 16 0
-3614 18 0
-3614 19 0
-3614 22 0
-3614 23 0
-3614 26 0
3614 -4 -5 -7 -9 -12 -13 -16 -18 -19 -22 -23 -26 0
-3615 3 0
-3615 6 0
-3615 7 0
-3615 9 0
-3615 12 0
-3615 13 0
-3615 16 0
-3615 18 0
-3615 19 0
-3615 22 0
-3615 23 0
-3615 26 0
3615 -3 -6 -7 -9 -12 -13 -16 -18 -19 -22 -23 -26 0
-3616 4 0
-3616 6 0
-3616 7 0
-3616 9 0
-3616 12 0
-3616 13 0
-3616 16 0
-3616 18 0
-3616 19 0
-3616 22 0
-3616 23 0
-3616 26 0
3616 -4 -6 -7 -9 -12 -13 -16 -18 -19 -22 -23 -26 0
-3617 3 0
-3617 6 0
-3617 7 0
-3617 9 0
-3617 12 0
-3617 14 0
-3617 16 0
-3617 18 0
-3617 19 0
-3617 22 0
-3617 23 0
-3617 26 0
3617 -3 -6 -7 -9 -12 -14 -16 -18 -19 -22 -23 -26 0
-3618 4 0
-3618 6 0
-3618 7 0
-3618 9 0
-3618 12 0
-3618 14 0
-3618 16 0
-3618 18 0
-3618 19 0
-3618 22 0
-3618 23 0
-3618 26 0
3618 -4 -6 -7 -9 -12 -14 -16 -18 -19 -22 -23 -26 0
-3619 3 0
-3619 5 0
-3619 7 0
-3619 9 0
-3619 12 0
-3619 14 0
-3619 16 0
-3619 18 0
-3619 19 0
-3619 22 0
-3619 23 0
-3619 26 0
3619 -3 -5 -7 -9 -12 -14 -16 -18 -19 -22 -23 -26 0
-3620 4 0
-3620 5 0
-3620 7 0
-3620 9 0
-3620 12 0
-3620 14 0
-3620 16 0
-3620 18 0
-3620 19 0
-3620 22 0
-3620 23 0
-3620 26 0
3620 -4 -5 -7 -9 -12 -14 -16 -18 -19 -22 -23 -26 0
-3621 3 0
-3621 5 0
-3621 8 0
-3621 9 0
-3621 12 0
-3621 14 0
-3621 16 0
-3621 18 0
-3621 19 0
-3621 22 0
-3621 23 0
-3621 26 0
3621 -3 -5 -8 -9 -12 -14 -16 -18 -19 -22 -23 -26 0
-3622 4 0
-3622 5 0
-3622 8 0
-3622 9 0
-3622 12 0
-3622 14 0
-3622 16 0
-3622 18 0
-3622 19 0
-3622 22 0
-3622 23 0
-3622 26 0
3622 -4 -5 -8 -9 -12 -14 -16 -18 -19 -22 -23 -26 0
-3623 3 0
-3623 6 0
-3623 8 0
-3623 9 0
-3623 12 0
-3623 14 0
-3623 16 0
-3623 18 0
-3623 19 0
-3623 22 0
-3623 23 0
-3623 26 0
3623 -3 -6 -8 -9 -12 -14 -16 -18 -19 -22 -23 -26 0
-3624 4 0
-3624 6 0
-3624 8 0
-3624 9 0
-3624 12 0
-3624 14 0
-3624 16 0
-3624 18 0
-3624 19 0
-3624 22 0
-3624 23 0
-3624 26 0
3624 -4 -6 -8 -9 -12 -14 -16 -18 -19 -22 -23 -26 0
-3625 3 0
-3625 6 0
-3625 8 0
-3625 10 0
-3625 12 0
-3625 14 0
-3625 16 0
-3625 18 0
-3625 19 0
-3625 22 0
-3625 23 0
-3625 26 0
3625 -3 -6 -8 -10 -12 -14 -16 -18 -19 -22 -23 -26 0
-3626 3 0
-3626 5 0
-3626 8 0
-3626 10 0
-3626 12 0
-3626 14 0
-3626 16 0
-3626 18 0
-3626 19 0
-3626 22 0
-3626 23 0
-3626 26 0
3626 -3 -5 -8 -10 -12 -14 -16 -18 -19 -22 -23 -26 0
-3627 4 0
-3627 5 0
-3627 8 0
-3627 10 0
-3627 12 0
-3627 14 0
-3627 16 0
-3627 18 0
-3627 19 0
-3627 22 0
-3627 23 0
-3627 26 0
3627 -4 -5 -8 -10 -12 -14 -16 -18 -19 -22 -23 -26 0
-3628 3 0
-3628 5 0
-3628 7 0
-3628 10 0
-3628 12 0
-3628 14 0
-3628 16 0
-3628 18 0
-3628 19 0
-3628 22 0
-3628 23 0
-3628 26 0
3628 -3 -5 -7 -10 -12 -14 -16 -18 -19 -22 -23 -26 0
-3629 4 0
-3629 5 0
-3629 7 0
-3629 10 0
-3629 12 0
-3629 14 0
-3629 16 0
-3629 18 0
-3629 19 0
-3629 22 0
-3629 23 0
-3629 26 0
3629 -4 -5 -7 -10 -12 -14 -16 -18 -19 -22 -23 -26 0
-3630 3 0
-3630 6 0
-3630 7 0
-3630 10 0
-3630 12 0
-3630 14 0
-3630 16 0
-3630 18 0
-3630 19 0
-3630 22 0
-3630 23 0
-3630 26 0
3630 -3 -6 -7 -10 -12 -14 -16 -18 -19 -22 -23 -26 0
-3631 4 0
-3631 6 0
-3631 7 0
-3631 10 0
-3631 12 0
-3631 14 0
-3631 16 0
-3631 18 0
-3631 19 0
-3631 22 0
-3631 23 0
-3631 26 0
3631 -4 -6 -7 -10 -12 -14 -16 -18 -19 -22 -23 -26 0
-3632 3 0
-3632 6 0
-3632 7 0
-3632 10 0
-3632 11 0
-3632 14 0
-3632 16 0
-3632 18 0
-3632 19 0
-3632 22 0
-3632 23 0
-3632 26 0
3632 -3 -6 -7 -10 -11 -14 -16 -18 -19 -22 -23 -26 0
-3633 4 0
-3633 6 0
-3633 7 0
-3633 10 0
-3633 11 0
-3633 14 0
-3633 16 0
-3633 18 0
-3633 19 0
-3633 22 0
-3633 23 0
-3633 26 0
3633 -4 -6 -7 -10 -11 -14 -16 -18 -19 -22 -23 -26 0
-3634 3 0
-3634 5 0
-3634 7 0
-3634 10 0
-3634 11 0
-3634 14 0
-3634 16 0
-3634 18 0
-3634 19 0
-3634 22 0
-3634 23 0
-3634 26 0
3634 -3 -5 -7 -10 -11 -14 -16 -18 -19 -22 -23 -26 0
-3635 4 0
-3635 5 0
-3635 7 0
-3635 10 0
-3635 11 0
-3635 14 0
-3635 16 0
-3635 18 0
-3635 19 0
-3635 22 0
-3635 23 0
-3635 26 0
3635 -4 -5 -7 -10 -11 -14 -16 -18 -19 -22 -23 -26 0
-3636 3 0
-3636 5 0
-3636 8 0
-3636 10 0
-3636 11 0
-3636 14 0
-3636 16 0
-3636 18 0
-3636 19 0
-3636 22 0
-3636 23 0
-3636 26 0
3636 -3 -5 -8 -10 -11 -14 -16 -18 -19 -22 -23 -26 0
-3637 4 0
-3637 5 0
-3637 8 0
-3637 10 0
-3637 11 0
-3637 14 0
-3637 16 0
-3637 18 0
-3637 19 0
-3637 22 0
-3637 23 0
-3637 26 0
3637 -4 -5 -8 -10 -11 -14 -16 -18 -19 -22 -23 -26 0
-3638 3 0
-3638 6 0
-3638 8 0
-3638 10 0
-3638 11 0
-3638 14 0
-3638 16 0
-3638 18 0
-3638 19 0
-3638 22 0
-3638 23 0
-3638 26 0
3638 -3 -6 -8 -10 -11 -14 -16 -18 -19 -22 -23 -26 0
-3639 4 0
-3639 6 0
-3639 8 0
-3639 10 0
-3639 11 0
-3639 14 0
-3639 16 0
-3639 18 0
-3639 19 0
-3639 22 0
-3639 23 0
-3639 26 0
3639 -4 -6 -8 -10 -11 -14 -16 -18 -19 -22 -23 -26 0
-3640 3 0
-3640 6 0
-3640 8 0
-3640 9 0
-3640 11 0
-3640 14 0
-3640 16 0
-3640 18 0
-3640 19 0
-3640 22 0
-3640 23 0
-3640 26 0
3640 -3 -6 -8 -9 -11 -14 -16 -18 -19 -22 -23 -26 0
-3641 4 0
-3641 6 0
-3641 8 0
-3641 9 0
-3641 11 0
-3641 14 0
-3641 16 0
-3641 18 0
-3641 19 0
-3641 22 0
-3641 23 0
-3641 26 0
3641 -4 -6 -8 -9 -11 -14 -16 -18 -19 -22 -23 -26 0
-3642 3 0
-3642 5 0
-3642 8 0
-3642 9 0
-3642 11 0
-3642 14 0
-3642 16 0
-3642 18 0
-3642 19 0
-3642 22 0
-3642 23 0
-3642 26 0
3642 -3 -5 -8 -9 -11 -14 -16 -18 -19 -22 -23 -26 0
-3643 4 0
-3643 5 0
-3643 8 0
-3643 9 0
-3643 11 0
-3643 14 0
-3643 16 0
-3643 18 0
-3643 19 0
-3643 22 0
-3643 23 0
-3643 26 0
3643 -4 -5 -8 -9 -11 -14 -16 -18 -19 -22 -23 -26 0
-3644 3 0
-3644 5 0
-3644 7 0
-3644 9 0
-3644 11 0
-3644 14 0
-3644 16 0
-3644 18 0
-3644 19 0
-3644 22 0
-3644 23 0
-3644 26 0
3644 -3 -5 -7 -9 -11 -14 -16 -18 -19 -22 -23 -26 0
-3645 4 0
-3645 5 0
-3645 7 0
-3645 9 0
-3645 11 0
-3645 14 0
-3645 16 0
-3645 18 0
-3645 19 0
-3645 22 0
-3645 23 0
-3645 26 0
3645 -4 -5 -7 -9 -11 -14 -16 -18 -19 -22 -23 -26 0
-3646 3 0
-3646 6 0
-3646 7 0
-3646 9 0
-3646 11 0
-3646 14 0
-3646 16 0
-3646 18 0
-3646 19 0
-3646 22 0
-3646 23 0
-3646 26 0
3646 -3 -6 -7 -9 -11 -14 -16 -18 -19 -22 -23 -26 0
-3647 3 0
-3647 6 0
-3647 8 0
-3647 10 0
-3647 11 0
-3647 14 0
-3647 15 0
-3647 18 0
-3647 19 0
-3647 22 0
-3647 23 0
-3647 26 0
3647 -3 -6 -8 -10 -11 -14 -15 -18 -19 -22 -23 -26 0
-3648 3 0
-3648 5 0
-3648 8 0
-3648 10 0
-3648 11 0
-3648 14 0
-3648 15 0
-3648 18 0
-3648 19 0
-3648 22 0
-3648 23 0
-3648 26 0
3648 -3 -5 -8 -10 -11 -14 -15 -18 -19 -22 -23 -26 0
-3649 3 0
-3649 6 0
-3649 7 0
-3649 10 0
-3649 12 0
-3649 14 0
-3649 15 0
-3649 18 0
-3649 19 0
-3649 22 0
-3649 23 0
-3649 26 0
3649 -3 -6 -7 -10 -12 -14 -15 -18 -19 -22 -23 -26 0
-3650 3 0
-3650 5 0
-3650 7 0
-3650 10 0
-3650 12 0
-3650 14 0
-3650 15 0
-3650 18 0
-3650 19 0
-3650 22 0
-3650 23 0
-3650 26 0
3650 -3 -5 -7 -10 -12 -14 -15 -18 -19 -22 -23 -26 0
-3651 4 0
-3651 5 0
-3651 7 0
-3651 10 0
-3651 12 0
-3651 14 0
-3651 15 0
-3651 18 0
-3651 19 0
-3651 22 0
-3651 23 0
-3651 26 0
3651 -4 -5 -7 -10 -12 -14 -15 -18 -19 -22 -23 -26 0
-3652 3 0
-3652 5 0
-3652 8 0
-3652 10 0
-3652 12 0
-3652 14 0
-3652 15 0
-3652 18 0
-3652 19 0
-3652 22 0
-3652 23 0
-3652 26 0
3652 -3 -5 -8 -10 -12 -14 -15 -18 -19 -22 -23 -26 0
-3653 4 0
-3653 5 0
-3653 8 0
-3653 10 0
-3653 12 0
-3653 14 0
-3653 15 0
-3653 18 0
-3653 19 0
-3653 22 0
-3653 23 0
-3653 26 0
3653 -4 -5 -8 -10 -12 -14 -15 -18 -19 -22 -23 -26 0
-3654 3 0
-3654 6 0
-3654 8 0
-3654 10 0
-3654 12 0
-3654 14 0
-3654 15 0
-3654 18 0
-3654 19 0
-3654 22 0
-3654 23 0
-3654 26 0
3654 -3 -6 -8 -10 -12 -14 -15 -18 -19 -22 -23 -26 0
-3655 4 0
-3655 6 0
-3655 8 0
-3655 10 0
-3655 12 0
-3655 14 0
-3655 15 0
-3655 18 0
-3655 19 0
-3655 22 0
-3655 23 0
-3655 26 0
3655 -4 -6 -8 -10 -12 -14 -15 -18 -19 -22 -23 -26 0
-3656 3 0
-3656 6 0
-3656 8 0
-3656 9 0
-3656 12 0
-3656 14 0
-3656 15 0
-3656 18 0
-3656 19 0
-3656 22 0
-3656 23 0
-3656 26 0
3656 -3 -6 -8 -9 -12 -14 -15 -18 -19 -22 -23 -26 0
-3657 4 0
-3657 6 0
-3657 8 0
-3657 9 0
-3657 12 0
-3657 14 0
-3657 15 0
-3657 18 0
-3657 19 0
-3657 22 0
-3657 23 0
-3657 26 0
3657 -4 -6 -8 -9 -12 -14 -15 -18 -19 -22 -23 -26 0
-3658 3 0
-3658 5 0
-3658 8 0
-3658 9 0
-3658 12 0
-3658 14 0
-3658 15 0
-3658 18 0
-3658 19 0
-3658 22 0
-3658 23 0
-3658 26 0
3658 -3 -5 -8 -9 -12 -14 -15 -18 -19 -22 -23 -26 0
-3659 4 0
-3659 5 0
-3659 8 0
-3659 9 0
-3659 12 0
-3659 14 0
-3659 15 0
-3659 18 0
-3659 19 0
-3659 22 0
-3659 23 0
-3659 26 0
3659 -4 -5 -8 -9 -12 -14 -15 -18 -19 -22 -23 -26 0
-3660 3 0
-3660 5 0
-3660 7 0
-3660 9 0
-3660 12 0
-3660 14 0
-3660 15 0
-3660 18 0
-3660 19 0
-3660 22 0
-3660 23 0
-3660 26 0
3660 -3 -5 -7 -9 -12 -14 -15 -18 -19 -22 -23 -26 0
-3661 4 0
-3661 5 0
-3661 7 0
-3661 9 0
-3661 12 0
-3661 14 0
-3661 15 0
-3661 18 0
-3661 19 0
-3661 22 0
-3661 23 0
-3661 26 0
3661 -4 -5 -7 -9 -12 -14 -15 -18 -19 -22 -23 -26 0
-3662 3 0
-3662 6 0
-3662 7 0
-3662 9 0
-3662 12 0
-3662 14 0
-3662 15 0
-3662 18 0
-3662 19 0
-3662 22 0
-3662 23 0
-3662 26 0
3662 -3 -6 -7 -9 -12 -14 -15 -18 -19 -22 -23 -26 0
-3663 3 0
-3663 6 0
-3663 8 0
-3663 10 0
-3663 12 0
-3663 13 0
-3663 15 0
-3663 18 0
-3663 19 0
-3663 22 0
-3663 23 0
-3663 26 0
3663 -3 -6 -8 -10 -12 -13 -15 -18 -19 -22 -23 -26 0
-3664 3 0
-3664 5 0
-3664 8 0
-3664 10 0
-3664 12 0
-3664 13 0
-3664 15 0
-3664 18 0
-3664 19 0
-3664 22 0
-3664 23 0
-3664 26 0
3664 -3 -5 -8 -10 -12 -13 -15 -18 -19 -22 -23 -26 0
-3665 4 0
-3665 5 0
-3665 8 0
-3665 10 0
-3665 12 0
-3665 13 0
-3665 15 0
-3665 18 0
-3665 19 0
-3665 22 0
-3665 23 0
-3665 26 0
3665 -4 -5 -8 -10 -12 -13 -15 -18 -19 -22 -23 -26 0
-3666 3 0
-3666 5 0
-3666 7 0
-3666 10 0
-3666 12 0
-3666 13 0
-3666 15 0
-3666 18 0
-3666 19 0
-3666 22 0
-3666 23 0
-3666 26 0
3666 -3 -5 -7 -10 -12 -13 -15 -18 -19 -22 -23 -26 0
-3667 4 0
-3667 5 0
-3667 7 0
-3667 10 0
-3667 12 0
-3667 13 0
-3667 15 0
-3667 18 0
-3667 19 0
-3667 22 0
-3667 23 0
-3667 26 0
3667 -4 -5 -7 -10 -12 -13 -15 -18 -19 -22 -23 -26 0
-3668 3 0
-3668 6 0
-3668 7 0
-3668 10 0
-3668 12 0
-3668 13 0
-3668 15 0
-3668 18 0
-3668 19 0
-3668 22 0
-3668 23 0
-3668 26 0
3668 -3 -6 -7 -10 -12 -13 -15 -18 -19 -22 -23 -26 0
-3669 3 0
-3669 5 0
-3669 8 0
-3669 10 0
-3669 11 0
-3669 13 0
-3669 15 0
-3669 18 0
-3669 19 0
-3669 22 0
-3669 23 0
-3669 26 0
3669 -3 -5 -8 -10 -11 -13 -15 -18 -19 -22 -23 -26 0
-3670 3 0
-3670 6 0
-3670 8 0
-3670 10 0
-3670 11 0
-3670 13 0
-3670 15 0
-3670 18 0
-3670 19 0
-3670 22 0
-3670 23 0
-3670 26 0
3670 -3 -6 -8 -10 -11 -13 -15 -18 -19 -22 -23 -26 0
-3671 3 0
-3671 6 0
-3671 7 0
-3671 9 0
-3671 11 0
-3671 13 0
-3671 15 0
-3671 18 0
-3671 20 0
-3671 22 0
-3671 23 0
-3671 26 0
3671 -3 -6 -7 -9 -11 -13 -15 -18 -20 -22 -23 -26 0
-3672 3 0
-3672 5 0
-3672 7 0
-3672 9 0
-3672 11 0
-3672 13 0
-3672 15 0
-3672 18 0
-3672 20 0
-3672 22 0
-3672 23 0
-3672 26 0
3672 -3 -5 -7 -9 -11 -13 -15 -18 -20 -22 -23 -26 0
-3673 4 0
-3673 5 0
-3673 7 0
-3673 9 0
-3673 11 0
-3673 13 0
-3673 15 0
-3673 18 0
-3673 20 0
-3673 22 0
-3673 23 0
-3673 26 0
3673 -4 -5 -7 -9 -11 -13 -15 -18 -20 -22 -23 -26 0
-3674 3 0
-3674 5 0
-3674 8 0
-3674 9 0
-3674 11 0
-3674 13 0
-3674 15 0
-3674 18 0
-3674 20 0
-3674 22 0
-3674 23 0
-3674 26 0
3674 -3 -5 -8 -9 -11 -13 -15 -18 -20 -22 -23 -26 0
-3675 4 0
-3675 5 0
-3675 8 0
-3675 9 0
-3675 11 0
-3675 13 0
-3675 15 0
-3675 18 0
-3675 20 0
-3675 22 0
-3675 23 0
-3675 26 0
3675 -4 -5 -8 -9 -11 -13 -15 -18 -20 -22 -23 -26 0
-3676 3 0
-3676 6 0
-3676 8 0
-3676 9 0
-3676 11 0
-3676 13 0
-3676 15 0
-3676 18 0
-3676 20 0
-3676 22 0
-3676 23 0
-3676 26 0
3676 -3 -6 -8 -9 -11 -13 -15 -18 -20 -22 -23 -26 0
-3677 4 0
-3677 6 0
-3677 8 0
-3677 9 0
-3677 11 0
-3677 13 0
-3677 15 0
-3677 18 0
-3677 20 0
-3677 22 0
-3677 23 0
-3677 26 0
3677 -4 -6 -8 -9 -11 -13 -15 -18 -20 -22 -23 -26 0
-3678 3 0
-3678 6 0
-3678 8 0
-3678 10 0
-3678 11 0
-3678 13 0
-3678 15 0
-3678 18 0
-3678 20 0
-3678 22 0
-3678 23 0
-3678 26 0
3678 -3 -6 -8 -10 -11 -13 -15 -18 -20 -22 -23 -26 0
-3679 4 0
-3679 6 0
-3679 8 0
-3679 10 0
-3679 11 0
-3679 13 0
-3679 15 0
-3679 18 0
-3679 20 0
-3679 22 0
-3679 23 0
-3679 26 0
3679 -4 -6 -8 -10 -11 -13 -15 -18 -20 -22 -23 -26 0
-3680 3 0
-3680 5 0
-3680 8 0
-3680 10 0
-3680 11 0
-3680 13 0
-3680 15 0
-3680 18 0
-3680 20 0
-3680 22 0
-3680 23 0
-3680 26 0
3680 -3 -5 -8 -10 -11 -13 -15 -18 -20 -22 -23 -26 0
-3681 4 0
-3681 5 0
-3681 8 0
-3681 10 0
-3681 11 0
-3681 13 0
-3681 15 0
-3681 18 0
-3681 20 0
-3681 22 0
-3681 23 0
-3681 26 0
3681 -4 -5 -8 -10 -11 -13 -15 -18 -20 -22 -23 -26 0
-3682 3 0
-3682 5 0
-3682 7 0
-3682 10 0
-3682 11 0
-3682 13 0
-3682 15 0
-3682 18 0
-3682 20 0
-3682 22 0
-3682 23 0
-3682 26 0
3682 -3 -5 -7 -10 -11 -13 -15 -18 -20 -22 -23 -26 0
-3683 4 0
-3683 5 0
-3683 7 0
-3683 10 0
-3683 11 0
-3683 13 0
-3683 15 0
-3683 18 0
-3683 20 0
-3683 22 0
-3683 23 0
-3683 26 0
3683 -4 -5 -7 -10 -11 -13 -15 -18 -20 -22 -23 -26 0
-3684 3 0
-3684 6 0
-3684 7 0
-3684 10 0
-3684 11 0
-3684 13 0
-3684 15 0
-3684 18 0
-3684 20 0
-3684 22 0
-3684 23 0
-3684 26 0
3684 -3 -6 -7 -10 -11 -13 -15 -18 -20 -22 -23 -26 0
-3685 4 0
-3685 6 0
-3685 7 0
-3685 10 0
-3685 11 0
-3685 13 0
-3685 15 0
-3685 18 0
-3685 20 0
-3685 22 0
-3685 23 0
-3685 26 0
3685 -4 -6 -7 -10 -11 -13 -15 -18 -20 -22 -23 -26 0
-3686 3 0
-3686 6 0
-3686 7 0
-3686 10 0
-3686 12 0
-3686 13 0
-3686 15 0
-3686 18 0
-3686 20 0
-3686 22 0
-3686 23 0
-3686 26 0
3686 -3 -6 -7 -10 -12 -13 -15 -18 -20 -22 -23 -26 0
-3687 4 0
-3687 6 0
-3687 7 0
-3687 10 0
-3687 12 0
-3687 13 0
-3687 15 0
-3687 18 0
-3687 20 0
-3687 22 0
-3687 23 0
-3687 26 0
3687 -4 -6 -7 -10 -12 -13 -15 -18 -20 -22 -23 -26 0
-3688 3 0
-3688 5 0
-3688 7 0
-3688 10 0
-3688 12 0
-3688 13 0
-3688 15 0
-3688 18 0
-3688 20 0
-3688 22 0
-3688 23 0
-3688 26 0
3688 -3 -5 -7 -10 -12 -13 -15 -18 -20 -22 -23 -26 0
-3689 4 0
-3689 5 0
-3689 7 0
-3689 10 0
-3689 12 0
-3689 13 0
-3689 15 0
-3689 18 0
-3689 20 0
-3689 22 0
-3689 23 0
-3689 26 0
3689 -4 -5 -7 -10 -12 -13 -15 -18 -20 -22 -23 -26 0
-3690 3 0
-3690 5 0
-3690 8 0
-3690 10 0
-3690 12 0
-3690 13 0
-3690 15 0
-3690 18 0
-3690 20 0
-3690 22 0
-3690 23 0
-3690 26 0
3690 -3 -5 -8 -10 -12 -13 -15 -18 -20 -22 -23 -26 0
-3691 4 0
-3691 5 0
-3691 8 0
-3691 10 0
-3691 12 0
-3691 13 0
-3691 15 0
-3691 18 0
-3691 20 0
-3691 22 0
-3691 23 0
-3691 26 0
3691 -4 -5 -8 -10 -12 -13 -15 -18 -20 -22 -23 -26 0
-3692 3 0
-3692 6 0
-3692 8 0
-3692 10 0
-3692 12 0
-3692 13 0
-3692 15 0
-3692 18 0
-3692 20 0
-3692 22 0
-3692 23 0
-3692 26 0
3692 -3 -6 -8 -10 -12 -13 -15 -18 -20 -22 -23 -26 0
-3693 4 0
-3693 6 0
-3693 8 0
-3693 10 0
-3693 12 0
-3693 13 0
-3693 15 0
-3693 18 0
-3693 20 0
-3693 22 0
-3693 23 0
-3693 26 0
3693 -4 -6 -8 -10 -12 -13 -15 -18 -20 -22 -23 -26 0
-3694 3 0
-3694 6 0
-3694 8 0
-3694 9 0
-3694 12 0
-3694 13 0
-3694 15 0
-3694 18 0
-3694 20 0
-3694 22 0
-3694 23 0
-3694 26 0
3694 -3 -6 -8 -9 -12 -13 -15 -18 -20 -22 -23 -26 0
-3695 4 0
-3695 6 0
-3695 8 0
-3695 9 0
-3695 12 0
-3695 13 0
-3695 15 0
-3695 18 0
-3695 20 0
-3695 22 0
-3695 23 0
-3695 26 0
3695 -4 -6 -8 -9 -12 -13 -15 -18 -20 -22 -23 -26 0
-3696 3 0
-3696 5 0
-3696 8 0
-3696 9 0
-3696 12 0
-3696 13 0
-3696 15 0
-3696 18 0
-3696 20 0
-3696 22 0
-3696 23 0
-3696 26 0
3696 -3 -5 -8 -9 -12 -13 -15 -18 -20 -22 -23 -26 0
-3697 4 0
-3697 5 0
-3697 8 0
-3697 9 0
-3697 12 0
-3697 13 0
-3697 15 0
-3697 18 0
-3697 20 0
-3697 22 0
-3697 23 0
-3697 26 0
3697 -4 -5 -8 -9 -12 -13 -15 -18 -20 -22 -23 -26 0
-3698 3 0
-3698 5 0
-3698 7 0
-3698 9 0
-3698 12 0
-3698 13 0
-3698 15 0
-3698 18 0
-3698 20 0
-3698 22 0
-3698 23 0
-3698 26 0
3698 -3 -5 -7 -9 -12 -13 -15 -18 -20 -22 -23 -26 0
-3699 4 0
-3699 5 0
-3699 7 0
-3699 9 0
-3699 12 0
-3699 13 0
-3699 15 0
-3699 18 0
-3699 20 0
-3699 22 0
-3699 23 0
-3699 26 0
3699 -4 -5 -7 -9 -12 -13 -15 -18 -20 -22 -23 -26 0
-3700 3 0
-3700 6 0
-3700 7 0
-3700 9 0
-3700 12 0
-3700 13 0
-3700 15 0
-3700 18 0
-3700 20 0
-3700 22 0
-3700 23 0
-3700 26 0
3700 -3 -6 -7 -9 -12 -13 -15 -18 -20 -22 -23 -26 0
-3701 4 0
-3701 6 0
-3701 7 0
-3701 9 0
-3701 12 0
-3701 13 0
-3701 15 0
-3701 18 0
-3701 20 0
-3701 22 0
-3701 23 0
-3701 26 0
3701 -4 -6 -7 -9 -12 -13 -15 -18 -20 -22 -23 -26 0
-3702 3 0
-3702 6 0
-3702 7 0
-3702 9 0
-3702 12 0
-3702 14 0
-3702 15 0
-3702 18 0
-3702 20 0
-3702 22 0
-3702 23 0
-3702 26 0
3702 -3 -6 -7 -9 -12 -14 -15 -18 -20 -22 -23 -26 0
-3703 4 0
-3703 6 0
-3703 7 0
-3703 9 0
-3703 12 0
-3703 14 0
-3703 15 0
-3703 18 0
-3703 20 0
-3703 22 0
-3703 23 0
-3703 26 0
3703 -4 -6 -7 -9 -12 -14 -15 -18 -20 -22 -23 -26 0
-3704 3 0
-3704 5 0
-3704 7 0
-3704 9 0
-3704 12 0
-3704 14 0
-3704 15 0
-3704 18 0
-3704 20 0
-3704 22 0
-3704 23 0
-3704 26 0
3704 -3 -5 -7 -9 -12 -14 -15 -18 -20 -22 -23 -26 0
-3705 4 0
-3705 5 0
-3705 7 0
-3705 9 0
-3705 12 0
-3705 14 0
-3705 15 0
-3705 18 0
-3705 20 0
-3705 22 0
-3705 23 0
-3705 26 0
3705 -4 -5 -7 -9 -12 -14 -15 -18 -20 -22 -23 -26 0
-3706 3 0
-3706 5 0
-3706 8 0
-3706 9 0
-3706 12 0
-3706 14 0
-3706 15 0
-3706 18 0
-3706 20 0
-3706 22 0
-3706 23 0
-3706 26 0
3706 -3 -5 -8 -9 -12 -14 -15 -18 -20 -22 -23 -26 0
-3707 4 0
-3707 5 0
-3707 8 0
-3707 9 0
-3707 12 0
-3707 14 0
-3707 15 0
-3707 18 0
-3707 20 0
-3707 22 0
-3707 23 0
-3707 26 0
3707 -4 -5 -8 -9 -12 -14 -15 -18 -20 -22 -23 -26 0
-3708 3 0
-3708 6 0
-3708 8 0
-3708 9 0
-3708 12 0
-3708 14 0
-3708 15 0
-3708 18 0
-3708 20 0
-3708 22 0
-3708 23 0
-3708 26 0
3708 -3 -6 -8 -9 -12 -14 -15 -18 -20 -22 -23 -26 0
-3709 4 0
-3709 6 0
-3709 8 0
-3709 9 0
-3709 12 0
-3709 14 0
-3709 15 0
-3709 18 0
-3709 20 0
-3709 22 0
-3709 23 0
-3709 26 0
3709 -4 -6 -8 -9 -12 -14 -15 -18 -20 -22 -23 -26 0
-3710 3 0
-3710 6 0
-3710 8 0
-3710 10 0
-3710 12 0
-3710 14 0
-3710 15 0
-3710 18 0
-3710 20 0
-3710 22 0
-3710 23 0
-3710 26 0
3710 -3 -6 -8 -10 -12 -14 -15 -18 -20 -22 -23 -26 0
-3711 4 0
-3711 6 0
-3711 8 0
-3711 10 0
-3711 12 0
-3711 14 0
-3711 15 0
-3711 18 0
-3711 20 0
-3711 22 0
-3711 23 0
-3711 26 0
3711 -4 -6 -8 -10 -12 -14 -15 -18 -20 -22 -23 -26 0
-3712 3 0
-3712 5 0
-3712 8 0
-3712 10 0
-3712 12 0
-3712 14 0
-3712 15 0
-3712 18 0
-3712 20 0
-3712 22 0
-3712 23 0
-3712 26 0
3712 -3 -5 -8 -10 -12 -14 -15 -18 -20 -22 -23 -26 0
-3713 4 0
-3713 5 0
-3713 8 0
-3713 10 0
-3713 12 0
-3713 14 0
-3713 15 0
-3713 18 0
-3713 20 0
-3713 22 0
-3713 23 0
-3713 26 0
3713 -4 -5 -8 -10 -12 -14 -15 -18 -20 -22 -23 -26 0
-3714 3 0
-3714 5 0
-3714 7 0
-3714 10 0
-3714 12 0
-3714 14 0
-3714 15 0
-3714 18 0
-3714 20 0
-3714 22 0
-3714 23 0
-3714 26 0
3714 -3 -5 -7 -10 -12 -14 -15 -18 -20 -22 -23 -26 0
-3715 4 0
-3715 5 0
-3715 7 0
-3715 10 0
-3715 12 0
-3715 14 0
-3715 15 0
-3715 18 0
-3715 20 0
-3715 22 0
-3715 23 0
-3715 26 0
3715 -4 -5 -7 -10 -12 -14 -15 -18 -20 -22 -23 -26 0
-3716 3 0
-3716 6 0
-3716 7 0
-3716 10 0
-3716 12 0
-3716 14 0
-3716 15 0
-3716 18 0
-3716 20 0
-3716 22 0
-3716 23 0
-3716 26 0
3716 -3 -6 -7 -10 -12 -14 -15 -18 -20 -22 -23 -26 0
-3717 4 0
-3717 6 0
-3717 7 0
-3717 10 0
-3717 12 0
-3717 14 0
-3717 15 0
-3717 18 0
-3717 20 0
-3717 22 0
-3717 23 0
-3717 26 0
3717 -4 -6 -7 -10 -12 -14 -15 -18 -20 -22 -23 -26 0
-3718 3 0
-3718 6 0
-3718 7 0
-3718 10 0
-3718 11 0
-3718 14 0
-3718 15 0
-3718 18 0
-3718 20 0
-3718 22 0
-3718 23 0
-3718 26 0
3718 -3 -6 -7 -10 -11 -14 -15 -18 -20 -22 -23 -26 0
-3719 4 0
-3719 6 0
-3719 7 0
-3719 10 0
-3719 11 0
-3719 14 0
-3719 15 0
-3719 18 0
-3719 20 0
-3719 22 0
-3719 23 0
-3719 26 0
3719 -4 -6 -7 -10 -11 -14 -15 -18 -20 -22 -23 -26 0
-3720 3 0
-3720 5 0
-3720 7 0
-3720 10 0
-3720 11 0
-3720 14 0
-3720 15 0
-3720 18 0
-3720 20 0
-3720 22 0
-3720 23 0
-3720 26 0
3720 -3 -5 -7 -10 -11 -14 -15 -18 -20 -22 -23 -26 0
-3721 4 0
-3721 5 0
-3721 7 0
-3721 10 0
-3721 11 0
-3721 14 0
-3721 15 0
-3721 18 0
-3721 20 0
-3721 22 0
-3721 23 0
-3721 26 0
3721 -4 -5 -7 -10 -11 -14 -15 -18 -20 -22 -23 -26 0
-3722 3 0
-3722 5 0
-3722 8 0
-3722 10 0
-3722 11 0
-3722 14 0
-3722 15 0
-3722 18 0
-3722 20 0
-3722 22 0
-3722 23 0
-3722 26 0
3722 -3 -5 -8 -10 -11 -14 -15 -18 -20 -22 -23 -26 0
-3723 4 0
-3723 5 0
-3723 8 0
-3723 10 0
-3723 11 0
-3723 14 0
-3723 15 0
-3723 18 0
-3723 20 0
-3723 22 0
-3723 23 0
-3723 26 0
3723 -4 -5 -8 -10 -11 -14 -15 -18 -20 -22 -23 -26 0
-3724 3 0
-3724 6 0
-3724 8 0
-3724 10 0
-3724 11 0
-3724 14 0
-3724 15 0
-3724 18 0
-3724 20 0
-3724 22 0
-3724 23 0
-3724 26 0
3724 -3 -6 -8 -10 -11 -14 -15 -18 -20 -22 -23 -26 0
-3725 4 0
-3725 6 0
-3725 8 0
-3725 10 0
-3725 11 0
-3725 14 0
-3725 15 0
-3725 18 0
-3725 20 0
-3725 22 0
-3725 23 0
-3725 26 0
3725 -4 -6 -8 -10 -11 -14 -15 -18 -20 -22 -23 -26 0
-3726 3 0
-3726 6 0
-3726 8 0
-3726 9 0
-3726 11 0
-3726 14 0
-3726 15 0
-3726 18 0
-3726 20 0
-3726 22 0
-3726 23 0
-3726 26 0
3726 -3 -6 -8 -9 -11 -14 -15 -18 -20 -22 -23 -26 0
-3727 4 0
-3727 6 0
-3727 8 0
-3727 9 0
-3727 11 0
-3727 14 0
-3727 15 0
-3727 18 0
-3727 20 0
-3727 22 0
-3727 23 0
-3727 26 0
3727 -4 -6 -8 -9 -11 -14 -15 -18 -20 -22 -23 -26 0
-3728 3 0
-3728 5 0
-3728 8 0
-3728 9 0
-3728 11 0
-3728 14 0
-3728 15 0
-3728 18 0
-3728 20 0
-3728 22 0
-3728 23 0
-3728 26 0
3728 -3 -5 -8 -9 -11 -14 -15 -18 -20 -22 -23 -26 0
-3729 4 0
-3729 5 0
-3729 8 0
-3729 9 0
-3729 11 0
-3729 14 0
-3729 15 0
-3729 18 0
-3729 20 0
-3729 22 0
-3729 23 0
-3729 26 0
3729 -4 -5 -8 -9 -11 -14 -15 -18 -20 -22 -23 -26 0
-3730 3 0
-3730 5 0
-3730 7 0
-3730 9 0
-3730 11 0
-3730 14 0
-3730 15 0
-3730 18 0
-3730 20 0
-3730 22 0
-3730 23 0
-3730 26 0
3730 -3 -5 -7 -9 -11 -14 -15 -18 -20 -22 -23 -26 0
-3731 4 0
-3731 5 0
-3731 7 0
-3731 9 0
-3731 11 0
-3731 14 0
-3731 15 0
-3731 18 0
-3731 20 0
-3731 22 0
-3731 23 0
-3731 26 0
3731 -4 -5 -7 -9 -11 -14 -15 -18 -20 -22 -23 -26 0
-3732 3 0
-3732 6 0
-3732 7 0
-3732 9 0
-3732 11 0
-3732 14 0
-3732 15 0
-3732 18 0
-3732 20 0
-3732 22 0
-3732 23 0
-3732 26 0
3732 -3 -6 -7 -9 -11 -14 -15 -18 -20 -22 -23 -26 0
-3733 4 0
-3733 6 0
-3733 7 0
-3733 9 0
-3733 11 0
-3733 14 0
-3733 15 0
-3733 18 0
-3733 20 0
-3733 22 0
-3733 23 0
-3733 26 0
3733 -4 -6 -7 -9 -11 -14 -15 -18 -20 -22 -23 -26 0
-3734 3 0
-3734 6 0
-3734 7 0
-3734 9 0
-3734 11 0
-3734 14 0
-3734 16 0
-3734 18 0
-3734 20 0
-3734 22 0
-3734 23 0
-3734 26 0
3734 -3 -6 -7 -9 -11 -14 -16 -18 -20 -22 -23 -26 0
-3735 4 0
-3735 6 0
-3735 7 0
-3735 9 0
-3735 11 0
-3735 14 0
-3735 16 0
-3735 18 0
-3735 20 0
-3735 22 0
-3735 23 0
-3735 26 0
3735 -4 -6 -7 -9 -11 -14 -16 -18 -20 -22 -23 -26 0
-3736 3 0
-3736 5 0
-3736 7 0
-3736 9 0
-3736 11 0
-3736 14 0
-3736 16 0
-3736 18 0
-3736 20 0
-3736 22 0
-3736 23 0
-3736 26 0
3736 -3 -5 -7 -9 -11 -14 -16 -18 -20 -22 -23 -26 0
-3737 4 0
-3737 5 0
-3737 7 0
-3737 9 0
-3737 11 0
-3737 14 0
-3737 16 0
-3737 18 0
-3737 20 0
-3737 22 0
-3737 23 0
-3737 26 0
3737 -4 -5 -7 -9 -11 -14 -16 -18 -20 -22 -23 -26 0
-3738 3 0
-3738 5 0
-3738 8 0
-3738 9 0
-3738 11 0
-3738 14 0
-3738 16 0
-3738 18 0
-3738 20 0
-3738 22 0
-3738 23 0
-3738 26 0
3738 -3 -5 -8 -9 -11 -14 -16 -18 -20 -22 -23 -26 0
-3739 4 0
-3739 5 0
-3739 8 0
-3739 9 0
-3739 11 0
-3739 14 0
-3739 16 0
-3739 18 0
-3739 20 0
-3739 22 0
-3739 23 0
-3739 26 0
3739 -4 -5 -8 -9 -11 -14 -16 -18 -20 -22 -23 -26 0
-3740 3 0
-3740 6 0
-3740 8 0
-3740 9 0
-3740 11 0
-3740 14 0
-3740 16 0
-3740 18 0
-3740 20 0
-3740 22 0
-3740 23 0
-3740 26 0
3740 -3 -6 -8 -9 -11 -14 -16 -18 -20 -22 -23 -26 0
-3741 4 0
-3741 6 0
-3741 8 0
-3741 9 0
-3741 11 0
-3741 14 0
-3741 16 0
-3741 18 0
-3741 20 0
-3741 22 0
-3741 23 0
-3741 26 0
3741 -4 -6 -8 -9 -11 -14 -16 -18 -20 -22 -23 -26 0
-3742 3 0
-3742 6 0
-3742 8 0
-3742 10 0
-3742 11 0
-3742 14 0
-3742 16 0
-3742 18 0
-3742 20 0
-3742 22 0
-3742 23 0
-3742 26 0
3742 -3 -6 -8 -10 -11 -14 -16 -18 -20 -22 -23 -26 0
-3743 4 0
-3743 6 0
-3743 8 0
-3743 10 0
-3743 11 0
-3743 14 0
-3743 16 0
-3743 18 0
-3743 20 0
-3743 22 0
-3743 23 0
-3743 26 0
3743 -4 -6 -8 -10 -11 -14 -16 -18 -20 -22 -23 -26 0
-3744 3 0
-3744 5 0
-3744 8 0
-3744 10 0
-3744 11 0
-3744 14 0
-3744 16 0
-3744 18 0
-3744 20 0
-3744 22 0
-3744 23 0
-3744 26 0
3744 -3 -5 -8 -10 -11 -14 -16 -18 -20 -22 -23 -26 0
-3745 4 0
-3745 5 0
-3745 8 0
-3745 10 0
-3745 11 0
-3745 14 0
-3745 16 0
-3745 18 0
-3745 20 0
-3745 22 0
-3745 23 0
-3745 26 0
3745 -4 -5 -8 -10 -11 -14 -16 -18 -20 -22 -23 -26 0
-3746 3 0
-3746 5 0
-3746 7 0
-3746 10 0
-3746 11 0
-3746 14 0
-3746 16 0
-3746 18 0
-3746 20 0
-3746 22 0
-3746 23 0
-3746 26 0
3746 -3 -5 -7 -10 -11 -14 -16 -18 -20 -22 -23 -26 0
-3747 4 0
-3747 5 0
-3747 7 0
-3747 10 0
-3747 11 0
-3747 14 0
-3747 16 0
-3747 18 0
-3747 20 0
-3747 22 0
-3747 23 0
-3747 26 0
3747 -4 -5 -7 -10 -11 -14 -16 -18 -20 -22 -23 -26 0
-3748 3 0
-3748 6 0
-3748 7 0
-3748 10 0
-3748 11 0
-3748 14 0
-3748 16 0
-3748 18 0
-3748 20 0
-3748 22 0
-3748 23 0
-3748 26 0
3748 -3 -6 -7 -10 -11 -14 -16 -18 -20 -22 -23 -26 0
-3749 4 0
-3749 6 0
-3749 7 0
-3749 10 0
-3749 11 0
-3749 14 0
-3749 16 0
-3749 18 0
-3749 20 0
-3749 22 0
-3749 23 0
-3749 26 0
3749 -4 -6 -7 -10 -11 -14 -16 -18 -20 -22 -23 -26 0
-3750 3 0
-3750 6 0
-3750 7 0
-3750 10 0
-3750 12 0
-3750 14 0
-3750 16 0
-3750 18 0
-3750 20 0
-3750 22 0
-3750 23 0
-3750 26 0
3750 -3 -6 -7 -10 -12 -14 -16 -18 -20 -22 -23 -26 0
-3751 4 0
-3751 6 0
-3751 7 0
-3751 10 0
-3751 12 0
-3751 14 0
-3751 16 0
-3751 18 0
-3751 20 0
-3751 22 0
-3751 23 0
-3751 26 0
3751 -4 -6 -7 -10 -12 -14 -16 -18 -20 -22 -23 -26 0
-3752 3 0
-3752 5 0
-3752 7 0
-3752 10 0
-3752 12 0
-3752 14 0
-3752 16 0
-3752 18 0
-3752 20 0
-3752 22 0
-3752 23 0
-3752 26 0
3752 -3 -5 -7 -10 -12 -14 -16 -18 -20 -22 -23 -26 0
-3753 4 0
-3753 5 0
-3753 7 0
-3753 10 0
-3753 12 0
-3753 14 0
-3753 16 0
-3753 18 0
-3753 20 0
-3753 22 0
-3753 23 0
-3753 26 0
3753 -4 -5 -7 -10 -12 -14 -16 -18 -20 -22 -23 -26 0
-3754 3 0
-3754 5 0
-3754 8 0
-3754 10 0
-3754 12 0
-3754 14 0
-3754 16 0
-3754 18 0
-3754 20 0
-3754 22 0
-3754 23 0
-3754 26 0
3754 -3 -5 -8 -10 -12 -14 -16 -18 -20 -22 -23 -26 0
-3755 4 0
-3755 5 0
-3755 8 0
-3755 10 0
-3755 12 0
-3755 14 0
-3755 16 0
-3755 18 0
-3755 20 0
-3755 22 0
-3755 23 0
-3755 26 0
3755 -4 -5 -8 -10 -12 -14 -16 -18 -20 -22 -23 -26 0
-3756 3 0
-3756 6 0
-3756 8 0
-3756 10 0
-3756 12 0
-3756 14 0
-3756 16 0
-3756 18 0
-3756 20 0
-3756 22 0
-3756 23 0
-3756 26 0
3756 -3 -6 -8 -10 -12 -14 -16 -18 -20 -22 -23 -26 0
-3757 3 0
-3757 6 0
-3757 8 0
-3757 9 0
-3757 12 0
-3757 14 0
-3757 16 0
-3757 18 0
-3757 20 0
-3757 22 0
-3757 23 0
-3757 26 0
3757 -3 -6 -8 -9 -12 -14 -16 -18 -20 -22 -23 -26 0
-3758 4 0
-3758 6 0
-3758 8 0
-3758 9 0
-3758 12 0
-3758 14 0
-3758 16 0
-3758 18 0
-3758 20 0
-3758 22 0
-3758 23 0
-3758 26 0
3758 -4 -6 -8 -9 -12 -14 -16 -18 -20 -22 -23 -26 0
-3759 3 0
-3759 5 0
-3759 8 0
-3759 9 0
-3759 12 0
-3759 14 0
-3759 16 0
-3759 18 0
-3759 20 0
-3759 22 0
-3759 23 0
-3759 26 0
3759 -3 -5 -8 -9 -12 -14 -16 -18 -20 -22 -23 -26 0
-3760 4 0
-3760 5 0
-3760 8 0
-3760 9 0
-3760 12 0
-3760 14 0
-3760 16 0
-3760 18 0
-3760 20 0
-3760 22 0
-3760 23 0
-3760 26 0
3760 -4 -5 -8 -9 -12 -14 -16 -18 -20 -22 -23 -26 0
-3761 3 0
-3761 5 0
-3761 7 0
-3761 9 0
-3761 12 0
-3761 14 0
-3761 16 0
-3761 18 0
-3761 20 0
-3761 22 0
-3761 23 0
-3761 26 0
3761 -3 -5 -7 -9 -12 -14 -16 -18 -20 -22 -23 -26 0
-3762 4 0
-3762 5 0
-3762 7 0
-3762 9 0
-3762 12 0
-3762 14 0
-3762 16 0
-3762 18 0
-3762 20 0
-3762 22 0
-3762 23 0
-3762 26 0
3762 -4 -5 -7 -9 -12 -14 -16 -18 -20 -22 -23 -26 0
-3763 3 0
-3763 6 0
-3763 7 0
-3763 9 0
-3763 12 0
-3763 14 0
-3763 16 0
-3763 18 0
-3763 20 0
-3763 22 0
-3763 23 0
-3763 26 0
3763 -3 -6 -7 -9 -12 -14 -16 -18 -20 -22 -23 -26 0
-3764 4 0
-3764 6 0
-3764 7 0
-3764 9 0
-3764 12 0
-3764 14 0
-3764 16 0
-3764 18 0
-3764 20 0
-3764 22 0
-3764 23 0
-3764 26 0
3764 -4 -6 -7 -9 -12 -14 -16 -18 -20 -22 -23 -26 0
-3765 3 0
-3765 6 0
-3765 7 0
-3765 9 0
-3765 12 0
-3765 13 0
-3765 16 0
-3765 18 0
-3765 20 0
-3765 22 0
-3765 23 0
-3765 26 0
3765 -3 -6 -7 -9 -12 -13 -16 -18 -20 -22 -23 -26 0
-3766 4 0
-3766 6 0
-3766 7 0
-3766 9 0
-3766 12 0
-3766 13 0
-3766 16 0
-3766 18 0
-3766 20 0
-3766 22 0
-3766 23 0
-3766 26 0
3766 -4 -6 -7 -9 -12 -13 -16 -18 -20 -22 -23 -26 0
-3767 3 0
-3767 5 0
-3767 7 0
-3767 9 0
-3767 12 0
-3767 13 0
-3767 16 0
-3767 18 0
-3767 20 0
-3767 22 0
-3767 23 0
-3767 26 0
3767 -3 -5 -7 -9 -12 -13 -16 -18 -20 -22 -23 -26 0
-3768 4 0
-3768 5 0
-3768 7 0
-3768 9 0
-3768 12 0
-3768 13 0
-3768 16 0
-3768 18 0
-3768 20 0
-3768 22 0
-3768 23 0
-3768 26 0
3768 -4 -5 -7 -9 -12 -13 -16 -18 -20 -22 -23 -26 0
-3769 3 0
-3769 5 0
-3769 8 0
-3769 9 0
-3769 12 0
-3769 13 0
-3769 16 0
-3769 18 0
-3769 20 0
-3769 22 0
-3769 23 0
-3769 26 0
3769 -3 -5 -8 -9 -12 -13 -16 -18 -20 -22 -23 -26 0
-3770 4 0
-3770 5 0
-3770 8 0
-3770 9 0
-3770 12 0
-3770 13 0
-3770 16 0
-3770 18 0
-3770 20 0
-3770 22 0
-3770 23 0
-3770 26 0
3770 -4 -5 -8 -9 -12 -13 -16 -18 -20 -22 -23 -26 0
-3771 3 0
-3771 6 0
-3771 8 0
-3771 9 0
-3771 12 0
-3771 13 0
-3771 16 0
-3771 18 0
-3771 20 0
-3771 22 0
-3771 23 0
-3771 26 0
3771 -3 -6 -8 -9 -12 -13 -16 -18 -20 -22 -23 -26 0
-3772 4 0
-3772 6 0
-3772 8 0
-3772 9 0
-3772 12 0
-3772 13 0
-3772 16 0
-3772 18 0
-3772 20 0
-3772 22 0
-3772 23 0
-3772 26 0
3772 -4 -6 -8 -9 -12 -13 -16 -18 -20 -22 -23 -26 0
-3773 3 0
-3773 6 0
-3773 8 0
-3773 10 0
-3773 12 0
-3773 13 0
-3773 16 0
-3773 18 0
-3773 20 0
-3773 22 0
-3773 23 0
-3773 26 0
3773 -3 -6 -8 -10 -12 -13 -16 -18 -20 -22 -23 -26 0
-3774 4 0
-3774 6 0
-3774 8 0
-3774 10 0
-3774 12 0
-3774 13 0
-3774 16 0
-3774 18 0
-3774 20 0
-3774 22 0
-3774 23 0
-3774 26 0
3774 -4 -6 -8 -10 -12 -13 -16 -18 -20 -22 -23 -26 0
-3775 3 0
-3775 5 0
-3775 8 0
-3775 10 0
-3775 12 0
-3775 13 0
-3775 16 0
-3775 18 0
-3775 20 0
-3775 22 0
-3775 23 0
-3775 26 0
3775 -3 -5 -8 -10 -12 -13 -16 -18 -20 -22 -23 -26 0
-3776 4 0
-3776 5 0
-3776 8 0
-3776 10 0
-3776 12 0
-3776 13 0
-3776 16 0
-3776 18 0
-3776 20 0
-3776 22 0
-3776 23 0
-3776 26 0
3776 -4 -5 -8 -10 -12 -13 -16 -18 -20 -22 -23 -26 0
-3777 3 0
-3777 5 0
-3777 7 0
-3777 10 0
-3777 12 0
-3777 13 0
-3777 16 0
-3777 18 0
-3777 20 0
-3777 22 0
-3777 23 0
-3777 26 0
3777 -3 -5 -7 -10 -12 -13 -16 -18 -20 -22 -23 -26 0
-3778 4 0
-3778 5 0
-3778 7 0
-3778 10 0
-3778 12 0
-3778 13 0
-3778 16 0
-3778 18 0
-3778 20 0
-3778 22 0
-3778 23 0
-3778 26 0
3778 -4 -5 -7 -10 -12 -13 -16 -18 -20 -22 -23 -26 0
-3779 3 0
-3779 6 0
-3779 7 0
-3779 10 0
-3779 12 0
-3779 13 0
-3779 16 0
-3779 18 0
-3779 20 0
-3779 22 0
-3779 23 0
-3779 26 0
3779 -3 -6 -7 -10 -12 -13 -16 -18 -20 -22 -23 -26 0
-3780 4 0
-3780 6 0
-3780 7 0
-3780 10 0
-3780 12 0
-3780 13 0
-3780 16 0
-3780 18 0
-3780 20 0
-3780 22 0
-3780 23 0
-3780 26 0
3780 -4 -6 -7 -10 -12 -13 -16 -18 -20 -22 -23 -26 0
-3781 3 0
-3781 6 0
-3781 7 0
-3781 10 0
-3781 11 0
-3781 13 0
-3781 16 0
-3781 18 0
-3781 20 0
-3781 22 0
-3781 23 0
-3781 26 0
3781 -3 -6 -7 -10 -11 -13 -16 -18 -20 -22 -23 -26 0
-3782 4 0
-3782 6 0
-3782 7 0
-3782 10 0
-3782 11 0
-3782 13 0
-3782 16 0
-3782 18 0
-3782 20 0
-3782 22 0
-3782 23 0
-3782 26 0
3782 -4 -6 -7 -10 -11 -13 -16 -18 -20 -22 -23 -26 0
-3783 3 0
-3783 5 0
-3783 7 0
-3783 10 0
-3783 11 0
-3783 13 0
-3783 16 0
-3783 18 0
-3783 20 0
-3783 22 0
-3783 23 0
-3783 26 0
3783 -3 -5 -7 -10 -11 -13 -16 -18 -20 -22 -23 -26 0
-3784 4 0
-3784 5 0
-3784 7 0
-3784 10 0
-3784 11 0
-3784 13 0
-3784 16 0
-3784 18 0
-3784 20 0
-3784 22 0
-3784 23 0
-3784 26 0
3784 -4 -5 -7 -10 -11 -13 -16 -18 -20 -22 -23 -26 0
-3785 3 0
-3785 5 0
-3785 8 0
-3785 10 0
-3785 11 0
-3785 13 0
-3785 16 0
-3785 18 0
-3785 20 0
-3785 22 0
-3785 23 0
-3785 26 0
3785 -3 -5 -8 -10 -11 -13 -16 -18 -20 -22 -23 -26 0
-3786 4 0
-3786 5 0
-3786 8 0
-3786 10 0
-3786 11 0
-3786 13 0
-3786 16 0
-3786 18 0
-3786 20 0
-3786 22 0
-3786 23 0
-3786 26 0
3786 -4 -5 -8 -10 -11 -13 -16 -18 -20 -22 -23 -26 0
-3787 3 0
-3787 6 0
-3787 8 0
-3787 10 0
-3787 11 0
-3787 13 0
-3787 16 0
-3787 18 0
-3787 20 0
-3787 22 0
-3787 23 0
-3787 26 0
3787 -3 -6 -8 -10 -11 -13 -16 -18 -20 -22 -23 -26 0
-3788 4 0
-3788 6 0
-3788 8 0
-3788 10 0
-3788 11 0
-3788 13 0
-3788 16 0
-3788 18 0
-3788 20 0
-3788 22 0
-3788 23 0
-3788 26 0
3788 -4 -6 -8 -10 -11 -13 -16 -18 -20 -22 -23 -26 0
-3789 3 0
-3789 6 0
-3789 8 0
-3789 9 0
-3789 11 0
-3789 13 0
-3789 16 0
-3789 18 0
-3789 20 0
-3789 22 0
-3789 23 0
-3789 26 0
3789 -3 -6 -8 -9 -11 -13 -16 -18 -20 -22 -23 -26 0
-3790 4 0
-3790 6 0
-3790 8 0
-3790 9 0
-3790 11 0
-3790 13 0
-3790 16 0
-3790 18 0
-3790 20 0
-3790 22 0
-3790 23 0
-3790 26 0
3790 -4 -6 -8 -9 -11 -13 -16 -18 -20 -22 -23 -26 0
-3791 3 0
-3791 5 0
-3791 8 0
-3791 9 0
-3791 11 0
-3791 13 0
-3791 16 0
-3791 18 0
-3791 20 0
-3791 22 0
-3791 23 0
-3791 26 0
3791 -3 -5 -8 -9 -11 -13 -16 -18 -20 -22 -23 -26 0
-3792 4 0
-3792 5 0
-3792 8 0
-3792 9 0
-3792 11 0
-3792 13 0
-3792 16 0
-3792 18 0
-3792 20 0
-3792 22 0
-3792 23 0
-3792 26 0
3792 -4 -5 -8 -9 -11 -13 -16 -18 -20 -22 -23 -26 0
-3793 3 0
-3793 5 0
-3793 7 0
-3793 9 0
-3793 11 0
-3793 13 0
-3793 16 0
-3793 18 0
-3793 20 0
-3793 22 0
-3793 23 0
-3793 26 0
3793 -3 -5 -7 -9 -11 -13 -16 -18 -20 -22 -23 -26 0
-3794 4 0
-3794 5 0
-3794 7 0
-3794 9 0
-3794 11 0
-3794 13 0
-3794 16 0
-3794 18 0
-3794 20 0
-3794 22 0
-3794 23 0
-3794 26 0
3794 -4 -5 -7 -9 -11 -13 -16 -18 -20 -22 -23 -26 0
-3795 3 0
-3795 6 0
-3795 7 0
-3795 9 0
-3795 11 0
-3795 13 0
-3795 16 0
-3795 18 0
-3795 20 0
-3795 22 0
-3795 23 0
-3795 26 0
3795 -3 -6 -7 -9 -11 -13 -16 -18 -20 -22 -23 -26 0
-3796 4 0
-3796 6 0
-3796 7 0
-3796 9 0
-3796 11 0
-3796 13 0
-3796 16 0
-3796 18 0
-3796 20 0
-3796 22 0
-3796 23 0
-3796 26 0
3796 -4 -6 -7 -9 -11 -13 -16 -18 -20 -22 -23 -26 0
-3797 3 0
-3797 6 0
-3797 7 0
-3797 9 0
-3797 11 0
-3797 13 0
-3797 16 0
-3797 17 0
-3797 20 0
-3797 22 0
-3797 23 0
-3797 26 0
3797 -3 -6 -7 -9 -11 -13 -16 -17 -20 -22 -23 -26 0
-3798 4 0
-3798 6 0
-3798 7 0
-3798 9 0
-3798 11 0
-3798 13 0
-3798 16 0
-3798 17 0
-3798 20 0
-3798 22 0
-3798 23 0
-3798 26 0
3798 -4 -6 -7 -9 -11 -13 -16 -17 -20 -22 -23 -26 0
-3799 3 0
-3799 5 0
-3799 7 0
-3799 9 0
-3799 11 0
-3799 13 0
-3799 16 0
-3799 17 0
-3799 20 0
-3799 22 0
-3799 23 0
-3799 26 0
3799 -3 -5 -7 -9 -11 -13 -16 -17 -20 -22 -23 -26 0
-3800 4 0
-3800 5 0
-3800 7 0
-3800 9 0
-3800 11 0
-3800 13 0
-3800 16 0
-3800 17 0
-3800 20 0
-3800 22 0
-3800 23 0
-3800 26 0
3800 -4 -5 -7 -9 -11 -13 -16 -17 -20 -22 -23 -26 0
-3801 3 0
-3801 5 0
-3801 8 0
-3801 9 0
-3801 11 0
-3801 13 0
-3801 16 0
-3801 17 0
-3801 20 0
-3801 22 0
-3801 23 0
-3801 26 0
3801 -3 -5 -8 -9 -11 -13 -16 -17 -20 -22 -23 -26 0
-3802 4 0
-3802 5 0
-3802 8 0
-3802 9 0
-3802 11 0
-3802 13 0
-3802 16 0
-3802 17 0
-3802 20 0
-3802 22 0
-3802 23 0
-3802 26 0
3802 -4 -5 -8 -9 -11 -13 -16 -17 -20 -22 -23 -26 0
-3803 3 0
-3803 6 0
-3803 8 0
-3803 9 0
-3803 11 0
-3803 13 0
-3803 16 0
-3803 17 0
-3803 20 0
-3803 22 0
-3803 23 0
-3803 26 0
3803 -3 -6 -8 -9 -11 -13 -16 -17 -20 -22 -23 -26 0
-3804 4 0
-3804 6 0
-3804 8 0
-3804 9 0
-3804 11 0
-3804 13 0
-3804 16 0
-3804 17 0
-3804 20 0
-3804 22 0
-3804 23 0
-3804 26 0
3804 -4 -6 -8 -9 -11 -13 -16 -17 -20 -22 -23 -26 0
-3805 3 0
-3805 6 0
-3805 8 0
-3805 10 0
-3805 11 0
-3805 13 0
-3805 16 0
-3805 17 0
-3805 20 0
-3805 22 0
-3805 23 0
-3805 26 0
3805 -3 -6 -8 -10 -11 -13 -16 -17 -20 -22 -23 -26 0
-3806 4 0
-3806 6 0
-3806 8 0
-3806 10 0
-3806 11 0
-3806 13 0
-3806 16 0
-3806 17 0
-3806 20 0
-3806 22 0
-3806 23 0
-3806 26 0
3806 -4 -6 -8 -10 -11 -13 -16 -17 -20 -22 -23 -26 0
-3807 3 0
-3807 5 0
-3807 8 0
-3807 10 0
-3807 11 0
-3807 13 0
-3807 16 0
-3807 17 0
-3807 20 0
-3807 22 0
-3807 23 0
-3807 26 0
3807 -3 -5 -8 -10 -11 -13 -16 -17 -20 -22 -23 -26 0
-3808 4 0
-3808 5 0
-3808 8 0
-3808 10 0
-3808 11 0
-3808 13 0
-3808 16 0
-3808 17 0
-3808 20 0
-3808 22 0
-3808 23 0
-3808 26 0
3808 -4 -5 -8 -10 -11 -13 -16 -17 -20 -22 -23 -26 0
-3809 3 0
-3809 5 0
-3809 7 0
-3809 10 0
-3809 11 0
-3809 13 0
-3809 16 0
-3809 17 0
-3809 20 0
-3809 22 0
-3809 23 0
-3809 26 0
3809 -3 -5 -7 -10 -11 -13 -16 -17 -20 -22 -23 -26 0
-3810 4 0
-3810 5 0
-3810 7 0
-3810 10 0
-3810 11 0
-3810 13 0
-3810 16 0
-3810 17 0
-3810 20 0
-3810 22 0
-3810 23 0
-3810 26 0
3810 -4 -5 -7 -10 -11 -13 -16 -17 -20 -22 -23 -26 0
-3811 3 0
-3811 6 0
-3811 7 0
-3811 10 0
-3811 11 0
-3811 13 0
-3811 16 0
-3811 17 0
-3811 20 0
-3811 22 0
-3811 23 0
-3811 26 0
3811 -3 -6 -7 -10 -11 -13 -16 -17 -20 -22 -23 -26 0
-3812 4 0
-3812 6 0
-3812 7 0
-3812 10 0
-3812 11 0
-3812 13 0
-3812 16 0
-3812 17 0
-3812 20 0
-3812 22 0
-3812 23 0
-3812 26 0
3812 -4 -6 -7 -10 -11 -13 -16 -17 -20 -22 -23 -26 0
-3813 3 0
-3813 6 0
-3813 7 0
-3813 10 0
-3813 12 0
-3813 13 0
-3813 16 0
-3813 17 0
-3813 20 0
-3813 22 0
-3813 23 0
-3813 26 0
3813 -3 -6 -7 -10 -12 -13 -16 -17 -20 -22 -23 -26 0
-3814 4 0
-3814 6 0
-3814 7 0
-3814 10 0
-3814 12 0
-3814 13 0
-3814 16 0
-3814 17 0
-3814 20 0
-3814 22 0
-3814 23 0
-3814 26 0
3814 -4 -6 -7 -10 -12 -13 -16 -17 -20 -22 -23 -26 0
-3815 3 0
-3815 5 0
-3815 7 0
-3815 10 0
-3815 12 0
-3815 13 0
-3815 16 0
-3815 17 0
-3815 20 0
-3815 22 0
-3815 23 0
-3815 26 0
3815 -3 -5 -7 -10 -12 -13 -16 -17 -20 -22 -23 -26 0
-3816 4 0
-3816 5 0
-3816 7 0
-3816 10 0
-3816 12 0
-3816 13 0
-3816 16 0
-3816 17 0
-3816 20 0
-3816 22 0
-3816 23 0
-3816 26 0
3816 -4 -5 -7 -10 -12 -13 -16 -17 -20 -22 -23 -26 0
-3817 3 0
-3817 5 0
-3817 8 0
-3817 10 0
-3817 12 0
-3817 13 0
-3817 16 0
-3817 17 0
-3817 20 0
-3817 22 0
-3817 23 0
-3817 26 0
3817 -3 -5 -8 -10 -12 -13 -16 -17 -20 -22 -23 -26 0
-3818 4 0
-3818 5 0
-3818 8 0
-3818 10 0
-3818 12 0
-3818 13 0
-3818 16 0
-3818 17 0
-3818 20 0
-3818 22 0
-3818 23 0
-3818 26 0
3818 -4 -5 -8 -10 -12 -13 -16 -17 -20 -22 -23 -26 0
-3819 3 0
-3819 6 0
-3819 8 0
-3819 10 0
-3819 12 0
-3819 13 0
-3819 16 0
-3819 17 0
-3819 20 0
-3819 22 0
-3819 23 0
-3819 26 0
3819 -3 -6 -8 -10 -12 -13 -16 -17 -20 -22 -23 -26 0
-3820 4 0
-3820 6 0
-3820 8 0
-3820 10 0
-3820 12 0
-3820 13 0
-3820 16 0
-3820 17 0
-3820 20 0
-3820 22 0
-3820 23 0
-3820 26 0
3820 -4 -6 -8 -10 -12 -13 -16 -17 -20 -22 -23 -26 0
-3821 3 0
-3821 6 0
-3821 8 0
-3821 9 0
-3821 12 0
-3821 13 0
-3821 16 0
-3821 17 0
-3821 20 0
-3821 22 0
-3821 23 0
-3821 26 0
3821 -3 -6 -8 -9 -12 -13 -16 -17 -20 -22 -23 -26 0
-3822 4 0
-3822 6 0
-3822 8 0
-3822 9 0
-3822 12 0
-3822 13 0
-3822 16 0
-3822 17 0
-3822 20 0
-3822 22 0
-3822 23 0
-3822 26 0
3822 -4 -6 -8 -9 -12 -13 -16 -17 -20 -22 -23 -26 0
-3823 3 0
-3823 5 0
-3823 8 0
-3823 9 0
-3823 12 0
-3823 13 0
-3823 16 0
-3823 17 0
-3823 20 0
-3823 22 0
-3823 23 0
-3823 26 0
3823 -3 -5 -8 -9 -12 -13 -16 -17 -20 -22 -23 -26 0
-3824 4 0
-3824 5 0
-3824 8 0
-3824 9 0
-3824 12 0
-3824 13 0
-3824 16 0
-3824 17 0
-3824 20 0
-3824 22 0
-3824 23 0
-3824 26 0
3824 -4 -5 -8 -9 -12 -13 -16 -17 -20 -22 -23 -26 0
-3825 3 0
-3825 5 0
-3825 7 0
-3825 9 0
-3825 12 0
-3825 13 0
-3825 16 0
-3825 17 0
-3825 20 0
-3825 22 0
-3825 23 0
-3825 26 0
3825 -3 -5 -7 -9 -12 -13 -16 -17 -20 -22 -23 -26 0
-3826 4 0
-3826 5 0
-3826 7 0
-3826 9 0
-3826 12 0
-3826 13 0
-3826 16 0
-3826 17 0
-3826 20 0
-3826 22 0
-3826 23 0
-3826 26 0
3826 -4 -5 -7 -9 -12 -13 -16 -17 -20 -22 -23 -26 0
-3827 3 0
-3827 6 0
-3827 7 0
-3827 9 0
-3827 12 0
-3827 13 0
-3827 16 0
-3827 17 0
-3827 20 0
-3827 22 0
-3827 23 0
-3827 26 0
3827 -3 -6 -7 -9 -12 -13 -16 -17 -20 -22 -23 -26 0
-3828 4 0
-3828 6 0
-3828 7 0
-3828 9 0
-3828 12 0
-3828 13 0
-3828 16 0
-3828 17 0
-3828 20 0
-3828 22 0
-3828 23 0
-3828 26 0
3828 -4 -6 -7 -9 -12 -13 -16 -17 -20 -22 -23 -26 0
-3829 3 0
-3829 6 0
-3829 7 0
-3829 9 0
-3829 12 0
-3829 14 0
-3829 16 0
-3829 17 0
-3829 20 0
-3829 22 0
-3829 23 0
-3829 26 0
3829 -3 -6 -7 -9 -12 -14 -16 -17 -20 -22 -23 -26 0
-3830 4 0
-3830 6 0
-3830 7 0
-3830 9 0
-3830 12 0
-3830 14 0
-3830 16 0
-3830 17 0
-3830 20 0
-3830 22 0
-3830 23 0
-3830 26 0
3830 -4 -6 -7 -9 -12 -14 -16 -17 -20 -22 -23 -26 0
-3831 3 0
-3831 5 0
-3831 7 0
-3831 9 0
-3831 12 0
-3831 14 0
-3831 16 0
-3831 17 0
-3831 20 0
-3831 22 0
-3831 23 0
-3831 26 0
3831 -3 -5 -7 -9 -12 -14 -16 -17 -20 -22 -23 -26 0
-3832 4 0
-3832 5 0
-3832 7 0
-3832 9 0
-3832 12 0
-3832 14 0
-3832 16 0
-3832 17 0
-3832 20 0
-3832 22 0
-3832 23 0
-3832 26 0
3832 -4 -5 -7 -9 -12 -14 -16 -17 -20 -22 -23 -26 0
-3833 3 0
-3833 5 0
-3833 8 0
-3833 9 0
-3833 12 0
-3833 14 0
-3833 16 0
-3833 17 0
-3833 20 0
-3833 22 0
-3833 23 0
-3833 26 0
3833 -3 -5 -8 -9 -12 -14 -16 -17 -20 -22 -23 -26 0
-3834 4 0
-3834 5 0
-3834 8 0
-3834 9 0
-3834 12 0
-3834 14 0
-3834 16 0
-3834 17 0
-3834 20 0
-3834 22 0
-3834 23 0
-3834 26 0
3834 -4 -5 -8 -9 -12 -14 -16 -17 -20 -22 -23 -26 0
-3835 3 0
-3835 6 0
-3835 8 0
-3835 9 0
-3835 12 0
-3835 14 0
-3835 16 0
-3835 17 0
-3835 20 0
-3835 22 0
-3835 23 0
-3835 26 0
3835 -3 -6 -8 -9 -12 -14 -16 -17 -20 -22 -23 -26 0
-3836 4 0
-3836 6 0
-3836 8 0
-3836 9 0
-3836 12 0
-3836 14 0
-3836 16 0
-3836 17 0
-3836 20 0
-3836 22 0
-3836 23 0
-3836 26 0
3836 -4 -6 -8 -9 -12 -14 -16 -17 -20 -22 -23 -26 0
-3837 3 0
-3837 6 0
-3837 8 0
-3837 10 0
-3837 12 0
-3837 14 0
-3837 16 0
-3837 17 0
-3837 20 0
-3837 22 0
-3837 23 0
-3837 26 0
3837 -3 -6 -8 -10 -12 -14 -16 -17 -20 -22 -23 -26 0
-3838 4 0
-3838 6 0
-3838 8 0
-3838 10 0
-3838 12 0
-3838 14 0
-3838 16 0
-3838 17 0
-3838 20 0
-3838 22 0
-3838 23 0
-3838 26 0
3838 -4 -6 -8 -10 -12 -14 -16 -17 -20 -22 -23 -26 0
-3839 3 0
-3839 5 0
-3839 8 0
-3839 10 0
-3839 12 0
-3839 14 0
-3839 16 0
-3839 17 0
-3839 20 0
-3839 22 0
-3839 23 0
-3839 26 0
3839 -3 -5 -8 -10 -12 -14 -16 -17 -20 -22 -23 -26 0
-3840 4 0
-3840 5 0
-3840 8 0
-3840 10 0
-3840 12 0
-3840 14 0
-3840 16 0
-3840 17 0
-3840 20 0
-3840 22 0
-3840 23 0
-3840 26 0
3840 -4 -5 -8 -10 -12 -14 -16 -17 -20 -22 -23 -26 0
-3841 3 0
-3841 5 0
-3841 7 0
-3841 10 0
-3841 12 0
-3841 14 0
-3841 16 0
-3841 17 0
-3841 20 0
-3841 22 0
-3841 23 0
-3841 26 0
3841 -3 -5 -7 -10 -12 -14 -16 -17 -20 -22 -23 -26 0
-3842 4 0
-3842 5 0
-3842 7 0
-3842 10 0
-3842 12 0
-3842 14 0
-3842 16 0
-3842 17 0
-3842 20 0
-3842 22 0
-3842 23 0
-3842 26 0
3842 -4 -5 -7 -10 -12 -14 -16 -17 -20 -22 -23 -26 0
-3843 3 0
-3843 6 0
-3843 7 0
-3843 10 0
-3843 12 0
-3843 14 0
-3843 16 0
-3843 17 0
-3843 20 0
-3843 22 0
-3843 23 0
-3843 26 0
3843 -3 -6 -7 -10 -12 -14 -16 -17 -20 -22 -23 -26 0
-3844 4 0
-3844 6 0
-3844 7 0
-3844 10 0
-3844 12 0
-3844 14 0
-3844 16 0
-3844 17 0
-3844 20 0
-3844 22 0
-3844 23 0
-3844 26 0
3844 -4 -6 -7 -10 -12 -14 -16 -17 -20 -22 -23 -26 0
-3845 3 0
-3845 6 0
-3845 7 0
-3845 10 0
-3845 11 0
-3845 14 0
-3845 16 0
-3845 17 0
-3845 20 0
-3845 22 0
-3845 23 0
-3845 26 0
3845 -3 -6 -7 -10 -11 -14 -16 -17 -20 -22 -23 -26 0
-3846 4 0
-3846 6 0
-3846 7 0
-3846 10 0
-3846 11 0
-3846 14 0
-3846 16 0
-3846 17 0
-3846 20 0
-3846 22 0
-3846 23 0
-3846 26 0
3846 -4 -6 -7 -10 -11 -14 -16 -17 -20 -22 -23 -26 0
-3847 3 0
-3847 5 0
-3847 7 0
-3847 10 0
-3847 11 0
-3847 14 0
-3847 16 0
-3847 17 0
-3847 20 0
-3847 22 0
-3847 23 0
-3847 26 0
3847 -3 -5 -7 -10 -11 -14 -16 -17 -20 -22 -23 -26 0
-3848 4 0
-3848 5 0
-3848 7 0
-3848 10 0
-3848 11 0
-3848 14 0
-3848 16 0
-3848 17 0
-3848 20 0
-3848 22 0
-3848 23 0
-3848 26 0
3848 -4 -5 -7 -10 -11 -14 -16 -17 -20 -22 -23 -26 0
-3849 3 0
-3849 5 0
-3849 8 0
-3849 10 0
-3849 11 0
-3849 14 0
-3849 16 0
-3849 17 0
-3849 20 0
-3849 22 0
-3849 23 0
-3849 26 0
3849 -3 -5 -8 -10 -11 -14 -16 -17 -20 -22 -23 -26 0
-3850 4 0
-3850 5 0
-3850 8 0
-3850 10 0
-3850 11 0
-3850 14 0
-3850 16 0
-3850 17 0
-3850 20 0
-3850 22 0
-3850 23 0
-3850 26 0
3850 -4 -5 -8 -10 -11 -14 -16 -17 -20 -22 -23 -26 0
-3851 3 0
-3851 6 0
-3851 8 0
-3851 10 0
-3851 11 0
-3851 14 0
-3851 16 0
-3851 17 0
-3851 20 0
-3851 22 0
-3851 23 0
-3851 26 0
3851 -3 -6 -8 -10 -11 -14 -16 -17 -20 -22 -23 -26 0
-3852 4 0
-3852 6 0
-3852 8 0
-3852 10 0
-3852 11 0
-3852 14 0
-3852 16 0
-3852 17 0
-3852 20 0
-3852 22 0
-3852 23 0
-3852 26 0
3852 -4 -6 -8 -10 -11 -14 -16 -17 -20 -22 -23 -26 0
-3853 3 0
-3853 6 0
-3853 8 0
-3853 9 0
-3853 11 0
-3853 14 0
-3853 16 0
-3853 17 0
-3853 20 0
-3853 22 0
-3853 23 0
-3853 26 0
3853 -3 -6 -8 -9 -11 -14 -16 -17 -20 -22 -23 -26 0
-3854 4 0
-3854 6 0
-3854 8 0
-3854 9 0
-3854 11 0
-3854 14 0
-3854 16 0
-3854 17 0
-3854 20 0
-3854 22 0
-3854 23 0
-3854 26 0
3854 -4 -6 -8 -9 -11 -14 -16 -17 -20 -22 -23 -26 0
-3855 3 0
-3855 5 0
-3855 8 0
-3855 9 0
-3855 11 0
-3855 14 0
-3855 16 0
-3855 17 0
-3855 20 0
-3855 22 0
-3855 23 0
-3855 26 0
3855 -3 -5 -8 -9 -11 -14 -16 -17 -20 -22 -23 -26 0
-3856 4 0
-3856 5 0
-3856 8 0
-3856 9 0
-3856 11 0
-3856 14 0
-3856 16 0
-3856 17 0
-3856 20 0
-3856 22 0
-3856 23 0
-3856 26 0
3856 -4 -5 -8 -9 -11 -14 -16 -17 -20 -22 -23 -26 0
-3857 3 0
-3857 5 0
-3857 7 0
-3857 9 0
-3857 11 0
-3857 14 0
-3857 16 0
-3857 17 0
-3857 20 0
-3857 22 0
-3857 23 0
-3857 26 0
3857 -3 -5 -7 -9 -11 -14 -16 -17 -20 -22 -23 -26 0
-3858 4 0
-3858 5 0
-3858 7 0
-3858 9 0
-3858 11 0
-3858 14 0
-3858 16 0
-3858 17 0
-3858 20 0
-3858 22 0
-3858 23 0
-3858 26 0
3858 -4 -5 -7 -9 -11 -14 -16 -17 -20 -22 -23 -26 0
-3859 3 0
-3859 6 0
-3859 7 0
-3859 9 0
-3859 11 0
-3859 14 0
-3859 16 0
-3859 17 0
-3859 20 0
-3859 22 0
-3859 23 0
-3859 26 0
3859 -3 -6 -7 -9 -11 -14 -16 -17 -20 -22 -23 -26 0
-3860 4 0
-3860 6 0
-3860 7 0
-3860 9 0
-3860 11 0
-3860 14 0
-3860 16 0
-3860 17 0
-3860 20 0
-3860 22 0
-3860 23 0
-3860 26 0
3860 -4 -6 -7 -9 -11 -14 -16 -17 -20 -22 -23 -26 0
-3861 3 0
-3861 6 0
-3861 7 0
-3861 9 0
-3861 11 0
-3861 14 0
-3861 15 0
-3861 17 0
-3861 20 0
-3861 22 0
-3861 23 0
-3861 26 0
3861 -3 -6 -7 -9 -11 -14 -15 -17 -20 -22 -23 -26 0
-3862 4 0
-3862 6 0
-3862 7 0
-3862 9 0
-3862 11 0
-3862 14 0
-3862 15 0
-3862 17 0
-3862 20 0
-3862 22 0
-3862 23 0
-3862 26 0
3862 -4 -6 -7 -9 -11 -14 -15 -17 -20 -22 -23 -26 0
-3863 3 0
-3863 5 0
-3863 7 0
-3863 9 0
-3863 11 0
-3863 14 0
-3863 15 0
-3863 17 0
-3863 20 0
-3863 22 0
-3863 23 0
-3863 26 0
3863 -3 -5 -7 -9 -11 -14 -15 -17 -20 -22 -23 -26 0
-3864 4 0
-3864 5 0
-3864 7 0
-3864 9 0
-3864 11 0
-3864 14 0
-3864 15 0
-3864 17 0
-3864 20 0
-3864 22 0
-3864 23 0
-3864 26 0
3864 -4 -5 -7 -9 -11 -14 -15 -17 -20 -22 -23 -26 0
-3865 3 0
-3865 5 0
-3865 8 0
-3865 9 0
-3865 11 0
-3865 14 0
-3865 15 0
-3865 17 0
-3865 20 0
-3865 22 0
-3865 23 0
-3865 26 0
3865 -3 -5 -8 -9 -11 -14 -15 -17 -20 -22 -23 -26 0
-3866 4 0
-3866 5 0
-3866 8 0
-3866 9 0
-3866 11 0
-3866 14 0
-3866 15 0
-3866 17 0
-3866 20 0
-3866 22 0
-3866 23 0
-3866 26 0
3866 -4 -5 -8 -9 -11 -14 -15 -17 -20 -22 -23 -26 0
-3867 3 0
-3867 6 0
-3867 8 0
-3867 9 0
-3867 11 0
-3867 14 0
-3867 15 0
-3867 17 0
-3867 20 0
-3867 22 0
-3867 23 0
-3867 26 0
3867 -3 -6 -8 -9 -11 -14 -15 -17 -20 -22 -23 -26 0
-3868 4 0
-3868 6 0
-3868 8 0
-3868 9 0
-3868 11 0
-3868 14 0
-3868 15 0
-3868 17 0
-3868 20 0
-3868 22 0
-3868 23 0
-3868 26 0
3868 -4 -6 -8 -9 -11 -14 -15 -17 -20 -22 -23 -26 0
-3869 3 0
-3869 6 0
-3869 8 0
-3869 10 0
-3869 11 0
-3869 14 0
-3869 15 0
-3869 17 0
-3869 20 0
-3869 22 0
-3869 23 0
-3869 26 0
3869 -3 -6 -8 -10 -11 -14 -15 -17 -20 -22 -23 -26 0
-3870 4 0
-3870 6 0
-3870 8 0
-3870 10 0
-3870 11 0
-3870 14 0
-3870 15 0
-3870 17 0
-3870 20 0
-3870 22 0
-3870 23 0
-3870 26 0
3870 -4 -6 -8 -10 -11 -14 -15 -17 -20 -22 -23 -26 0
-3871 3 0
-3871 5 0
-3871 8 0
-3871 10 0
-3871 11 0
-3871 14 0
-3871 15 0
-3871 17 0
-3871 20 0
-3871 22 0
-3871 23 0
-3871 26 0
3871 -3 -5 -8 -10 -11 -14 -15 -17 -20 -22 -23 -26 0
-3872 4 0
-3872 5 0
-3872 8 0
-3872 10 0
-3872 11 0
-3872 14 0
-3872 15 0
-3872 17 0
-3872 20 0
-3872 22 0
-3872 23 0
-3872 26 0
3872 -4 -5 -8 -10 -11 -14 -15 -17 -20 -22 -23 -26 0
-3873 3 0
-3873 5 0
-3873 7 0
-3873 10 0
-3873 11 0
-3873 14 0
-3873 15 0
-3873 17 0
-3873 20 0
-3873 22 0
-3873 23 0
-3873 26 0
3873 -3 -5 -7 -10 -11 -14 -15 -17 -20 -22 -23 -26 0
-3874 4 0
-3874 5 0
-3874 7 0
-3874 10 0
-3874 11 0
-3874 14 0
-3874 15 0
-3874 17 0
-3874 20 0
-3874 22 0
-3874 23 0
-3874 26 0
3874 -4 -5 -7 -10 -11 -14 -15 -17 -20 -22 -23 -26 0
-3875 3 0
-3875 6 0
-3875 7 0
-3875 10 0
-3875 11 0
-3875 14 0
-3875 15 0
-3875 17 0
-3875 20 0
-3875 22 0
-3875 23 0
-3875 26 0
3875 -3 -6 -7 -10 -11 -14 -15 -17 -20 -22 -23 -26 0
-3876 4 0
-3876 6 0
-3876 7 0
-3876 10 0
-3876 11 0
-3876 14 0
-3876 15 0
-3876 17 0
-3876 20 0
-3876 22 0
-3876 23 0
-3876 26 0
3876 -4 -6 -7 -10 -11 -14 -15 -17 -20 -22 -23 -26 0
-3877 3 0
-3877 6 0
-3877 7 0
-3877 10 0
-3877 12 0
-3877 14 0
-3877 15 0
-3877 17 0
-3877 20 0
-3877 22 0
-3877 23 0
-3877 26 0
3877 -3 -6 -7 -10 -12 -14 -15 -17 -20 -22 -23 -26 0
-3878 4 0
-3878 6 0
-3878 7 0
-3878 10 0
-3878 12 0
-3878 14 0
-3878 15 0
-3878 17 0
-3878 20 0
-3878 22 0
-3878 23 0
-3878 26 0
3878 -4 -6 -7 -10 -12 -14 -15 -17 -20 -22 -23 -26 0
-3879 3 0
-3879 5 0
-3879 7 0
-3879 10 0
-3879 12 0
-3879 14 0
-3879 15 0
-3879 17 0
-3879 20 0
-3879 22 0
-3879 23 0
-3879 26 0
3879 -3 -5 -7 -10 -12 -14 -15 -17 -20 -22 -23 -26 0
-3880 4 0
-3880 5 0
-3880 7 0
-3880 10 0
-3880 12 0
-3880 14 0
-3880 15 0
-3880 17 0
-3880 20 0
-3880 22 0
-3880 23 0
-3880 26 0
3880 -4 -5 -7 -10 -12 -14 -15 -17 -20 -22 -23 -26 0
-3881 3 0
-3881 5 0
-3881 8 0
-3881 10 0
-3881 12 0
-3881 14 0
-3881 15 0
-3881 17 0
-3881 20 0
-3881 22 0
-3881 23 0
-3881 26 0
3881 -3 -5 -8 -10 -12 -14 -15 -17 -20 -22 -23 -26 0
-3882 4 0
-3882 5 0
-3882 8 0
-3882 10 0
-3882 12 0
-3882 14 0
-3882 15 0
-3882 17 0
-3882 20 0
-3882 22 0
-3882 23 0
-3882 26 0
3882 -4 -5 -8 -10 -12 -14 -15 -17 -20 -22 -23 -26 0
-3883 3 0
-3883 6 0
-3883 8 0
-3883 10 0
-3883 12 0
-3883 14 0
-3883 15 0
-3883 17 0
-3883 20 0
-3883 22 0
-3883 23 0
-3883 26 0
3883 -3 -6 -8 -10 -12 -14 -15 -17 -20 -22 -23 -26 0
-3884 4 0
-3884 6 0
-3884 8 0
-3884 10 0
-3884 12 0
-3884 14 0
-3884 15 0
-3884 17 0
-3884 20 0
-3884 22 0
-3884 23 0
-3884 26 0
3884 -4 -6 -8 -10 -12 -14 -15 -17 -20 -22 -23 -26 0
-3885 3 0
-3885 6 0
-3885 8 0
-3885 9 0
-3885 12 0
-3885 14 0
-3885 15 0
-3885 17 0
-3885 20 0
-3885 22 0
-3885 23 0
-3885 26 0
3885 -3 -6 -8 -9 -12 -14 -15 -17 -20 -22 -23 -26 0
-3886 4 0
-3886 6 0
-3886 8 0
-3886 9 0
-3886 12 0
-3886 14 0
-3886 15 0
-3886 17 0
-3886 20 0
-3886 22 0
-3886 23 0
-3886 26 0
3886 -4 -6 -8 -9 -12 -14 -15 -17 -20 -22 -23 -26 0
-3887 3 0
-3887 5 0
-3887 8 0
-3887 9 0
-3887 12 0
-3887 14 0
-3887 15 0
-3887 17 0
-3887 20 0
-3887 22 0
-3887 23 0
-3887 26 0
3887 -3 -5 -8 -9 -12 -14 -15 -17 -20 -22 -23 -26 0
-3888 4 0
-3888 5 0
-3888 8 0
-3888 9 0
-3888 12 0
-3888 14 0
-3888 15 0
-3888 17 0
-3888 20 0
-3888 22 0
-3888 23 0
-3888 26 0
3888 -4 -5 -8 -9 -12 -14 -15 -17 -20 -22 -23 -26 0
-3889 3 0
-3889 5 0
-3889 7 0
-3889 9 0
-3889 12 0
-3889 14 0
-3889 15 0
-3889 17 0
-3889 20 0
-3889 22 0
-3889 23 0
-3889 26 0
3889 -3 -5 -7 -9 -12 -14 -15 -17 -20 -22 -23 -26 0
-3890 4 0
-3890 5 0
-3890 7 0
-3890 9 0
-3890 12 0
-3890 14 0
-3890 15 0
-3890 17 0
-3890 20 0
-3890 22 0
-3890 23 0
-3890 26 0
3890 -4 -5 -7 -9 -12 -14 -15 -17 -20 -22 -23 -26 0
-3891 3 0
-3891 6 0
-3891 7 0
-3891 9 0
-3891 12 0
-3891 14 0
-3891 15 0
-3891 17 0
-3891 20 0
-3891 22 0
-3891 23 0
-3891 26 0
3891 -3 -6 -7 -9 -12 -14 -15 -17 -20 -22 -23 -26 0
-3892 4 0
-3892 6 0
-3892 7 0
-3892 9 0
-3892 12 0
-3892 14 0
-3892 15 0
-3892 17 0
-3892 20 0
-3892 22 0
-3892 23 0
-3892 26 0
3892 -4 -6 -7 -9 -12 -14 -15 -17 -20 -22 -23 -26 0
-3893 3 0
-3893 6 0
-3893 7 0
-3893 9 0
-3893 12 0
-3893 13 0
-3893 15 0
-3893 17 0
-3893 20 0
-3893 22 0
-3893 23 0
-3893 26 0
3893 -3 -6 -7 -9 -12 -13 -15 -17 -20 -22 -23 -26 0
-3894 4 0
-3894 6 0
-3894 7 0
-3894 9 0
-3894 12 0
-3894 13 0
-3894 15 0
-3894 17 0
-3894 20 0
-3894 22 0
-3894 23 0
-3894 26 0
3894 -4 -6 -7 -9 -12 -13 -15 -17 -20 -22 -23 -26 0
-3895 3 0
-3895 5 0
-3895 7 0
-3895 9 0
-3895 12 0
-3895 13 0
-3895 15 0
-3895 17 0
-3895 20 0
-3895 22 0
-3895 23 0
-3895 26 0
3895 -3 -5 -7 -9 -12 -13 -15 -17 -20 -22 -23 -26 0
-3896 4 0
-3896 5 0
-3896 7 0
-3896 9 0
-3896 12 0
-3896 13 0
-3896 15 0
-3896 17 0
-3896 20 0
-3896 22 0
-3896 23 0
-3896 26 0
3896 -4 -5 -7 -9 -12 -13 -15 -17 -20 -22 -23 -26 0
-3897 3 0
-3897 5 0
-3897 8 0
-3897 9 0
-3897 12 0
-3897 13 0
-3897 15 0
-3897 17 0
-3897 20 0
-3897 22 0
-3897 23 0
-3897 26 0
3897 -3 -5 -8 -9 -12 -13 -15 -17 -20 -22 -23 -26 0
-3898 4 0
-3898 5 0
-3898 8 0
-3898 9 0
-3898 12 0
-3898 13 0
-3898 15 0
-3898 17 0
-3898 20 0
-3898 22 0
-3898 23 0
-3898 26 0
3898 -4 -5 -8 -9 -12 -13 -15 -17 -20 -22 -23 -26 0
-3899 3 0
-3899 6 0
-3899 8 0
-3899 9 0
-3899 12 0
-3899 13 0
-3899 15 0
-3899 17 0
-3899 20 0
-3899 22 0
-3899 23 0
-3899 26 0
3899 -3 -6 -8 -9 -12 -13 -15 -17 -20 -22 -23 -26 0
-3900 4 0
-3900 6 0
-3900 8 0
-3900 9 0
-3900 12 0
-3900 13 0
-3900 15 0
-3900 17 0
-3900 20 0
-3900 22 0
-3900 23 0
-3900 26 0
3900 -4 -6 -8 -9 -12 -13 -15 -17 -20 -22 -23 -26 0
-3901 3 0
-3901 6 0
-3901 8 0
-3901 10 0
-3901 12 0
-3901 13 0
-3901 15 0
-3901 17 0
-3901 20 0
-3901 22 0
-3901 23 0
-3901 26 0
3901 -3 -6 -8 -10 -12 -13 -15 -17 -20 -22 -23 -26 0
-3902 4 0
-3902 6 0
-3902 8 0
-3902 10 0
-3902 12 0
-3902 13 0
-3902 15 0
-3902 17 0
-3902 20 0
-3902 22 0
-3902 23 0
-3902 26 0
3902 -4 -6 -8 -10 -12 -13 -15 -17 -20 -22 -23 -26 0
-3903 3 0
-3903 5 0
-3903 8 0
-3903 10 0
-3903 12 0
-3903 13 0
-3903 15 0
-3903 17 0
-3903 20 0
-3903 22 0
-3903 23 0
-3903 26 0
3903 -3 -5 -8 -10 -12 -13 -15 -17 -20 -22 -23 -26 0
-3904 4 0
-3904 5 0
-3904 8 0
-3904 10 0
-3904 12 0
-3904 13 0
-3904 15 0
-3904 17 0
-3904 20 0
-3904 22 0
-3904 23 0
-3904 26 0
3904 -4 -5 -8 -10 -12 -13 -15 -17 -20 -22 -23 -26 0
-3905 3 0
-3905 5 0
-3905 7 0
-3905 10 0
-3905 12 0
-3905 13 0
-3905 15 0
-3905 17 0
-3905 20 0
-3905 22 0
-3905 23 0
-3905 26 0
3905 -3 -5 -7 -10 -12 -13 -15 -17 -20 -22 -23 -26 0
-3906 4 0
-3906 5 0
-3906 7 0
-3906 10 0
-3906 12 0
-3906 13 0
-3906 15 0
-3906 17 0
-3906 20 0
-3906 22 0
-3906 23 0
-3906 26 0
3906 -4 -5 -7 -10 -12 -13 -15 -17 -20 -22 -23 -26 0
-3907 3 0
-3907 6 0
-3907 7 0
-3907 10 0
-3907 12 0
-3907 13 0
-3907 15 0
-3907 17 0
-3907 20 0
-3907 22 0
-3907 23 0
-3907 26 0
3907 -3 -6 -7 -10 -12 -13 -15 -17 -20 -22 -23 -26 0
-3908 4 0
-3908 6 0
-3908 7 0
-3908 10 0
-3908 12 0
-3908 13 0
-3908 15 0
-3908 17 0
-3908 20 0
-3908 22 0
-3908 23 0
-3908 26 0
3908 -4 -6 -7 -10 -12 -13 -15 -17 -20 -22 -23 -26 0
-3909 3 0
-3909 6 0
-3909 7 0
-3909 10 0
-3909 11 0
-3909 13 0
-3909 15 0
-3909 17 0
-3909 20 0
-3909 22 0
-3909 23 0
-3909 26 0
3909 -3 -6 -7 -10 -11 -13 -15 -17 -20 -22 -23 -26 0
-3910 4 0
-3910 6 0
-3910 7 0
-3910 10 0
-3910 11 0
-3910 13 0
-3910 15 0
-3910 17 0
-3910 20 0
-3910 22 0
-3910 23 0
-3910 26 0
3910 -4 -6 -7 -10 -11 -13 -15 -17 -20 -22 -23 -26 0
-3911 3 0
-3911 5 0
-3911 7 0
-3911 10 0
-3911 11 0
-3911 13 0
-3911 15 0
-3911 17 0
-3911 20 0
-3911 22 0
-3911 23 0
-3911 26 0
3911 -3 -5 -7 -10 -11 -13 -15 -17 -20 -22 -23 -26 0
-3912 4 0
-3912 5 0
-3912 7 0
-3912 10 0
-3912 11 0
-3912 13 0
-3912 15 0
-3912 17 0
-3912 20 0
-3912 22 0
-3912 23 0
-3912 26 0
3912 -4 -5 -7 -10 -11 -13 -15 -17 -20 -22 -23 -26 0
-3913 3 0
-3913 5 0
-3913 8 0
-3913 10 0
-3913 11 0
-3913 13 0
-3913 15 0
-3913 17 0
-3913 20 0
-3913 22 0
-3913 23 0
-3913 26 0
3913 -3 -5 -8 -10 -11 -13 -15 -17 -20 -22 -23 -26 0
-3914 4 0
-3914 5 0
-3914 8 0
-3914 10 0
-3914 11 0
-3914 13 0
-3914 15 0
-3914 17 0
-3914 20 0
-3914 22 0
-3914 23 0
-3914 26 0
3914 -4 -5 -8 -10 -11 -13 -15 -17 -20 -22 -23 -26 0
-3915 3 0
-3915 6 0
-3915 8 0
-3915 10 0
-3915 11 0
-3915 13 0
-3915 15 0
-3915 17 0
-3915 20 0
-3915 22 0
-3915 23 0
-3915 26 0
3915 -3 -6 -8 -10 -11 -13 -15 -17 -20 -22 -23 -26 0
-3916 4 0
-3916 6 0
-3916 8 0
-3916 10 0
-3916 11 0
-3916 13 0
-3916 15 0
-3916 17 0
-3916 20 0
-3916 22 0
-3916 23 0
-3916 26 0
3916 -4 -6 -8 -10 -11 -13 -15 -17 -20 -22 -23 -26 0
-3917 3 0
-3917 6 0
-3917 8 0
-3917 9 0
-3917 11 0
-3917 13 0
-3917 15 0
-3917 17 0
-3917 20 0
-3917 22 0
-3917 23 0
-3917 26 0
3917 -3 -6 -8 -9 -11 -13 -15 -17 -20 -22 -23 -26 0
-3918 4 0
-3918 6 0
-3918 8 0
-3918 9 0
-3918 11 0
-3918 13 0
-3918 15 0
-3918 17 0
-3918 20 0
-3918 22 0
-3918 23 0
-3918 26 0
3918 -4 -6 -8 -9 -11 -13 -15 -17 -20 -22 -23 -26 0
-3919 3 0
-3919 5 0
-3919 8 0
-3919 9 0
-3919 11 0
-3919 13 0
-3919 15 0
-3919 17 0
-3919 20 0
-3919 22 0
-3919 23 0
-3919 26 0
3919 -3 -5 -8 -9 -11 -13 -15 -17 -20 -22 -23 -26 0
-3920 4 0
-3920 5 0
-3920 8 0
-3920 9 0
-3920 11 0
-3920 13 0
-3920 15 0
-3920 17 0
-3920 20 0
-3920 22 0
-3920 23 0
-3920 26 0
3920 -4 -5 -8 -9 -11 -13 -15 -17 -20 -22 -23 -26 0
-3921 3 0
-3921 5 0
-3921 7 0
-3921 9 0
-3921 11 0
-3921 13 0
-3921 15 0
-3921 17 0
-3921 20 0
-3921 22 0
-3921 23 0
-3921 26 0
3921 -3 -5 -7 -9 -11 -13 -15 -17 -20 -22 -23 -26 0
-3922 4 0
-3922 5 0
-3922 7 0
-3922 9 0
-3922 11 0
-3922 13 0
-3922 15 0
-3922 17 0
-3922 20 0
-3922 22 0
-3922 23 0
-3922 26 0
3922 -4 -5 -7 -9 -11 -13 -15 -17 -20 -22 -23 -26 0
-3923 3 0
-3923 6 0
-3923 7 0
-3923 9 0
-3923 11 0
-3923 13 0
-3923 15 0
-3923 17 0
-3923 20 0
-3923 22 0
-3923 23 0
-3923 26 0
3923 -3 -6 -7 -9 -11 -13 -15 -17 -20 -22 -23 -26 0
-3924 4 0
-3924 6 0
-3924 7 0
-3924 9 0
-3924 11 0
-3924 13 0
-3924 15 0
-3924 17 0
-3924 20 0
-3924 22 0
-3924 23 0
-3924 26 0
3924 -4 -6 -7 -9 -11 -13 -15 -17 -20 -22 -23 -26 0
-3925 3 0
-3925 6 0
-3925 8 0
-3925 10 0
-3925 11 0
-3925 13 0
-3925 15 0
-3925 17 0
-3925 20 0
-3925 21 0
-3925 23 0
-3925 26 0
3925 -3 -6 -8 -10 -11 -13 -15 -17 -20 -21 -23 -26 0
-3926 4 0
-3926 6 0
-3926 8 0
-3926 10 0
-3926 12 0
-3926 14 0
-3926 16 0
-3926 17 0
-3926 20 0
-3926 21 0
-3926 23 0
-3926 26 0
3926 -4 -6 -8 -10 -12 -14 -16 -17 -20 -21 -23 -26 0
-3927 4 0
-3927 6 0
-3927 8 0
-3927 10 0
-3927 12 0
-3927 14 0
-3927 16 0
-3927 17 0
-3927 19 0
-3927 21 0
-3927 23 0
-3927 26 0
3927 -4 -6 -8 -10 -12 -14 -16 -17 -19 -21 -23 -26 0
-3928 3 0
-3928 5 0
-3928 8 0
-3928 10 0
-3928 11 0
-3928 13 0
-3928 15 0
-3928 17 0
-3928 20 0
-3928 21 0
-3928 23 0
-3928 26 0
3928 -3 -5 -8 -10 -11 -13 -15 -17 -20 -21 -23 -26 0
-3929 3 0
-3929 6 0
-3929 7 0
-3929 10 0
-3929 12 0
-3929 13 0
-3929 15 0
-3929 17 0
-3929 20 0
-3929 21 0
-3929 23 0
-3929 26 0
3929 -3 -6 -7 -10 -12 -13 -15 -17 -20 -21 -23 -26 0
-3930 3 0
-3930 5 0
-3930 7 0
-3930 10 0
-3930 12 0
-3930 13 0
-3930 15 0
-3930 17 0
-3930 20 0
-3930 21 0
-3930 23 0
-3930 26 0
3930 -3 -5 -7 -10 -12 -13 -15 -17 -20 -21 -23 -26 0
-3931 4 0
-3931 5 0
-3931 7 0
-3931 10 0
-3931 12 0
-3931 13 0
-3931 15 0
-3931 17 0
-3931 20 0
-3931 21 0
-3931 23 0
-3931 26 0
3931 -4 -5 -7 -10 -12 -13 -15 -17 -20 -21 -23 -26 0
-3932 3 0
-3932 5 0
-3932 8 0
-3932 10 0
-3932 12 0
-3932 13 0
-3932 15 0
-3932 17 0
-3932 20 0
-3932 21 0
-3932 23 0
-3932 26 0
3932 -3 -5 -8 -10 -12 -13 -15 -17 -20 -21 -23 -26 0
-3933 4 0
-3933 5 0
-3933 8 0
-3933 10 0
-3933 12 0
-3933 13 0
-3933 15 0
-3933 17 0
-3933 20 0
-3933 21 0
-3933 23 0
-3933 26 0
3933 -4 -5 -8 -10 -12 -13 -15 -17 -20 -21 -23 -26 0
-3934 3 0
-3934 6 0
-3934 8 0
-3934 10 0
-3934 12 0
-3934 13 0
-3934 15 0
-3934 17 0
-3934 20 0
-3934 21 0
-3934 23 0
-3934 26 0
3934 -3 -6 -8 -10 -12 -13 -15 -17 -20 -21 -23 -26 0
-3935 3 0
-3935 6 0
-3935 7 0
-3935 9 0
-3935 12 0
-3935 14 0
-3935 15 0
-3935 17 0
-3935 20 0
-3935 21 0
-3935 23 0
-3935 26 0
3935 -3 -6 -7 -9 -12 -14 -15 -17 -20 -21 -23 -26 0
-3936 3 0
-3936 5 0
-3936 7 0
-3936 9 0
-3936 12 0
-3936 14 0
-3936 15 0
-3936 17 0
-3936 20 0
-3936 21 0
-3936 23 0
-3936 26 0
3936 -3 -5 -7 -9 -12 -14 -15 -17 -20 -21 -23 -26 0
-3937 4 0
-3937 5 0
-3937 7 0
-3937 9 0
-3937 12 0
-3937 14 0
-3937 15 0
-3937 17 0
-3937 20 0
-3937 21 0
-3937 23 0
-3937 26 0
3937 -4 -5 -7 -9 -12 -14 -15 -17 -20 -21 -23 -26 0
-3938 3 0
-3938 5 0
-3938 8 0
-3938 9 0
-3938 12 0
-3938 14 0
-3938 15 0
-3938 17 0
-3938 20 0
-3938 21 0
-3938 23 0
-3938 26 0
3938 -3 -5 -8 -9 -12 -14 -15 -17 -20 -21 -23 -26 0
-3939 4 0
-3939 5 0
-3939 8 0
-3939 9 0
-3939 12 0
-3939 14 0
-3939 15 0
-3939 17 0
-3939 20 0
-3939 21 0
-3939 23 0
-3939 26 0
3939 -4 -5 -8 -9 -12 -14 -15 -17 -20 -21 -23 -26 0
-3940 3 0
-3940 6 0
-3940 8 0
-3940 9 0
-3940 12 0
-3940 14 0
-3940 15 0
-3940 17 0
-3940 20 0
-3940 21 0
-3940 23 0
-3940 26 0
3940 -3 -6 -8 -9 -12 -14 -15 -17 -20 -21 -23 -26 0
-3941 4 0
-3941 6 0
-3941 8 0
-3941 9 0
-3941 12 0
-3941 14 0
-3941 15 0
-3941 17 0
-3941 20 0
-3941 21 0
-3941 23 0
-3941 26 0
3941 -4 -6 -8 -9 -12 -14 -15 -17 -20 -21 -23 -26 0
-3942 3 0
-3942 6 0
-3942 8 0
-3942 10 0
-3942 12 0
-3942 14 0
-3942 15 0
-3942 17 0
-3942 20 0
-3942 21 0
-3942 23 0
-3942 26 0
3942 -3 -6 -8 -10 -12 -14 -15 -17 -20 -21 -23 -26 0
-3943 4 0
-3943 6 0
-3943 8 0
-3943 10 0
-3943 12 0
-3943 14 0
-3943 15 0
-3943 17 0
-3943 20 0
-3943 21 0
-3943 23 0
-3943 26 0
3943 -4 -6 -8 -10 -12 -14 -15 -17 -20 -21 -23 -26 0
-3944 3 0
-3944 5 0
-3944 8 0
-3944 10 0
-3944 12 0
-3944 14 0
-3944 15 0
-3944 17 0
-3944 20 0
-3944 21 0
-3944 23 0
-3944 26 0
3944 -3 -5 -8 -10 -12 -14 -15 -17 -20 -21 -23 -26 0
-3945 4 0
-3945 5 0
-3945 8 0
-3945 10 0
-3945 12 0
-3945 14 0
-3945 15 0
-3945 17 0
-3945 20 0
-3945 21 0
-3945 23 0
-3945 26 0
3945 -4 -5 -8 -10 -12 -14 -15 -17 -20 -21 -23 -26 0
-3946 3 0
-3946 5 0
-3946 7 0
-3946 10 0
-3946 12 0
-3946 14 0
-3946 15 0
-3946 17 0
-3946 20 0
-3946 21 0
-3946 23 0
-3946 26 0
3946 -3 -5 -7 -10 -12 -14 -15 -17 -20 -21 -23 -26 0
-3947 4 0
-3947 5 0
-3947 7 0
-3947 10 0
-3947 12 0
-3947 14 0
-3947 15 0
-3947 17 0
-3947 20 0
-3947 21 0
-3947 23 0
-3947 26 0
3947 -4 -5 -7 -10 -12 -14 -15 -17 -20 -21 -23 -26 0
-3948 3 0
-3948 6 0
-3948 7 0
-3948 10 0
-3948 12 0
-3948 14 0
-3948 15 0
-3948 17 0
-3948 20 0
-3948 21 0
-3948 23 0
-3948 26 0
3948 -3 -6 -7 -10 -12 -14 -15 -17 -20 -21 -23 -26 0
-3949 3 0
-3949 5 0
-3949 8 0
-3949 10 0
-3949 11 0
-3949 14 0
-3949 15 0
-3949 17 0
-3949 20 0
-3949 21 0
-3949 23 0
-3949 26 0
3949 -3 -5 -8 -10 -11 -14 -15 -17 -20 -21 -23 -26 0
-3950 3 0
-3950 6 0
-3950 8 0
-3950 10 0
-3950 11 0
-3950 14 0
-3950 15 0
-3950 17 0
-3950 20 0
-3950 21 0
-3950 23 0
-3950 26 0
3950 -3 -6 -8 -10 -11 -14 -15 -17 -20 -21 -23 -26 0
-3951 3 0
-3951 6 0
-3951 7 0
-3951 9 0
-3951 11 0
-3951 14 0
-3951 16 0
-3951 17 0
-3951 20 0
-3951 21 0
-3951 23 0
-3951 26 0
3951 -3 -6 -7 -9 -11 -14 -16 -17 -20 -21 -23 -26 0
-3952 3 0
-3952 5 0
-3952 7 0
-3952 9 0
-3952 11 0
-3952 14 0
-3952 16 0
-3952 17 0
-3952 20 0
-3952 21 0
-3952 23 0
-3952 26 0
3952 -3 -5 -7 -9 -11 -14 -16 -17 -20 -21 -23 -26 0
-3953 4 0
-3953 5 0
-3953 7 0
-3953 9 0
-3953 11 0
-3953 14 0
-3953 16 0
-3953 17 0
-3953 20 0
-3953 21 0
-3953 23 0
-3953 26 0
3953 -4 -5 -7 -9 -11 -14 -16 -17 -20 -21 -23 -26 0
-3954 3 0
-3954 5 0
-3954 8 0
-3954 9 0
-3954 11 0
-3954 14 0
-3954 16 0
-3954 17 0
-3954 20 0
-3954 21 0
-3954 23 0
-3954 26 0
3954 -3 -5 -8 -9 -11 -14 -16 -17 -20 -21 -23 -26 0
-3955 4 0
-3955 5 0
-3955 8 0
-3955 9 0
-3955 11 0
-3955 14 0
-3955 16 0
-3955 17 0
-3955 20 0
-3955 21 0
-3955 23 0
-3955 26 0
3955 -4 -5 -8 -9 -11 -14 -16 -17 -20 -21 -23 -26 0
-3956 3 0
-3956 6 0
-3956 8 0
-3956 9 0
-3956 11 0
-3956 14 0
-3956 16 0
-3956 17 0
-3956 20 0
-3956 21 0
-3956 23 0
-3956 26 0
3956 -3 -6 -8 -9 -11 -14 -16 -17 -20 -21 -23 -26 0
-3957 4 0
-3957 6 0
-3957 8 0
-3957 9 0
-3957 11 0
-3957 14 0
-3957 16 0
-3957 17 0
-3957 20 0
-3957 21 0
-3957 23 0
-3957 26 0
3957 -4 -6 -8 -9 -11 -14 -16 -17 -20 -21 -23 -26 0
-3958 3 0
-3958 6 0
-3958 8 0
-3958 10 0
-3958 11 0
-3958 14 0
-3958 16 0
-3958 17 0
-3958 20 0
-3958 21 0
-3958 23 0
-3958 26 0
3958 -3 -6 -8 -10 -11 -14 -16 -17 -20 -21 -23 -26 0
-3959 4 0
-3959 6 0
-3959 8 0
-3959 10 0
-3959 11 0
-3959 14 0
-3959 16 0
-3959 17 0
-3959 20 0
-3959 21 0
-3959 23 0
-3959 26 0
3959 -4 -6 -8 -10 -11 -14 -16 -17 -20 -21 -23 -26 0
-3960 3 0
-3960 5 0
-3960 8 0
-3960 10 0
-3960 11 0
-3960 14 0
-3960 16 0
-3960 17 0
-3960 20 0
-3960 21 0
-3960 23 0
-3960 26 0
3960 -3 -5 -8 -10 -11 -14 -16 -17 -20 -21 -23 -26 0
-3961 4 0
-3961 5 0
-3961 8 0
-3961 10 0
-3961 11 0
-3961 14 0
-3961 16 0
-3961 17 0
-3961 20 0
-3961 21 0
-3961 23 0
-3961 26 0
3961 -4 -5 -8 -10 -11 -14 -16 -17 -20 -21 -23 -26 0
-3962 3 0
-3962 5 0
-3962 7 0
-3962 10 0
-3962 11 0
-3962 14 0
-3962 16 0
-3962 17 0
-3962 20 0
-3962 21 0
-3962 23 0
-3962 26 0
3962 -3 -5 -7 -10 -11 -14 -16 -17 -20 -21 -23 -26 0
-3963 4 0
-3963 5 0
-3963 7 0
-3963 10 0
-3963 11 0
-3963 14 0
-3963 16 0
-3963 17 0
-3963 20 0
-3963 21 0
-3963 23 0
-3963 26 0
3963 -4 -5 -7 -10 -11 -14 -16 -17 -20 -21 -23 -26 0
-3964 3 0
-3964 6 0
-3964 7 0
-3964 10 0
-3964 11 0
-3964 14 0
-3964 16 0
-3964 17 0
-3964 20 0
-3964 21 0
-3964 23 0
-3964 26 0
3964 -3 -6 -7 -10 -11 -14 -16 -17 -20 -21 -23 -26 0
-3965 4 0
-3965 6 0
-3965 7 0
-3965 10 0
-3965 11 0
-3965 14 0
-3965 16 0
-3965 17 0
-3965 20 0
-3965 21 0
-3965 23 0
-3965 26 0
3965 -4 -6 -7 -10 -11 -14 -16 -17 -20 -21 -23 -26 0
-3966 3 0
-3966 6 0
-3966 7 0
-3966 10 0
-3966 12 0
-3966 14 0
-3966 16 0
-3966 17 0
-3966 20 0
-3966 21 0
-3966 23 0
-3966 26 0
3966 -3 -6 -7 -10 -12 -14 -16 -17 -20 -21 -23 -26 0
-3967 4 0
-3967 6 0
-3967 7 0
-3967 10 0
-3967 12 0
-3967 14 0
-3967 16 0
-3967 17 0
-3967 20 0
-3967 21 0
-3967 23 0
-3967 26 0
3967 -4 -6 -7 -10 -12 -14 -16 -17 -20 -21 -23 -26 0
-3968 3 0
-3968 5 0
-3968 7 0
-3968 10 0
-3968 12 0
-3968 14 0
-3968 16 0
-3968 17 0
-3968 20 0
-3968 21 0
-3968 23 0
-3968 26 0
3968 -3 -5 -7 -10 -12 -14 -16 -17 -20 -21 -23 -26 0
-3969 4 0
-3969 5 0
-3969 7 0
-3969 10 0
-3969 12 0
-3969 14 0
-3969 16 0
-3969 17 0
-3969 20 0
-3969 21 0
-3969 23 0
-3969 26 0
3969 -4 -5 -7 -10 -12 -14 -16 -17 -20 -21 -23 -26 0
-3970 3 0
-3970 5 0
-3970 8 0
-3970 10 0
-3970 12 0
-3970 14 0
-3970 16 0
-3970 17 0
-3970 20 0
-3970 21 0
-3970 23 0
-3970 26 0
3970 -3 -5 -8 -10 -12 -14 -16 -17 -20 -21 -23 -26 0
-3971 4 0
-3971 5 0
-3971 8 0
-3971 10 0
-3971 12 0
-3971 14 0
-3971 16 0
-3971 17 0
-3971 20 0
-3971 21 0
-3971 23 0
-3971 26 0
3971 -4 -5 -8 -10 -12 -14 -16 -17 -20 -21 -23 -26 0
-3972 3 0
-3972 6 0
-3972 8 0
-3972 10 0
-3972 12 0
-3972 14 0
-3972 16 0
-3972 17 0
-3972 20 0
-3972 21 0
-3972 23 0
-3972 26 0
3972 -3 -6 -8 -10 -12 -14 -16 -17 -20 -21 -23 -26 0
-3973 3 0
-3973 6 0
-3973 8 0
-3973 9 0
-3973 12 0
-3973 14 0
-3973 16 0
-3973 17 0
-3973 20 0
-3973 21 0
-3973 23 0
-3973 26 0
3973 -3 -6 -8 -9 -12 -14 -16 -17 -20 -21 -23 -26 0
-3974 4 0
-3974 6 0
-3974 8 0
-3974 9 0
-3974 12 0
-3974 14 0
-3974 16 0
-3974 17 0
-3974 20 0
-3974 21 0
-3974 23 0
-3974 26 0
3974 -4 -6 -8 -9 -12 -14 -16 -17 -20 -21 -23 -26 0
-3975 3 0
-3975 5 0
-3975 8 0
-3975 9 0
-3975 12 0
-3975 14 0
-3975 16 0
-3975 17 0
-3975 20 0
-3975 21 0
-3975 23 0
-3975 26 0
3975 -3 -5 -8 -9 -12 -14 -16 -17 -20 -21 -23 -26 0
-3976 4 0
-3976 5 0
-3976 8 0
-3976 9 0
-3976 12 0
-3976 14 0
-3976 16 0
-3976 17 0
-3976 20 0
-3976 21 0
-3976 23 0
-3976 26 0
3976 -4 -5 -8 -9 -12 -14 -16 -17 -20 -21 -23 -26 0
-3977 3 0
-3977 5 0
-3977 7 0
-3977 9 0
-3977 12 0
-3977 14 0
-3977 16 0
-3977 17 0
-3977 20 0
-3977 21 0
-3977 23 0
-3977 26 0
3977 -3 -5 -7 -9 -12 -14 -16 -17 -20 -21 -23 -26 0
-3978 4 0
-3978 5 0
-3978 7 0
-3978 9 0
-3978 12 0
-3978 14 0
-3978 16 0
-3978 17 0
-3978 20 0
-3978 21 0
-3978 23 0
-3978 26 0
3978 -4 -5 -7 -9 -12 -14 -16 -17 -20 -21 -23 -26 0
-3979 3 0
-3979 6 0
-3979 7 0
-3979 9 0
-3979 12 0
-3979 14 0
-3979 16 0
-3979 17 0
-3979 20 0
-3979 21 0
-3979 23 0
-3979 26 0
3979 -3 -6 -7 -9 -12 -14 -16 -17 -20 -21 -23 -26 0
-3980 4 0
-3980 6 0
-3980 8 0
-3980 9 0
-3980 12 0
-3980 13 0
-3980 16 0
-3980 17 0
-3980 20 0
-3980 21 0
-3980 23 0
-3980 26 0
3980 -4 -6 -8 -9 -12 -13 -16 -17 -20 -21 -23 -26 0
-3981 3 0
-3981 6 0
-3981 8 0
-3981 10 0
-3981 12 0
-3981 13 0
-3981 16 0
-3981 17 0
-3981 20 0
-3981 21 0
-3981 23 0
-3981 26 0
3981 -3 -6 -8 -10 -12 -13 -16 -17 -20 -21 -23 -26 0
-3982 4 0
-3982 6 0
-3982 8 0
-3982 10 0
-3982 12 0
-3982 13 0
-3982 16 0
-3982 17 0
-3982 20 0
-3982 21 0
-3982 23 0
-3982 26 0
3982 -4 -6 -8 -10 -12 -13 -16 -17 -20 -21 -23 -26 0
-3983 3 0
-3983 5 0
-3983 8 0
-3983 10 0
-3983 12 0
-3983 13 0
-3983 16 0
-3983 17 0
-3983 20 0
-3983 21 0
-3983 23 0
-3983 26 0
3983 -3 -5 -8 -10 -12 -13 -16 -17 -20 -21 -23 -26 0
-3984 4 0
-3984 5 0
-3984 8 0
-3984 10 0
-3984 12 0
-3984 13 0
-3984 16 0
-3984 17 0
-3984 20 0
-3984 21 0
-3984 23 0
-3984 26 0
3984 -4 -5 -8 -10 -12 -13 -16 -17 -20 -21 -23 -26 0
-3985 3 0
-3985 5 0
-3985 7 0
-3985 10 0
-3985 12 0
-3985 13 0
-3985 16 0
-3985 17 0
-3985 20 0
-3985 21 0
-3985 23 0
-3985 26 0
3985 -3 -5 -7 -10 -12 -13 -16 -17 -20 -21 -23 -26 0
-3986 4 0
-3986 5 0
-3986 7 0
-3986 10 0
-3986 12 0
-3986 13 0
-3986 16 0
-3986 17 0
-3986 20 0
-3986 21 0
-3986 23 0
-3986 26 0
3986 -4 -5 -7 -10 -12 -13 -16 -17 -20 -21 -23 -26 0
-3987 3 0
-3987 6 0
-3987 7 0
-3987 10 0
-3987 12 0
-3987 13 0
-3987 16 0
-3987 17 0
-3987 20 0
-3987 21 0
-3987 23 0
-3987 26 0
3987 -3 -6 -7 -10 -12 -13 -16 -17 -20 -21 -23 -26 0
-3988 3 0
-3988 5 0
-3988 8 0
-3988 10 0
-3988 11 0
-3988 13 0
-3988 16 0
-3988 17 0
-3988 20 0
-3988 21 0
-3988 23 0
-3988 26 0
3988 -3 -5 -8 -10 -11 -13 -16 -17 -20 -21 -23 -26 0
-3989 3 0
-3989 6 0
-3989 8 0
-3989 10 0
-3989 11 0
-3989 13 0
-3989 16 0
-3989 17 0
-3989 20 0
-3989 21 0
-3989 23 0
-3989 26 0
3989 -3 -6 -8 -10 -11 -13 -16 -17 -20 -21 -23 -26 0
-3990 3 0
-3990 6 0
-3990 7 0
-3990 9 0
-3990 11 0
-3990 13 0
-3990 16 0
-3990 18 0
-3990 20 0
-3990 21 0
-3990 23 0
-3990 26 0
3990 -3 -6 -7 -9 -11 -13 -16 -18 -20 -21 -23 -26 0
-3991 3 0
-3991 5 0
-3991 7 0
-3991 9 0
-3991 11 0
-3991 13 0
-3991 16 0
-3991 18 0
-3991 20 0
-3991 21 0
-3991 23 0
-3991 26 0
3991 -3 -5 -7 -9 -11 -13 -16 -18 -20 -21 -23 -26 0
-3992 3 0
-3992 5 0
-3992 7 0
-3992 9 0
-3992 11 0
-3992 13 0
-3992 15 0
-3992 18 0
-3992 20 0
-3992 21 0
-3992 23 0
-3992 26 0
3992 -3 -5 -7 -9 -11 -13 -15 -18 -20 -21 -23 -26 0
-3993 4 0
-3993 5 0
-3993 7 0
-3993 9 0
-3993 11 0
-3993 13 0
-3993 16 0
-3993 18 0
-3993 20 0
-3993 21 0
-3993 23 0
-3993 26 0
3993 -4 -5 -7 -9 -11 -13 -16 -18 -20 -21 -23 -26 0
-3994 3 0
-3994 5 0
-3994 8 0
-3994 9 0
-3994 11 0
-3994 13 0
-3994 16 0
-3994 18 0
-3994 20 0
-3994 21 0
-3994 23 0
-3994 26 0
3994 -3 -5 -8 -9 -11 -13 -16 -18 -20 -21 -23 -26 0
-3995 4 0
-3995 5 0
-3995 8 0
-3995 9 0
-3995 11 0
-3995 13 0
-3995 16 0
-3995 18 0
-3995 20 0
-3995 21 0
-3995 23 0
-3995 26 0
3995 -4 -5 -8 -9 -11 -13 -16 -18 -20 -21 -23 -26 0
-3996 3 0
-3996 6 0
-3996 8 0
-3996 9 0
-3996 11 0
-3996 13 0
-3996 16 0
-3996 18 0
-3996 20 0
-3996 21 0
-3996 23 0
-3996 26 0
3996 -3 -6 -8 -9 -11 -13 -16 -18 -20 -21 -23 -26 0
-3997 4 0
-3997 6 0
-3997 8 0
-3997 9 0
-3997 11 0
-3997 13 0
-3997 16 0
-3997 18 0
-3997 20 0
-3997 21 0
-3997 23 0
-3997 26 0
3997 -4 -6 -8 -9 -11 -13 -16 -18 -20 -21 -23 -26 0
-3998 3 0
-3998 6 0
-3998 8 0
-3998 10 0
-3998 11 0
-3998 13 0
-3998 16 0
-3998 18 0
-3998 20 0
-3998 21 0
-3998 23 0
-3998 26 0
3998 -3 -6 -8 -10 -11 -13 -16 -18 -20 -21 -23 -26 0
-3999 4 0
-3999 6 0
-3999 8 0
-3999 10 0
-3999 11 0
-3999 13 0
-3999 16 0
-3999 18 0
-3999 20 0
-3999 21 0
-3999 23 0
-3999 26 0
3999 -4 -6 -8 -10 -11 -13 -16 -18 -20 -21 -23 -26 0
-4000 3 0
-4000 5 0
-4000 8 0
-4000 10 0
-4000 11 0
-4000 13 0
-4000 16 0
-4000 18 0
-4000 20 0
-4000 21 0
-4000 23 0
-4000 26 0
4000 -3 -5 -8 -10 -11 -13 -16 -18 -20 -21 -23 -26 0
-4001 4 0
-4001 5 0
-4001 8 0
-4001 10 0
-4001 11 0
-4001 13 0
-4001 16 0
-4001 18 0
-4001 20 0
-4001 21 0
-4001 23 0
-4001 26 0
4001 -4 -5 -8 -10 -11 -13 -16 -18 -20 -21 -23 -26 0
-4002 3 0
-4002 5 0
-4002 7 0
-4002 10 0
-4002 11 0
-4002 13 0
-4002 16 0
-4002 18 0
-4002 20 0
-4002 21 0
-4002 23 0
-4002 26 0
4002 -3 -5 -7 -10 -11 -13 -16 -18 -20 -21 -23 -26 0
-4003 4 0
-4003 5 0
-4003 7 0
-4003 10 0
-4003 11 0
-4003 13 0
-4003 16 0
-4003 18 0
-4003 20 0
-4003 21 0
-4003 23 0
-4003 26 0
4003 -4 -5 -7 -10 -11 -13 -16 -18 -20 -21 -23 -26 0
-4004 3 0
-4004 6 0
-4004 7 0
-4004 10 0
-4004 11 0
-4004 13 0
-4004 16 0
-4004 18 0
-4004 20 0
-4004 21 0
-4004 23 0
-4004 26 0
4004 -3 -6 -7 -10 -11 -13 -16 -18 -20 -21 -23 -26 0
-4005 4 0
-4005 6 0
-4005 7 0
-4005 10 0
-4005 11 0
-4005 13 0
-4005 16 0
-4005 18 0
-4005 20 0
-4005 21 0
-4005 23 0
-4005 26 0
4005 -4 -6 -7 -10 -11 -13 -16 -18 -20 -21 -23 -26 0
-4006 3 0
-4006 6 0
-4006 7 0
-4006 10 0
-4006 12 0
-4006 13 0
-4006 16 0
-4006 18 0
-4006 20 0
-4006 21 0
-4006 23 0
-4006 26 0
4006 -3 -6 -7 -10 -12 -13 -16 -18 -20 -21 -23 -26 0
-4007 4 0
-4007 6 0
-4007 7 0
-4007 10 0
-4007 12 0
-4007 13 0
-4007 16 0
-4007 18 0
-4007 20 0
-4007 21 0
-4007 23 0
-4007 26 0
4007 -4 -6 -7 -10 -12 -13 -16 -18 -20 -21 -23 -26 0
-4008 3 0
-4008 5 0
-4008 7 0
-4008 10 0
-4008 12 0
-4008 13 0
-4008 16 0
-4008 18 0
-4008 20 0
-4008 21 0
-4008 23 0
-4008 26 0
4008 -3 -5 -7 -10 -12 -13 -16 -18 -20 -21 -23 -26 0
-4009 4 0
-4009 5 0
-4009 7 0
-4009 10 0
-4009 12 0
-4009 13 0
-4009 16 0
-4009 18 0
-4009 20 0
-4009 21 0
-4009 23 0
-4009 26 0
4009 -4 -5 -7 -10 -12 -13 -16 -18 -20 -21 -23 -26 0
-4010 3 0
-4010 5 0
-4010 8 0
-4010 10 0
-4010 12 0
-4010 13 0
-4010 16 0
-4010 18 0
-4010 20 0
-4010 21 0
-4010 23 0
-4010 26 0
4010 -3 -5 -8 -10 -12 -13 -16 -18 -20 -21 -23 -26 0
-4011 4 0
-4011 5 0
-4011 8 0
-4011 10 0
-4011 12 0
-4011 13 0
-4011 16 0
-4011 18 0
-4011 20 0
-4011 21 0
-4011 23 0
-4011 26 0
4011 -4 -5 -8 -10 -12 -13 -16 -18 -20 -21 -23 -26 0
-4012 3 0
-4012 6 0
-4012 8 0
-4012 10 0
-4012 12 0
-4012 13 0
-4012 16 0
-4012 18 0
-4012 20 0
-4012 21 0
-4012 23 0
-4012 26 0
4012 -3 -6 -8 -10 -12 -13 -16 -18 -20 -21 -23 -26 0
-4013 4 0
-4013 6 0
-4013 8 0
-4013 10 0
-4013 12 0
-4013 13 0
-4013 16 0
-4013 18 0
-4013 20 0
-4013 21 0
-4013 23 0
-4013 26 0
4013 -4 -6 -8 -10 -12 -13 -16 -18 -20 -21 -23 -26 0
-4014 3 0
-4014 6 0
-4014 8 0
-4014 9 0
-4014 12 0
-4014 13 0
-4014 16 0
-4014 18 0
-4014 20 0
-4014 21 0
-4014 23 0
-4014 26 0
4014 -3 -6 -8 -9 -12 -13 -16 -18 -20 -21 -23 -26 0
-4015 4 0
-4015 6 0
-4015 8 0
-4015 9 0
-4015 12 0
-4015 13 0
-4015 16 0
-4015 18 0
-4015 20 0
-4015 21 0
-4015 23 0
-4015 26 0
4015 -4 -6 -8 -9 -12 -13 -16 -18 -20 -21 -23 -26 0
-4016 3 0
-4016 5 0
-4016 8 0
-4016 9 0
-4016 12 0
-4016 13 0
-4016 16 0
-4016 18 0
-4016 20 0
-4016 21 0
-4016 23 0
-4016 26 0
4016 -3 -5 -8 -9 -12 -13 -16 -18 -20 -21 -23 -26 0
-4017 4 0
-4017 5 0
-4017 8 0
-4017 9 0
-4017 12 0
-4017 13 0
-4017 16 0
-4017 18 0
-4017 20 0
-4017 21 0
-4017 23 0
-4017 26 0
4017 -4 -5 -8 -9 -12 -13 -16 -18 -20 -21 -23 -26 0
-4018 3 0
-4018 5 0
-4018 7 0
-4018 9 0
-4018 12 0
-4018 13 0
-4018 16 0
-4018 18 0
-4018 20 0
-4018 21 0
-4018 23 0
-4018 26 0
4018 -3 -5 -7 -9 -12 -13 -16 -18 -20 -21 -23 -26 0
-4019 4 0
-4019 5 0
-4019 7 0
-4019 9 0
-4019 12 0
-4019 13 0
-4019 16 0
-4019 18 0
-4019 20 0
-4019 21 0
-4019 23 0
-4019 26 0
4019 -4 -5 -7 -9 -12 -13 -16 -18 -20 -21 -23 -26 0
-4020 3 0
-4020 6 0
-4020 7 0
-4020 9 0
-4020 12 0
-4020 13 0
-4020 16 0
-4020 18 0
-4020 20 0
-4020 21 0
-4020 23 0
-4020 26 0
4020 -3 -6 -7 -9 -12 -13 -16 -18 -20 -21 -23 -26 0
-4021 4 0
-4021 6 0
-4021 7 0
-4021 9 0
-4021 12 0
-4021 13 0
-4021 16 0
-4021 18 0
-4021 20 0
-4021 21 0
-4021 23 0
-4021 26 0
4021 -4 -6 -7 -9 -12 -13 -16 -18 -20 -21 -23 -26 0
-4022 3 0
-4022 6 0
-4022 7 0
-4022 9 0
-4022 12 0
-4022 14 0
-4022 16 0
-4022 18 0
-4022 20 0
-4022 21 0
-4022 23 0
-4022 26 0
4022 -3 -6 -7 -9 -12 -14 -16 -18 -20 -21 -23 -26 0
-4023 4 0
-4023 6 0
-4023 7 0
-4023 9 0
-4023 12 0
-4023 14 0
-4023 16 0
-4023 18 0
-4023 20 0
-4023 21 0
-4023 23 0
-4023 26 0
4023 -4 -6 -7 -9 -12 -14 -16 -18 -20 -21 -23 -26 0
-4024 3 0
-4024 5 0
-4024 7 0
-4024 9 0
-4024 12 0
-4024 14 0
-4024 16 0
-4024 18 0
-4024 20 0
-4024 21 0
-4024 23 0
-4024 26 0
4024 -3 -5 -7 -9 -12 -14 -16 -18 -20 -21 -23 -26 0
-4025 4 0
-4025 5 0
-4025 7 0
-4025 9 0
-4025 12 0
-4025 14 0
-4025 16 0
-4025 18 0
-4025 20 0
-4025 21 0
-4025 23 0
-4025 26 0
4025 -4 -5 -7 -9 -12 -14 -16 -18 -20 -21 -23 -26 0
-4026 3 0
-4026 5 0
-4026 8 0
-4026 9 0
-4026 12 0
-4026 14 0
-4026 16 0
-4026 18 0
-4026 20 0
-4026 21 0
-4026 23 0
-4026 26 0
4026 -3 -5 -8 -9 -12 -14 -16 -18 -20 -21 -23 -26 0
-4027 4 0
-4027 5 0
-4027 8 0
-4027 9 0
-4027 12 0
-4027 14 0
-4027 16 0
-4027 18 0
-4027 20 0
-4027 21 0
-4027 23 0
-4027 26 0
4027 -4 -5 -8 -9 -12 -14 -16 -18 -20 -21 -23 -26 0
-4028 3 0
-4028 6 0
-4028 8 0
-4028 9 0
-4028 12 0
-4028 14 0
-4028 16 0
-4028 18 0
-4028 20 0
-4028 21 0
-4028 23 0
-4028 26 0
4028 -3 -6 -8 -9 -12 -14 -16 -18 -20 -21 -23 -26 0
-4029 4 0
-4029 6 0
-4029 8 0
-4029 9 0
-4029 12 0
-4029 14 0
-4029 16 0
-4029 18 0
-4029 20 0
-4029 21 0
-4029 23 0
-4029 26 0
4029 -4 -6 -8 -9 -12 -14 -16 -18 -20 -21 -23 -26 0
-4030 3 0
-4030 6 0
-4030 8 0
-4030 10 0
-4030 12 0
-4030 14 0
-4030 16 0
-4030 18 0
-4030 20 0
-4030 21 0
-4030 23 0
-4030 26 0
4030 -3 -6 -8 -10 -12 -14 -16 -18 -20 -21 -23 -26 0
-4031 3 0
-4031 5 0
-4031 8 0
-4031 10 0
-4031 12 0
-4031 14 0
-4031 16 0
-4031 18 0
-4031 20 0
-4031 21 0
-4031 23 0
-4031 26 0
4031 -3 -5 -8 -10 -12 -14 -16 -18 -20 -21 -23 -26 0
-4032 4 0
-4032 5 0
-4032 8 0
-4032 10 0
-4032 12 0
-4032 14 0
-4032 16 0
-4032 18 0
-4032 20 0
-4032 21 0
-4032 23 0
-4032 26 0
4032 -4 -5 -8 -10 -12 -14 -16 -18 -20 -21 -23 -26 0
-4033 3 0
-4033 5 0
-4033 7 0
-4033 10 0
-4033 12 0
-4033 14 0
-4033 16 0
-4033 18 0
-4033 20 0
-4033 21 0
-4033 23 0
-4033 26 0
4033 -3 -5 -7 -10 -12 -14 -16 -18 -20 -21 -23 -26 0
-4034 4 0
-4034 5 0
-4034 7 0
-4034 10 0
-4034 12 0
-4034 14 0
-4034 16 0
-4034 18 0
-4034 20 0
-4034 21 0
-4034 23 0
-4034 26 0
4034 -4 -5 -7 -10 -12 -14 -16 -18 -20 -21 -23 -26 0
-4035 3 0
-4035 6 0
-4035 7 0
-4035 10 0
-4035 12 0
-4035 14 0
-4035 16 0
-4035 18 0
-4035 20 0
-4035 21 0
-4035 23 0
-4035 26 0
4035 -3 -6 -7 -10 -12 -14 -16 -18 -20 -21 -23 -26 0
-4036 4 0
-4036 6 0
-4036 7 0
-4036 10 0
-4036 12 0
-4036 14 0
-4036 16 0
-4036 18 0
-4036 20 0
-4036 21 0
-4036 23 0
-4036 26 0
4036 -4 -6 -7 -10 -12 -14 -16 -18 -20 -21 -23 -26 0
-4037 3 0
-4037 6 0
-4037 7 0
-4037 10 0
-4037 11 0
-4037 14 0
-4037 16 0
-4037 18 0
-4037 20 0
-4037 21 0
-4037 23 0
-4037 26 0
4037 -3 -6 -7 -10 -11 -14 -16 -18 -20 -21 -23 -26 0
-4038 4 0
-4038 6 0
-4038 7 0
-4038 10 0
-4038 11 0
-4038 14 0
-4038 16 0
-4038 18 0
-4038 20 0
-4038 21 0
-4038 23 0
-4038 26 0
4038 -4 -6 -7 -10 -11 -14 -16 -18 -20 -21 -23 -26 0
-4039 3 0
-4039 5 0
-4039 7 0
-4039 10 0
-4039 11 0
-4039 14 0
-4039 16 0
-4039 18 0
-4039 20 0
-4039 21 0
-4039 23 0
-4039 26 0
4039 -3 -5 -7 -10 -11 -14 -16 -18 -20 -21 -23 -26 0
-4040 4 0
-4040 5 0
-4040 7 0
-4040 10 0
-4040 11 0
-4040 14 0
-4040 16 0
-4040 18 0
-4040 20 0
-4040 21 0
-4040 23 0
-4040 26 0
4040 -4 -5 -7 -10 -11 -14 -16 -18 -20 -21 -23 -26 0
-4041 3 0
-4041 5 0
-4041 8 0
-4041 10 0
-4041 11 0
-4041 14 0
-4041 16 0
-4041 18 0
-4041 20 0
-4041 21 0
-4041 23 0
-4041 26 0
4041 -3 -5 -8 -10 -11 -14 -16 -18 -20 -21 -23 -26 0
-4042 4 0
-4042 5 0
-4042 8 0
-4042 10 0
-4042 11 0
-4042 14 0
-4042 16 0
-4042 18 0
-4042 20 0
-4042 21 0
-4042 23 0
-4042 26 0
4042 -4 -5 -8 -10 -11 -14 -16 -18 -20 -21 -23 -26 0
-4043 3 0
-4043 6 0
-4043 8 0
-4043 10 0
-4043 11 0
-4043 14 0
-4043 16 0
-4043 18 0
-4043 20 0
-4043 21 0
-4043 23 0
-4043 26 0
4043 -3 -6 -8 -10 -11 -14 -16 -18 -20 -21 -23 -26 0
-4044 4 0
-4044 6 0
-4044 8 0
-4044 10 0
-4044 11 0
-4044 14 0
-4044 16 0
-4044 18 0
-4044 20 0
-4044 21 0
-4044 23 0
-4044 26 0
4044 -4 -6 -8 -10 -11 -14 -16 -18 -20 -21 -23 -26 0
-4045 3 0
-4045 6 0
-4045 8 0
-4045 9 0
-4045 11 0
-4045 14 0
-4045 16 0
-4045 18 0
-4045 20 0
-4045 21 0
-4045 23 0
-4045 26 0
4045 -3 -6 -8 -9 -11 -14 -16 -18 -20 -21 -23 -26 0
-4046 4 0
-4046 6 0
-4046 8 0
-4046 9 0
-4046 11 0
-4046 14 0
-4046 16 0
-4046 18 0
-4046 20 0
-4046 21 0
-4046 23 0
-4046 26 0
4046 -4 -6 -8 -9 -11 -14 -16 -18 -20 -21 -23 -26 0
-4047 3 0
-4047 5 0
-4047 8 0
-4047 9 0
-4047 11 0
-4047 14 0
-4047 16 0
-4047 18 0
-4047 20 0
-4047 21 0
-4047 23 0
-4047 26 0
4047 -3 -5 -8 -9 -11 -14 -16 -18 -20 -21 -23 -26 0
-4048 4 0
-4048 5 0
-4048 8 0
-4048 9 0
-4048 11 0
-4048 14 0
-4048 16 0
-4048 18 0
-4048 20 0
-4048 21 0
-4048 23 0
-4048 26 0
4048 -4 -5 -8 -9 -11 -14 -16 -18 -20 -21 -23 -26 0
-4049 3 0
-4049 5 0
-4049 7 0
-4049 9 0
-4049 11 0
-4049 14 0
-4049 16 0
-4049 18 0
-4049 20 0
-4049 21 0
-4049 23 0
-4049 26 0
4049 -3 -5 -7 -9 -11 -14 -16 -18 -20 -21 -23 -26 0
-4050 4 0
-4050 5 0
-4050 7 0
-4050 9 0
-4050 11 0
-4050 14 0
-4050 16 0
-4050 18 0
-4050 20 0
-4050 21 0
-4050 23 0
-4050 26 0
4050 -4 -5 -7 -9 -11 -14 -16 -18 -20 -21 -23 -26 0
-4051 3 0
-4051 6 0
-4051 7 0
-4051 9 0
-4051 11 0
-4051 14 0
-4051 16 0
-4051 18 0
-4051 20 0
-4051 21 0
-4051 23 0
-4051 26 0
4051 -3 -6 -7 -9 -11 -14 -16 -18 -20 -21 -23 -26 0
-4052 4 0
-4052 6 0
-4052 7 0
-4052 9 0
-4052 11 0
-4052 14 0
-4052 16 0
-4052 18 0
-4052 20 0
-4052 21 0
-4052 23 0
-4052 26 0
4052 -4 -6 -7 -9 -11 -14 -16 -18 -20 -21 -23 -26 0
-4053 3 0
-4053 6 0
-4053 7 0
-4053 9 0
-4053 11 0
-4053 14 0
-4053 15 0
-4053 18 0
-4053 20 0
-4053 21 0
-4053 23 0
-4053 26 0
4053 -3 -6 -7 -9 -11 -14 -15 -18 -20 -21 -23 -26 0
-4054 4 0
-4054 6 0
-4054 7 0
-4054 9 0
-4054 11 0
-4054 14 0
-4054 15 0
-4054 18 0
-4054 20 0
-4054 21 0
-4054 23 0
-4054 26 0
4054 -4 -6 -7 -9 -11 -14 -15 -18 -20 -21 -23 -26 0
-4055 3 0
-4055 5 0
-4055 7 0
-4055 9 0
-4055 11 0
-4055 14 0
-4055 15 0
-4055 18 0
-4055 20 0
-4055 21 0
-4055 23 0
-4055 26 0
4055 -3 -5 -7 -9 -11 -14 -15 -18 -20 -21 -23 -26 0
-4056 4 0
-4056 5 0
-4056 7 0
-4056 9 0
-4056 11 0
-4056 14 0
-4056 15 0
-4056 18 0
-4056 20 0
-4056 21 0
-4056 23 0
-4056 26 0
4056 -4 -5 -7 -9 -11 -14 -15 -18 -20 -21 -23 -26 0
-4057 3 0
-4057 5 0
-4057 8 0
-4057 9 0
-4057 11 0
-4057 14 0
-4057 15 0
-4057 18 0
-4057 20 0
-4057 21 0
-4057 23 0
-4057 26 0
4057 -3 -5 -8 -9 -11 -14 -15 -18 -20 -21 -23 -26 0
-4058 4 0
-4058 5 0
-4058 8 0
-4058 9 0
-4058 11 0
-4058 14 0
-4058 15 0
-4058 18 0
-4058 20 0
-4058 21 0
-4058 23 0
-4058 26 0
4058 -4 -5 -8 -9 -11 -14 -15 -18 -20 -21 -23 -26 0
-4059 3 0
-4059 6 0
-4059 8 0
-4059 9 0
-4059 11 0
-4059 14 0
-4059 15 0
-4059 18 0
-4059 20 0
-4059 21 0
-4059 23 0
-4059 26 0
4059 -3 -6 -8 -9 -11 -14 -15 -18 -20 -21 -23 -26 0
-4060 4 0
-4060 6 0
-4060 8 0
-4060 9 0
-4060 11 0
-4060 14 0
-4060 15 0
-4060 18 0
-4060 20 0
-4060 21 0
-4060 23 0
-4060 26 0
4060 -4 -6 -8 -9 -11 -14 -15 -18 -20 -21 -23 -26 0
-4061 3 0
-4061 6 0
-4061 8 0
-4061 10 0
-4061 11 0
-4061 14 0
-4061 15 0
-4061 18 0
-4061 20 0
-4061 21 0
-4061 23 0
-4061 26 0
4061 -3 -6 -8 -10 -11 -14 -15 -18 -20 -21 -23 -26 0
-4062 4 0
-4062 6 0
-4062 8 0
-4062 10 0
-4062 11 0
-4062 14 0
-4062 15 0
-4062 18 0
-4062 20 0
-4062 21 0
-4062 23 0
-4062 26 0
4062 -4 -6 -8 -10 -11 -14 -15 -18 -20 -21 -23 -26 0
-4063 3 0
-4063 5 0
-4063 8 0
-4063 10 0
-4063 11 0
-4063 14 0
-4063 15 0
-4063 18 0
-4063 20 0
-4063 21 0
-4063 23 0
-4063 26 0
4063 -3 -5 -8 -10 -11 -14 -15 -18 -20 -21 -23 -26 0
-4064 4 0
-4064 5 0
-4064 8 0
-4064 10 0
-4064 11 0
-4064 14 0
-4064 15 0
-4064 18 0
-4064 20 0
-4064 21 0
-4064 23 0
-4064 26 0
4064 -4 -5 -8 -10 -11 -14 -15 -18 -20 -21 -23 -26 0
-4065 3 0
-4065 5 0
-4065 7 0
-4065 10 0
-4065 11 0
-4065 14 0
-4065 15 0
-4065 18 0
-4065 20 0
-4065 21 0
-4065 23 0
-4065 26 0
4065 -3 -5 -7 -10 -11 -14 -15 -18 -20 -21 -23 -26 0
-4066 4 0
-4066 5 0
-4066 7 0
-4066 10 0
-4066 11 0
-4066 14 0
-4066 15 0
-4066 18 0
-4066 20 0
-4066 21 0
-4066 23 0
-4066 26 0
4066 -4 -5 -7 -10 -11 -14 -15 -18 -20 -21 -23 -26 0
-4067 3 0
-4067 6 0
-4067 7 0
-4067 10 0
-4067 11 0
-4067 14 0
-4067 15 0
-4067 18 0
-4067 20 0
-4067 21 0
-4067 23 0
-4067 26 0
4067 -3 -6 -7 -10 -11 -14 -15 -18 -20 -21 -23 -26 0
-4068 4 0
-4068 6 0
-4068 7 0
-4068 10 0
-4068 11 0
-4068 14 0
-4068 15 0
-4068 18 0
-4068 20 0
-4068 21 0
-4068 23 0
-4068 26 0
4068 -4 -6 -7 -10 -11 -14 -15 -18 -20 -21 -23 -26 0
-4069 3 0
-4069 6 0
-4069 7 0
-4069 10 0
-4069 12 0
-4069 14 0
-4069 15 0
-4069 18 0
-4069 20 0
-4069 21 0
-4069 23 0
-4069 26 0
4069 -3 -6 -7 -10 -12 -14 -15 -18 -20 -21 -23 -26 0
-4070 4 0
-4070 6 0
-4070 7 0
-4070 10 0
-4070 12 0
-4070 14 0
-4070 15 0
-4070 18 0
-4070 20 0
-4070 21 0
-4070 23 0
-4070 26 0
4070 -4 -6 -7 -10 -12 -14 -15 -18 -20 -21 -23 -26 0
-4071 3 0
-4071 5 0
-4071 7 0
-4071 10 0
-4071 12 0
-4071 14 0
-4071 15 0
-4071 18 0
-4071 20 0
-4071 21 0
-4071 23 0
-4071 26 0
4071 -3 -5 -7 -10 -12 -14 -15 -18 -20 -21 -23 -26 0
-4072 4 0
-4072 5 0
-4072 7 0
-4072 10 0
-4072 12 0
-4072 14 0
-4072 15 0
-4072 18 0
-4072 20 0
-4072 21 0
-4072 23 0
-4072 26 0
4072 -4 -5 -7 -10 -12 -14 -15 -18 -20 -21 -23 -26 0
-4073 3 0
-4073 5 0
-4073 8 0
-4073 10 0
-4073 12 0
-4073 14 0
-4073 15 0
-4073 18 0
-4073 20 0
-4073 21 0
-4073 23 0
-4073 26 0
4073 -3 -5 -8 -10 -12 -14 -15 -18 -20 -21 -23 -26 0
-4074 4 0
-4074 5 0
-4074 8 0
-4074 10 0
-4074 12 0
-4074 14 0
-4074 15 0
-4074 18 0
-4074 20 0
-4074 21 0
-4074 23 0
-4074 26 0
4074 -4 -5 -8 -10 -12 -14 -15 -18 -20 -21 -23 -26 0
-4075 3 0
-4075 6 0
-4075 8 0
-4075 10 0
-4075 12 0
-4075 14 0
-4075 15 0
-4075 18 0
-4075 20 0
-4075 21 0
-4075 23 0
-4075 26 0
4075 -3 -6 -8 -10 -12 -14 -15 -18 -20 -21 -23 -26 0
-4076 4 0
-4076 6 0
-4076 8 0
-4076 10 0
-4076 12 0
-4076 14 0
-4076 15 0
-4076 18 0
-4076 20 0
-4076 21 0
-4076 23 0
-4076 26 0
4076 -4 -6 -8 -10 -12 -14 -15 -18 -20 -21 -23 -26 0
-4077 3 0
-4077 6 0
-4077 8 0
-4077 9 0
-4077 12 0
-4077 14 0
-4077 15 0
-4077 18 0
-4077 20 0
-4077 21 0
-4077 23 0
-4077 26 0
4077 -3 -6 -8 -9 -12 -14 -15 -18 -20 -21 -23 -26 0
-4078 4 0
-4078 6 0
-4078 8 0
-4078 9 0
-4078 12 0
-4078 14 0
-4078 15 0
-4078 18 0
-4078 20 0
-4078 21 0
-4078 23 0
-4078 26 0
4078 -4 -6 -8 -9 -12 -14 -15 -18 -20 -21 -23 -26 0
-4079 3 0
-4079 5 0
-4079 8 0
-4079 9 0
-4079 12 0
-4079 14 0
-4079 15 0
-4079 18 0
-4079 20 0
-4079 21 0
-4079 23 0
-4079 26 0
4079 -3 -5 -8 -9 -12 -14 -15 -18 -20 -21 -23 -26 0
-4080 4 0
-4080 5 0
-4080 8 0
-4080 9 0
-4080 12 0
-4080 14 0
-4080 15 0
-4080 18 0
-4080 20 0
-4080 21 0
-4080 23 0
-4080 26 0
4080 -4 -5 -8 -9 -12 -14 -15 -18 -20 -21 -23 -26 0
-4081 3 0
-4081 5 0
-4081 7 0
-4081 9 0
-4081 12 0
-4081 14 0
-4081 15 0
-4081 18 0
-4081 20 0
-4081 21 0
-4081 23 0
-4081 26 0
4081 -3 -5 -7 -9 -12 -14 -15 -18 -20 -21 -23 -26 0
-4082 4 0
-4082 5 0
-4082 7 0
-4082 9 0
-4082 12 0
-4082 14 0
-4082 15 0
-4082 18 0
-4082 20 0
-4082 21 0
-4082 23 0
-4082 26 0
4082 -4 -5 -7 -9 -12 -14 -15 -18 -20 -21 -23 -26 0
-4083 3 0
-4083 6 0
-4083 7 0
-4083 9 0
-4083 12 0
-4083 14 0
-4083 15 0
-4083 18 0
-4083 20 0
-4083 21 0
-4083 23 0
-4083 26 0
4083 -3 -6 -7 -9 -12 -14 -15 -18 -20 -21 -23 -26 0
-4084 4 0
-4084 6 0
-4084 7 0
-4084 9 0
-4084 12 0
-4084 14 0
-4084 15 0
-4084 18 0
-4084 20 0
-4084 21 0
-4084 23 0
-4084 26 0
4084 -4 -6 -7 -9 -12 -14 -15 -18 -20 -21 -23 -26 0
-4085 3 0
-4085 6 0
-4085 7 0
-4085 9 0
-4085 12 0
-4085 13 0
-4085 15 0
-4085 18 0
-4085 20 0
-4085 21 0
-4085 23 0
-4085 26 0
4085 -3 -6 -7 -9 -12 -13 -15 -18 -20 -21 -23 -26 0
-4086 4 0
-4086 6 0
-4086 7 0
-4086 9 0
-4086 12 0
-4086 13 0
-4086 15 0
-4086 18 0
-4086 20 0
-4086 21 0
-4086 23 0
-4086 26 0
4086 -4 -6 -7 -9 -12 -13 -15 -18 -20 -21 -23 -26 0
-4087 3 0
-4087 5 0
-4087 7 0
-4087 9 0
-4087 12 0
-4087 13 0
-4087 15 0
-4087 18 0
-4087 20 0
-4087 21 0
-4087 23 0
-4087 26 0
4087 -3 -5 -7 -9 -12 -13 -15 -18 -20 -21 -23 -26 0
-4088 4 0
-4088 5 0
-4088 7 0
-4088 9 0
-4088 12 0
-4088 13 0
-4088 15 0
-4088 18 0
-4088 20 0
-4088 21 0
-4088 23 0
-4088 26 0
4088 -4 -5 -7 -9 -12 -13 -15 -18 -20 -21 -23 -26 0
-4089 3 0
-4089 5 0
-4089 8 0
-4089 9 0
-4089 12 0
-4089 13 0
-4089 15 0
-4089 18 0
-4089 20 0
-4089 21 0
-4089 23 0
-4089 26 0
4089 -3 -5 -8 -9 -12 -13 -15 -18 -20 -21 -23 -26 0
-4090 4 0
-4090 5 0
-4090 8 0
-4090 9 0
-4090 12 0
-4090 13 0
-4090 15 0
-4090 18 0
-4090 20 0
-4090 21 0
-4090 23 0
-4090 26 0
4090 -4 -5 -8 -9 -12 -13 -15 -18 -20 -21 -23 -26 0
-4091 3 0
-4091 6 0
-4091 8 0
-4091 9 0
-4091 12 0
-4091 13 0
-4091 15 0
-4091 18 0
-4091 20 0
-4091 21 0
-4091 23 0
-4091 26 0
4091 -3 -6 -8 -9 -12 -13 -15 -18 -20 -21 -23 -26 0
-4092 4 0
-4092 6 0
-4092 8 0
-4092 9 0
-4092 12 0
-4092 13 0
-4092 15 0
-4092 18 0
-4092 20 0
-4092 21 0
-4092 23 0
-4092 26 0
4092 -4 -6 -8 -9 -12 -13 -15 -18 -20 -21 -23 -26 0
-4093 3 0
-4093 6 0
-4093 8 0
-4093 10 0
-4093 12 0
-4093 13 0
-4093 15 0
-4093 18 0
-4093 20 0
-4093 21 0
-4093 23 0
-4093 26 0
4093 -3 -6 -8 -10 -12 -13 -15 -18 -20 -21 -23 -26 0
-4094 4 0
-4094 6 0
-4094 8 0
-4094 10 0
-4094 12 0
-4094 13 0
-4094 15 0
-4094 18 0
-4094 20 0
-4094 21 0
-4094 23 0
-4094 26 0
4094 -4 -6 -8 -10 -12 -13 -15 -18 -20 -21 -23 -26 0
-4095 3 0
-4095 5 0
-4095 8 0
-4095 10 0
-4095 12 0
-4095 13 0
-4095 15 0
-4095 18 0
-4095 20 0
-4095 21 0
-4095 23 0
-4095 26 0
4095 -3 -5 -8 -10 -12 -13 -15 -18 -20 -21 -23 -26 0
-4096 4 0
-4096 5 0
-4096 8 0
-4096 10 0
-4096 12 0
-4096 13 0
-4096 15 0
-4096 18 0
-4096 20 0
-4096 21 0
-4096 23 0
-4096 26 0
4096 -4 -5 -8 -10 -12 -13 -15 -18 -20 -21 -23 -26 0
-4097 3 0
-4097 5 0
-4097 7 0
-4097 10 0
-4097 12 0
-4097 13 0
-4097 15 0
-4097 18 0
-4097 20 0
-4097 21 0
-4097 23 0
-4097 26 0
4097 -3 -5 -7 -10 -12 -13 -15 -18 -20 -21 -23 -26 0
-4098 4 0
-4098 5 0
-4098 7 0
-4098 10 0
-4098 12 0
-4098 13 0
-4098 15 0
-4098 18 0
-4098 20 0
-4098 21 0
-4098 23 0
-4098 26 0
4098 -4 -5 -7 -10 -12 -13 -15 -18 -20 -21 -23 -26 0
-4099 3 0
-4099 6 0
-4099 7 0
-4099 10 0
-4099 12 0
-4099 13 0
-4099 15 0
-4099 18 0
-4099 20 0
-4099 21 0
-4099 23 0
-4099 26 0
4099 -3 -6 -7 -10 -12 -13 -15 -18 -20 -21 -23 -26 0
-4100 4 0
-4100 6 0
-4100 7 0
-4100 10 0
-4100 12 0
-4100 13 0
-4100 15 0
-4100 18 0
-4100 20 0
-4100 21 0
-4100 23 0
-4100 26 0
4100 -4 -6 -7 -10 -12 -13 -15 -18 -20 -21 -23 -26 0
-4101 3 0
-4101 6 0
-4101 7 0
-4101 10 0
-4101 11 0
-4101 13 0
-4101 15 0
-4101 18 0
-4101 20 0
-4101 21 0
-4101 23 0
-4101 26 0
4101 -3 -6 -7 -10 -11 -13 -15 -18 -20 -21 -23 -26 0
-4102 4 0
-4102 6 0
-4102 7 0
-4102 10 0
-4102 11 0
-4102 13 0
-4102 15 0
-4102 18 0
-4102 20 0
-4102 21 0
-4102 23 0
-4102 26 0
4102 -4 -6 -7 -10 -11 -13 -15 -18 -20 -21 -23 -26 0
-4103 3 0
-4103 5 0
-4103 7 0
-4103 10 0
-4103 11 0
-4103 13 0
-4103 15 0
-4103 18 0
-4103 20 0
-4103 21 0
-4103 23 0
-4103 26 0
4103 -3 -5 -7 -10 -11 -13 -15 -18 -20 -21 -23 -26 0
-4104 4 0
-4104 5 0
-4104 7 0
-4104 10 0
-4104 11 0
-4104 13 0
-4104 15 0
-4104 18 0
-4104 20 0
-4104 21 0
-4104 23 0
-4104 26 0
4104 -4 -5 -7 -10 -11 -13 -15 -18 -20 -21 -23 -26 0
-4105 3 0
-4105 5 0
-4105 8 0
-4105 10 0
-4105 11 0
-4105 13 0
-4105 15 0
-4105 18 0
-4105 20 0
-4105 21 0
-4105 23 0
-4105 26 0
4105 -3 -5 -8 -10 -11 -13 -15 -18 -20 -21 -23 -26 0
-4106 4 0
-4106 5 0
-4106 8 0
-4106 10 0
-4106 11 0
-4106 13 0
-4106 15 0
-4106 18 0
-4106 20 0
-4106 21 0
-4106 23 0
-4106 26 0
4106 -4 -5 -8 -10 -11 -13 -15 -18 -20 -21 -23 -26 0
-4107 3 0
-4107 6 0
-4107 8 0
-4107 10 0
-4107 11 0
-4107 13 0
-4107 15 0
-4107 18 0
-4107 20 0
-4107 21 0
-4107 23 0
-4107 26 0
4107 -3 -6 -8 -10 -11 -13 -15 -18 -20 -21 -23 -26 0
-4108 4 0
-4108 6 0
-4108 8 0
-4108 10 0
-4108 11 0
-4108 13 0
-4108 15 0
-4108 18 0
-4108 20 0
-4108 21 0
-4108 23 0
-4108 26 0
4108 -4 -6 -8 -10 -11 -13 -15 -18 -20 -21 -23 -26 0
-4109 3 0
-4109 6 0
-4109 8 0
-4109 9 0
-4109 11 0
-4109 13 0
-4109 15 0
-4109 18 0
-4109 20 0
-4109 21 0
-4109 23 0
-4109 26 0
4109 -3 -6 -8 -9 -11 -13 -15 -18 -20 -21 -23 -26 0
-4110 4 0
-4110 6 0
-4110 8 0
-4110 9 0
-4110 11 0
-4110 13 0
-4110 15 0
-4110 18 0
-4110 20 0
-4110 21 0
-4110 23 0
-4110 26 0
4110 -4 -6 -8 -9 -11 -13 -15 -18 -20 -21 -23 -26 0
-4111 3 0
-4111 5 0
-4111 8 0
-4111 9 0
-4111 11 0
-4111 13 0
-4111 15 0
-4111 18 0
-4111 20 0
-4111 21 0
-4111 23 0
-4111 26 0
4111 -3 -5 -8 -9 -11 -13 -15 -18 -20 -21 -23 -26 0
-4112 4 0
-4112 5 0
-4112 8 0
-4112 9 0
-4112 11 0
-4112 13 0
-4112 15 0
-4112 18 0
-4112 20 0
-4112 21 0
-4112 23 0
-4112 26 0
4112 -4 -5 -8 -9 -11 -13 -15 -18 -20 -21 -23 -26 0
-4113 4 0
-4113 5 0
-4113 7 0
-4113 9 0
-4113 11 0
-4113 13 0
-4113 15 0
-4113 18 0
-4113 20 0
-4113 21 0
-4113 23 0
-4113 26 0
4113 -4 -5 -7 -9 -11 -13 -15 -18 -20 -21 -23 -26 0
-4114 3 0
-4114 6 0
-4114 7 0
-4114 9 0
-4114 11 0
-4114 13 0
-4114 15 0
-4114 18 0
-4114 20 0
-4114 21 0
-4114 23 0
-4114 26 0
4114 -3 -6 -7 -9 -11 -13 -15 -18 -20 -21 -23 -26 0
-4115 4 0
-4115 6 0
-4115 7 0
-4115 9 0
-4115 11 0
-4115 13 0
-4115 15 0
-4115 18 0
-4115 20 0
-4115 21 0
-4115 23 0
-4115 26 0
4115 -4 -6 -7 -9 -11 -13 -15 -18 -20 -21 -23 -26 0
-4116 3 0
-4116 6 0
-4116 8 0
-4116 10 0
-4116 11 0
-4116 13 0
-4116 15 0
-4116 18 0
-4116 19 0
-4116 21 0
-4116 23 0
-4116 26 0
4116 -3 -6 -8 -10 -11 -13 -15 -18 -19 -21 -23 -26 0
-4117 4 0
-4117 6 0
-4117 8 0
-4117 10 0
-4117 12 0
-4117 14 0
-4117 15 0
-4117 18 0
-4117 19 0
-4117 21 0
-4117 23 0
-4117 26 0
4117 -4 -6 -8 -10 -12 -14 -15 -18 -19 -21 -23 -26 0
-4118 4 0
-4118 6 0
-4118 8 0
-4118 10 0
-4118 12 0
-4118 14 0
-4118 15 0
-4118 17 0
-4118 19 0
-4118 21 0
-4118 23 0
-4118 26 0
4118 -4 -6 -8 -10 -12 -14 -15 -17 -19 -21 -23 -26 0
-4119 3 0
-4119 5 0
-4119 8 0
-4119 10 0
-4119 11 0
-4119 13 0
-4119 15 0
-4119 18 0
-4119 19 0
-4119 21 0
-4119 23 0
-4119 26 0
4119 -3 -5 -8 -10 -11 -13 -15 -18 -19 -21 -23 -26 0
-4120 3 0
-4120 6 0
-4120 7 0
-4120 10 0
-4120 12 0
-4120 13 0
-4120 15 0
-4120 18 0
-4120 19 0
-4120 21 0
-4120 23 0
-4120 26 0
4120 -3 -6 -7 -10 -12 -13 -15 -18 -19 -21 -23 -26 0
-4121 3 0
-4121 5 0
-4121 7 0
-4121 10 0
-4121 12 0
-4121 13 0
-4121 15 0
-4121 18 0
-4121 19 0
-4121 21 0
-4121 23 0
-4121 26 0
4121 -3 -5 -7 -10 -12 -13 -15 -18 -19 -21 -23 -26 0
-4122 4 0
-4122 5 0
-4122 7 0
-4122 10 0
-4122 12 0
-4122 13 0
-4122 15 0
-4122 18 0
-4122 19 0
-4122 21 0
-4122 23 0
-4122 26 0
4122 -4 -5 -7 -10 -12 -13 -15 -18 -19 -21 -23 -26 0
-4123 3 0
-4123 5 0
-4123 8 0
-4123 10 0
-4123 12 0
-4123 13 0
-4123 15 0
-4123 18 0
-4123 19 0
-4123 21 0
-4123 23 0
-4123 26 0
4123 -3 -5 -8 -10 -12 -13 -15 -18 -19 -21 -23 -26 0
-4124 4 0
-4124 5 0
-4124 8 0
-4124 10 0
-4124 12 0
-4124 13 0
-4124 15 0
-4124 18 0
-4124 19 0
-4124 21 0
-4124 23 0
-4124 26 0
4124 -4 -5 -8 -10 -12 -13 -15 -18 -19 -21 -23 -26 0
-4125 3 0
-4125 6 0
-4125 8 0
-4125 10 0
-4125 12 0
-4125 13 0
-4125 15 0
-4125 18 0
-4125 19 0
-4125 21 0
-4125 23 0
-4125 26 0
4125 -3 -6 -8 -10 -12 -13 -15 -18 -19 -21 -23 -26 0
-4126 3 0
-4126 6 0
-4126 7 0
-4126 9 0
-4126 12 0
-4126 14 0
-4126 15 0
-4126 18 0
-4126 19 0
-4126 21 0
-4126 23 0
-4126 26 0
4126 -3 -6 -7 -9 -12 -14 -15 -18 -19 -21 -23 -26 0
-4127 3 0
-4127 5 0
-4127 7 0
-4127 9 0
-4127 12 0
-4127 14 0
-4127 15 0
-4127 18 0
-4127 19 0
-4127 21 0
-4127 23 0
-4127 26 0
4127 -3 -5 -7 -9 -12 -14 -15 -18 -19 -21 -23 -26 0
-4128 4 0
-4128 5 0
-4128 7 0
-4128 9 0
-4128 12 0
-4128 14 0
-4128 15 0
-4128 18 0
-4128 19 0
-4128 21 0
-4128 23 0
-4128 26 0
4128 -4 -5 -7 -9 -12 -14 -15 -18 -19 -21 -23 -26 0
-4129 3 0
-4129 5 0
-4129 8 0
-4129 9 0
-4129 12 0
-4129 14 0
-4129 15 0
-4129 18 0
-4129 19 0
-4129 21 0
-4129 23 0
-4129 26 0
4129 -3 -5 -8 -9 -12 -14 -15 -18 -19 -21 -23 -26 0
-4130 4 0
-4130 5 0
-4130 8 0
-4130 9 0
-4130 12 0
-4130 14 0
-4130 15 0
-4130 18 0
-4130 19 0
-4130 21 0
-4130 23 0
-4130 26 0
4130 -4 -5 -8 -9 -12 -14 -15 -18 -19 -21 -23 -26 0
-4131 3 0
-4131 6 0
-4131 8 0
-4131 9 0
-4131 12 0
-4131 14 0
-4131 15 0
-4131 18 0
-4131 19 0
-4131 21 0
-4131 23 0
-4131 26 0
4131 -3 -6 -8 -9 -12 -14 -15 -18 -19 -21 -23 -26 0
-4132 4 0
-4132 6 0
-4132 8 0
-4132 9 0
-4132 12 0
-4132 14 0
-4132 15 0
-4132 18 0
-4132 19 0
-4132 21 0
-4132 23 0
-4132 26 0
4132 -4 -6 -8 -9 -12 -14 -15 -18 -19 -21 -23 -26 0
-4133 3 0
-4133 6 0
-4133 8 0
-4133 10 0
-4133 12 0
-4133 14 0
-4133 15 0
-4133 18 0
-4133 19 0
-4133 21 0
-4133 23 0
-4133 26 0
4133 -3 -6 -8 -10 -12 -14 -15 -18 -19 -21 -23 -26 0
-4134 3 0
-4134 5 0
-4134 8 0
-4134 10 0
-4134 12 0
-4134 14 0
-4134 15 0
-4134 18 0
-4134 19 0
-4134 21 0
-4134 23 0
-4134 26 0
4134 -3 -5 -8 -10 -12 -14 -15 -18 -19 -21 -23 -26 0
-4135 4 0
-4135 5 0
-4135 8 0
-4135 10 0
-4135 12 0
-4135 14 0
-4135 15 0
-4135 18 0
-4135 19 0
-4135 21 0
-4135 23 0
-4135 26 0
4135 -4 -5 -8 -10 -12 -14 -15 -18 -19 -21 -23 -26 0
-4136 3 0
-4136 5 0
-4136 7 0
-4136 10 0
-4136 12 0
-4136 14 0
-4136 15 0
-4136 18 0
-4136 19 0
-4136 21 0
-4136 23 0
-4136 26 0
4136 -3 -5 -7 -10 -12 -14 -15 -18 -19 -21 -23 -26 0
-4137 4 0
-4137 5 0
-4137 7 0
-4137 10 0
-4137 12 0
-4137 14 0
-4137 15 0
-4137 18 0
-4137 19 0
-4137 21 0
-4137 23 0
-4137 26 0
4137 -4 -5 -7 -10 -12 -14 -15 -18 -19 -21 -23 -26 0
-4138 3 0
-4138 6 0
-4138 7 0
-4138 10 0
-4138 12 0
-4138 14 0
-4138 15 0
-4138 18 0
-4138 19 0
-4138 21 0
-4138 23 0
-4138 26 0
4138 -3 -6 -7 -10 -12 -14 -15 -18 -19 -21 -23 -26 0
-4139 3 0
-4139 5 0
-4139 8 0
-4139 10 0
-4139 11 0
-4139 14 0
-4139 15 0
-4139 18 0
-4139 19 0
-4139 21 0
-4139 23 0
-4139 26 0
4139 -3 -5 -8 -10 -11 -14 -15 -18 -19 -21 -23 -26 0
-4140 3 0
-4140 6 0
-4140 8 0
-4140 10 0
-4140 11 0
-4140 14 0
-4140 15 0
-4140 18 0
-4140 19 0
-4140 21 0
-4140 23 0
-4140 26 0
4140 -3 -6 -8 -10 -11 -14 -15 -18 -19 -21 -23 -26 0
-4141 3 0
-4141 6 0
-4141 7 0
-4141 9 0
-4141 11 0
-4141 14 0
-4141 16 0
-4141 18 0
-4141 19 0
-4141 21 0
-4141 23 0
-4141 26 0
4141 -3 -6 -7 -9 -11 -14 -16 -18 -19 -21 -23 -26 0
-4142 3 0
-4142 5 0
-4142 7 0
-4142 9 0
-4142 11 0
-4142 14 0
-4142 16 0
-4142 18 0
-4142 19 0
-4142 21 0
-4142 23 0
-4142 26 0
4142 -3 -5 -7 -9 -11 -14 -16 -18 -19 -21 -23 -26 0
-4143 4 0
-4143 5 0
-4143 7 0
-4143 9 0
-4143 11 0
-4143 14 0
-4143 16 0
-4143 18 0
-4143 19 0
-4143 21 0
-4143 23 0
-4143 26 0
4143 -4 -5 -7 -9 -11 -14 -16 -18 -19 -21 -23 -26 0
-4144 3 0
-4144 5 0
-4144 8 0
-4144 9 0
-4144 11 0
-4144 14 0
-4144 16 0
-4144 18 0
-4144 19 0
-4144 21 0
-4144 23 0
-4144 26 0
4144 -3 -5 -8 -9 -11 -14 -16 -18 -19 -21 -23 -26 0
-4145 4 0
-4145 5 0
-4145 8 0
-4145 9 0
-4145 11 0
-4145 14 0
-4145 16 0
-4145 18 0
-4145 19 0
-4145 21 0
-4145 23 0
-4145 26 0
4145 -4 -5 -8 -9 -11 -14 -16 -18 -19 -21 -23 -26 0
-4146 3 0
-4146 6 0
-4146 8 0
-4146 9 0
-4146 11 0
-4146 14 0
-4146 16 0
-4146 18 0
-4146 19 0
-4146 21 0
-4146 23 0
-4146 26 0
4146 -3 -6 -8 -9 -11 -14 -16 -18 -19 -21 -23 -26 0
-4147 4 0
-4147 6 0
-4147 8 0
-4147 9 0
-4147 11 0
-4147 14 0
-4147 16 0
-4147 18 0
-4147 19 0
-4147 21 0
-4147 23 0
-4147 26 0
4147 -4 -6 -8 -9 -11 -14 -16 -18 -19 -21 -23 -26 0
-4148 3 0
-4148 6 0
-4148 8 0
-4148 10 0
-4148 11 0
-4148 14 0
-4148 16 0
-4148 18 0
-4148 19 0
-4148 21 0
-4148 23 0
-4148 26 0
4148 -3 -6 -8 -10 -11 -14 -16 -18 -19 -21 -23 -26 0
-4149 4 0
-4149 6 0
-4149 8 0
-4149 10 0
-4149 11 0
-4149 14 0
-4149 16 0
-4149 18 0
-4149 19 0
-4149 21 0
-4149 23 0
-4149 26 0
4149 -4 -6 -8 -10 -11 -14 -16 -18 -19 -21 -23 -26 0
-4150 3 0
-4150 5 0
-4150 8 0
-4150 10 0
-4150 11 0
-4150 14 0
-4150 16 0
-4150 18 0
-4150 19 0
-4150 21 0
-4150 23 0
-4150 26 0
4150 -3 -5 -8 -10 -11 -14 -16 -18 -19 -21 -23 -26 0
-4151 4 0
-4151 5 0
-4151 8 0
-4151 10 0
-4151 11 0
-4151 14 0
-4151 16 0
-4151 18 0
-4151 19 0
-4151 21 0
-4151 23 0
-4151 26 0
4151 -4 -5 -8 -10 -11 -14 -16 -18 -19 -21 -23 -26 0
-4152 3 0
-4152 5 0
-4152 7 0
-4152 10 0
-4152 11 0
-4152 14 0
-4152 16 0
-4152 18 0
-4152 19 0
-4152 21 0
-4152 23 0
-4152 26 0
4152 -3 -5 -7 -10 -11 -14 -16 -18 -19 -21 -23 -26 0
-4153 4 0
-4153 5 0
-4153 7 0
-4153 10 0
-4153 11 0
-4153 14 0
-4153 16 0
-4153 18 0
-4153 19 0
-4153 21 0
-4153 23 0
-4153 26 0
4153 -4 -5 -7 -10 -11 -14 -16 -18 -19 -21 -23 -26 0
-4154 3 0
-4154 6 0
-4154 7 0
-4154 10 0
-4154 11 0
-4154 14 0
-4154 16 0
-4154 18 0
-4154 19 0
-4154 21 0
-4154 23 0
-4154 26 0
4154 -3 -6 -7 -10 -11 -14 -16 -18 -19 -21 -23 -26 0
-4155 4 0
-4155 6 0
-4155 7 0
-4155 10 0
-4155 11 0
-4155 14 0
-4155 16 0
-4155 18 0
-4155 19 0
-4155 21 0
-4155 23 0
-4155 26 0
4155 -4 -6 -7 -10 -11 -14 -16 -18 -19 -21 -23 -26 0
-4156 3 0
-4156 6 0
-4156 7 0
-4156 10 0
-4156 12 0
-4156 14 0
-4156 16 0
-4156 18 0
-4156 19 0
-4156 21 0
-4156 23 0
-4156 26 0
4156 -3 -6 -7 -10 -12 -14 -16 -18 -19 -21 -23 -26 0
-4157 4 0
-4157 6 0
-4157 7 0
-4157 10 0
-4157 12 0
-4157 14 0
-4157 16 0
-4157 18 0
-4157 19 0
-4157 21 0
-4157 23 0
-4157 26 0
4157 -4 -6 -7 -10 -12 -14 -16 -18 -19 -21 -23 -26 0
-4158 3 0
-4158 5 0
-4158 7 0
-4158 10 0
-4158 12 0
-4158 14 0
-4158 16 0
-4158 18 0
-4158 19 0
-4158 21 0
-4158 23 0
-4158 26 0
4158 -3 -5 -7 -10 -12 -14 -16 -18 -19 -21 -23 -26 0
-4159 4 0
-4159 5 0
-4159 7 0
-4159 10 0
-4159 12 0
-4159 14 0
-4159 16 0
-4159 18 0
-4159 19 0
-4159 21 0
-4159 23 0
-4159 26 0
4159 -4 -5 -7 -10 -12 -14 -16 -18 -19 -21 -23 -26 0
-4160 3 0
-4160 5 0
-4160 8 0
-4160 10 0
-4160 12 0
-4160 14 0
-4160 16 0
-4160 18 0
-4160 19 0
-4160 21 0
-4160 23 0
-4160 26 0
4160 -3 -5 -8 -10 -12 -14 -16 -18 -19 -21 -23 -26 0
-4161 4 0
-4161 5 0
-4161 8 0
-4161 10 0
-4161 12 0
-4161 14 0
-4161 16 0
-4161 18 0
-4161 19 0
-4161 21 0
-4161 23 0
-4161 26 0
4161 -4 -5 -8 -10 -12 -14 -16 -18 -19 -21 -23 -26 0
-4162 3 0
-4162 6 0
-4162 8 0
-4162 10 0
-4162 12 0
-4162 14 0
-4162 16 0
-4162 18 0
-4162 19 0
-4162 21 0
-4162 23 0
-4162 26 0
4162 -3 -6 -8 -10 -12 -14 -16 -18 -19 -21 -23 -26 0
-4163 3 0
-4163 6 0
-4163 8 0
-4163 9 0
-4163 12 0
-4163 14 0
-4163 16 0
-4163 18 0
-4163 19 0
-4163 21 0
-4163 23 0
-4163 26 0
4163 -3 -6 -8 -9 -12 -14 -16 -18 -19 -21 -23 -26 0
-4164 4 0
-4164 6 0
-4164 8 0
-4164 9 0
-4164 12 0
-4164 14 0
-4164 16 0
-4164 18 0
-4164 19 0
-4164 21 0
-4164 23 0
-4164 26 0
4164 -4 -6 -8 -9 -12 -14 -16 -18 -19 -21 -23 -26 0
-4165 3 0
-4165 5 0
-4165 8 0
-4165 9 0
-4165 12 0
-4165 14 0
-4165 16 0
-4165 18 0
-4165 19 0
-4165 21 0
-4165 23 0
-4165 26 0
4165 -3 -5 -8 -9 -12 -14 -16 -18 -19 -21 -23 -26 0
-4166 4 0
-4166 5 0
-4166 8 0
-4166 9 0
-4166 12 0
-4166 14 0
-4166 16 0
-4166 18 0
-4166 19 0
-4166 21 0
-4166 23 0
-4166 26 0
4166 -4 -5 -8 -9 -12 -14 -16 -18 -19 -21 -23 -26 0
-4167 3 0
-4167 5 0
-4167 7 0
-4167 9 0
-4167 12 0
-4167 14 0
-4167 16 0
-4167 18 0
-4167 19 0
-4167 21 0
-4167 23 0
-4167 26 0
4167 -3 -5 -7 -9 -12 -14 -16 -18 -19 -21 -23 -26 0
-4168 4 0
-4168 5 0
-4168 7 0
-4168 9 0
-4168 12 0
-4168 14 0
-4168 16 0
-4168 18 0
-4168 19 0
-4168 21 0
-4168 23 0
-4168 26 0
4168 -4 -5 -7 -9 -12 -14 -16 -18 -19 -21 -23 -26 0
-4169 3 0
-4169 6 0
-4169 7 0
-4169 9 0
-4169 12 0
-4169 14 0
-4169 16 0
-4169 18 0
-4169 19 0
-4169 21 0
-4169 23 0
-4169 26 0
4169 -3 -6 -7 -9 -12 -14 -16 -18 -19 -21 -23 -26 0
-4170 4 0
-4170 6 0
-4170 7 0
-4170 9 0
-4170 12 0
-4170 14 0
-4170 16 0
-4170 18 0
-4170 19 0
-4170 21 0
-4170 23 0
-4170 26 0
4170 -4 -6 -7 -9 -12 -14 -16 -18 -19 -21 -23 -26 0
-4171 3 0
-4171 6 0
-4171 7 0
-4171 9 0
-4171 12 0
-4171 13 0
-4171 16 0
-4171 18 0
-4171 19 0
-4171 21 0
-4171 23 0
-4171 26 0
4171 -3 -6 -7 -9 -12 -13 -16 -18 -19 -21 -23 -26 0
-4172 4 0
-4172 6 0
-4172 7 0
-4172 9 0
-4172 12 0
-4172 13 0
-4172 16 0
-4172 18 0
-4172 19 0
-4172 21 0
-4172 23 0
-4172 26 0
4172 -4 -6 -7 -9 -12 -13 -16 -18 -19 -21 -23 -26 0
-4173 3 0
-4173 5 0
-4173 7 0
-4173 9 0
-4173 12 0
-4173 13 0
-4173 16 0
-4173 18 0
-4173 19 0
-4173 21 0
-4173 23 0
-4173 26 0
4173 -3 -5 -7 -9 -12 -13 -16 -18 -19 -21 -23 -26 0
-4174 4 0
-4174 5 0
-4174 7 0
-4174 9 0
-4174 12 0
-4174 13 0
-4174 16 0
-4174 18 0
-4174 19 0
-4174 21 0
-4174 23 0
-4174 26 0
4174 -4 -5 -7 -9 -12 -13 -16 -18 -19 -21 -23 -26 0
-4175 3 0
-4175 5 0
-4175 8 0
-4175 9 0
-4175 12 0
-4175 13 0
-4175 16 0
-4175 18 0
-4175 19 0
-4175 21 0
-4175 23 0
-4175 26 0
4175 -3 -5 -8 -9 -12 -13 -16 -18 -19 -21 -23 -26 0
-4176 4 0
-4176 5 0
-4176 8 0
-4176 9 0
-4176 12 0
-4176 13 0
-4176 16 0
-4176 18 0
-4176 19 0
-4176 21 0
-4176 23 0
-4176 26 0
4176 -4 -5 -8 -9 -12 -13 -16 -18 -19 -21 -23 -26 0
-4177 3 0
-4177 6 0
-4177 8 0
-4177 9 0
-4177 12 0
-4177 13 0
-4177 16 0
-4177 18 0
-4177 19 0
-4177 21 0
-4177 23 0
-4177 26 0
4177 -3 -6 -8 -9 -12 -13 -16 -18 -19 -21 -23 -26 0
-4178 4 0
-4178 6 0
-4178 8 0
-4178 9 0
-4178 12 0
-4178 13 0
-4178 16 0
-4178 18 0
-4178 19 0
-4178 21 0
-4178 23 0
-4178 26 0
4178 -4 -6 -8 -9 -12 -13 -16 -18 -19 -21 -23 -26 0
-4179 3 0
-4179 6 0
-4179 8 0
-4179 10 0
-4179 12 0
-4179 13 0
-4179 16 0
-4179 18 0
-4179 19 0
-4179 21 0
-4179 23 0
-4179 26 0
4179 -3 -6 -8 -10 -12 -13 -16 -18 -19 -21 -23 -26 0
-4180 4 0
-4180 6 0
-4180 8 0
-4180 10 0
-4180 12 0
-4180 13 0
-4180 16 0
-4180 18 0
-4180 19 0
-4180 21 0
-4180 23 0
-4180 26 0
4180 -4 -6 -8 -10 -12 -13 -16 -18 -19 -21 -23 -26 0
-4181 3 0
-4181 5 0
-4181 8 0
-4181 10 0
-4181 12 0
-4181 13 0
-4181 16 0
-4181 18 0
-4181 19 0
-4181 21 0
-4181 23 0
-4181 26 0
4181 -3 -5 -8 -10 -12 -13 -16 -18 -19 -21 -23 -26 0
-4182 4 0
-4182 5 0
-4182 8 0
-4182 10 0
-4182 12 0
-4182 13 0
-4182 16 0
-4182 18 0
-4182 19 0
-4182 21 0
-4182 23 0
-4182 26 0
4182 -4 -5 -8 -10 -12 -13 -16 -18 -19 -21 -23 -26 0
-4183 3 0
-4183 5 0
-4183 7 0
-4183 10 0
-4183 12 0
-4183 13 0
-4183 16 0
-4183 18 0
-4183 19 0
-4183 21 0
-4183 23 0
-4183 26 0
4183 -3 -5 -7 -10 -12 -13 -16 -18 -19 -21 -23 -26 0
-4184 4 0
-4184 5 0
-4184 7 0
-4184 10 0
-4184 12 0
-4184 13 0
-4184 16 0
-4184 18 0
-4184 19 0
-4184 21 0
-4184 23 0
-4184 26 0
4184 -4 -5 -7 -10 -12 -13 -16 -18 -19 -21 -23 -26 0
-4185 3 0
-4185 6 0
-4185 7 0
-4185 10 0
-4185 12 0
-4185 13 0
-4185 16 0
-4185 18 0
-4185 19 0
-4185 21 0
-4185 23 0
-4185 26 0
4185 -3 -6 -7 -10 -12 -13 -16 -18 -19 -21 -23 -26 0
-4186 4 0
-4186 6 0
-4186 7 0
-4186 10 0
-4186 12 0
-4186 13 0
-4186 16 0
-4186 18 0
-4186 19 0
-4186 21 0
-4186 23 0
-4186 26 0
4186 -4 -6 -7 -10 -12 -13 -16 -18 -19 -21 -23 -26 0
-4187 3 0
-4187 6 0
-4187 7 0
-4187 10 0
-4187 11 0
-4187 13 0
-4187 16 0
-4187 18 0
-4187 19 0
-4187 21 0
-4187 23 0
-4187 26 0
4187 -3 -6 -7 -10 -11 -13 -16 -18 -19 -21 -23 -26 0
-4188 4 0
-4188 6 0
-4188 7 0
-4188 10 0
-4188 11 0
-4188 13 0
-4188 16 0
-4188 18 0
-4188 19 0
-4188 21 0
-4188 23 0
-4188 26 0
4188 -4 -6 -7 -10 -11 -13 -16 -18 -19 -21 -23 -26 0
-4189 3 0
-4189 5 0
-4189 7 0
-4189 10 0
-4189 11 0
-4189 13 0
-4189 16 0
-4189 18 0
-4189 19 0
-4189 21 0
-4189 23 0
-4189 26 0
4189 -3 -5 -7 -10 -11 -13 -16 -18 -19 -21 -23 -26 0
-4190 4 0
-4190 5 0
-4190 7 0
-4190 10 0
-4190 11 0
-4190 13 0
-4190 16 0
-4190 18 0
-4190 19 0
-4190 21 0
-4190 23 0
-4190 26 0
4190 -4 -5 -7 -10 -11 -13 -16 -18 -19 -21 -23 -26 0
-4191 3 0
-4191 5 0
-4191 8 0
-4191 10 0
-4191 11 0
-4191 13 0
-4191 16 0
-4191 18 0
-4191 19 0
-4191 21 0
-4191 23 0
-4191 26 0
4191 -3 -5 -8 -10 -11 -13 -16 -18 -19 -21 -23 -26 0
-4192 4 0
-4192 5 0
-4192 8 0
-4192 10 0
-4192 11 0
-4192 13 0
-4192 16 0
-4192 18 0
-4192 19 0
-4192 21 0
-4192 23 0
-4192 26 0
4192 -4 -5 -8 -10 -11 -13 -16 -18 -19 -21 -23 -26 0
-4193 3 0
-4193 6 0
-4193 8 0
-4193 10 0
-4193 11 0
-4193 13 0
-4193 16 0
-4193 18 0
-4193 19 0
-4193 21 0
-4193 23 0
-4193 26 0
4193 -3 -6 -8 -10 -11 -13 -16 -18 -19 -21 -23 -26 0
-4194 4 0
-4194 6 0
-4194 8 0
-4194 10 0
-4194 11 0
-4194 13 0
-4194 16 0
-4194 18 0
-4194 19 0
-4194 21 0
-4194 23 0
-4194 26 0
4194 -4 -6 -8 -10 -11 -13 -16 -18 -19 -21 -23 -26 0
-4195 3 0
-4195 6 0
-4195 8 0
-4195 9 0
-4195 11 0
-4195 13 0
-4195 16 0
-4195 18 0
-4195 19 0
-4195 21 0
-4195 23 0
-4195 26 0
4195 -3 -6 -8 -9 -11 -13 -16 -18 -19 -21 -23 -26 0
-4196 4 0
-4196 6 0
-4196 8 0
-4196 9 0
-4196 11 0
-4196 13 0
-4196 16 0
-4196 18 0
-4196 19 0
-4196 21 0
-4196 23 0
-4196 26 0
4196 -4 -6 -8 -9 -11 -13 -16 -18 -19 -21 -23 -26 0
-4197 3 0
-4197 5 0
-4197 8 0
-4197 9 0
-4197 11 0
-4197 13 0
-4197 16 0
-4197 18 0
-4197 19 0
-4197 21 0
-4197 23 0
-4197 26 0
4197 -3 -5 -8 -9 -11 -13 -16 -18 -19 -21 -23 -26 0
-4198 4 0
-4198 5 0
-4198 8 0
-4198 9 0
-4198 11 0
-4198 13 0
-4198 16 0
-4198 18 0
-4198 19 0
-4198 21 0
-4198 23 0
-4198 26 0
4198 -4 -5 -8 -9 -11 -13 -16 -18 -19 -21 -23 -26 0
-4199 3 0
-4199 5 0
-4199 7 0
-4199 9 0
-4199 11 0
-4199 13 0
-4199 16 0
-4199 18 0
-4199 19 0
-4199 21 0
-4199 23 0
-4199 26 0
4199 -3 -5 -7 -9 -11 -13 -16 -18 -19 -21 -23 -26 0
-4200 4 0
-4200 5 0
-4200 7 0
-4200 9 0
-4200 11 0
-4200 13 0
-4200 16 0
-4200 18 0
-4200 19 0
-4200 21 0
-4200 23 0
-4200 26 0
4200 -4 -5 -7 -9 -11 -13 -16 -18 -19 -21 -23 -26 0
-4201 3 0
-4201 6 0
-4201 7 0
-4201 9 0
-4201 11 0
-4201 13 0
-4201 16 0
-4201 18 0
-4201 19 0
-4201 21 0
-4201 23 0
-4201 26 0
4201 -3 -6 -7 -9 -11 -13 -16 -18 -19 -21 -23 -26 0
-4202 4 0
-4202 6 0
-4202 7 0
-4202 9 0
-4202 11 0
-4202 13 0
-4202 16 0
-4202 18 0
-4202 19 0
-4202 21 0
-4202 23 0
-4202 26 0
4202 -4 -6 -7 -9 -11 -13 -16 -18 -19 -21 -23 -26 0
-4203 3 0
-4203 6 0
-4203 8 0
-4203 10 0
-4203 11 0
-4203 13 0
-4203 16 0
-4203 17 0
-4203 19 0
-4203 21 0
-4203 23 0
-4203 26 0
4203 -3 -6 -8 -10 -11 -13 -16 -17 -19 -21 -23 -26 0
-4204 4 0
-4204 6 0
-4204 8 0
-4204 10 0
-4204 12 0
-4204 13 0
-4204 16 0
-4204 17 0
-4204 19 0
-4204 21 0
-4204 23 0
-4204 26 0
4204 -4 -6 -8 -10 -12 -13 -16 -17 -19 -21 -23 -26 0
-4205 4 0
-4205 6 0
-4205 8 0
-4205 10 0
-4205 12 0
-4205 13 0
-4205 15 0
-4205 17 0
-4205 19 0
-4205 21 0
-4205 23 0
-4205 26 0
4205 -4 -6 -8 -10 -12 -13 -15 -17 -19 -21 -23 -26 0
-4206 3 0
-4206 5 0
-4206 8 0
-4206 10 0
-4206 11 0
-4206 13 0
-4206 16 0
-4206 17 0
-4206 19 0
-4206 21 0
-4206 23 0
-4206 26 0
4206 -3 -5 -8 -10 -11 -13 -16 -17 -19 -21 -23 -26 0
-4207 3 0
-4207 6 0
-4207 7 0
-4207 10 0
-4207 12 0
-4207 13 0
-4207 16 0
-4207 17 0
-4207 19 0
-4207 21 0
-4207 23 0
-4207 26 0
4207 -3 -6 -7 -10 -12 -13 -16 -17 -19 -21 -23 -26 0
-4208 3 0
-4208 5 0
-4208 7 0
-4208 10 0
-4208 12 0
-4208 13 0
-4208 16 0
-4208 17 0
-4208 19 0
-4208 21 0
-4208 23 0
-4208 26 0
4208 -3 -5 -7 -10 -12 -13 -16 -17 -19 -21 -23 -26 0
-4209 4 0
-4209 5 0
-4209 7 0
-4209 10 0
-4209 12 0
-4209 13 0
-4209 16 0
-4209 17 0
-4209 19 0
-4209 21 0
-4209 23 0
-4209 26 0
4209 -4 -5 -7 -10 -12 -13 -16 -17 -19 -21 -23 -26 0
-4210 3 0
-4210 5 0
-4210 8 0
-4210 10 0
-4210 12 0
-4210 13 0
-4210 16 0
-4210 17 0
-4210 19 0
-4210 21 0
-4210 23 0
-4210 26 0
4210 -3 -5 -8 -10 -12 -13 -16 -17 -19 -21 -23 -26 0
-4211 4 0
-4211 5 0
-4211 8 0
-4211 10 0
-4211 12 0
-4211 13 0
-4211 16 0
-4211 17 0
-4211 19 0
-4211 21 0
-4211 23 0
-4211 26 0
4211 -4 -5 -8 -10 -12 -13 -16 -17 -19 -21 -23 -26 0
-4212 3 0
-4212 6 0
-4212 8 0
-4212 10 0
-4212 12 0
-4212 13 0
-4212 16 0
-4212 17 0
-4212 19 0
-4212 21 0
-4212 23 0
-4212 26 0
4212 -3 -6 -8 -10 -12 -13 -16 -17 -19 -21 -23 -26 0
-4213 4 0
-4213 6 0
-4213 8 0
-4213 9 0
-4213 12 0
-4213 13 0
-4213 16 0
-4213 17 0
-4213 19 0
-4213 21 0
-4213 23 0
-4213 26 0
4213 -4 -6 -8 -9 -12 -13 -16 -17 -19 -21 -23 -26 0
-4214 3 0
-4214 6 0
-4214 7 0
-4214 9 0
-4214 12 0
-4214 14 0
-4214 16 0
-4214 17 0
-4214 19 0
-4214 21 0
-4214 23 0
-4214 26 0
4214 -3 -6 -7 -9 -12 -14 -16 -17 -19 -21 -23 -26 0
-4215 3 0
-4215 5 0
-4215 7 0
-4215 9 0
-4215 12 0
-4215 14 0
-4215 16 0
-4215 17 0
-4215 19 0
-4215 21 0
-4215 23 0
-4215 26 0
4215 -3 -5 -7 -9 -12 -14 -16 -17 -19 -21 -23 -26 0
-4216 4 0
-4216 5 0
-4216 7 0
-4216 9 0
-4216 12 0
-4216 14 0
-4216 16 0
-4216 17 0
-4216 19 0
-4216 21 0
-4216 23 0
-4216 26 0
4216 -4 -5 -7 -9 -12 -14 -16 -17 -19 -21 -23 -26 0
-4217 3 0
-4217 5 0
-4217 8 0
-4217 9 0
-4217 12 0
-4217 14 0
-4217 16 0
-4217 17 0
-4217 19 0
-4217 21 0
-4217 23 0
-4217 26 0
4217 -3 -5 -8 -9 -12 -14 -16 -17 -19 -21 -23 -26 0
-4218 4 0
-4218 5 0
-4218 8 0
-4218 9 0
-4218 12 0
-4218 14 0
-4218 16 0
-4218 17 0
-4218 19 0
-4218 21 0
-4218 23 0
-4218 26 0
4218 -4 -5 -8 -9 -12 -14 -16 -17 -19 -21 -23 -26 0
-4219 3 0
-4219 6 0
-4219 8 0
-4219 9 0
-4219 12 0
-4219 14 0
-4219 16 0
-4219 17 0
-4219 19 0
-4219 21 0
-4219 23 0
-4219 26 0
4219 -3 -6 -8 -9 -12 -14 -16 -17 -19 -21 -23 -26 0
-4220 4 0
-4220 6 0
-4220 8 0
-4220 9 0
-4220 12 0
-4220 14 0
-4220 16 0
-4220 17 0
-4220 19 0
-4220 21 0
-4220 23 0
-4220 26 0
4220 -4 -6 -8 -9 -12 -14 -16 -17 -19 -21 -23 -26 0
-4221 3 0
-4221 6 0
-4221 8 0
-4221 10 0
-4221 12 0
-4221 14 0
-4221 16 0
-4221 17 0
-4221 19 0
-4221 21 0
-4221 23 0
-4221 26 0
4221 -3 -6 -8 -10 -12 -14 -16 -17 -19 -21 -23 -26 0
-4222 3 0
-4222 5 0
-4222 8 0
-4222 10 0
-4222 12 0
-4222 14 0
-4222 16 0
-4222 17 0
-4222 19 0
-4222 21 0
-4222 23 0
-4222 26 0
4222 -3 -5 -8 -10 -12 -14 -16 -17 -19 -21 -23 -26 0
-4223 4 0
-4223 5 0
-4223 8 0
-4223 10 0
-4223 12 0
-4223 14 0
-4223 16 0
-4223 17 0
-4223 19 0
-4223 21 0
-4223 23 0
-4223 26 0
4223 -4 -5 -8 -10 -12 -14 -16 -17 -19 -21 -23 -26 0
-4224 3 0
-4224 5 0
-4224 7 0
-4224 10 0
-4224 12 0
-4224 14 0
-4224 16 0
-4224 17 0
-4224 19 0
-4224 21 0
-4224 23 0
-4224 26 0
4224 -3 -5 -7 -10 -12 -14 -16 -17 -19 -21 -23 -26 0
-4225 4 0
-4225 5 0
-4225 7 0
-4225 10 0
-4225 12 0
-4225 14 0
-4225 16 0
-4225 17 0
-4225 19 0
-4225 21 0
-4225 23 0
-4225 26 0
4225 -4 -5 -7 -10 -12 -14 -16 -17 -19 -21 -23 -26 0
-4226 3 0
-4226 6 0
-4226 7 0
-4226 10 0
-4226 12 0
-4226 14 0
-4226 16 0
-4226 17 0
-4226 19 0
-4226 21 0
-4226 23 0
-4226 26 0
4226 -3 -6 -7 -10 -12 -14 -16 -17 -19 -21 -23 -26 0
-4227 4 0
-4227 6 0
-4227 7 0
-4227 10 0
-4227 12 0
-4227 14 0
-4227 16 0
-4227 17 0
-4227 19 0
-4227 21 0
-4227 23 0
-4227 26 0
4227 -4 -6 -7 -10 -12 -14 -16 -17 -19 -21 -23 -26 0
-4228 3 0
-4228 6 0
-4228 7 0
-4228 10 0
-4228 11 0
-4228 14 0
-4228 16 0
-4228 17 0
-4228 19 0
-4228 21 0
-4228 23 0
-4228 26 0
4228 -3 -6 -7 -10 -11 -14 -16 -17 -19 -21 -23 -26 0
-4229 4 0
-4229 6 0
-4229 7 0
-4229 10 0
-4229 11 0
-4229 14 0
-4229 16 0
-4229 17 0
-4229 19 0
-4229 21 0
-4229 23 0
-4229 26 0
4229 -4 -6 -7 -10 -11 -14 -16 -17 -19 -21 -23 -26 0
-4230 3 0
-4230 5 0
-4230 7 0
-4230 10 0
-4230 11 0
-4230 14 0
-4230 16 0
-4230 17 0
-4230 19 0
-4230 21 0
-4230 23 0
-4230 26 0
4230 -3 -5 -7 -10 -11 -14 -16 -17 -19 -21 -23 -26 0
-4231 4 0
-4231 5 0
-4231 7 0
-4231 10 0
-4231 11 0
-4231 14 0
-4231 16 0
-4231 17 0
-4231 19 0
-4231 21 0
-4231 23 0
-4231 26 0
4231 -4 -5 -7 -10 -11 -14 -16 -17 -19 -21 -23 -26 0
-4232 3 0
-4232 5 0
-4232 8 0
-4232 10 0
-4232 11 0
-4232 14 0
-4232 16 0
-4232 17 0
-4232 19 0
-4232 21 0
-4232 23 0
-4232 26 0
4232 -3 -5 -8 -10 -11 -14 -16 -17 -19 -21 -23 -26 0
-4233 4 0
-4233 5 0
-4233 8 0
-4233 10 0
-4233 11 0
-4233 14 0
-4233 16 0
-4233 17 0
-4233 19 0
-4233 21 0
-4233 23 0
-4233 26 0
4233 -4 -5 -8 -10 -11 -14 -16 -17 -19 -21 -23 -26 0
-4234 3 0
-4234 6 0
-4234 8 0
-4234 10 0
-4234 11 0
-4234 14 0
-4234 16 0
-4234 17 0
-4234 19 0
-4234 21 0
-4234 23 0
-4234 26 0
4234 -3 -6 -8 -10 -11 -14 -16 -17 -19 -21 -23 -26 0
-4235 4 0
-4235 6 0
-4235 8 0
-4235 10 0
-4235 11 0
-4235 14 0
-4235 16 0
-4235 17 0
-4235 19 0
-4235 21 0
-4235 23 0
-4235 26 0
4235 -4 -6 -8 -10 -11 -14 -16 -17 -19 -21 -23 -26 0
-4236 3 0
-4236 6 0
-4236 8 0
-4236 9 0
-4236 11 0
-4236 14 0
-4236 16 0
-4236 17 0
-4236 19 0
-4236 21 0
-4236 23 0
-4236 26 0
4236 -3 -6 -8 -9 -11 -14 -16 -17 -19 -21 -23 -26 0
-4237 4 0
-4237 6 0
-4237 8 0
-4237 9 0
-4237 11 0
-4237 14 0
-4237 16 0
-4237 17 0
-4237 19 0
-4237 21 0
-4237 23 0
-4237 26 0
4237 -4 -6 -8 -9 -11 -14 -16 -17 -19 -21 -23 -26 0
-4238 3 0
-4238 5 0
-4238 8 0
-4238 9 0
-4238 11 0
-4238 14 0
-4238 16 0
-4238 17 0
-4238 19 0
-4238 21 0
-4238 23 0
-4238 26 0
4238 -3 -5 -8 -9 -11 -14 -16 -17 -19 -21 -23 -26 0
-4239 4 0
-4239 5 0
-4239 8 0
-4239 9 0
-4239 11 0
-4239 14 0
-4239 16 0
-4239 17 0
-4239 19 0
-4239 21 0
-4239 23 0
-4239 26 0
4239 -4 -5 -8 -9 -11 -14 -16 -17 -19 -21 -23 -26 0
-4240 3 0
-4240 5 0
-4240 7 0
-4240 9 0
-4240 11 0
-4240 14 0
-4240 16 0
-4240 17 0
-4240 19 0
-4240 21 0
-4240 23 0
-4240 26 0
4240 -3 -5 -7 -9 -11 -14 -16 -17 -19 -21 -23 -26 0
-4241 4 0
-4241 5 0
-4241 7 0
-4241 9 0
-4241 11 0
-4241 14 0
-4241 16 0
-4241 17 0
-4241 19 0
-4241 21 0
-4241 23 0
-4241 26 0
4241 -4 -5 -7 -9 -11 -14 -16 -17 -19 -21 -23 -26 0
-4242 3 0
-4242 6 0
-4242 7 0
-4242 9 0
-4242 11 0
-4242 14 0
-4242 16 0
-4242 17 0
-4242 19 0
-4242 21 0
-4242 23 0
-4242 26 0
4242 -3 -6 -7 -9 -11 -14 -16 -17 -19 -21 -23 -26 0
-4243 4 0
-4243 6 0
-4243 7 0
-4243 9 0
-4243 11 0
-4243 14 0
-4243 16 0
-4243 17 0
-4243 19 0
-4243 21 0
-4243 23 0
-4243 26 0
4243 -4 -6 -7 -9 -11 -14 -16 -17 -19 -21 -23 -26 0
-4244 3 0
-4244 6 0
-4244 8 0
-4244 10 0
-4244 11 0
-4244 14 0
-4244 15 0
-4244 17 0
-4244 19 0
-4244 21 0
-4244 23 0
-4244 26 0
4244 -3 -6 -8 -10 -11 -14 -15 -17 -19 -21 -23 -26 0
-4245 4 0
-4245 6 0
-4245 8 0
-4245 10 0
-4245 11 0
-4245 13 0
-4245 15 0
-4245 17 0
-4245 19 0
-4245 21 0
-4245 23 0
-4245 26 0
4245 -4 -6 -8 -10 -11 -13 -15 -17 -19 -21 -23 -26 0
-4246 3 0
-4246 5 0
-4246 8 0
-4246 10 0
-4246 11 0
-4246 14 0
-4246 15 0
-4246 17 0
-4246 19 0
-4246 21 0
-4246 23 0
-4246 26 0
4246 -3 -5 -8 -10 -11 -14 -15 -17 -19 -21 -23 -26 0
-4247 3 0
-4247 6 0
-4247 7 0
-4247 10 0
-4247 12 0
-4247 14 0
-4247 15 0
-4247 17 0
-4247 19 0
-4247 21 0
-4247 23 0
-4247 26 0
4247 -3 -6 -7 -10 -12 -14 -15 -17 -19 -21 -23 -26 0
-4248 3 0
-4248 5 0
-4248 7 0
-4248 10 0
-4248 12 0
-4248 14 0
-4248 15 0
-4248 17 0
-4248 19 0
-4248 21 0
-4248 23 0
-4248 26 0
4248 -3 -5 -7 -10 -12 -14 -15 -17 -19 -21 -23 -26 0
-4249 4 0
-4249 5 0
-4249 7 0
-4249 10 0
-4249 12 0
-4249 14 0
-4249 15 0
-4249 17 0
-4249 19 0
-4249 21 0
-4249 23 0
-4249 26 0
4249 -4 -5 -7 -10 -12 -14 -15 -17 -19 -21 -23 -26 0
-4250 3 0
-4250 5 0
-4250 8 0
-4250 10 0
-4250 12 0
-4250 14 0
-4250 15 0
-4250 17 0
-4250 19 0
-4250 21 0
-4250 23 0
-4250 26 0
4250 -3 -5 -8 -10 -12 -14 -15 -17 -19 -21 -23 -26 0
-4251 4 0
-4251 5 0
-4251 8 0
-4251 10 0
-4251 12 0
-4251 14 0
-4251 15 0
-4251 17 0
-4251 19 0
-4251 21 0
-4251 23 0
-4251 26 0
4251 -4 -5 -8 -10 -12 -14 -15 -17 -19 -21 -23 -26 0
-4252 3 0
-4252 6 0
-4252 8 0
-4252 10 0
-4252 12 0
-4252 14 0
-4252 15 0
-4252 17 0
-4252 19 0
-4252 21 0
-4252 23 0
-4252 26 0
4252 -3 -6 -8 -10 -12 -14 -15 -17 -19 -21 -23 -26 0
-4253 3 0
-4253 6 0
-4253 8 0
-4253 9 0
-4253 12 0
-4253 14 0
-4253 15 0
-4253 17 0
-4253 19 0
-4253 21 0
-4253 23 0
-4253 26 0
4253 -3 -6 -8 -9 -12 -14 -15 -17 -19 -21 -23 -26 0
-4254 4 0
-4254 6 0
-4254 8 0
-4254 9 0
-4254 12 0
-4254 14 0
-4254 15 0
-4254 17 0
-4254 19 0
-4254 21 0
-4254 23 0
-4254 26 0
4254 -4 -6 -8 -9 -12 -14 -15 -17 -19 -21 -23 -26 0
-4255 3 0
-4255 5 0
-4255 8 0
-4255 9 0
-4255 12 0
-4255 14 0
-4255 15 0
-4255 17 0
-4255 19 0
-4255 21 0
-4255 23 0
-4255 26 0
4255 -3 -5 -8 -9 -12 -14 -15 -17 -19 -21 -23 -26 0
-4256 4 0
-4256 5 0
-4256 8 0
-4256 9 0
-4256 12 0
-4256 14 0
-4256 15 0
-4256 17 0
-4256 19 0
-4256 21 0
-4256 23 0
-4256 26 0
4256 -4 -5 -8 -9 -12 -14 -15 -17 -19 -21 -23 -26 0
-4257 3 0
-4257 5 0
-4257 7 0
-4257 9 0
-4257 12 0
-4257 14 0
-4257 15 0
-4257 17 0
-4257 19 0
-4257 21 0
-4257 23 0
-4257 26 0
4257 -3 -5 -7 -9 -12 -14 -15 -17 -19 -21 -23 -26 0
-4258 4 0
-4258 5 0
-4258 7 0
-4258 9 0
-4258 12 0
-4258 14 0
-4258 15 0
-4258 17 0
-4258 19 0
-4258 21 0
-4258 23 0
-4258 26 0
4258 -4 -5 -7 -9 -12 -14 -15 -17 -19 -21 -23 -26 0
-4259 3 0
-4259 6 0
-4259 7 0
-4259 9 0
-4259 12 0
-4259 14 0
-4259 15 0
-4259 17 0
-4259 19 0
-4259 21 0
-4259 23 0
-4259 26 0
4259 -3 -6 -7 -9 -12 -14 -15 -17 -19 -21 -23 -26 0
-4260 4 0
-4260 6 0
-4260 7 0
-4260 9 0
-4260 12 0
-4260 14 0
-4260 15 0
-4260 17 0
-4260 19 0
-4260 21 0
-4260 23 0
-4260 26 0
4260 -4 -6 -7 -9 -12 -14 -15 -17 -19 -21 -23 -26 0
-4261 4 0
-4261 6 0
-4261 8 0
-4261 9 0
-4261 12 0
-4261 13 0
-4261 15 0
-4261 17 0
-4261 19 0
-4261 21 0
-4261 23 0
-4261 26 0
4261 -4 -6 -8 -9 -12 -13 -15 -17 -19 -21 -23 -26 0
-4262 4 0
-4262 6 0
-4262 8 0
-4262 9 0
-4262 11 0
-4262 13 0
-4262 15 0
-4262 17 0
-4262 19 0
-4262 21 0
-4262 23 0
-4262 26 0
4262 -4 -6 -8 -9 -11 -13 -15 -17 -19 -21 -23 -26 0
-4263 3 0
-4263 6 0
-4263 8 0
-4263 10 0
-4263 12 0
-4263 13 0
-4263 15 0
-4263 17 0
-4263 19 0
-4263 21 0
-4263 23 0
-4263 26 0
4263 -3 -6 -8 -10 -12 -13 -15 -17 -19 -21 -23 -26 0
-4264 3 0
-4264 5 0
-4264 8 0
-4264 10 0
-4264 12 0
-4264 13 0
-4264 15 0
-4264 17 0
-4264 19 0
-4264 21 0
-4264 23 0
-4264 26 0
4264 -3 -5 -8 -10 -12 -13 -15 -17 -19 -21 -23 -26 0
-4265 4 0
-4265 5 0
-4265 8 0
-4265 10 0
-4265 12 0
-4265 13 0
-4265 15 0
-4265 17 0
-4265 19 0
-4265 21 0
-4265 23 0
-4265 26 0
4265 -4 -5 -8 -10 -12 -13 -15 -17 -19 -21 -23 -26 0
-4266 3 0
-4266 5 0
-4266 7 0
-4266 10 0
-4266 12 0
-4266 13 0
-4266 15 0
-4266 17 0
-4266 19 0
-4266 21 0
-4266 23 0
-4266 26 0
4266 -3 -5 -7 -10 -12 -13 -15 -17 -19 -21 -23 -26 0
-4267 4 0
-4267 5 0
-4267 7 0
-4267 10 0
-4267 12 0
-4267 13 0
-4267 15 0
-4267 17 0
-4267 19 0
-4267 21 0
-4267 23 0
-4267 26 0
4267 -4 -5 -7 -10 -12 -13 -15 -17 -19 -21 -23 -26 0
-4268 3 0
-4268 6 0
-4268 7 0
-4268 10 0
-4268 12 0
-4268 13 0
-4268 15 0
-4268 17 0
-4268 19 0
-4268 21 0
-4268 23 0
-4268 26 0
4268 -3 -6 -7 -10 -12 -13 -15 -17 -19 -21 -23 -26 0
-4269 4 0
-4269 6 0
-4269 7 0
-4269 10 0
-4269 12 0
-4269 13 0
-4269 15 0
-4269 17 0
-4269 19 0
-4269 21 0
-4269 23 0
-4269 26 0
4269 -4 -6 -7 -10 -12 -13 -15 -17 -19 -21 -23 -26 0
-4270 3 0
-4270 5 0
-4270 8 0
-4270 10 0
-4270 11 0
-4270 13 0
-4270 15 0
-4270 17 0
-4270 19 0
-4270 21 0
-4270 23 0
-4270 26 0
4270 -3 -5 -8 -10 -11 -13 -15 -17 -19 -21 -23 -26 0
-4271 3 0
-4271 6 0
-4271 8 0
-4271 10 0
-4271 11 0
-4271 13 0
-4271 15 0
-4271 17 0
-4271 19 0
-4271 21 0
-4271 23 0
-4271 26 0
4271 -3 -6 -8 -10 -11 -13 -15 -17 -19 -21 -23 -26 0
-4272 -175 0
-4272 -176 0
-4272 -177 0
-4272 -178 0
-4272 -179 0
-4272 -180 0
-4272 -181 0
-4272 -182 0
-4272 -183 0
-4272 -184 0
-4272 -185 0
-4272 -186 0
-4272 -187 0
-4272 -188 0
-4272 -189 0
-4272 -190 0
-4272 -191 0
-4272 -192 0
-4272 -193 0
-4272 -194 0
-4272 -195 0
-4272 -196 0
-4272 -197 0
-4272 -198 0
-4272 -199 0
-4272 -200 0
-4272 -201 0
-4272 -202 0
-4272 -203 0
-4272 -204 0
-4272 -205 0
-4272 -206 0
-4272 -207 0
-4272 -208 0
-4272 -209 0
-4272 -210 0
-4272 -211 0
-4272 -212 0
-4272 -213 0
-4272 -214 0
-4272 -215 0
-4272 -216 0
-4272 -217 0
-4272 -218 0
-4272 -219 0
-4272 -220 0
-4272 -221 0
-4272 -222 0
-4272 -223 0
-4272 -224 0
-4272 -225 0
-4272 -226 0
-4272 -227 0
-4272 -228 0
-4272 -229 0
-4272 -230 0
-4272 -231 0
-4272 -232 0
-4272 -233 0
-4272 -234 0
-4272 -235 0
-4272 -236 0
-4272 -237 0
-4272 -238 0
-4272 -239 0
-4272 -240 0
-4272 -241 0
-4272 -242 0
-4272 -243 0
-4272 -244 0
-4272 -245 0
-4272 -246 0
-4272 -247 0
-4272 -248 0
-4272 -249 0
-4272 -250 0
-4272 -251 0
-4272 -252 0
-4272 -253 0
-4272 -254 0
-4272 -255 0
-4272 -256 0
-4272 -257 0
-4272 -258 0
-4272 -259 0
-4272 -260 0
-4272 -261 0
-4272 -262 0
-4272 -263 0
-4272 -264 0
-4272 -265 0
-4272 -266 0
-4272 -267 0
-4272 -268 0
-4272 -269 0
-4272 -270 0
-4272 -271 0
-4272 -272 0
-4272 -273 0
-4272 -274 0
-4272 -275 0
-4272 -276 0
-4272 -277 0
-4272 -278 0
-4272 -279 0
-4272 -280 0
-4272 -281 0
-4272 -282 0
-4272 -283 0
-4272 -284 0
-4272 -285 0
-4272 -286 0
-4272 -287 0
-4272 -288 0
-4272 -289 0
-4272 -290 0
-4272 -291 0
-4272 -292 0
-4272 -293 0
-4272 -294 0
-4272 -295 0
-4272 -296 0
-4272 -297 0
-4272 -298 0
-4272 -299 0
-4272 -300 0
-4272 -301 0
-4272 -302 0
-4272 -303 0
-4272 -304 0
-4272 -305 0
-4272 -306 0
-4272 -307 0
-4272 -308 0
-4272 -309 0
-4272 -310 0
-4272 -311 0
-4272 -312 0
-4272 -313 0
-4272 -314 0
-4272 -315 0
-4272 -316 0
-4272 -317 0
-4272 -318 0
-4272 -319 0
-4272 -320 0
-4272 -321 0
-4272 -322 0
-4272 -323 0
-4272 -324 0
-4272 -325 0
-4272 -326 0
-4272 -327 0
-4272 -328 0
-4272 -329 0
-4272 -330 0
-4272 -331 0
-4272 -332 0
-4272 -333 0
-4272 -334 0
-4272 -335 0
-4272 -336 0
-4272 -337 0
-4272 -338 0
-4272 -339 0
-4272 -340 0
-4272 -341 0
-4272 -342 0
-4272 -343 0
-4272 -344 0
-4272 -345 0
-4272 -346 0
-4272 -347 0
-4272 -348 0
-4272 -349 0
-4272 -350 0
-4272 -351 0
-4272 -352 0
-4272 -353 0
-4272 -354 0
-4272 -355 0
-4272 -356 0
-4272 -357 0
-4272 -358 0
-4272 -359 0
-4272 -360 0
-4272 -361 0
-4272 -362 0
-4272 -363 0
-4272 -364 0
-4272 -365 0
-4272 -366 0
-4272 -367 0
-4272 -368 0
-4272 -369 0
-4272 -370 0
-4272 -371 0
-4272 -372 0
-4272 -373 0
-4272 -374 0
-4272 -375 0
-4272 -376 0
-4272 -377 0
-4272 -378 0
-4272 -379 0
-4272 -380 0
-4272 -381 0
-4272 -382 0
-4272 -383 0
-4272 -384 0
-4272 -385 0
-4272 -386 0
-4272 -387 0
-4272 -388 0
-4272 -389 0
-4272 -390 0
-4272 -391 0
-4272 -392 0
-4272 -393 0
-4272 -394 0
-4272 -395 0
-4272 -396 0
-4272 -397 0
-4272 -398 0
-4272 -399 0
-4272 -400 0
-4272 -401 0
-4272 -402 0
-4272 -403 0
-4272 -404 0
-4272 -405 0
-4272 -406 0
-4272 -407 0
-4272 -408 0
-4272 -409 0
-4272 -410 0
-4272 -411 0
-4272 -412 0
-4272 -413 0
-4272 -414 0
-4272 -415 0
-4272 -416 0
-4272 -417 0
-4272 -418 0
-4272 -419 0
-4272 -420 0
-4272 -421 0
-4272 -422 0
-4272 -423 0
-4272 -424 0
-4272 -425 0
-4272 -426 0
-4272 -427 0
-4272 -428 0
-4272 -429 0
-4272 -430 0
-4272 -431 0
-4272 -432 0
-4272 -433 0
-4272 -434 0
-4272 -435 0
-4272 -436 0
-4272 -437 0
-4272 -438 0
-4272 -439 0
-4272 -440 0
-4272 -441 0
-4272 -442 0
-4272 -443 0
-4272 -444 0
-4272 -445 0
-4272 -446 0
-4272 -447 0
-4272 -448 0
-4272 -449 0
-4272 -450 0
-4272 -451 0
-4272 -452 0
-4272 -453 0
-4272 -454 0
-4272 -455 0
-4272 -456 0
-4272 -457 0
-4272 -458 0
-4272 -459 0
-4272 -460 0
-4272 -461 0
-4272 -462 0
-4272 -463 0
-4272 -464 0
-4272 -465 0
-4272 -466 0
-4272 -467 0
-4272 -468 0
-4272 -469 0
-4272 -470 0
-4272 -471 0
-4272 -472 0
-4272 -473 0
-4272 -474 0
-4272 -475 0
-4272 -476 0
-4272 -477 0
-4272 -478 0
-4272 -479 0
-4272 -480 0
-4272 -481 0
-4272 -482 0
-4272 -483 0
-4272 -484 0
-4272 -485 0
-4272 -486 0
-4272 -487 0
-4272 -488 0
-4272 -489 0
-4272 -490 0
-4272 -491 0
-4272 -492 0
-4272 -493 0
-4272 -494 0
-4272 -495 0
-4272 -496 0
-4272 -497 0
-4272 -498 0
-4272 -499 0
-4272 -500 0
-4272 -501 0
-4272 -502 0
-4272 -503 0
-4272 -504 0
-4272 -505 0
-4272 -506 0
-4272 -507 0
-4272 -508 0
-4272 -509 0
-4272 -510 0
-4272 -511 0
-4272 -512 0
-4272 -513 0
-4272 -514 0
-4272 -515 0
-4272 -516 0
-4272 -517 0
-4272 -518 0
-4272 -519 0
-4272 -520 0
-4272 -521 0
-4272 -522 0
-4272 -523 0
-4272 -524 0
-4272 -525 0
-4272 -526 0
-4272 -527 0
-4272 -528 0
-4272 -529 0
-4272 -530 0
-4272 -531 0
-4272 -532 0
-4272 -533 0
-4272 -534 0
-4272 -535 0
-4272 -536 0
-4272 -537 0
-4272 -538 0
-4272 -539 0
-4272 -540 0
-4272 -541 0
-4272 -542 0
-4272 -543 0
-4272 -544 0
-4272 -545 0
-4272 -546 0
-4272 -547 0
-4272 -548 0
-4272 -549 0
-4272 -550 0
-4272 -551 0
-4272 -552 0
-4272 -553 0
-4272 -554 0
-4272 -555 0
-4272 -556 0
-4272 -557 0
-4272 -558 0
-4272 -559 0
-4272 -560 0
-4272 -561 0
-4272 -562 0
-4272 -563 0
-4272 -564 0
-4272 -565 0
-4272 -566 0
-4272 -567 0
-4272 -568 0
-4272 -569 0
-4272 -570 0
-4272 -571 0
-4272 -572 0
-4272 -573 0
-4272 -574 0
-4272 -575 0
-4272 -576 0
-4272 -577 0
-4272 -578 0
-4272 -579 0
-4272 -580 0
-4272 -581 0
-4272 -582 0
-4272 -583 0
-4272 -584 0
-4272 -585 0
-4272 -586 0
-4272 -587 0
-4272 -588 0
-4272 -589 0
-4272 -590 0
-4272 -591 0
-4272 -592 0
-4272 -593 0
-4272 -594 0
-4272 -595 0
-4272 -596 0
-4272 -597 0
-4272 -598 0
-4272 -599 0
-4272 -600 0
-4272 -601 0
-4272 -602 0
-4272 -603 0
-4272 -604 0
-4272 -605 0
-4272 -606 0
-4272 -607 0
-4272 -608 0
-4272 -609 0
-4272 -610 0
-4272 -611 0
-4272 -612 0
-4272 -613 0
-4272 -614 0
-4272 -615 0
-4272 -616 0
-4272 -617 0
-4272 -618 0
-4272 -619 0
-4272 -620 0
-4272 -621 0
-4272 -622 0
-4272 -623 0
-4272 -624 0
-4272 -625 0
-4272 -626 0
-4272 -627 0
-4272 -628 0
-4272 -629 0
-4272 -630 0
-4272 -631 0
-4272 -632 0
-4272 -633 0
-4272 -634 0
-4272 -635 0
-4272 -636 0
-4272 -637 0
-4272 -638 0
-4272 -639 0
-4272 -640 0
-4272 -641 0
-4272 -642 0
-4272 -643 0
-4272 -644 0
-4272 -645 0
-4272 -646 0
-4272 -647 0
-4272 -648 0
-4272 -649 0
-4272 -650 0
-4272 -651 0
-4272 -652 0
-4272 -653 0
-4272 -654 0
-4272 -655 0
-4272 -656 0
-4272 -657 0
-4272 -658 0
-4272 -659 0
-4272 -660 0
-4272 -661 0
-4272 -662 0
-4272 -663 0
-4272 -664 0
-4272 -665 0
-4272 -666 0
-4272 -667 0
-4272 -668 0
-4272 -669 0
-4272 -670 0
-4272 -671 0
-4272 -672 0
-4272 -673 0
-4272 -674 0
-4272 -675 0
-4272 -676 0
-4272 -677 0
-4272 -678 0
-4272 -679 0
-4272 -680 0
-4272 -681 0
-4272 -682 0
-4272 -683 0
-4272 -684 0
-4272 -685 0
-4272 -686 0
-4272 -687 0
-4272 -688 0
-4272 -689 0
-4272 -690 0
-4272 -691 0
-4272 -692 0
-4272 -693 0
-4272 -694 0
-4272 -695 0
-4272 -696 0
-4272 -697 0
-4272 -698 0
-4272 -699 0
-4272 -700 0
-4272 -701 0
-4272 -702 0
-4272 -703 0
-4272 -704 0
-4272 -705 0
-4272 -706 0
-4272 -707 0
-4272 -708 0
-4272 -709 0
-4272 -710 0
-4272 -711 0
-4272 -712 0
-4272 -713 0
-4272 -714 0
-4272 -715 0
-4272 -716 0
-4272 -717 0
-4272 -718 0
-4272 -719 0
-4272 -720 0
-4272 -721 0
-4272 -722 0
-4272 -723 0
-4272 -724 0
-4272 -725 0
-4272 -726 0
-4272 -727 0
-4272 -728 0
-4272 -729 0
-4272 -730 0
-4272 -731 0
-4272 -732 0
-4272 -733 0
-4272 -734 0
-4272 -735 0
-4272 -736 0
-4272 -737 0
-4272 -738 0
-4272 -739 0
-4272 -740 0
-4272 -741 0
-4272 -742 0
-4272 -743 0
-4272 -744 0
-4272 -745 0
-4272 -746 0
-4272 -747 0
-4272 -748 0
-4272 -749 0
-4272 -750 0
-4272 -751 0
-4272 -752 0
-4272 -753 0
-4272 -754 0
-4272 -755 0
-4272 -756 0
-4272 -757 0
-4272 -758 0
-4272 -759 0
-4272 -760 0
-4272 -761 0
-4272 -762 0
-4272 -763 0
-4272 -764 0
-4272 -765 0
-4272 -766 0
-4272 -767 0
-4272 -768 0
-4272 -769 0
-4272 -770 0
-4272 -771 0
-4272 -772 0
-4272 -773 0
-4272 -774 0
-4272 -775 0
-4272 -776 0
-4272 -777 0
-4272 -778 0
-4272 -779 0
-4272 -780 0
-4272 -781 0
-4272 -782 0
-4272 -783 0
-4272 -784 0
-4272 -785 0
-4272 -786 0
-4272 -787 0
-4272 -788 0
-4272 -789 0
-4272 -790 0
-4272 -791 0
-4272 -792 0
-4272 -793 0
-4272 -794 0
-4272 -795 0
-4272 -796 0
-4272 -797 0
-4272 -798 0
-4272 -799 0
-4272 -800 0
-4272 -801 0
-4272 -802 0
-4272 -803 0
-4272 -804 0
-4272 -805 0
-4272 -806 0
-4272 -807 0
-4272 -808 0
-4272 -809 0
-4272 -810 0
-4272 -811 0
-4272 -812 0
-4272 -813 0
-4272 -814 0
-4272 -815 0
-4272 -816 0
-4272 -817 0
-4272 -818 0
-4272 -819 0
-4272 -820 0
-4272 -821 0
-4272 -822 0
-4272 -823 0
-4272 -824 0
-4272 -825 0
-4272 -826 0
-4272 -827 0
-4272 -828 0
-4272 -829 0
-4272 -830 0
-4272 -831 0
-4272 -832 0
-4272 -833 0
-4272 -834 0
-4272 -835 0
-4272 -836 0
-4272 -837 0
-4272 -838 0
-4272 -839 0
-4272 -840 0
-4272 -841 0
-4272 -842 0
-4272 -843 0
-4272 -844 0
-4272 -845 0
-4272 -846 0
-4272 -847 0
-4272 -848 0
-4272 -849 0
-4272 -850 0
-4272 -851 0
-4272 -852 0
-4272 -853 0
-4272 -854 0
-4272 -855 0
-4272 -856 0
-4272 -857 0
-4272 -858 0
-4272 -859 0
-4272 -860 0
-4272 -861 0
-4272 -862 0
-4272 -863 0
-4272 -864 0
-4272 -865 0
-4272 -866 0
-4272 -867 0
-4272 -868 0
-4272 -869 0
-4272 -870 0
-4272 -871 0
-4272 -872 0
-4272 -873 0
-4272 -874 0
-4272 -875 0
-4272 -876 0
-4272 -877 0
-4272 -878 0
-4272 -879 0
-4272 -880 0
-4272 -881 0
-4272 -882 0
-4272 -883 0
-4272 -884 0
-4272 -885 0
-4272 -886 0
-4272 -887 0
-4272 -888 0
-4272 -889 0
-4272 -890 0
-4272 -891 0
-4272 -892 0
-4272 -893 0
-4272 -894 0
-4272 -895 0
-4272 -896 0
-4272 -897 0
-4272 -898 0
-4272 -899 0
-4272 -900 0
-4272 -901 0
-4272 -902 0
-4272 -903 0
-4272 -904 0
-4272 -905 0
-4272 -906 0
-4272 -907 0
-4272 -908 0
-4272 -909 0
-4272 -910 0
-4272 -911 0
-4272 -912 0
-4272 -913 0
-4272 -914 0
-4272 -915 0
-4272 -916 0
-4272 -917 0
-4272 -918 0
-4272 -919 0
-4272 -920 0
-4272 -921 0
-4272 -922 0
-4272 -923 0
-4272 -924 0
-4272 -925 0
-4272 -926 0
-4272 -927 0
-4272 -928 0
-4272 -929 0
-4272 -930 0
-4272 -931 0
-4272 -932 0
-4272 -933 0
-4272 -934 0
-4272 -935 0
-4272 -936 0
-4272 -937 0
-4272 -938 0
-4272 -939 0
-4272 -940 0
-4272 -941 0
-4272 -942 0
-4272 -943 0
-4272 -944 0
-4272 -945 0
-4272 -946 0
-4272 -947 0
-4272 -948 0
-4272 -949 0
-4272 -950 0
-4272 -951 0
-4272 -952 0
-4272 -953 0
-4272 -954 0
-4272 -955 0
-4272 -956 0
-4272 -957 0
-4272 -958 0
-4272 -959 0
-4272 -960 0
-4272 -961 0
-4272 -962 0
-4272 -963 0
-4272 -964 0
-4272 -965 0
-4272 -966 0
-4272 -967 0
-4272 -968 0
-4272 -969 0
-4272 -970 0
-4272 -971 0
-4272 -972 0
-4272 -973 0
-4272 -974 0
-4272 -975 0
-4272 -976 0
-4272 -977 0
-4272 -978 0
-4272 -979 0
-4272 -980 0
-4272 -981 0
-4272 -982 0
-4272 -983 0
-4272 -984 0
-4272 -985 0
-4272 -986 0
-4272 -987 0
-4272 -988 0
-4272 -989 0
-4272 -990 0
-4272 -991 0
-4272 -992 0
-4272 -993 0
-4272 -994 0
-4272 -995 0
-4272 -996 0
-4272 -997 0
-4272 -998 0
-4272 -999 0
-4272 -1000 0
-4272 -1001 0
-4272 -1002 0
-4272 -1003 0
-4272 -1004 0
-4272 -1005 0
-4272 -1006 0
-4272 -1007 0
-4272 -1008 0
-4272 -1009 0
-4272 -1010 0
-4272 -1011 0
-4272 -1012 0
-4272 -1013 0
-4272 -1014 0
-4272 -1015 0
-4272 -1016 0
-4272 -1017 0
-4272 -1018 0
-4272 -1019 0
-4272 -1020 0
-4272 -1021 0
-4272 -1022 0
-4272 -1023 0
-4272 -1024 0
-4272 -1025 0
-4272 -1026 0
-4272 -1027 0
-4272 -1028 0
-4272 -1029 0
-4272 -1030 0
-4272 -1031 0
-4272 -1032 0
-4272 -1033 0
-4272 -1034 0
-4272 -1035 0
-4272 -1036 0
-4272 -1037 0
-4272 -1038 0
-4272 -1039 0
-4272 -1040 0
-4272 -1041 0
-4272 -1042 0
-4272 -1043 0
-4272 -1044 0
-4272 -1045 0
-4272 -1046 0
-4272 -1047 0
-4272 -1048 0
-4272 -1049 0
-4272 -1050 0
-4272 -1051 0
-4272 -1052 0
-4272 -1053 0
-4272 -1054 0
-4272 -1055 0
-4272 -1056 0
-4272 -1057 0
-4272 -1058 0
-4272 -1059 0
-4272 -1060 0
-4272 -1061 0
-4272 -1062 0
-4272 -1063 0
-4272 -1064 0
-4272 -1065 0
-4272 -1066 0
-4272 -1067 0
-4272 -1068 0
-4272 -1069 0
-4272 -1070 0
-4272 -1071 0
-4272 -1072 0
-4272 -1073 0
-4272 -1074 0
-4272 -1075 0
-4272 -1076 0
-4272 -1077 0
-4272 -1078 0
-4272 -1079 0
-4272 -1080 0
-4272 -1081 0
-4272 -1082 0
-4272 -1083 0
-4272 -1084 0
-4272 -1085 0
-4272 -1086 0
-4272 -1087 0
-4272 -1088 0
-4272 -1089 0
-4272 -1090 0
-4272 -1091 0
-4272 -1092 0
-4272 -1093 0
-4272 -1094 0
-4272 -1095 0
-4272 -1096 0
-4272 -1097 0
-4272 -1098 0
-4272 -1099 0
-4272 -1100 0
-4272 -1101 0
-4272 -1102 0
-4272 -1103 0
-4272 -1104 0
-4272 -1105 0
-4272 -1106 0
-4272 -1107 0
-4272 -1108 0
-4272 -1109 0
-4272 -1110 0
-4272 -1111 0
-4272 -1112 0
-4272 -1113 0
-4272 -1114 0
-4272 -1115 0
-4272 -1116 0
-4272 -1117 0
-4272 -1118 0
-4272 -1119 0
-4272 -1120 0
-4272 -1121 0
-4272 -1122 0
-4272 -1123 0
-4272 -1124 0
-4272 -1125 0
-4272 -1126 0
-4272 -1127 0
-4272 -1128 0
-4272 -1129 0
-4272 -1130 0
-4272 -1131 0
-4272 -1132 0
-4272 -1133 0
-4272 -1134 0
-4272 -1135 0
-4272 -1136 0
-4272 -1137 0
-4272 -1138 0
-4272 -1139 0
-4272 -1140 0
-4272 -1141 0
-4272 -1142 0
-4272 -1143 0
-4272 -1144 0
-4272 -1145 0
-4272 -1146 0
-4272 -1147 0
-4272 -1148 0
-4272 -1149 0
-4272 -1150 0
-4272 -1151 0
-4272 -1152 0
-4272 -1153 0
-4272 -1154 0
-4272 -1155 0
-4272 -1156 0
-4272 -1157 0
-4272 -1158 0
-4272 -1159 0
-4272 -1160 0
-4272 -1161 0
-4272 -1162 0
-4272 -1163 0
-4272 -1164 0
-4272 -1165 0
-4272 -1166 0
-4272 -1167 0
-4272 -1168 0
-4272 -1169 0
-4272 -1170 0
-4272 -1171 0
-4272 -1172 0
-4272 -1173 0
-4272 -1174 0
-4272 -1175 0
-4272 -1176 0
-4272 -1177 0
-4272 -1178 0
-4272 -1179 0
-4272 -1180 0
-4272 -1181 0
-4272 -1182 0
-4272 -1183 0
-4272 -1184 0
-4272 -1185 0
-4272 -1186 0
-4272 -1187 0
-4272 -1188 0
-4272 -1189 0
-4272 -1190 0
-4272 -1191 0
-4272 -1192 0
-4272 -1193 0
-4272 -1194 0
-4272 -1195 0
-4272 -1196 0
-4272 -1197 0
-4272 -1198 0
-4272 -1199 0
-4272 -1200 0
-4272 -1201 0
-4272 -1202 0
-4272 -1203 0
-4272 -1204 0
-4272 -1205 0
-4272 -1206 0
-4272 -1207 0
-4272 -1208 0
-4272 -1209 0
-4272 -1210 0
-4272 -1211 0
-4272 -1212 0
-4272 -1213 0
-4272 -1214 0
-4272 -1215 0
-4272 -1216 0
-4272 -1217 0
-4272 -1218 0
-4272 -1219 0
-4272 -1220 0
-4272 -1221 0
-4272 -1222 0
-4272 -1223 0
-4272 -1224 0
-4272 -1225 0
-4272 -1226 0
-4272 -1227 0
-4272 -1228 0
-4272 -1229 0
-4272 -1230 0
-4272 -1231 0
-4272 -1232 0
-4272 -1233 0
-4272 -1234 0
-4272 -1235 0
-4272 -1236 0
-4272 -1237 0
-4272 -1238 0
-4272 -1239 0
-4272 -1240 0
-4272 -1241 0
-4272 -1242 0
-4272 -1243 0
-4272 -1244 0
-4272 -1245 0
-4272 -1246 0
-4272 -1247 0
-4272 -1248 0
-4272 -1249 0
-4272 -1250 0
-4272 -1251 0
-4272 -1252 0
-4272 -1253 0
-4272 -1254 0
-4272 -1255 0
-4272 -1256 0
-4272 -1257 0
-4272 -1258 0
-4272 -1259 0
-4272 -1260 0
-4272 -1261 0
-4272 -1262 0
-4272 -1263 0
-4272 -1264 0
-4272 -1265 0
-4272 -1266 0
-4272 -1267 0
-4272 -1268 0
-4272 -1269 0
-4272 -1270 0
-4272 -1271 0
-4272 -1272 0
-4272 -1273 0
-4272 -1274 0
-4272 -1275 0
-4272 -1276 0
-4272 -1277 0
-4272 -1278 0
-4272 -1279 0
-4272 -1280 0
-4272 -1281 0
-4272 -1282 0
-4272 -1283 0
-4272 -1284 0
-4272 -1285 0
-4272 -1286 0
-4272 -1287 0
-4272 -1288 0
-4272 -1289 0
-4272 -1290 0
-4272 -1291 0
-4272 -1292 0
-4272 -1293 0
-4272 -1294 0
-4272 -1295 0
-4272 -1296 0
-4272 -1297 0
-4272 -1298 0
-4272 -1299 0
-4272 -1300 0
-4272 -1301 0
-4272 -1302 0
-4272 -1303 0
-4272 -1304 0
-4272 -1305 0
-4272 -1306 0
-4272 -1307 0
-4272 -1308 0
-4272 -1309 0
-4272 -1310 0
-4272 -1311 0
-4272 -1312 0
-4272 -1313 0
-4272 -1314 0
-4272 -1315 0
-4272 -1316 0
-4272 -1317 0
-4272 -1318 0
-4272 -1319 0
-4272 -1320 0
-4272 -1321 0
-4272 -1322 0
-4272 -1323 0
-4272 -1324 0
-4272 -1325 0
-4272 -1326 0
-4272 -1327 0
-4272 -1328 0
-4272 -1329 0
-4272 -1330 0
-4272 -1331 0
-4272 -1332 0
-4272 -1333 0
-4272 -1334 0
-4272 -1335 0
-4272 -1336 0
-4272 -1337 0
-4272 -1338 0
-4272 -1339 0
-4272 -1340 0
-4272 -1341 0
-4272 -1342 0
-4272 -1343 0
-4272 -1344 0
-4272 -1345 0
-4272 -1346 0
-4272 -1347 0
-4272 -1348 0
-4272 -1349 0
-4272 -1350 0
-4272 -1351 0
-4272 -1352 0
-4272 -1353 0
-4272 -1354 0
-4272 -1355 0
-4272 -1356 0
-4272 -1357 0
-4272 -1358 0
-4272 -1359 0
-4272 -1360 0
-4272 -1361 0
-4272 -1362 0
-4272 -1363 0
-4272 -1364 0
-4272 -1365 0
-4272 -1366 0
-4272 -1367 0
-4272 -1368 0
-4272 -1369 0
-4272 -1370 0
-4272 -1371 0
-4272 -1372 0
-4272 -1373 0
-4272 -1374 0
-4272 -1375 0
-4272 -1376 0
-4272 -1377 0
-4272 -1378 0
-4272 -1379 0
-4272 -1380 0
-4272 -1381 0
-4272 -1382 0
-4272 -1383 0
-4272 -1384 0
-4272 -1385 0
-4272 -1386 0
-4272 -1387 0
-4272 -1388 0
-4272 -1389 0
-4272 -1390 0
-4272 -1391 0
-4272 -1392 0
-4272 -1393 0
-4272 -1394 0
-4272 -1395 0
-4272 -1396 0
-4272 -1397 0
-4272 -1398 0
-4272 -1399 0
-4272 -1400 0
-4272 -1401 0
-4272 -1402 0
-4272 -1403 0
-4272 -1404 0
-4272 -1405 0
-4272 -1406 0
-4272 -1407 0
-4272 -1408 0
-4272 -1409 0
-4272 -1410 0
-4272 -1411 0
-4272 -1412 0
-4272 -1413 0
-4272 -1414 0
-4272 -1415 0
-4272 -1416 0
-4272 -1417 0
-4272 -1418 0
-4272 -1419 0
-4272 -1420 0
-4272 -1421 0
-4272 -1422 0
-4272 -1423 0
-4272 -1424 0
-4272 -1425 0
-4272 -1426 0
-4272 -1427 0
-4272 -1428 0
-4272 -1429 0
-4272 -1430 0
-4272 -1431 0
-4272 -1432 0
-4272 -1433 0
-4272 -1434 0
-4272 -1435 0
-4272 -1436 0
-4272 -1437 0
-4272 -1438 0
-4272 -1439 0
-4272 -1440 0
-4272 -1441 0
-4272 -1442 0
-4272 -1443 0
-4272 -1444 0
-4272 -1445 0
-4272 -1446 0
-4272 -1447 0
-4272 -1448 0
-4272 -1449 0
-4272 -1450 0
-4272 -1451 0
-4272 -1452 0
-4272 -1453 0
-4272 -1454 0
-4272 -1455 0
-4272 -1456 0
-4272 -1457 0
-4272 -1458 0
-4272 -1459 0
-4272 -1460 0
-4272 -1461 0
-4272 -1462 0
-4272 -1463 0
-4272 -1464 0
-4272 -1465 0
-4272 -1466 0
-4272 -1467 0
-4272 -1468 0
-4272 -1469 0
-4272 -1470 0
-4272 -1471 0
-4272 -1472 0
-4272 -1473 0
-4272 -1474 0
-4272 -1475 0
-4272 -1476 0
-4272 -1477 0
-4272 -1478 0
-4272 -1479 0
-4272 -1480 0
-4272 -1481 0
-4272 -1482 0
-4272 -1483 0
-4272 -1484 0
-4272 -1485 0
-4272 -1486 0
-4272 -1487 0
-4272 -1488 0
-4272 -1489 0
-4272 -1490 0
-4272 -1491 0
-4272 -1492 0
-4272 -1493 0
-4272 -1494 0
-4272 -1495 0
-4272 -1496 0
-4272 -1497 0
-4272 -1498 0
-4272 -1499 0
-4272 -1500 0
-4272 -1501 0
-4272 -1502 0
-4272 -1503 0
-4272 -1504 0
-4272 -1505 0
-4272 -1506 0
-4272 -1507 0
-4272 -1508 0
-4272 -1509 0
-4272 -1510 0
-4272 -1511 0
-4272 -1512 0
-4272 -1513 0
-4272 -1514 0
-4272 -1515 0
-4272 -1516 0
-4272 -1517 0
-4272 -1518 0
-4272 -1519 0
-4272 -1520 0
-4272 -1521 0
-4272 -1522 0
-4272 -1523 0
-4272 -1524 0
-4272 -1525 0
-4272 -1526 0
-4272 -1527 0
-4272 -1528 0
-4272 -1529 0
-4272 -1530 0
-4272 -1531 0
-4272 -1532 0
-4272 -1533 0
-4272 -1534 0
-4272 -1535 0
-4272 -1536 0
-4272 -1537 0
-4272 -1538 0
-4272 -1539 0
-4272 -1540 0
-4272 -1541 0
-4272 -1542 0
-4272 -1543 0
-4272 -1544 0
-4272 -1545 0
-4272 -1546 0
-4272 -1547 0
-4272 -1548 0
-4272 -1549 0
-4272 -1550 0
-4272 -1551 0
-4272 -1552 0
-4272 -1553 0
-4272 -1554 0
-4272 -1555 0
-4272 -1556 0
-4272 -1557 0
-4272 -1558 0
-4272 -1559 0
-4272 -1560 0
-4272 -1561 0
-4272 -1562 0
-4272 -1563 0
-4272 -1564 0
-4272 -1565 0
-4272 -1566 0
-4272 -1567 0
-4272 -1568 0
-4272 -1569 0
-4272 -1570 0
-4272 -1571 0
-4272 -1572 0
-4272 -1573 0
-4272 -1574 0
-4272 -1575 0
-4272 -1576 0
-4272 -1577 0
-4272 -1578 0
-4272 -1579 0
-4272 -1580 0
-4272 -1581 0
-4272 -1582 0
-4272 -1583 0
-4272 -1584 0
-4272 -1585 0
-4272 -1586 0
-4272 -1587 0
-4272 -1588 0
-4272 -1589 0
-4272 -1590 0
-4272 -1591 0
-4272 -1592 0
-4272 -1593 0
-4272 -1594 0
-4272 -1595 0
-4272 -1596 0
-4272 -1597 0
-4272 -1598 0
-4272 -1599 0
-4272 -1600 0
-4272 -1601 0
-4272 -1602 0
-4272 -1603 0
-4272 -1604 0
-4272 -1605 0
-4272 -1606 0
-4272 -1607 0
-4272 -1608 0
-4272 -1609 0
-4272 -1610 0
-4272 -1611 0
-4272 -1612 0
-4272 -1613 0
-4272 -1614 0
-4272 -1615 0
-4272 -1616 0
-4272 -1617 0
-4272 -1618 0
-4272 -1619 0
-4272 -1620 0
-4272 -1621 0
-4272 -1622 0
-4272 -1623 0
-4272 -1624 0
-4272 -1625 0
-4272 -1626 0
-4272 -1627 0
-4272 -1628 0
-4272 -1629 0
-4272 -1630 0
-4272 -1631 0
-4272 -1632 0
-4272 -1633 0
-4272 -1634 0
-4272 -1635 0
-4272 -1636 0
-4272 -1637 0
-4272 -1638 0
-4272 -1639 0
-4272 -1640 0
-4272 -1641 0
-4272 -1642 0
-4272 -1643 0
-4272 -1644 0
-4272 -1645 0
-4272 -1646 0
-4272 -1647 0
-4272 -1648 0
-4272 -1649 0
-4272 -1650 0
-4272 -1651 0
-4272 -1652 0
-4272 -1653 0
-4272 -1654 0
-4272 -1655 0
-4272 -1656 0
-4272 -1657 0
-4272 -1658 0
-4272 -1659 0
-4272 -1660 0
-4272 -1661 0
-4272 -1662 0
-4272 -1663 0
-4272 -1664 0
-4272 -1665 0
-4272 -1666 0
-4272 -1667 0
-4272 -1668 0
-4272 -1669 0
-4272 -1670 0
-4272 -1671 0
-4272 -1672 0
-4272 -1673 0
-4272 -1674 0
-4272 -1675 0
-4272 -1676 0
-4272 -1677 0
-4272 -1678 0
-4272 -1679 0
-4272 -1680 0
-4272 -1681 0
-4272 -1682 0
-4272 -1683 0
-4272 -1684 0
-4272 -1685 0
-4272 -1686 0
-4272 -1687 0
-4272 -1688 0
-4272 -1689 0
-4272 -1690 0
-4272 -1691 0
-4272 -1692 0
-4272 -1693 0
-4272 -1694 0
-4272 -1695 0
-4272 -1696 0
-4272 -1697 0
-4272 -1698 0
-4272 -1699 0
-4272 -1700 0
-4272 -1701 0
-4272 -1702 0
-4272 -1703 0
-4272 -1704 0
-4272 -1705 0
-4272 -1706 0
-4272 -1707 0
-4272 -1708 0
-4272 -1709 0
-4272 -1710 0
-4272 -1711 0
-4272 -1712 0
-4272 -1713 0
-4272 -1714 0
-4272 -1715 0
-4272 -1716 0
-4272 -1717 0
-4272 -1718 0
-4272 -1719 0
-4272 -1720 0
-4272 -1721 0
-4272 -1722 0
-4272 -1723 0
-4272 -1724 0
-4272 -1725 0
-4272 -1726 0
-4272 -1727 0
-4272 -1728 0
-4272 -1729 0
-4272 -1730 0
-4272 -1731 0
-4272 -1732 0
-4272 -1733 0
-4272 -1734 0
-4272 -1735 0
-4272 -1736 0
-4272 -1737 0
-4272 -1738 0
-4272 -1739 0
-4272 -1740 0
-4272 -1741 0
-4272 -1742 0
-4272 -1743 0
-4272 -1744 0
-4272 -1745 0
-4272 -1746 0
-4272 -1747 0
-4272 -1748 0
-4272 -1749 0
-4272 -1750 0
-4272 -1751 0
-4272 -1752 0
-4272 -1753 0
-4272 -1754 0
-4272 -1755 0
-4272 -1756 0
-4272 -1757 0
-4272 -1758 0
-4272 -1759 0
-4272 -1760 0
-4272 -1761 0
-4272 -1762 0
-4272 -1763 0
-4272 -1764 0
-4272 -1765 0
-4272 -1766 0
-4272 -1767 0
-4272 -1768 0
-4272 -1769 0
-4272 -1770 0
-4272 -1771 0
-4272 -1772 0
-4272 -1773 0
-4272 -1774 0
-4272 -1775 0
-4272 -1776 0
-4272 -1777 0
-4272 -1778 0
-4272 -1779 0
-4272 -1780 0
-4272 -1781 0
-4272 -1782 0
-4272 -1783 0
-4272 -1784 0
-4272 -1785 0
-4272 -1786 0
-4272 -1787 0
-4272 -1788 0
-4272 -1789 0
-4272 -1790 0
-4272 -1791 0
-4272 -1792 0
-4272 -1793 0
-4272 -1794 0
-4272 -1795 0
-4272 -1796 0
-4272 -1797 0
-4272 -1798 0
-4272 -1799 0
-4272 -1800 0
-4272 -1801 0
-4272 -1802 0
-4272 -1803 0
-4272 -1804 0
-4272 -1805 0
-4272 -1806 0
-4272 -1807 0
-4272 -1808 0
-4272 -1809 0
-4272 -1810 0
-4272 -1811 0
-4272 -1812 0
-4272 -1813 0
-4272 -1814 0
-4272 -1815 0
-4272 -1816 0
-4272 -1817 0
-4272 -1818 0
-4272 -1819 0
-4272 -1820 0
-4272 -1821 0
-4272 -1822 0
-4272 -1823 0
-4272 -1824 0
-4272 -1825 0
-4272 -1826 0
-4272 -1827 0
-4272 -1828 0
-4272 -1829 0
-4272 -1830 0
-4272 -1831 0
-4272 -1832 0
-4272 -1833 0
-4272 -1834 0
-4272 -1835 0
-4272 -1836 0
-4272 -1837 0
-4272 -1838 0
-4272 -1839 0
-4272 -1840 0
-4272 -1841 0
-4272 -1842 0
-4272 -1843 0
-4272 -1844 0
-4272 -1845 0
-4272 -1846 0
-4272 -1847 0
-4272 -1848 0
-4272 -1849 0
-4272 -1850 0
-4272 -1851 0
-4272 -1852 0
-4272 -1853 0
-4272 -1854 0
-4272 -1855 0
-4272 -1856 0
-4272 -1857 0
-4272 -1858 0
-4272 -1859 0
-4272 -1860 0
-4272 -1861 0
-4272 -1862 0
-4272 -1863 0
-4272 -1864 0
-4272 -1865 0
-4272 -1866 0
-4272 -1867 0
-4272 -1868 0
-4272 -1869 0
-4272 -1870 0
-4272 -1871 0
-4272 -1872 0
-4272 -1873 0
-4272 -1874 0
-4272 -1875 0
-4272 -1876 0
-4272 -1877 0
-4272 -1878 0
-4272 -1879 0
-4272 -1880 0
-4272 -1881 0
-4272 -1882 0
-4272 -1883 0
-4272 -1884 0
-4272 -1885 0
-4272 -1886 0
-4272 -1887 0
-4272 -1888 0
-4272 -1889 0
-4272 -1890 0
-4272 -1891 0
-4272 -1892 0
-4272 -1893 0
-4272 -1894 0
-4272 -1895 0
-4272 -1896 0
-4272 -1897 0
-4272 -1898 0
-4272 -1899 0
-4272 -1900 0
-4272 -1901 0
-4272 -1902 0
-4272 -1903 0
-4272 -1904 0
-4272 -1905 0
-4272 -1906 0
-4272 -1907 0
-4272 -1908 0
-4272 -1909 0
-4272 -1910 0
-4272 -1911 0
-4272 -1912 0
-4272 -1913 0
-4272 -1914 0
-4272 -1915 0
-4272 -1916 0
-4272 -1917 0
-4272 -1918 0
-4272 -1919 0
-4272 -1920 0
-4272 -1921 0
-4272 -1922 0
-4272 -1923 0
-4272 -1924 0
-4272 -1925 0
-4272 -1926 0
-4272 -1927 0
-4272 -1928 0
-4272 -1929 0
-4272 -1930 0
-4272 -1931 0
-4272 -1932 0
-4272 -1933 0
-4272 -1934 0
-4272 -1935 0
-4272 -1936 0
-4272 -1937 0
-4272 -1938 0
-4272 -1939 0
-4272 -1940 0
-4272 -1941 0
-4272 -1942 0
-4272 -1943 0
-4272 -1944 0
-4272 -1945 0
-4272 -1946 0
-4272 -1947 0
-4272 -1948 0
-4272 -1949 0
-4272 -1950 0
-4272 -1951 0
-4272 -1952 0
-4272 -1953 0
-4272 -1954 0
-4272 -1955 0
-4272 -1956 0
-4272 -1957 0
-4272 -1958 0
-4272 -1959 0
-4272 -1960 0
-4272 -1961 0
-4272 -1962 0
-4272 -1963 0
-4272 -1964 0
-4272 -1965 0
-4272 -1966 0
-4272 -1967 0
-4272 -1968 0
-4272 -1969 0
-4272 -1970 0
-4272 -1971 0
-4272 -1972 0
-4272 -1973 0
-4272 -1974 0
-4272 -1975 0
-4272 -1976 0
-4272 -1977 0
-4272 -1978 0
-4272 -1979 0
-4272 -1980 0
-4272 -1981 0
-4272 -1982 0
-4272 -1983 0
-4272 -1984 0
-4272 -1985 0
-4272 -1986 0
-4272 -1987 0
-4272 -1988 0
-4272 -1989 0
-4272 -1990 0
-4272 -1991 0
-4272 -1992 0
-4272 -1993 0
-4272 -1994 0
-4272 -1995 0
-4272 -1996 0
-4272 -1997 0
-4272 -1998 0
-4272 -1999 0
-4272 -2000 0
-4272 -2001 0
-4272 -2002 0
-4272 -2003 0
-4272 -2004 0
-4272 -2005 0
-4272 -2006 0
-4272 -2007 0
-4272 -2008 0
-4272 -2009 0
-4272 -2010 0
-4272 -2011 0
-4272 -2012 0
-4272 -2013 0
-4272 -2014 0
-4272 -2015 0
-4272 -2016 0
-4272 -2017 0
-4272 -2018 0
-4272 -2019 0
-4272 -2020 0
-4272 -2021 0
-4272 -2022 0
-4272 -2023 0
-4272 -2024 0
-4272 -2025 0
-4272 -2026 0
-4272 -2027 0
-4272 -2028 0
-4272 -2029 0
-4272 -2030 0
-4272 -2031 0
-4272 -2032 0
-4272 -2033 0
-4272 -2034 0
-4272 -2035 0
-4272 -2036 0
-4272 -2037 0
-4272 -2038 0
-4272 -2039 0
-4272 -2040 0
-4272 -2041 0
-4272 -2042 0
-4272 -2043 0
-4272 -2044 0
-4272 -2045 0
-4272 -2046 0
-4272 -2047 0
-4272 -2048 0
-4272 -2049 0
-4272 -2050 0
-4272 -2051 0
-4272 -2052 0
-4272 -2053 0
-4272 -2054 0
-4272 -2055 0
-4272 -2056 0
-4272 -2057 0
-4272 -2058 0
-4272 -2059 0
-4272 -2060 0
-4272 -2061 0
-4272 -2062 0
-4272 -2063 0
-4272 -2064 0
-4272 -2065 0
-4272 -2066 0
-4272 -2067 0
-4272 -2068 0
-4272 -2069 0
-4272 -2070 0
-4272 -2071 0
-4272 -2072 0
-4272 -2073 0
-4272 -2074 0
-4272 -2075 0
-4272 -2076 0
-4272 -2077 0
-4272 -2078 0
-4272 -2079 0
-4272 -2080 0
-4272 -2081 0
-4272 -2082 0
-4272 -2083 0
-4272 -2084 0
-4272 -2085 0
-4272 -2086 0
-4272 -2087 0
-4272 -2088 0
-4272 -2089 0
-4272 -2090 0
-4272 -2091 0
-4272 -2092 0
-4272 -2093 0
-4272 -2094 0
-4272 -2095 0
-4272 -2096 0
-4272 -2097 0
-4272 -2098 0
-4272 -2099 0
-4272 -2100 0
-4272 -2101 0
-4272 -2102 0
-4272 -2103 0
-4272 -2104 0
-4272 -2105 0
-4272 -2106 0
-4272 -2107 0
-4272 -2108 0
-4272 -2109 0
-4272 -2110 0
-4272 -2111 0
-4272 -2112 0
-4272 -2113 0
-4272 -2114 0
-4272 -2115 0
-4272 -2116 0
-4272 -2117 0
-4272 -2118 0
-4272 -2119 0
-4272 -2120 0
-4272 -2121 0
-4272 -2122 0
-4272 -2123 0
-4272 -2124 0
-4272 -2125 0
-4272 -2126 0
-4272 -2127 0
-4272 -2128 0
-4272 -2129 0
-4272 -2130 0
-4272 -2131 0
-4272 -2132 0
-4272 -2133 0
-4272 -2134 0
-4272 -2135 0
-4272 -2136 0
-4272 -2137 0
-4272 -2138 0
-4272 -2139 0
-4272 -2140 0
-4272 -2141 0
-4272 -2142 0
-4272 -2143 0
-4272 -2144 0
-4272 -2145 0
-4272 -2146 0
-4272 -2147 0
-4272 -2148 0
-4272 -2149 0
-4272 -2150 0
-4272 -2151 0
-4272 -2152 0
-4272 -2153 0
-4272 -2154 0
-4272 -2155 0
-4272 -2156 0
-4272 -2157 0
-4272 -2158 0
-4272 -2159 0
-4272 -2160 0
-4272 -2161 0
-4272 -2162 0
-4272 -2163 0
-4272 -2164 0
-4272 -2165 0
-4272 -2166 0
-4272 -2167 0
-4272 -2168 0
-4272 -2169 0
-4272 -2170 0
-4272 -2171 0
-4272 -2172 0
-4272 -2173 0
-4272 -2174 0
-4272 -2175 0
-4272 -2176 0
-4272 -2177 0
-4272 -2178 0
-4272 -2179 0
-4272 -2180 0
-4272 -2181 0
-4272 -2182 0
-4272 -2183 0
-4272 -2184 0
-4272 -2185 0
-4272 -2186 0
-4272 -2187 0
-4272 -2188 0
-4272 -2189 0
-4272 -2190 0
-4272 -2191 0
-4272 -2192 0
-4272 -2193 0
-4272 -2194 0
-4272 -2195 0
-4272 -2196 0
-4272 -2197 0
-4272 -2198 0
-4272 -2199 0
-4272 -2200 0
-4272 -2201 0
-4272 -2202 0
-4272 -2203 0
-4272 -2204 0
-4272 -2205 0
-4272 -2206 0
-4272 -2207 0
-4272 -2208 0
-4272 -2209 0
-4272 -2210 0
-4272 -2211 0
-4272 -2212 0
-4272 -2213 0
-4272 -2214 0
-4272 -2215 0
-4272 -2216 0
-4272 -2217 0
-4272 -2218 0
-4272 -2219 0
-4272 -2220 0
-4272 -2221 0
-4272 -2222 0
-4272 -2223 0
-4272 -2224 0
-4272 -2225 0
-4272 -2226 0
-4272 -2227 0
-4272 -2228 0
-4272 -2229 0
-4272 -2230 0
-4272 -2231 0
-4272 -2232 0
-4272 -2233 0
-4272 -2234 0
-4272 -2235 0
-4272 -2236 0
-4272 -2237 0
-4272 -2238 0
-4272 -2239 0
-4272 -2240 0
-4272 -2241 0
-4272 -2242 0
-4272 -2243 0
-4272 -2244 0
-4272 -2245 0
-4272 -2246 0
-4272 -2247 0
-4272 -2248 0
-4272 -2249 0
-4272 -2250 0
-4272 -2251 0
-4272 -2252 0
-4272 -2253 0
-4272 -2254 0
-4272 -2255 0
-4272 -2256 0
-4272 -2257 0
-4272 -2258 0
-4272 -2259 0
-4272 -2260 0
-4272 -2261 0
-4272 -2262 0
-4272 -2263 0
-4272 -2264 0
-4272 -2265 0
-4272 -2266 0
-4272 -2267 0
-4272 -2268 0
-4272 -2269 0
-4272 -2270 0
-4272 -2271 0
-4272 -2272 0
-4272 -2273 0
-4272 -2274 0
-4272 -2275 0
-4272 -2276 0
-4272 -2277 0
-4272 -2278 0
-4272 -2279 0
-4272 -2280 0
-4272 -2281 0
-4272 -2282 0
-4272 -2283 0
-4272 -2284 0
-4272 -2285 0
-4272 -2286 0
-4272 -2287 0
-4272 -2288 0
-4272 -2289 0
-4272 -2290 0
-4272 -2291 0
-4272 -2292 0
-4272 -2293 0
-4272 -2294 0
-4272 -2295 0
-4272 -2296 0
-4272 -2297 0
-4272 -2298 0
-4272 -2299 0
-4272 -2300 0
-4272 -2301 0
-4272 -2302 0
-4272 -2303 0
-4272 -2304 0
-4272 -2305 0
-4272 -2306 0
-4272 -2307 0
-4272 -2308 0
-4272 -2309 0
-4272 -2310 0
-4272 -2311 0
-4272 -2312 0
-4272 -2313 0
-4272 -2314 0
-4272 -2315 0
-4272 -2316 0
-4272 -2317 0
-4272 -2318 0
-4272 -2319 0
-4272 -2320 0
-4272 -2321 0
-4272 -2322 0
-4272 -2323 0
-4272 -2324 0
-4272 -2325 0
-4272 -2326 0
-4272 -2327 0
-4272 -2328 0
-4272 -2329 0
-4272 -2330 0
-4272 -2331 0
-4272 -2332 0
-4272 -2333 0
-4272 -2334 0
-4272 -2335 0
-4272 -2336 0
-4272 -2337 0
-4272 -2338 0
-4272 -2339 0
-4272 -2340 0
-4272 -2341 0
-4272 -2342 0
-4272 -2343 0
-4272 -2344 0
-4272 -2345 0
-4272 -2346 0
-4272 -2347 0
-4272 -2348 0
-4272 -2349 0
-4272 -2350 0
-4272 -2351 0
-4272 -2352 0
-4272 -2353 0
-4272 -2354 0
-4272 -2355 0
-4272 -2356 0
-4272 -2357 0
-4272 -2358 0
-4272 -2359 0
-4272 -2360 0
-4272 -2361 0
-4272 -2362 0
-4272 -2363 0
-4272 -2364 0
-4272 -2365 0
-4272 -2366 0
-4272 -2367 0
-4272 -2368 0
-4272 -2369 0
-4272 -2370 0
-4272 -2371 0
-4272 -2372 0
-4272 -2373 0
-4272 -2374 0
-4272 -2375 0
-4272 -2376 0
-4272 -2377 0
-4272 -2378 0
-4272 -2379 0
-4272 -2380 0
-4272 -2381 0
-4272 -2382 0
-4272 -2383 0
-4272 -2384 0
-4272 -2385 0
-4272 -2386 0
-4272 -2387 0
-4272 -2388 0
-4272 -2389 0
-4272 -2390 0
-4272 -2391 0
-4272 -2392 0
-4272 -2393 0
-4272 -2394 0
-4272 -2395 0
-4272 -2396 0
-4272 -2397 0
-4272 -2398 0
-4272 -2399 0
-4272 -2400 0
-4272 -2401 0
-4272 -2402 0
-4272 -2403 0
-4272 -2404 0
-4272 -2405 0
-4272 -2406 0
-4272 -2407 0
-4272 -2408 0
-4272 -2409 0
-4272 -2410 0
-4272 -2411 0
-4272 -2412 0
-4272 -2413 0
-4272 -2414 0
-4272 -2415 0
-4272 -2416 0
-4272 -2417 0
-4272 -2418 0
-4272 -2419 0
-4272 -2420 0
-4272 -2421 0
-4272 -2422 0
-4272 -2423 0
-4272 -2424 0
-4272 -2425 0
-4272 -2426 0
-4272 -2427 0
-4272 -2428 0
-4272 -2429 0
-4272 -2430 0
-4272 -2431 0
-4272 -2432 0
-4272 -2433 0
-4272 -2434 0
-4272 -2435 0
-4272 -2436 0
-4272 -2437 0
-4272 -2438 0
-4272 -2439 0
-4272 -2440 0
-4272 -2441 0
-4272 -2442 0
-4272 -2443 0
-4272 -2444 0
-4272 -2445 0
-4272 -2446 0
-4272 -2447 0
-4272 -2448 0
-4272 -2449 0
-4272 -2450 0
-4272 -2451 0
-4272 -2452 0
-4272 -2453 0
-4272 -2454 0
-4272 -2455 0
-4272 -2456 0
-4272 -2457 0
-4272 -2458 0
-4272 -2459 0
-4272 -2460 0
-4272 -2461 0
-4272 -2462 0
-4272 -2463 0
-4272 -2464 0
-4272 -2465 0
-4272 -2466 0
-4272 -2467 0
-4272 -2468 0
-4272 -2469 0
-4272 -2470 0
-4272 -2471 0
-4272 -2472 0
-4272 -2473 0
-4272 -2474 0
-4272 -2475 0
-4272 -2476 0
-4272 -2477 0
-4272 -2478 0
-4272 -2479 0
-4272 -2480 0
-4272 -2481 0
-4272 -2482 0
-4272 -2483 0
-4272 -2484 0
-4272 -2485 0
-4272 -2486 0
-4272 -2487 0
-4272 -2488 0
-4272 -2489 0
-4272 -2490 0
-4272 -2491 0
-4272 -2492 0
-4272 -2493 0
-4272 -2494 0
-4272 -2495 0
-4272 -2496 0
-4272 -2497 0
-4272 -2498 0
-4272 -2499 0
-4272 -2500 0
-4272 -2501 0
-4272 -2502 0
-4272 -2503 0
-4272 -2504 0
-4272 -2505 0
-4272 -2506 0
-4272 -2507 0
-4272 -2508 0
-4272 -2509 0
-4272 -2510 0
-4272 -2511 0
-4272 -2512 0
-4272 -2513 0
-4272 -2514 0
-4272 -2515 0
-4272 -2516 0
-4272 -2517 0
-4272 -2518 0
-4272 -2519 0
-4272 -2520 0
-4272 -2521 0
-4272 -2522 0
-4272 -2523 0
-4272 -2524 0
-4272 -2525 0
-4272 -2526 0
-4272 -2527 0
-4272 -2528 0
-4272 -2529 0
-4272 -2530 0
-4272 -2531 0
-4272 -2532 0
-4272 -2533 0
-4272 -2534 0
-4272 -2535 0
-4272 -2536 0
-4272 -2537 0
-4272 -2538 0
-4272 -2539 0
-4272 -2540 0
-4272 -2541 0
-4272 -2542 0
-4272 -2543 0
-4272 -2544 0
-4272 -2545 0
-4272 -2546 0
-4272 -2547 0
-4272 -2548 0
-4272 -2549 0
-4272 -2550 0
-4272 -2551 0
-4272 -2552 0
-4272 -2553 0
-4272 -2554 0
-4272 -2555 0
-4272 -2556 0
-4272 -2557 0
-4272 -2558 0
-4272 -2559 0
-4272 -2560 0
-4272 -2561 0
-4272 -2562 0
-4272 -2563 0
-4272 -2564 0
-4272 -2565 0
-4272 -2566 0
-4272 -2567 0
-4272 -2568 0
-4272 -2569 0
-4272 -2570 0
-4272 -2571 0
-4272 -2572 0
-4272 -2573 0
-4272 -2574 0
-4272 -2575 0
-4272 -2576 0
-4272 -2577 0
-4272 -2578 0
-4272 -2579 0
-4272 -2580 0
-4272 -2581 0
-4272 -2582 0
-4272 -2583 0
-4272 -2584 0
-4272 -2585 0
-4272 -2586 0
-4272 -2587 0
-4272 -2588 0
-4272 -2589 0
-4272 -2590 0
-4272 -2591 0
-4272 -2592 0
-4272 -2593 0
-4272 -2594 0
-4272 -2595 0
-4272 -2596 0
-4272 -2597 0
-4272 -2598 0
-4272 -2599 0
-4272 -2600 0
-4272 -2601 0
-4272 -2602 0
-4272 -2603 0
-4272 -2604 0
-4272 -2605 0
-4272 -2606 0
-4272 -2607 0
-4272 -2608 0
-4272 -2609 0
-4272 -2610 0
-4272 -2611 0
-4272 -2612 0
-4272 -2613 0
-4272 -2614 0
-4272 -2615 0
-4272 -2616 0
-4272 -2617 0
-4272 -2618 0
-4272 -2619 0
-4272 -2620 0
-4272 -2621 0
-4272 -2622 0
-4272 -2623 0
-4272 -2624 0
-4272 -2625 0
-4272 -2626 0
-4272 -2627 0
-4272 -2628 0
-4272 -2629 0
-4272 -2630 0
-4272 -2631 0
-4272 -2632 0
-4272 -2633 0
-4272 -2634 0
-4272 -2635 0
-4272 -2636 0
-4272 -2637 0
-4272 -2638 0
-4272 -2639 0
-4272 -2640 0
-4272 -2641 0
-4272 -2642 0
-4272 -2643 0
-4272 -2644 0
-4272 -2645 0
-4272 -2646 0
-4272 -2647 0
-4272 -2648 0
-4272 -2649 0
-4272 -2650 0
-4272 -2651 0
-4272 -2652 0
-4272 -2653 0
-4272 -2654 0
-4272 -2655 0
-4272 -2656 0
-4272 -2657 0
-4272 -2658 0
-4272 -2659 0
-4272 -2660 0
-4272 -2661 0
-4272 -2662 0
-4272 -2663 0
-4272 -2664 0
-4272 -2665 0
-4272 -2666 0
-4272 -2667 0
-4272 -2668 0
-4272 -2669 0
-4272 -2670 0
-4272 -2671 0
-4272 -2672 0
-4272 -2673 0
-4272 -2674 0
-4272 -2675 0
-4272 -2676 0
-4272 -2677 0
-4272 -2678 0
-4272 -2679 0
-4272 -2680 0
-4272 -2681 0
-4272 -2682 0
-4272 -2683 0
-4272 -2684 0
-4272 -2685 0
-4272 -2686 0
-4272 -2687 0
-4272 -2688 0
-4272 -2689 0
-4272 -2690 0
-4272 -2691 0
-4272 -2692 0
-4272 -2693 0
-4272 -2694 0
-4272 -2695 0
-4272 -2696 0
-4272 -2697 0
-4272 -2698 0
-4272 -2699 0
-4272 -2700 0
-4272 -2701 0
-4272 -2702 0
-4272 -2703 0
-4272 -2704 0
-4272 -2705 0
-4272 -2706 0
-4272 -2707 0
-4272 -2708 0
-4272 -2709 0
-4272 -2710 0
-4272 -2711 0
-4272 -2712 0
-4272 -2713 0
-4272 -2714 0
-4272 -2715 0
-4272 -2716 0
-4272 -2717 0
-4272 -2718 0
-4272 -2719 0
-4272 -2720 0
-4272 -2721 0
-4272 -2722 0
-4272 -2723 0
-4272 -2724 0
-4272 -2725 0
-4272 -2726 0
-4272 -2727 0
-4272 -2728 0
-4272 -2729 0
-4272 -2730 0
-4272 -2731 0
-4272 -2732 0
-4272 -2733 0
-4272 -2734 0
-4272 -2735 0
-4272 -2736 0
-4272 -2737 0
-4272 -2738 0
-4272 -2739 0
-4272 -2740 0
-4272 -2741 0
-4272 -2742 0
-4272 -2743 0
-4272 -2744 0
-4272 -2745 0
-4272 -2746 0
-4272 -2747 0
-4272 -2748 0
-4272 -2749 0
-4272 -2750 0
-4272 -2751 0
-4272 -2752 0
-4272 -2753 0
-4272 -2754 0
-4272 -2755 0
-4272 -2756 0
-4272 -2757 0
-4272 -2758 0
-4272 -2759 0
-4272 -2760 0
-4272 -2761 0
-4272 -2762 0
-4272 -2763 0
-4272 -2764 0
-4272 -2765 0
-4272 -2766 0
-4272 -2767 0
-4272 -2768 0
-4272 -2769 0
-4272 -2770 0
-4272 -2771 0
-4272 -2772 0
-4272 -2773 0
-4272 -2774 0
-4272 -2775 0
-4272 -2776 0
-4272 -2777 0
-4272 -2778 0
-4272 -2779 0
-4272 -2780 0
-4272 -2781 0
-4272 -2782 0
-4272 -2783 0
-4272 -2784 0
-4272 -2785 0
-4272 -2786 0
-4272 -2787 0
-4272 -2788 0
-4272 -2789 0
-4272 -2790 0
-4272 -2791 0
-4272 -2792 0
-4272 -2793 0
-4272 -2794 0
-4272 -2795 0
-4272 -2796 0
-4272 -2797 0
-4272 -2798 0
-4272 -2799 0
-4272 -2800 0
-4272 -2801 0
-4272 -2802 0
-4272 -2803 0
-4272 -2804 0
-4272 -2805 0
-4272 -2806 0
-4272 -2807 0
-4272 -2808 0
-4272 -2809 0
-4272 -2810 0
-4272 -2811 0
-4272 -2812 0
-4272 -2813 0
-4272 -2814 0
-4272 -2815 0
-4272 -2816 0
-4272 -2817 0
-4272 -2818 0
-4272 -2819 0
-4272 -2820 0
-4272 -2821 0
-4272 -2822 0
-4272 -2823 0
-4272 -2824 0
-4272 -2825 0
-4272 -2826 0
-4272 -2827 0
-4272 -2828 0
-4272 -2829 0
-4272 -2830 0
-4272 -2831 0
-4272 -2832 0
-4272 -2833 0
-4272 -2834 0
-4272 -2835 0
-4272 -2836 0
-4272 -2837 0
-4272 -2838 0
-4272 -2839 0
-4272 -2840 0
-4272 -2841 0
-4272 -2842 0
-4272 -2843 0
-4272 -2844 0
-4272 -2845 0
-4272 -2846 0
-4272 -2847 0
-4272 -2848 0
-4272 -2849 0
-4272 -2850 0
-4272 -2851 0
-4272 -2852 0
-4272 -2853 0
-4272 -2854 0
-4272 -2855 0
-4272 -2856 0
-4272 -2857 0
-4272 -2858 0
-4272 -2859 0
-4272 -2860 0
-4272 -2861 0
-4272 -2862 0
-4272 -2863 0
-4272 -2864 0
-4272 -2865 0
-4272 -2866 0
-4272 -2867 0
-4272 -2868 0
-4272 -2869 0
-4272 -2870 0
-4272 -2871 0
-4272 -2872 0
-4272 -2873 0
-4272 -2874 0
-4272 -2875 0
-4272 -2876 0
-4272 -2877 0
-4272 -2878 0
-4272 -2879 0
-4272 -2880 0
-4272 -2881 0
-4272 -2882 0
-4272 -2883 0
-4272 -2884 0
-4272 -2885 0
-4272 -2886 0
-4272 -2887 0
-4272 -2888 0
-4272 -2889 0
-4272 -2890 0
-4272 -2891 0
-4272 -2892 0
-4272 -2893 0
-4272 -2894 0
-4272 -2895 0
-4272 -2896 0
-4272 -2897 0
-4272 -2898 0
-4272 -2899 0
-4272 -2900 0
-4272 -2901 0
-4272 -2902 0
-4272 -2903 0
-4272 -2904 0
-4272 -2905 0
-4272 -2906 0
-4272 -2907 0
-4272 -2908 0
-4272 -2909 0
-4272 -2910 0
-4272 -2911 0
-4272 -2912 0
-4272 -2913 0
-4272 -2914 0
-4272 -2915 0
-4272 -2916 0
-4272 -2917 0
-4272 -2918 0
-4272 -2919 0
-4272 -2920 0
-4272 -2921 0
-4272 -2922 0
-4272 -2923 0
-4272 -2924 0
-4272 -2925 0
-4272 -2926 0
-4272 -2927 0
-4272 -2928 0
-4272 -2929 0
-4272 -2930 0
-4272 -2931 0
-4272 -2932 0
-4272 -2933 0
-4272 -2934 0
-4272 -2935 0
-4272 -2936 0
-4272 -2937 0
-4272 -2938 0
-4272 -2939 0
-4272 -2940 0
-4272 -2941 0
-4272 -2942 0
-4272 -2943 0
-4272 -2944 0
-4272 -2945 0
-4272 -2946 0
-4272 -2947 0
-4272 -2948 0
-4272 -2949 0
-4272 -2950 0
-4272 -2951 0
-4272 -2952 0
-4272 -2953 0
-4272 -2954 0
-4272 -2955 0
-4272 -2956 0
-4272 -2957 0
-4272 -2958 0
-4272 -2959 0
-4272 -2960 0
-4272 -2961 0
-4272 -2962 0
-4272 -2963 0
-4272 -2964 0
-4272 -2965 0
-4272 -2966 0
-4272 -2967 0
-4272 -2968 0
-4272 -2969 0
-4272 -2970 0
-4272 -2971 0
-4272 -2972 0
-4272 -2973 0
-4272 -2974 0
-4272 -2975 0
-4272 -2976 0
-4272 -2977 0
-4272 -2978 0
-4272 -2979 0
-4272 -2980 0
-4272 -2981 0
-4272 -2982 0
-4272 -2983 0
-4272 -2984 0
-4272 -2985 0
-4272 -2986 0
-4272 -2987 0
-4272 -2988 0
-4272 -2989 0
-4272 -2990 0
-4272 -2991 0
-4272 -2992 0
-4272 -2993 0
-4272 -2994 0
-4272 -2995 0
-4272 -2996 0
-4272 -2997 0
-4272 -2998 0
-4272 -2999 0
-4272 -3000 0
-4272 -3001 0
-4272 -3002 0
-4272 -3003 0
-4272 -3004 0
-4272 -3005 0
-4272 -3006 0
-4272 -3007 0
-4272 -3008 0
-4272 -3009 0
-4272 -3010 0
-4272 -3011 0
-4272 -3012 0
-4272 -3013 0
-4272 -3014 0
-4272 -3015 0
-4272 -3016 0
-4272 -3017 0
-4272 -3018 0
-4272 -3019 0
-4272 -3020 0
-4272 -3021 0
-4272 -3022 0
-4272 -3023 0
-4272 -3024 0
-4272 -3025 0
-4272 -3026 0
-4272 -3027 0
-4272 -3028 0
-4272 -3029 0
-4272 -3030 0
-4272 -3031 0
-4272 -3032 0
-4272 -3033 0
-4272 -3034 0
-4272 -3035 0
-4272 -3036 0
-4272 -3037 0
-4272 -3038 0
-4272 -3039 0
-4272 -3040 0
-4272 -3041 0
-4272 -3042 0
-4272 -3043 0
-4272 -3044 0
-4272 -3045 0
-4272 -3046 0
-4272 -3047 0
-4272 -3048 0
-4272 -3049 0
-4272 -3050 0
-4272 -3051 0
-4272 -3052 0
-4272 -3053 0
-4272 -3054 0
-4272 -3055 0
-4272 -3056 0
-4272 -3057 0
-4272 -3058 0
-4272 -3059 0
-4272 -3060 0
-4272 -3061 0
-4272 -3062 0
-4272 -3063 0
-4272 -3064 0
-4272 -3065 0
-4272 -3066 0
-4272 -3067 0
-4272 -3068 0
-4272 -3069 0
-4272 -3070 0
-4272 -3071 0
-4272 -3072 0
-4272 -3073 0
-4272 -3074 0
-4272 -3075 0
-4272 -3076 0
-4272 -3077 0
-4272 -3078 0
-4272 -3079 0
-4272 -3080 0
-4272 -3081 0
-4272 -3082 0
-4272 -3083 0
-4272 -3084 0
-4272 -3085 0
-4272 -3086 0
-4272 -3087 0
-4272 -3088 0
-4272 -3089 0
-4272 -3090 0
-4272 -3091 0
-4272 -3092 0
-4272 -3093 0
-4272 -3094 0
-4272 -3095 0
-4272 -3096 0
-4272 -3097 0
-4272 -3098 0
-4272 -3099 0
-4272 -3100 0
-4272 -3101 0
-4272 -3102 0
-4272 -3103 0
-4272 -3104 0
-4272 -3105 0
-4272 -3106 0
-4272 -3107 0
-4272 -3108 0
-4272 -3109 0
-4272 -3110 0
-4272 -3111 0
-4272 -3112 0
-4272 -3113 0
-4272 -3114 0
-4272 -3115 0
-4272 -3116 0
-4272 -3117 0
-4272 -3118 0
-4272 -3119 0
-4272 -3120 0
-4272 -3121 0
-4272 -3122 0
-4272 -3123 0
-4272 -3124 0
-4272 -3125 0
-4272 -3126 0
-4272 -3127 0
-4272 -3128 0
-4272 -3129 0
-4272 -3130 0
-4272 -3131 0
-4272 -3132 0
-4272 -3133 0
-4272 -3134 0
-4272 -3135 0
-4272 -3136 0
-4272 -3137 0
-4272 -3138 0
-4272 -3139 0
-4272 -3140 0
-4272 -3141 0
-4272 -3142 0
-4272 -3143 0
-4272 -3144 0
-4272 -3145 0
-4272 -3146 0
-4272 -3147 0
-4272 -3148 0
-4272 -3149 0
-4272 -3150 0
-4272 -3151 0
-4272 -3152 0
-4272 -3153 0
-4272 -3154 0
-4272 -3155 0
-4272 -3156 0
-4272 -3157 0
-4272 -3158 0
-4272 -3159 0
-4272 -3160 0
-4272 -3161 0
-4272 -3162 0
-4272 -3163 0
-4272 -3164 0
-4272 -3165 0
-4272 -3166 0
-4272 -3167 0
-4272 -3168 0
-4272 -3169 0
-4272 -3170 0
-4272 -3171 0
-4272 -3172 0
-4272 -3173 0
-4272 -3174 0
-4272 -3175 0
-4272 -3176 0
-4272 -3177 0
-4272 -3178 0
-4272 -3179 0
-4272 -3180 0
-4272 -3181 0
-4272 -3182 0
-4272 -3183 0
-4272 -3184 0
-4272 -3185 0
-4272 -3186 0
-4272 -3187 0
-4272 -3188 0
-4272 -3189 0
-4272 -3190 0
-4272 -3191 0
-4272 -3192 0
-4272 -3193 0
-4272 -3194 0
-4272 -3195 0
-4272 -3196 0
-4272 -3197 0
-4272 -3198 0
-4272 -3199 0
-4272 -3200 0
-4272 -3201 0
-4272 -3202 0
-4272 -3203 0
-4272 -3204 0
-4272 -3205 0
-4272 -3206 0
-4272 -3207 0
-4272 -3208 0
-4272 -3209 0
-4272 -3210 0
-4272 -3211 0
-4272 -3212 0
-4272 -3213 0
-4272 -3214 0
-4272 -3215 0
-4272 -3216 0
-4272 -3217 0
-4272 -3218 0
-4272 -3219 0
-4272 -3220 0
-4272 -3221 0
-4272 -3222 0
-4272 -3223 0
-4272 -3224 0
-4272 -3225 0
-4272 -3226 0
-4272 -3227 0
-4272 -3228 0
-4272 -3229 0
-4272 -3230 0
-4272 -3231 0
-4272 -3232 0
-4272 -3233 0
-4272 -3234 0
-4272 -3235 0
-4272 -3236 0
-4272 -3237 0
-4272 -3238 0
-4272 -3239 0
-4272 -3240 0
-4272 -3241 0
-4272 -3242 0
-4272 -3243 0
-4272 -3244 0
-4272 -3245 0
-4272 -3246 0
-4272 -3247 0
-4272 -3248 0
-4272 -3249 0
-4272 -3250 0
-4272 -3251 0
-4272 -3252 0
-4272 -3253 0
-4272 -3254 0
-4272 -3255 0
-4272 -3256 0
-4272 -3257 0
-4272 -3258 0
-4272 -3259 0
-4272 -3260 0
-4272 -3261 0
-4272 -3262 0
-4272 -3263 0
-4272 -3264 0
-4272 -3265 0
-4272 -3266 0
-4272 -3267 0
-4272 -3268 0
-4272 -3269 0
-4272 -3270 0
-4272 -3271 0
-4272 -3272 0
-4272 -3273 0
-4272 -3274 0
-4272 -3275 0
-4272 -3276 0
-4272 -3277 0
-4272 -3278 0
-4272 -3279 0
-4272 -3280 0
-4272 -3281 0
-4272 -3282 0
-4272 -3283 0
-4272 -3284 0
-4272 -3285 0
-4272 -3286 0
-4272 -3287 0
-4272 -3288 0
-4272 -3289 0
-4272 -3290 0
-4272 -3291 0
-4272 -3292 0
-4272 -3293 0
-4272 -3294 0
-4272 -3295 0
-4272 -3296 0
-4272 -3297 0
-4272 -3298 0
-4272 -3299 0
-4272 -3300 0
-4272 -3301 0
-4272 -3302 0
-4272 -3303 0
-4272 -3304 0
-4272 -3305 0
-4272 -3306 0
-4272 -3307 0
-4272 -3308 0
-4272 -3309 0
-4272 -3310 0
-4272 -3311 0
-4272 -3312 0
-4272 -3313 0
-4272 -3314 0
-4272 -3315 0
-4272 -3316 0
-4272 -3317 0
-4272 -3318 0
-4272 -3319 0
-4272 -3320 0
-4272 -3321 0
-4272 -3322 0
-4272 -3323 0
-4272 -3324 0
-4272 -3325 0
-4272 -3326 0
-4272 -3327 0
-4272 -3328 0
-4272 -3329 0
-4272 -3330 0
-4272 -3331 0
-4272 -3332 0
-4272 -3333 0
-4272 -3334 0
-4272 -3335 0
-4272 -3336 0
-4272 -3337 0
-4272 -3338 0
-4272 -3339 0
-4272 -3340 0
-4272 -3341 0
-4272 -3342 0
-4272 -3343 0
-4272 -3344 0
-4272 -3345 0
-4272 -3346 0
-4272 -3347 0
-4272 -3348 0
-4272 -3349 0
-4272 -3350 0
-4272 -3351 0
-4272 -3352 0
-4272 -3353 0
-4272 -3354 0
-4272 -3355 0
-4272 -3356 0
-4272 -3357 0
-4272 -3358 0
-4272 -3359 0
-4272 -3360 0
-4272 -3361 0
-4272 -3362 0
-4272 -3363 0
-4272 -3364 0
-4272 -3365 0
-4272 -3366 0
-4272 -3367 0
-4272 -3368 0
-4272 -3369 0
-4272 -3370 0
-4272 -3371 0
-4272 -3372 0
-4272 -3373 0
-4272 -3374 0
-4272 -3375 0
-4272 -3376 0
-4272 -3377 0
-4272 -3378 0
-4272 -3379 0
-4272 -3380 0
-4272 -3381 0
-4272 -3382 0
-4272 -3383 0
-4272 -3384 0
-4272 -3385 0
-4272 -3386 0
-4272 -3387 0
-4272 -3388 0
-4272 -3389 0
-4272 -3390 0
-4272 -3391 0
-4272 -3392 0
-4272 -3393 0
-4272 -3394 0
-4272 -3395 0
-4272 -3396 0
-4272 -3397 0
-4272 -3398 0
-4272 -3399 0
-4272 -3400 0
-4272 -3401 0
-4272 -3402 0
-4272 -3403 0
-4272 -3404 0
-4272 -3405 0
-4272 -3406 0
-4272 -3407 0
-4272 -3408 0
-4272 -3409 0
-4272 -3410 0
-4272 -3411 0
-4272 -3412 0
-4272 -3413 0
-4272 -3414 0
-4272 -3415 0
-4272 -3416 0
-4272 -3417 0
-4272 -3418 0
-4272 -3419 0
-4272 -3420 0
-4272 -3421 0
-4272 -3422 0
-4272 -3423 0
-4272 -3424 0
-4272 -3425 0
-4272 -3426 0
-4272 -3427 0
-4272 -3428 0
-4272 -3429 0
-4272 -3430 0
-4272 -3431 0
-4272 -3432 0
-4272 -3433 0
-4272 -3434 0
-4272 -3435 0
-4272 -3436 0
-4272 -3437 0
-4272 -3438 0
-4272 -3439 0
-4272 -3440 0
-4272 -3441 0
-4272 -3442 0
-4272 -3443 0
-4272 -3444 0
-4272 -3445 0
-4272 -3446 0
-4272 -3447 0
-4272 -3448 0
-4272 -3449 0
-4272 -3450 0
-4272 -3451 0
-4272 -3452 0
-4272 -3453 0
-4272 -3454 0
-4272 -3455 0
-4272 -3456 0
-4272 -3457 0
-4272 -3458 0
-4272 -3459 0
-4272 -3460 0
-4272 -3461 0
-4272 -3462 0
-4272 -3463 0
-4272 -3464 0
-4272 -3465 0
-4272 -3466 0
-4272 -3467 0
-4272 -3468 0
-4272 -3469 0
-4272 -3470 0
-4272 -3471 0
-4272 -3472 0
-4272 -3473 0
-4272 -3474 0
-4272 -3475 0
-4272 -3476 0
-4272 -3477 0
-4272 -3478 0
-4272 -3479 0
-4272 -3480 0
-4272 -3481 0
-4272 -3482 0
-4272 -3483 0
-4272 -3484 0
-4272 -3485 0
-4272 -3486 0
-4272 -3487 0
-4272 -3488 0
-4272 -3489 0
-4272 -3490 0
-4272 -3491 0
-4272 -3492 0
-4272 -3493 0
-4272 -3494 0
-4272 -3495 0
-4272 -3496 0
-4272 -3497 0
-4272 -3498 0
-4272 -3499 0
-4272 -3500 0
-4272 -3501 0
-4272 -3502 0
-4272 -3503 0
-4272 -3504 0
-4272 -3505 0
-4272 -3506 0
-4272 -3507 0
-4272 -3508 0
-4272 -3509 0
-4272 -3510 0
-4272 -3511 0
-4272 -3512 0
-4272 -3513 0
-4272 -3514 0
-4272 -3515 0
-4272 -3516 0
-4272 -3517 0
-4272 -3518 0
-4272 -3519 0
-4272 -3520 0
-4272 -3521 0
-4272 -3522 0
-4272 -3523 0
-4272 -3524 0
-4272 -3525 0
-4272 -3526 0
-4272 -3527 0
-4272 -3528 0
-4272 -3529 0
-4272 -3530 0
-4272 -3531 0
-4272 -3532 0
-4272 -3533 0
-4272 -3534 0
-4272 -3535 0
-4272 -3536 0
-4272 -3537 0
-4272 -3538 0
-4272 -3539 0
-4272 -3540 0
-4272 -3541 0
-4272 -3542 0
-4272 -3543 0
-4272 -3544 0
-4272 -3545 0
-4272 -3546 0
-4272 -3547 0
-4272 -3548 0
-4272 -3549 0
-4272 -3550 0
-4272 -3551 0
-4272 -3552 0
-4272 -3553 0
-4272 -3554 0
-4272 -3555 0
-4272 -3556 0
-4272 -3557 0
-4272 -3558 0
-4272 -3559 0
-4272 -3560 0
-4272 -3561 0
-4272 -3562 0
-4272 -3563 0
-4272 -3564 0
-4272 -3565 0
-4272 -3566 0
-4272 -3567 0
-4272 -3568 0
-4272 -3569 0
-4272 -3570 0
-4272 -3571 0
-4272 -3572 0
-4272 -3573 0
-4272 -3574 0
-4272 -3575 0
-4272 -3576 0
-4272 -3577 0
-4272 -3578 0
-4272 -3579 0
-4272 -3580 0
-4272 -3581 0
-4272 -3582 0
-4272 -3583 0
-4272 -3584 0
-4272 -3585 0
-4272 -3586 0
-4272 -3587 0
-4272 -3588 0
-4272 -3589 0
-4272 -3590 0
-4272 -3591 0
-4272 -3592 0
-4272 -3593 0
-4272 -3594 0
-4272 -3595 0
-4272 -3596 0
-4272 -3597 0
-4272 -3598 0
-4272 -3599 0
-4272 -3600 0
-4272 -3601 0
-4272 -3602 0
-4272 -3603 0
-4272 -3604 0
-4272 -3605 0
-4272 -3606 0
-4272 -3607 0
-4272 -3608 0
-4272 -3609 0
-4272 -3610 0
-4272 -3611 0
-4272 -3612 0
-4272 -3613 0
-4272 -3614 0
-4272 -3615 0
-4272 -3616 0
-4272 -3617 0
-4272 -3618 0
-4272 -3619 0
-4272 -3620 0
-4272 -3621 0
-4272 -3622 0
-4272 -3623 0
-4272 -3624 0
-4272 -3625 0
-4272 -3626 0
-4272 -3627 0
-4272 -3628 0
-4272 -3629 0
-4272 -3630 0
-4272 -3631 0
-4272 -3632 0
-4272 -3633 0
-4272 -3634 0
-4272 -3635 0
-4272 -3636 0
-4272 -3637 0
-4272 -3638 0
-4272 -3639 0
-4272 -3640 0
-4272 -3641 0
-4272 -3642 0
-4272 -3643 0
-4272 -3644 0
-4272 -3645 0
-4272 -3646 0
-4272 -3647 0
-4272 -3648 0
-4272 -3649 0
-4272 -3650 0
-4272 -3651 0
-4272 -3652 0
-4272 -3653 0
-4272 -3654 0
-4272 -3655 0
-4272 -3656 0
-4272 -3657 0
-4272 -3658 0
-4272 -3659 0
-4272 -3660 0
-4272 -3661 0
-4272 -3662 0
-4272 -3663 0
-4272 -3664 0
-4272 -3665 0
-4272 -3666 0
-4272 -3667 0
-4272 -3668 0
-4272 -3669 0
-4272 -3670 0
-4272 -3671 0
-4272 -3672 0
-4272 -3673 0
-4272 -3674 0
-4272 -3675 0
-4272 -3676 0
-4272 -3677 0
-4272 -3678 0
-4272 -3679 0
-4272 -3680 0
-4272 -3681 0
-4272 -3682 0
-4272 -3683 0
-4272 -3684 0
-4272 -3685 0
-4272 -3686 0
-4272 -3687 0
-4272 -3688 0
-4272 -3689 0
-4272 -3690 0
-4272 -3691 0
-4272 -3692 0
-4272 -3693 0
-4272 -3694 0
-4272 -3695 0
-4272 -3696 0
-4272 -3697 0
-4272 -3698 0
-4272 -3699 0
-4272 -3700 0
-4272 -3701 0
-4272 -3702 0
-4272 -3703 0
-4272 -3704 0
-4272 -3705 0
-4272 -3706 0
-4272 -3707 0
-4272 -3708 0
-4272 -3709 0
-4272 -3710 0
-4272 -3711 0
-4272 -3712 0
-4272 -3713 0
-4272 -3714 0
-4272 -3715 0
-4272 -3716 0
-4272 -3717 0
-4272 -3718 0
-4272 -3719 0
-4272 -3720 0
-4272 -3721 0
-4272 -3722 0
-4272 -3723 0
-4272 -3724 0
-4272 -3725 0
-4272 -3726 0
-4272 -3727 0
-4272 -3728 0
-4272 -3729 0
-4272 -3730 0
-4272 -3731 0
-4272 -3732 0
-4272 -3733 0
-4272 -3734 0
-4272 -3735 0
-4272 -3736 0
-4272 -3737 0
-4272 -3738 0
-4272 -3739 0
-4272 -3740 0
-4272 -3741 0
-4272 -3742 0
-4272 -3743 0
-4272 -3744 0
-4272 -3745 0
-4272 -3746 0
-4272 -3747 0
-4272 -3748 0
-4272 -3749 0
-4272 -3750 0
-4272 -3751 0
-4272 -3752 0
-4272 -3753 0
-4272 -3754 0
-4272 -3755 0
-4272 -3756 0
-4272 -3757 0
-4272 -3758 0
-4272 -3759 0
-4272 -3760 0
-4272 -3761 0
-4272 -3762 0
-4272 -3763 0
-4272 -3764 0
-4272 -3765 0
-4272 -3766 0
-4272 -3767 0
-4272 -3768 0
-4272 -3769 0
-4272 -3770 0
-4272 -3771 0
-4272 -3772 0
-4272 -3773 0
-4272 -3774 0
-4272 -3775 0
-4272 -3776 0
-4272 -3777 0
-4272 -3778 0
-4272 -3779 0
-4272 -3780 0
-4272 -3781 0
-4272 -3782 0
-4272 -3783 0
-4272 -3784 0
-4272 -3785 0
-4272 -3786 0
-4272 -3787 0
-4272 -3788 0
-4272 -3789 0
-4272 -3790 0
-4272 -3791 0
-4272 -3792 0
-4272 -3793 0
-4272 -3794 0
-4272 -3795 0
-4272 -3796 0
-4272 -3797 0
-4272 -3798 0
-4272 -3799 0
-4272 -3800 0
-4272 -3801 0
-4272 -3802 0
-4272 -3803 0
-4272 -3804 0
-4272 -3805 0
-4272 -3806 0
-4272 -3807 0
-4272 -3808 0
-4272 -3809 0
-4272 -3810 0
-4272 -3811 0
-4272 -3812 0
-4272 -3813 0
-4272 -3814 0
-4272 -3815 0
-4272 -3816 0
-4272 -3817 0
-4272 -3818 0
-4272 -3819 0
-4272 -3820 0
-4272 -3821 0
-4272 -3822 0
-4272 -3823 0
-4272 -3824 0
-4272 -3825 0
-4272 -3826 0
-4272 -3827 0
-4272 -3828 0
-4272 -3829 0
-4272 -3830 0
-4272 -3831 0
-4272 -3832 0
-4272 -3833 0
-4272 -3834 0
-4272 -3835 0
-4272 -3836 0
-4272 -3837 0
-4272 -3838 0
-4272 -3839 0
-4272 -3840 0
-4272 -3841 0
-4272 -3842 0
-4272 -3843 0
-4272 -3844 0
-4272 -3845 0
-4272 -3846 0
-4272 -3847 0
-4272 -3848 0
-4272 -3849 0
-4272 -3850 0
-4272 -3851 0
-4272 -3852 0
-4272 -3853 0
-4272 -3854 0
-4272 -3855 0
-4272 -3856 0
-4272 -3857 0
-4272 -3858 0
-4272 -3859 0
-4272 -3860 0
-4272 -3861 0
-4272 -3862 0
-4272 -3863 0
-4272 -3864 0
-4272 -3865 0
-4272 -3866 0
-4272 -3867 0
-4272 -3868 0
-4272 -3869 0
-4272 -3870 0
-4272 -3871 0
-4272 -3872 0
-4272 -3873 0
-4272 -3874 0
-4272 -3875 0
-4272 -3876 0
-4272 -3877 0
-4272 -3878 0
-4272 -3879 0
-4272 -3880 0
-4272 -3881 0
-4272 -3882 0
-4272 -3883 0
-4272 -3884 0
-4272 -3885 0
-4272 -3886 0
-4272 -3887 0
-4272 -3888 0
-4272 -3889 0
-4272 -3890 0
-4272 -3891 0
-4272 -3892 0
-4272 -3893 0
-4272 -3894 0
-4272 -3895 0
-4272 -3896 0
-4272 -3897 0
-4272 -3898 0
-4272 -3899 0
-4272 -3900 0
-4272 -3901 0
-4272 -3902 0
-4272 -3903 0
-4272 -3904 0
-4272 -3905 0
-4272 -3906 0
-4272 -3907 0
-4272 -3908 0
-4272 -3909 0
-4272 -3910 0
-4272 -3911 0
-4272 -3912 0
-4272 -3913 0
-4272 -3914 0
-4272 -3915 0
-4272 -3916 0
-4272 -3917 0
-4272 -3918 0
-4272 -3919 0
-4272 -3920 0
-4272 -3921 0
-4272 -3922 0
-4272 -3923 0
-4272 -3924 0
-4272 -3925 0
-4272 -3926 0
-4272 -3927 0
-4272 -3928 0
-4272 -3929 0
-4272 -3930 0
-4272 -3931 0
-4272 -3932 0
-4272 -3933 0
-4272 -3934 0
-4272 -3935 0
-4272 -3936 0
-4272 -3937 0
-4272 -3938 0
-4272 -3939 0
-4272 -3940 0
-4272 -3941 0
-4272 -3942 0
-4272 -3943 0
-4272 -3944 0
-4272 -3945 0
-4272 -3946 0
-4272 -3947 0
-4272 -3948 0
-4272 -3949 0
-4272 -3950 0
-4272 -3951 0
-4272 -3952 0
-4272 -3953 0
-4272 -3954 0
-4272 -3955 0
-4272 -3956 0
-4272 -3957 0
-4272 -3958 0
-4272 -3959 0
-4272 -3960 0
-4272 -3961 0
-4272 -3962 0
-4272 -3963 0
-4272 -3964 0
-4272 -3965 0
-4272 -3966 0
-4272 -3967 0
-4272 -3968 0
-4272 -3969 0
-4272 -3970 0
-4272 -3971 0
-4272 -3972 0
-4272 -3973 0
-4272 -3974 0
-4272 -3975 0
-4272 -3976 0
-4272 -3977 0
-4272 -3978 0
-4272 -3979 0
-4272 -3980 0
-4272 -3981 0
-4272 -3982 0
-4272 -3983 0
-4272 -3984 0
-4272 -3985 0
-4272 -3986 0
-4272 -3987 0
-4272 -3988 0
-4272 -3989 0
-4272 -3990 0
-4272 -3991 0
-4272 -3992 0
-4272 -3993 0
-4272 -3994 0
-4272 -3995 0
-4272 -3996 0
-4272 -3997 0
-4272 -3998 0
-4272 -3999 0
-4272 -4000 0
-4272 -4001 0
-4272 -4002 0
-4272 -4003 0
-4272 -4004 0
-4272 -4005 0
-4272 -4006 0
-4272 -4007 0
-4272 -4008 0
-4272 -4009 0
-4272 -4010 0
-4272 -4011 0
-4272 -4012 0
-4272 -4013 0
-4272 -4014 0
-4272 -4015 0
-4272 -4016 0
-4272 -4017 0
-4272 -4018 0
-4272 -4019 0
-4272 -4020 0
-4272 -4021 0
-4272 -4022 0
-4272 -4023 0
-4272 -4024 0
-4272 -4025 0
-4272 -4026 0
-4272 -4027 0
-4272 -4028 0
-4272 -4029 0
-4272 -4030 0
-4272 -4031 0
-4272 -4032 0
-4272 -4033 0
-4272 -4034 0
-4272 -4035 0
-4272 -4036 0
-4272 -4037 0
-4272 -4038 0
-4272 -4039 0
-4272 -4040 0
-4272 -4041 0
-4272 -4042 0
-4272 -4043 0
-4272 -4044 0
-4272 -4045 0
-4272 -4046 0
-4272 -4047 0
-4272 -4048 0
-4272 -4049 0
-4272 -4050 0
-4272 -4051 0
-4272 -4052 0
-4272 -4053 0
-4272 -4054 0
-4272 -4055 0
-4272 -4056 0
-4272 -4057 0
-4272 -4058 0
-4272 -4059 0
-4272 -4060 0
-4272 -4061 0
-4272 -4062 0
-4272 -4063 0
-4272 -4064 0
-4272 -4065 0
-4272 -4066 0
-4272 -4067 0
-4272 -4068 0
-4272 -4069 0
-4272 -4070 0
-4272 -4071 0
-4272 -4072 0
-4272 -4073 0
-4272 -4074 0
-4272 -4075 0
-4272 -4076 0
-4272 -4077 0
-4272 -4078 0
-4272 -4079 0
-4272 -4080 0
-4272 -4081 0
-4272 -4082 0
-4272 -4083 0
-4272 -4084 0
-4272 -4085 0
-4272 -4086 0
-4272 -4087 0
-4272 -4088 0
-4272 -4089 0
-4272 -4090 0
-4272 -4091 0
-4272 -4092 0
-4272 -4093 0
-4272 -4094 0
-4272 -4095 0
-4272 -4096 0
-4272 -4097 0
-4272 -4098 0
-4272 -4099 0
-4272 -4100 0
-4272 -4101 0
-4272 -4102 0
-4272 -4103 0
-4272 -4104 0
-4272 -4105 0
-4272 -4106 0
-4272 -4107 0
-4272 -4108 0
-4272 -4109 0
-4272 -4110 0
-4272 -4111 0
-4272 -4112 0
-4272 -4113 0
-4272 -4114 0
-4272 -4115 0
-4272 -4116 0
-4272 -4117 0
-4272 -4118 0
-4272 -4119 0
-4272 -4120 0
-4272 -4121 0
-4272 -4122 0
-4272 -4123 0
-4272 -4124 0
-4272 -4125 0
-4272 -4126 0
-4272 -4127 0
-4272 -4128 0
-4272 -4129 0
-4272 -4130 0
-4272 -4131 0
-4272 -4132 0
-4272 -4133 0
-4272 -4134 0
-4272 -4135 0
-4272 -4136 0
-4272 -4137 0
-4272 -4138 0
-4272 -4139 0
-4272 -4140 0
-4272 -4141 0
-4272 -4142 0
-4272 -4143 0
-4272 -4144 0
-4272 -4145 0
-4272 -4146 0
-4272 -4147 0
-4272 -4148 0
-4272 -4149 0
-4272 -4150 0
-4272 -4151 0
-4272 -4152 0
-4272 -4153 0
-4272 -4154 0
-4272 -4155 0
-4272 -4156 0
-4272 -4157 0
-4272 -4158 0
-4272 -4159 0
-4272 -4160 0
-4272 -4161 0
-4272 -4162 0
-4272 -4163 0
-4272 -4164 0
-4272 -4165 0
-4272 -4166 0
-4272 -4167 0
-4272 -4168 0
-4272 -4169 0
-4272 -4170 0
-4272 -4171 0
-4272 -4172 0
-4272 -4173 0
-4272 -4174 0
-4272 -4175 0
-4272 -4176 0
-4272 -4177 0
-4272 -4178 0
-4272 -4179 0
-4272 -4180 0
-4272 -4181 0
-4272 -4182 0
-4272 -4183 0
-4272 -4184 0
-4272 -4185 0
-4272 -4186 0
-4272 -4187 0
-4272 -4188 0
-4272 -4189 0
-4272 -4190 0
-4272 -4191 0
-4272 -4192 0
-4272 -4193 0
-4272 -4194 0
-4272 -4195 0
-4272 -4196 0
-4272 -4197 0
-4272 -4198 0
-4272 -4199 0
-4272 -4200 0
-4272 -4201 0
-4272 -4202 0
-4272 -4203 0
-4272 -4204 0
-4272 -4205 0
-4272 -4206 0
-4272 -4207 0
-4272 -4208 0
-4272 -4209 0
-4272 -4210 0
-4272 -4211 0
-4272 -4212 0
-4272 -4213 0
-4272 -4214 0
-4272 -4215 0
-4272 -4216 0
-4272 -4217 0
-4272 -4218 0
-4272 -4219 0
-4272 -4220 0
-4272 -4221 0
-4272 -4222 0
-4272 -4223 0
-4272 -4224 0
-4272 -4225 0
-4272 -4226 0
-4272 -4227 0
-4272 -4228 0
-4272 -4229 0
-4272 -4230 0
-4272 -4231 0
-4272 -4232 0
-4272 -4233 0
-4272 -4234 0
-4272 -4235 0
-4272 -4236 0
-4272 -4237 0
-4272 -4238 0
-4272 -4239 0
-4272 -4240 0
-4272 -4241 0
-4272 -4242 0
-4272 -4243 0
-4272 -4244 0
-4272 -4245 0
-4272 -4246 0
-4272 -4247 0
-4272 -4248 0
-4272 -4249 0
-4272 -4250 0
-4272 -4251 0
-4272 -4252 0
-4272 -4253 0
-4272 -4254 0
-4272 -4255 0
-4272 -4256 0
-4272 -4257 0
-4272 -4258 0
-4272 -4259 0
-4272 -4260 0
-4272 -4261 0
-4272 -4262 0
-4272 -4263 0
-4272 -4264 0
-4272 -4265 0
-4272 -4266 0
-4272 -4267 0
-4272 -4268 0
-4272 -4269 0
-4272 -4270 0
-4272 -4271 0
4272 175 176 177 178 179 180 181 182 183 184 185 186 187 188 189 190 191 192 193 194 195 196 197 198 199 200 201 202 203 204 205 206 207 208 209 210 211 212 213 214 215 216 217 218 219 220 221 222 223 224 225 226 227 228 229 230 231 232 233 234 235 236 237 238 239 240 241 242 243 244 245 246 247 248 249 250 251 252 253 254 255 256 257 258 259 260 261 262 263 264 265 266 267 268 269 270 271 272 273 274 275 276 277 278 279 280 281 282 283 284 285 286 287 288 289 290 291 292 293 294 295 296 297 298 299 300 301 302 303 304 305 306 307 308 309 310 311 312 313 314 315 316 317 318 319 320 321 322 323 324 325 326 327 328 329 330 331 332 333 334 335 336 337 338 339 340 341 342 343 344 345 346 347 348 349 350 351 352 353 354 355 356 357 358 359 360 361 362 363 364 365 366 367 368 369 370 371 372 373 374 375 376 377 378 379 380 381 382 383 384 385 386 387 388 389 390 391 392 393 394 395 396 397 398 399 400 401 402 403 404 405 406 407 408 409 410 411 412 413 414 415 416 417 418 419 420 421 422 423 424 425 426 427 428 429 430 431 432 433 434 435 436 437 438 439 440 441 442 443 444 445 446 447 448 449 450 451 452 453 454 455 456 457 458 459 460 461 462 463 464 465 466 467 468 469 470 471 472 473 474 475 476 477 478 479 480 481 482 483 484 485 486 487 488 489 490 491 492 493 494 495 496 497 498 499 500 501 502 503 504 505 506 507 508 509 510 511 512 513 514 515 516 517 518 519 520 521 522 523 524 525 526 527 528 529 530 531 532 533 534 535 536 537 538 539 540 541 542 543 544 545 546 547 548 549 550 551 552 553 554 555 556 557 558 559 560 561 562 563 564 565 566 567 568 569 570 571 572 573 574 575 576 577 578 579 580 581 582 583 584 585 586 587 588 589 590 591 592 593 594 595 596 597 598 599 600 601 602 603 604 605 606 607 608 609 610 611 612 613 614 615 616 617 618 619 620 621 622 623 624 625 626 627 628 629 630 631 632 633 634 635 636 637 638 639 640 641 642 643 644 645 646 647 648 649 650 651 652 653 654 655 656 657 658 659 660 661 662 663 664 665 666 667 668 669 670 671 672 673 674 675 676 677 678 679 680 681 682 683 684 685 686 687 688 689 690 691 692 693 694 695 696 697 698 699 700 701 702 703 704 705 706 707 708 709 710 711 712 713 714 715 716 717 718 719 720 721 722 723 724 725 726 727 728 729 730 731 732 733 734 735 736 737 738 739 740 741 742 743 744 745 746 747 748 749 750 751 752 753 754 755 756 757 758 759 760 761 762 763 764 765 766 767 768 769 770 771 772 773 774 775 776 777 778 779 780 781 782 783 784 785 786 787 788 789 790 791 792 793 794 795 796 797 798 799 800 801 802 803 804 805 806 807 808 809 810 811 812 813 814 815 816 817 818 819 820 821 822 823 824 825 826 827 828 829 830 831 832 833 834 835 836 837 838 839 840 841 842 843 844 845 846 847 848 849 850 851 852 853 854 855 856 857 858 859 860 861 862 863 864 865 866 867 868 869 870 871 872 873 874 875 876 877 878 879 880 881 882 883 884 885 886 887 888 889 890 891 892 893 894 895 896 897 898 899 900 901 902 903 904 905 906 907 908 909 910 911 912 913 914 915 916 917 918 919 920 921 922 923 924 925 926 927 928 929 930 931 932 933 934 935 936 937 938 939 940 941 942 943 944 945 946 947 948 949 950 951 952 953 954 955 956 957 958 959 960 961 962 963 964 965 966 967 968 969 970 971 972 973 974 975 976 977 978 979 980 981 982 983 984 985 986 987 988 989 990 991 992 993 994 995 996 997 998 999 1000 1001 1002 1003 1004 1005 1006 1007 1008 1009 1010 1011 1012 1013 1014 1015 1016 1017 1018 1019 1020 1021 1022 1023 1024 1025 1026 1027 1028 1029 1030 1031 1032 1033 1034 1035 1036 1037 1038 1039 1040 1041 1042 1043 1044 1045 1046 1047 1048 1049 1050 1051 1052 1053 1054 1055 1056 1057 1058 1059 1060 1061 1062 1063 1064 1065 1066 1067 1068 1069 1070 1071 1072 1073 1074 1075 1076 1077 1078 1079 1080 1081 1082 1083 1084 1085 1086 1087 1088 1089 1090 1091 1092 1093 1094 1095 1096 1097 1098 1099 1100 1101 1102 1103 1104 1105 1106 1107 1108 1109 1110 1111 1112 1113 1114 1115 1116 1117 1118 1119 1120 1121 1122 1123 1124 1125 1126 1127 1128 1129 1130 1131 1132 1133 1134 1135 1136 1137 1138 1139 1140 1141 1142 1143 1144 1145 1146 1147 1148 1149 1150 1151 1152 1153 1154 1155 1156 1157 1158 1159 1160 1161 1162 1163 1164 1165 1166 1167 1168 1169 1170 1171 1172 1173 1174 1175 1176 1177 1178 1179 1180 1181 1182 1183 1184 1185 1186 1187 1188 1189 1190 1191 1192 1193 1194 1195 1196 1197 1198 1199 1200 1201 1202 1203 1204 1205 1206 1207 1208 1209 1210 1211 1212 1213 1214 1215 1216 1217 1218 1219 1220 1221 1222 1223 1224 1225 1226 1227 1228 1229 1230 1231 1232 1233 1234 1235 1236 1237 1238 1239 1240 1241 1242 1243 1244 1245 1246 1247 1248 1249 1250 1251 1252 1253 1254 1255 1256 1257 1258 1259 1260 1261 1262 1263 1264 1265 1266 1267 1268 1269 1270 1271 1272 1273 1274 1275 1276 1277 1278 1279 1280 1281 1282 1283 1284 1285 1286 1287 1288 1289 1290 1291 1292 1293 1294 1295 1296 1297 1298 1299 1300 1301 1302 1303 1304 1305 1306 1307 1308 1309 1310 1311 1312 1313 1314 1315 1316 1317 1318 1319 1320 1321 1322 1323 1324 1325 1326 1327 1328 1329 1330 1331 1332 1333 1334 1335 1336 1337 1338 1339 1340 1341 1342 1343 1344 1345 1346 1347 1348 1349 1350 1351 1352 1353 1354 1355 1356 1357 1358 1359 1360 1361 1362 1363 1364 1365 1366 1367 1368 1369 1370 1371 1372 1373 1374 1375 1376 1377 1378 1379 1380 1381 1382 1383 1384 1385 1386 1387 1388 1389 1390 1391 1392 1393 1394 1395 1396 1397 1398 1399 1400 1401 1402 1403 1404 1405 1406 1407 1408 1409 1410 1411 1412 1413 1414 1415 1416 1417 1418 1419 1420 1421 1422 1423 1424 1425 1426 1427 1428 1429 1430 1431 1432 1433 1434 1435 1436 1437 1438 1439 1440 1441 1442 1443 1444 1445 1446 1447 1448 1449 1450 1451 1452 1453 1454 1455 1456 1457 1458 1459 1460 1461 1462 1463 1464 1465 1466 1467 1468 1469 1470 1471 1472 1473 1474 1475 1476 1477 1478 1479 1480 1481 1482 1483 1484 1485 1486 1487 1488 1489 1490 1491 1492 1493 1494 1495 1496 1497 1498 1499 1500 1501 1502 1503 1504 1505 1506 1507 1508 1509 1510 1511 1512 1513 1514 1515 1516 1517 1518 1519 1520 1521 1522 1523 1524 1525 1526 1527 1528 1529 1530 1531 1532 1533 1534 1535 1536 1537 1538 1539 1540 1541 1542 1543 1544 1545 1546 1547 1548 1549 1550 1551 1552 1553 1554 1555 1556 1557 1558 1559 1560 1561 1562 1563 1564 1565 1566 1567 1568 1569 1570 1571 1572 1573 1574 1575 1576 1577 1578 1579 1580 1581 1582 1583 1584 1585 1586 1587 1588 1589 1590 1591 1592 1593 1594 1595 1596 1597 1598 1599 1600 1601 1602 1603 1604 1605 1606 1607 1608 1609 1610 1611 1612 1613 1614 1615 1616 1617 1618 1619 1620 1621 1622 1623 1624 1625 1626 1627 1628 1629 1630 1631 1632 1633 1634 1635 1636 1637 1638 1639 1640 1641 1642 1643 1644 1645 1646 1647 1648 1649 1650 1651 1652 1653 1654 1655 1656 1657 1658 1659 1660 1661 1662 1663 1664 1665 1666 1667 1668 1669 1670 1671 1672 1673 1674 1675 1676 1677 1678 1679 1680 1681 1682 1683 1684 1685 1686 1687 1688 1689 1690 1691 1692 1693 1694 1695 1696 1697 1698 1699 1700 1701 1702 1703 1704 1705 1706 1707 1708 1709 1710 1711 1712 1713 1714 1715 1716 1717 1718 1719 1720 1721 1722 1723 1724 1725 1726 1727 1728 1729 1730 1731 1732 1733 1734 1735 1736 1737 1738 1739 1740 1741 1742 1743 1744 1745 1746 1747 1748 1749 1750 1751 1752 1753 1754 1755 1756 1757 1758 1759 1760 1761 1762 1763 1764 1765 1766 1767 1768 1769 1770 1771 1772 1773 1774 1775 1776 1777 1778 1779 1780 1781 1782 1783 1784 1785 1786 1787 1788 1789 1790 1791 1792 1793 1794 1795 1796 1797 1798 1799 1800 1801 1802 1803 1804 1805 1806 1807 1808 1809 1810 1811 1812 1813 1814 1815 1816 1817 1818 1819 1820 1821 1822 1823 1824 1825 1826 1827 1828 1829 1830 1831 1832 1833 1834 1835 1836 1837 1838 1839 1840 1841 1842 1843 1844 1845 1846 1847 1848 1849 1850 1851 1852 1853 1854 1855 1856 1857 1858 1859 1860 1861 1862 1863 1864 1865 1866 1867 1868 1869 1870 1871 1872 1873 1874 1875 1876 1877 1878 1879 1880 1881 1882 1883 1884 1885 1886 1887 1888 1889 1890 1891 1892 1893 1894 1895 1896 1897 1898 1899 1900 1901 1902 1903 1904 1905 1906 1907 1908 1909 1910 1911 1912 1913 1914 1915 1916 1917 1918 1919 1920 1921 1922 1923 1924 1925 1926 1927 1928 1929 1930 1931 1932 1933 1934 1935 1936 1937 1938 1939 1940 1941 1942 1943 1944 1945 1946 1947 1948 1949 1950 1951 1952 1953 1954 1955 1956 1957 1958 1959 1960 1961 1962 1963 1964 1965 1966 1967 1968 1969 1970 1971 1972 1973 1974 1975 1976 1977 1978 1979 1980 1981 1982 1983 1984 1985 1986 1987 1988 1989 1990 1991 1992 1993 1994 1995 1996 1997 1998 1999 2000 2001 2002 2003 2004 2005 2006 2007 2008 2009 2010 2011 2012 2013 2014 2015 2016 2017 2018 2019 2020 2021 2022 2023 2024 2025 2026 2027 2028 2029 2030 2031 2032 2033 2034 2035 2036 2037 2038 2039 2040 2041 2042 2043 2044 2045 2046 2047 2048 2049 2050 2051 2052 2053 2054 2055 2056 2057 2058 2059 2060 2061 2062 2063 2064 2065 2066 2067 2068 2069 2070 2071 2072 2073 2074 2075 2076 2077 2078 2079 2080 2081 2082 2083 2084 2085 2086 2087 2088 2089 2090 2091 2092 2093 2094 2095 2096 2097 2098 2099 2100 2101 2102 2103 2104 2105 2106 2107 2108 2109 2110 2111 2112 2113 2114 2115 2116 2117 2118 2119 2120 2121 2122 2123 2124 2125 2126 2127 2128 2129 2130 2131 2132 2133 2134 2135 2136 2137 2138 2139 2140 2141 2142 2143 2144 2145 2146 2147 2148 2149 2150 2151 2152 2153 2154 2155 2156 2157 2158 2159 2160 2161 2162 2163 2164 2165 2166 2167 2168 2169 2170 2171 2172 2173 2174 2175 2176 2177 2178 2179 2180 2181 2182 2183 2184 2185 2186 2187 2188 2189 2190 2191 2192 2193 2194 2195 2196 2197 2198 2199 2200 2201 2202 2203 2204 2205 2206 2207 2208 2209 2210 2211 2212 2213 2214 2215 2216 2217 2218 2219 2220 2221 2222 2223 2224 2225 2226 2227 2228 2229 2230 2231 2232 2233 2234 2235 2236 2237 2238 2239 2240 2241 2242 2243 2244 2245 2246 2247 2248 2249 2250 2251 2252 2253 2254 2255 2256 2257 2258 2259 2260 2261 2262 2263 2264 2265 2266 2267 2268 2269 2270 2271 2272 2273 2274 2275 2276 2277 2278 2279 2280 2281 2282 2283 2284 2285 2286 2287 2288 2289 2290 2291 2292 2293 2294 2295 2296 2297 2298 2299 2300 2301 2302 2303 2304 2305 2306 2307 2308 2309 2310 2311 2312 2313 2314 2315 2316 2317 2318 2319 2320 2321 2322 2323 2324 2325 2326 2327 2328 2329 2330 2331 2332 2333 2334 2335 2336 2337 2338 2339 2340 2341 2342 2343 2344 2345 2346 2347 2348 2349 2350 2351 2352 2353 2354 2355 2356 2357 2358 2359 2360 2361 2362 2363 2364 2365 2366 2367 2368 2369 2370 2371 2372 2373 2374 2375 2376 2377 2378 2379 2380 2381 2382 2383 2384 2385 2386 2387 2388 2389 2390 2391 2392 2393 2394 2395 2396 2397 2398 2399 2400 2401 2402 2403 2404 2405 2406 2407 2408 2409 2410 2411 2412 2413 2414 2415 2416 2417 2418 2419 2420 2421 2422 2423 2424 2425 2426 2427 2428 2429 2430 2431 2432 2433 2434 2435 2436 2437 2438 2439 2440 2441 2442 2443 2444 2445 2446 2447 2448 2449 2450 2451 2452 2453 2454 2455 2456 2457 2458 2459 2460 2461 2462 2463 2464 2465 2466 2467 2468 2469 2470 2471 2472 2473 2474 2475 2476 2477 2478 2479 2480 2481 2482 2483 2484 2485 2486 2487 2488 2489 2490 2491 2492 2493 2494 2495 2496 2497 2498 2499 2500 2501 2502 2503 2504 2505 2506 2507 2508 2509 2510 2511 2512 2513 2514 2515 2516 2517 2518 2519 2520 2521 2522 2523 2524 2525 2526 2527 2528 2529 2530 2531 2532 2533 2534 2535 2536 2537 2538 2539 2540 2541 2542 2543 2544 2545 2546 2547 2548 2549 2550 2551 2552 2553 2554 2555 2556 2557 2558 2559 2560 2561 2562 2563 2564 2565 2566 2567 2568 2569 2570 2571 2572 2573 2574 2575 2576 2577 2578 2579 2580 2581 2582 2583 2584 2585 2586 2587 2588 2589 2590 2591 2592 2593 2594 2595 2596 2597 2598 2599 2600 2601 2602 2603 2604 2605 2606 2607 2608 2609 2610 2611 2612 2613 2614 2615 2616 2617 2618 2619 2620 2621 2622 2623 2624 2625 2626 2627 2628 2629 2630 2631 2632 2633 2634 2635 2636 2637 2638 2639 2640 2641 2642 2643 2644 2645 2646 2647 2648 2649 2650 2651 2652 2653 2654 2655 2656 2657 2658 2659 2660 2661 2662 2663 2664 2665 2666 2667 2668 2669 2670 2671 2672 2673 2674 2675 2676 2677 2678 2679 2680 2681 2682 2683 2684 2685 2686 2687 2688 2689 2690 2691 2692 2693 2694 2695 2696 2697 2698 2699 2700 2701 2702 2703 2704 2705 2706 2707 2708 2709 2710 2711 2712 2713 2714 2715 2716 2717 2718 2719 2720 2721 2722 2723 2724 2725 2726 2727 2728 2729 2730 2731 2732 2733 2734 2735 2736 2737 2738 2739 2740 2741 2742 2743 2744 2745 2746 2747 2748 2749 2750 2751 2752 2753 2754 2755 2756 2757 2758 2759 2760 2761 2762 2763 2764 2765 2766 2767 2768 2769 2770 2771 2772 2773 2774 2775 2776 2777 2778 2779 2780 2781 2782 2783 2784 2785 2786 2787 2788 2789 2790 2791 2792 2793 2794 2795 2796 2797 2798 2799 2800 2801 2802 2803 2804 2805 2806 2807 2808 2809 2810 2811 2812 2813 2814 2815 2816 2817 2818 2819 2820 2821 2822 2823 2824 2825 2826 2827 2828 2829 2830 2831 2832 2833 2834 2835 2836 2837 2838 2839 2840 2841 2842 2843 2844 2845 2846 2847 2848 2849 2850 2851 2852 2853 2854 2855 2856 2857 2858 2859 2860 2861 2862 2863 2864 2865 2866 2867 2868 2869 2870 2871 2872 2873 2874 2875 2876 2877 2878 2879 2880 2881 2882 2883 2884 2885 2886 2887 2888 2889 2890 2891 2892 2893 2894 2895 2896 2897 2898 2899 2900 2901 2902 2903 2904 2905 2906 2907 2908 2909 2910 2911 2912 2913 2914 2915 2916 2917 2918 2919 2920 2921 2922 2923 2924 2925 2926 2927 2928 2929 2930 2931 2932 2933 2934 2935 2936 2937 2938 2939 2940 2941 2942 2943 2944 2945 2946 2947 2948 2949 2950 2951 2952 2953 2954 2955 2956 2957 2958 2959 2960 2961 2962 2963 2964 2965 2966 2967 2968 2969 2970 2971 2972 2973 2974 2975 2976 2977 2978 2979 2980 2981 2982 2983 2984 2985 2986 2987 2988 2989 2990 2991 2992 2993 2994 2995 2996 2997 2998 2999 3000 3001 3002 3003 3004 3005 3006 3007 3008 3009 3010 3011 3012 3013 3014 3015 3016 3017 3018 3019 3020 3021 3022 3023 3024 3025 3026 3027 3028 3029 3030 3031 3032 3033 3034 3035 3036 3037 3038 3039 3040 3041 3042 3043 3044 3045 3046 3047 3048 3049 3050 3051 3052 3053 3054 3055 3056 3057 3058 3059 3060 3061 3062 3063 3064 3065 3066 3067 3068 3069 3070 3071 3072 3073 3074 3075 3076 3077 3078 3079 3080 3081 3082 3083 3084 3085 3086 3087 3088 3089 3090 3091 3092 3093 3094 3095 3096 3097 3098 3099 3100 3101 3102 3103 3104 3105 3106 3107 3108 3109 3110 3111 3112 3113 3114 3115 3116 3117 3118 3119 3120 3121 3122 3123 3124 3125 3126 3127 3128 3129 3130 3131 3132 3133 3134 3135 3136 3137 3138 3139 3140 3141 3142 3143 3144 3145 3146 3147 3148 3149 3150 3151 3152 3153 3154 3155 3156 3157 3158 3159 3160 3161 3162 3163 3164 3165 3166 3167 3168 3169 3170 3171 3172 3173 3174 3175 3176 3177 3178 3179 3180 3181 3182 3183 3184 3185 3186 3187 3188 3189 3190 3191 3192 3193 3194 3195 3196 3197 3198 3199 3200 3201 3202 3203 3204 3205 3206 3207 3208 3209 3210 3211 3212 3213 3214 3215 3216 3217 3218 3219 3220 3221 3222 3223 3224 3225 3226 3227 3228 3229 3230 3231 3232 3233 3234 3235 3236 3237 3238 3239 3240 3241 3242 3243 3244 3245 3246 3247 3248 3249 3250 3251 3252 3253 3254 3255 3256 3257 3258 3259 3260 3261 3262 3263 3264 3265 3266 3267 3268 3269 3270 3271 3272 3273 3274 3275 3276 3277 3278 3279 3280 3281 3282 3283 3284 3285 3286 3287 3288 3289 3290 3291 3292 3293 3294 3295 3296 3297 3298 3299 3300 3301 3302 3303 3304 3305 3306 3307 3308 3309 3310 3311 3312 3313 3314 3315 3316 3317 3318 3319 3320 3321 3322 3323 3324 3325 3326 3327 3328 3329 3330 3331 3332 3333 3334 3335 3336 3337 3338 3339 3340 3341 3342 3343 3344 3345 3346 3347 3348 3349 3350 3351 3352 3353 3354 3355 3356 3357 3358 3359 3360 3361 3362 3363 3364 3365 3366 3367 3368 3369 3370 3371 3372 3373 3374 3375 3376 3377 3378 3379 3380 3381 3382 3383 3384 3385 3386 3387 3388 3389 3390 3391 3392 3393 3394 3395 3396 3397 3398 3399 3400 3401 3402 3403 3404 3405 3406 3407 3408 3409 3410 3411 3412 3413 3414 3415 3416 3417 3418 3419 3420 3421 3422 3423 3424 3425 3426 3427 3428 3429 3430 3431 3432 3433 3434 3435 3436 3437 3438 3439 3440 3441 3442 3443 3444 3445 3446 3447 3448 3449 3450 3451 3452 3453 3454 3455 3456 3457 3458 3459 3460 3461 3462 3463 3464 3465 3466 3467 3468 3469 3470 3471 3472 3473 3474 3475 3476 3477 3478 3479 3480 3481 3482 3483 3484 3485 3486 3487 3488 3489 3490 3491 3492 3493 3494 3495 3496 3497 3498 3499 3500 3501 3502 3503 3504 3505 3506 3507 3508 3509 3510 3511 3512 3513 3514 3515 3516 3517 3518 3519 3520 3521 3522 3523 3524 3525 3526 3527 3528 3529 3530 3531 3532 3533 3534 3535 3536 3537 3538 3539 3540 3541 3542 3543 3544 3545 3546 3547 3548 3549 3550 3551 3552 3553 3554 3555 3556 3557 3558 3559 3560 3561 3562 3563 3564 3565 3566 3567 3568 3569 3570 3571 3572 3573 3574 3575 3576 3577 3578 3579 3580 3581 3582 3583 3584 3585 3586 3587 3588 3589 3590 3591 3592 3593 3594 3595 3596 3597 3598 3599 3600 3601 3602 3603 3604 3605 3606 3607 3608 3609 3610 3611 3612 3613 3614 3615 3616 3617 3618 3619 3620 3621 3622 3623 3624 3625 3626 3627 3628 3629 3630 3631 3632 3633 3634 3635 3636 3637 3638 3639 3640 3641 3642 3643 3644 3645 3646 3647 3648 3649 3650 3651 3652 3653 3654 3655 3656 3657 3658 3659 3660 3661 3662 3663 3664 3665 3666 3667 3668 3669 3670 3671 3672 3673 3674 3675 3676 3677 3678 3679 3680 3681 3682 3683 3684 3685 3686 3687 3688 3689 3690 3691 3692 3693 3694 3695 3696 3697 3698 3699 3700 3701 3702 3703 3704 3705 3706 3707 3708 3709 3710 3711 3712 3713 3714 3715 3716 3717 3718 3719 3720 3721 3722 3723 3724 3725 3726 3727 3728 3729 3730 3731 3732 3733 3734 3735 3736 3737 3738 3739 3740 3741 3742 3743 3744 3745 3746 3747 3748 3749 3750 3751 3752 3753 3754 3755 3756 3757 3758 3759 3760 3761 3762 3763 3764 3765 3766 3767 3768 3769 3770 3771 3772 3773 3774 3775 3776 3777 3778 3779 3780 3781 3782 3783 3784 3785 3786 3787 3788 3789 3790 3791 3792 3793 3794 3795 3796 3797 3798 3799 3800 3801 3802 3803 3804 3805 3806 3807 3808 3809 3810 3811 3812 3813 3814 3815 3816 3817 3818 3819 3820 3821 3822 3823 3824 3825 3826 3827 3828 3829 3830 3831 3832 3833 3834 3835 3836 3837 3838 3839 3840 3841 3842 3843 3844 3845 3846 3847 3848 3849 3850 3851 3852 3853 3854 3855 3856 3857 3858 3859 3860 3861 3862 3863 3864 3865 3866 3867 3868 3869 3870 3871 3872 3873 3874 3875 3876 3877 3878 3879 3880 3881 3882 3883 3884 3885 3886 3887 3888 3889 3890 3891 3892 3893 3894 3895 3896 3897 3898 3899 3900 3901 3902 3903 3904 3905 3906 3907 3908 3909 3910 3911 3912 3913 3914 3915 3916 3917 3918 3919 3920 3921 3922 3923 3924 3925 3926 3927 3928 3929 3930 3931 3932 3933 3934 3935 3936 3937 3938 3939 3940 3941 3942 3943 3944 3945 3946 3947 3948 3949 3950 3951 3952 3953 3954 3955 3956 3957 3958 3959 3960 3961 3962 3963 3964 3965 3966 3967 3968 3969 3970 3971 3972 3973 3974 3975 3976 3977 3978 3979 3980 3981 3982 3983 3984 3985 3986 3987 3988 3989 3990 3991 3992 3993 3994 3995 3996 3997 3998 3999 4000 4001 4002 4003 4004 4005 4006 4007 4008 4009 4010 4011 4012 4013 4014 4015 4016 4017 4018 4019 4020 4021 4022 4023 4024 4025 4026 4027 4028 4029 4030 4031 4032 4033 4034 4035 4036 4037 4038 4039 4040 4041 4042 4043 4044 4045 4046 4047 4048 4049 4050 4051 4052 4053 4054 4055 4056 4057 4058 4059 4060 4061 4062 4063 4064 4065 4066 4067 4068 4069 4070 4071 4072 4073 4074 4075 4076 4077 4078 4079 4080 4081 4082 4083 4084 4085 4086 4087 4088 4089 4090 4091 4092 4093 4094 4095 4096 4097 4098 4099 4100 4101 4102 4103 4104 4105 4106 4107 4108 4109 4110 4111 4112 4113 4114 4115 4116 4117 4118 4119 4120 4121 4122 4123 4124 4125 4126 4127 4128 4129 4130 4131 4132 4133 4134 4135 4136 4137 4138 4139 4140 4141 4142 4143 4144 4145 4146 4147 4148 4149 4150 4151 4152 4153 4154 4155 4156 4157 4158 4159 4160 4161 4162 4163 4164 4165 4166 4167 4168 4169 4170 4171 4172 4173 4174 4175 4176 4177 4178 4179 4180 4181 4182 4183 4184 4185 4186 4187 4188 4189 4190 4191 4192 4193 4194 4195 4196 4197 4198 4199 4200 4201 4202 4203 4204 4205 4206 4207 4208 4209 4210 4211 4212 4213 4214 4215 4216 4217 4218 4219 4220 4221 4222 4223 4224 4225 4226 4227 4228 4229 4230 4231 4232 4233 4234 4235 4236 4237 4238 4239 4240 4241 4242 4243 4244 4245 4246 4247 4248 4249 4250 4251 4252 4253 4254 4255 4256 4257 4258 4259 4260 4261 4262 4263 4264 4265 4266 4267 4268 4269 4270 4271 0
-4273 -138 0
-4273 -141 0
-4273 -144 0
-4273 -147 0
-4273 -150 0
-4273 -153 0
-4273 -156 0
-4273 -159 0
-4273 -162 0
-4273 -165 0
-4273 -168 0
-4273 -171 0
-4273 -174 0
-4273 -4272 0
4273 138 141 144 147 150 153 156 159 162 165 168 171 174 4272 0
