p cnf 24 62
-6 2 0
-6 4 0
6 -2 -4 0
-7 -1 0
-7 -6 0
7 1 6 0
2 7 -8 0
-2 -7 -8 0
2 -7 8 0
-2 7 8 0
-9 4 0
-9 5 0
9 -4 -5 0
-10 -6 0
-10 -9 0
10 6 9 0
-11 -2 0
-11 -5 0
11 2 5 0
10 11 -12 0
-10 -11 -12 0
10 -11 12 0
-10 11 12 0
-13 8 0
-13 -12 0
13 -8 12 0
-14 1 0
-14 -3 0
14 -1 3 0
-15 -3 0
-15 -4 0
15 3 4 0
-16 2 0
-16 -15 0
16 -2 15 0
-17 -14 0
-17 -16 0
17 14 16 0
7 17 -18 0
-7 -17 -18 0
7 -17 18 0
-7 17 18 0
-19 5 0
-19 -15 0
19 -5 15 0
-20 -16 0
-20 -19 0
20 16 19 0
10 20 -21 0
-10 -20 -21 0
10 -20 21 0
-10 20 21 0
-22 -18 0
-22 -21 0
22 18 21 0
-23 3 0
-23 -13 0
23 -3 13 0
22 23 -24 0
-22 -23 -24 0
22 -23 24 0
-22 23 24 0
