p cnf 35 92
11 0
8 12 0
-8 -12 0
12 6 -13 0
12 -6 -13 0
-12 6 -13 0
-12 -6 13 0
8 9 -14 0
8 -9 14 0
-8 9 14 0
-8 -9 14 0
7 14 -15 0
7 -14 -15 0
-7 14 -15 0
-7 -14 15 0
13 15 -16 0
13 -15 16 0
-13 15 16 0
-13 -15 16 0
-11 6 -17 0
-11 -6 -17 0
11 6 -17 0
11 -6 17 0
8 9 -18 0
8 -9 18 0
-8 9 18 0
-8 -9 18 0
7 18 -19 0
7 -18 -19 0
-7 18 -19 0
-7 -18 19 0
17 19 -20 0
17 -19 20 0
-17 19 20 0
-17 -19 20 0
16 20 -21 0
16 -20 21 0
-16 20 21 0
-16 -20 -21 0
10 14 -22 0
10 -14 -22 0
-10 14 -22 0
-10 -14 22 0
15 22 -23 0
15 -22 23 0
-15 22 23 0
-15 -22 23 0
10 18 -24 0
10 -18 -24 0
-10 18 -24 0
-10 -18 24 0
19 24 -25 0
19 -24 25 0
-19 24 25 0
-19 -24 25 0
23 25 -26 0
23 -25 26 0
-23 25 26 0
-23 -25 -26 0
-21 27 0
-26 27 0
-27 21 26 0
-1 6 0
1 -6 0
-2 7 0
2 -7 0
-3 8 0
3 -8 0
-4 9 0
4 -9 0
-5 10 0
5 -10 0
-28 -3 0
28 3 0
-29 -28 0
29 28 0
-30 1 0
30 -1 0
-31 -30 0
31 30 0
-32 -2 0
32 2 0
-33 -3 0
-33 -4 0
33 3 4 0
-34 -32 0
-34 -33 0
34 32 33 0
-35 -29 0
-35 -31 0
-35 -34 0
35 29 31 34 0
