p cnf 12467 4259
-1468 -351 0
-1468 -373 0
-1468 425 0
-1468 -447 0
-1468 -914 0
1468 351 373 -425 447 914 0
-1474 -32 0
-1474 -58 0
-1474 -86 0
-1474 -278 0
-1474 -985 0
-1474 -1060 0
-1474 -1257 0
-1474 -1322 0
1474 32 58 86 278 985 1060 1257 1322 0
-1478 -32 0
-1478 -58 0
-1478 -86 0
-1478 -278 0
-1478 985 0
-1478 1060 0
-1478 -1257 0
-1478 -1322 0
1478 32 58 86 278 -985 -1060 1257 1322 0
-1481 -32 0
-1481 -58 0
-1481 -86 0
-1481 -278 0
-1481 -985 0
-1481 1060 0
-1481 -1257 0
-1481 -1322 0
1481 32 58 86 278 985 -1060 1257 1322 0
-1484 -32 0
-1484 -58 0
-1484 -86 0
-1484 -278 0
-1484 -985 0
-1484 -1060 0
-1484 1257 0
-1484 -1322 0
1484 32 58 86 278 985 1060 -1257 1322 0
-1488 -32 0
-1488 -58 0
-1488 -86 0
-1488 -278 0
-1488 985 0
-1488 -1060 0
-1488 1257 0
-1488 -1322 0
1488 32 58 86 278 -985 1060 -1257 1322 0
-1493 -1474 0
-1493 -1478 0
-1493 -1481 0
-1493 -1484 0
-1493 -1488 0
1493 1474 1478 1481 1484 1488 0
-1509 -32 0
-1509 -58 0
-1509 -86 0
-1509 -278 0
-1509 985 0
-1509 1060 0
-1509 -1257 0
-1509 1322 0
1509 32 58 86 278 -985 -1060 1257 -1322 0
-1511 -32 0
-1511 -58 0
-1511 -86 0
-1511 -278 0
-1511 -985 0
-1511 1060 0
-1511 -1257 0
-1511 1322 0
1511 32 58 86 278 985 -1060 1257 -1322 0
-1516 32 0
-1516 58 0
-1516 86 0
-1516 278 0
-1516 -985 0
-1516 1060 0
-1516 1257 0
-1516 -1322 0
1516 -32 -58 -86 -278 985 -1060 -1257 1322 0
-1518 32 0
-1518 58 0
-1518 86 0
-1518 278 0
-1518 -985 0
-1518 -1060 0
-1518 -1257 0
-1518 1322 0
1518 -32 -58 -86 -278 985 1060 1257 -1322 0
-1522 32 0
-1522 -58 0
-1522 -86 0
-1522 -278 0
-1522 -985 0
-1522 1060 0
-1522 -1257 0
-1522 -1322 0
1522 -32 58 86 278 985 -1060 1257 1322 0
-1524 32 0
-1524 58 0
-1524 86 0
-1524 278 0
-1524 -985 0
-1524 1060 0
-1524 -1257 0
-1524 -1322 0
1524 -32 -58 -86 -278 985 -1060 1257 1322 0
-1525 32 0
-1525 58 0
-1525 86 0
-1525 278 0
-1525 -985 0
-1525 -1060 0
-1525 -1257 0
-1525 -1322 0
1525 -32 -58 -86 -278 985 1060 1257 1322 0
-1527 -1509 0
-1527 -1511 0
-1527 -1516 0
-1527 -1518 0
-1527 -1522 0
-1527 -1524 0
-1527 -1525 0
1527 1509 1511 1516 1518 1522 1524 1525 0
-1530 32 0
-1530 -58 0
-1530 -86 0
-1530 -278 0
-1530 -985 0
-1530 -1060 0
-1530 -1257 0
-1530 -1322 0
1530 -32 58 86 278 985 1060 1257 1322 0
-1604 -32 0
-1604 -58 0
-1604 -86 0
-1604 -278 0
-1604 -351 0
-1604 -373 0
-1604 425 0
-1604 -447 0
-1604 -536 0
-1604 -914 0
-1604 -985 0
-1604 1060 0
-1604 1257 0
-1604 1322 0
1604 32 58 86 278 351 373 -425 447 536 914 985 -1060 -1257 -1322 0
-1605 -447 0
-1605 542 0
-1605 -1468 0
1605 447 -542 1468 0
-1606 -69 0
-1606 887 0
1606 69 -887 0
-1607 -32 0
-1607 -58 0
-1607 -86 0
-1607 -278 0
-1607 985 0
-1607 1060 0
-1607 -1257 0
-1607 -1322 0
-1607 -1606 0
1607 32 58 86 278 -985 -1060 1257 1322 1606 0
-1608 -60 0
-1608 887 0
1608 60 -887 0
-1609 -32 0
-1609 -58 0
-1609 -86 0
-1609 -278 0
-1609 -985 0
-1609 1060 0
-1609 -1257 0
-1609 -1322 0
-1609 -1608 0
1609 32 58 86 278 985 -1060 1257 1322 1608 0
-1610 -32 0
-1610 -58 0
-1610 -86 0
-1610 -278 0
-1610 439 0
-1610 -985 0
-1610 -1060 0
-1610 -1257 0
-1610 -1322 0
1610 32 58 86 278 -439 985 1060 1257 1322 0
-1611 -248 0
-1611 887 0
1611 248 -887 0
-1612 -32 0
-1612 -58 0
-1612 -86 0
-1612 -278 0
-1612 -985 0
-1612 -1060 0
-1612 1257 0
-1612 -1322 0
-1612 -1611 0
1612 32 58 86 278 985 1060 -1257 1322 1611 0
-1613 -311 0
-1613 887 0
1613 311 -887 0
-1614 -32 0
-1614 -58 0
-1614 -86 0
-1614 -278 0
-1614 985 0
-1614 -1060 0
-1614 1257 0
-1614 -1322 0
-1614 -1613 0
1614 32 58 86 278 -985 1060 -1257 1322 1613 0
-1616 -1607 0
-1616 -1609 0
-1616 -1610 0
-1616 -1612 0
-1616 -1614 0
1616 1607 1609 1610 1612 1614 0
-1617 -351 0
-1617 -373 0
-1617 425 0
-1617 -447 0
-1617 -914 0
-1617 -1493 0
-1617 -1616 0
1617 351 373 -425 447 914 1493 1616 0
-1618 12 0
-1618 -32 0
-1618 -58 0
-1618 -86 0
-1618 -278 0
-1618 -351 0
-1618 -373 0
-1618 425 0
-1618 -447 0
-1618 -914 0
-1618 -985 0
-1618 1060 0
-1618 1257 0
-1618 -1322 0
1618 -12 32 58 86 278 351 373 -425 447 914 985 -1060 -1257 1322 0
-1619 -32 0
-1619 -58 0
-1619 -86 0
-1619 -278 0
-1619 -351 0
-1619 -373 0
-1619 425 0
-1619 -447 0
-1619 -914 0
-1619 -985 0
-1619 -1060 0
-1619 -1257 0
-1619 1322 0
-1619 1385 0
1619 32 58 86 278 351 373 -425 447 914 985 1060 1257 -1322 -1385 0
-1621 32 0
-1621 -58 0
-1621 -86 0
-1621 -278 0
-1621 -985 0
-1621 1037 0
-1621 1060 0
-1621 -1257 0
-1621 -1322 0
1621 -32 58 86 278 985 -1037 -1060 1257 1322 0
-1622 -32 0
-1622 -58 0
-1622 -86 0
-1622 -278 0
-1622 840 0
-1622 985 0
-1622 1060 0
-1622 -1257 0
-1622 1322 0
1622 32 58 86 278 -840 -985 -1060 1257 -1322 0
-1623 -32 0
-1623 -58 0
-1623 -86 0
-1623 -278 0
-1623 -985 0
-1623 1041 0
-1623 1060 0
-1623 -1257 0
-1623 1322 0
1623 32 58 86 278 985 -1041 -1060 1257 -1322 0
-1625 32 0
-1625 58 0
-1625 86 0
-1625 278 0
-1625 -985 0
-1625 1019 0
-1625 -1060 0
-1625 -1257 0
-1625 -1322 0
1625 -32 -58 -86 -278 985 -1019 1060 1257 1322 0
-1626 32 0
-1626 58 0
-1626 86 0
-1626 278 0
-1626 -985 0
-1626 1020 0
-1626 1060 0
-1626 -1257 0
-1626 -1322 0
1626 -32 -58 -86 -278 985 -1020 -1060 1257 1322 0
-1628 -1516 0
-1628 -1621 0
-1628 -1622 0
-1628 -1623 0
-1628 -1625 0
-1628 -1626 0
1628 1516 1621 1622 1623 1625 1626 0
-1629 -351 0
-1629 -373 0
-1629 425 0
-1629 -447 0
-1629 -914 0
-1629 -1527 0
-1629 -1628 0
1629 351 373 -425 447 914 1527 1628 0
-1630 32 0
-1630 -58 0
-1630 -86 0
-1630 -278 0
-1630 -351 0
-1630 -373 0
-1630 425 0
-1630 -447 0
-1630 728 0
-1630 -914 0
-1630 -985 0
-1630 -1060 0
-1630 -1257 0
-1630 -1322 0
1630 -32 58 86 278 351 373 -425 447 -728 914 985 1060 1257 1322 0
-1631 32 0
-1631 -58 0
-1631 -86 0
-1631 -278 0
-1631 -351 0
-1631 -373 0
-1631 425 0
-1631 -447 0
-1631 689 0
-1631 -914 0
-1631 -985 0
-1631 1060 0
-1631 1257 0
-1631 -1322 0
1631 -32 58 86 278 351 373 -425 447 -689 914 985 -1060 -1257 1322 0
-1634 -32 0
-1634 -58 0
-1634 -86 0
-1634 -278 0
-1634 -351 0
-1634 -373 0
-1634 425 0
-1634 -447 0
-1634 -577 0
-1634 -914 0
-1634 -985 0
-1634 -1060 0
-1634 1257 0
-1634 1322 0
1634 32 58 86 278 351 373 -425 447 577 914 985 1060 -1257 -1322 0
-1636 -1604 0
-1636 -1605 0
-1636 -1617 0
-1636 -1618 0
-1636 -1619 0
-1636 -1629 0
-1636 -1630 0
-1636 -1631 0
-1636 -1634 0
1636 1604 1605 1617 1618 1619 1629 1630 1631 1634 0
-1645 32 0
-1645 -58 0
-1645 -86 0
-1645 147 0
-1645 -278 0
-1645 -351 0
-1645 -373 0
-1645 425 0
-1645 -447 0
-1645 -914 0
-1645 985 0
-1645 -1060 0
-1645 1257 0
-1645 -1322 0
1645 -32 58 86 -147 278 351 373 -425 447 914 -985 1060 -1257 1322 0
-1646 -447 0
-1646 563 0
-1646 -1468 0
1646 447 -563 1468 0
-1647 -68 0
-1647 887 0
1647 68 -887 0
-1648 -32 0
-1648 -58 0
-1648 -86 0
-1648 -278 0
-1648 985 0
-1648 1060 0
-1648 -1257 0
-1648 -1322 0
-1648 -1647 0
1648 32 58 86 278 -985 -1060 1257 1322 1647 0
-1649 -56 0
-1649 887 0
1649 56 -887 0
-1650 -32 0
-1650 -58 0
-1650 -86 0
-1650 -278 0
-1650 -985 0
-1650 1060 0
-1650 -1257 0
-1650 -1322 0
-1650 -1649 0
1650 32 58 86 278 985 -1060 1257 1322 1649 0
-1651 -32 0
-1651 -58 0
-1651 -86 0
-1651 -278 0
-1651 420 0
-1651 -985 0
-1651 -1060 0
-1651 -1257 0
-1651 -1322 0
1651 32 58 86 278 -420 985 1060 1257 1322 0
-1652 -237 0
-1652 887 0
1652 237 -887 0
-1653 -32 0
-1653 -58 0
-1653 -86 0
-1653 -278 0
-1653 -985 0
-1653 -1060 0
-1653 1257 0
-1653 -1322 0
-1653 -1652 0
1653 32 58 86 278 985 1060 -1257 1322 1652 0
-1654 -335 0
-1654 887 0
1654 335 -887 0
-1655 -32 0
-1655 -58 0
-1655 -86 0
-1655 -278 0
-1655 985 0
-1655 -1060 0
-1655 1257 0
-1655 -1322 0
-1655 -1654 0
1655 32 58 86 278 -985 1060 -1257 1322 1654 0
-1657 -1648 0
-1657 -1650 0
-1657 -1651 0
-1657 -1653 0
-1657 -1655 0
1657 1648 1650 1651 1653 1655 0
-1658 -351 0
-1658 -373 0
-1658 425 0
-1658 -447 0
-1658 -914 0
-1658 -1493 0
-1658 -1657 0
1658 351 373 -425 447 914 1493 1657 0
-1660 -12 0
-1660 -32 0
-1660 -58 0
-1660 -86 0
-1660 -278 0
-1660 -351 0
-1660 -373 0
-1660 425 0
-1660 -447 0
-1660 -914 0
-1660 -985 0
-1660 1060 0
-1660 1257 0
-1660 -1322 0
-1660 1430 0
1660 12 32 58 86 278 351 373 -425 447 914 985 -1060 -1257 1322 -1430 0
-1662 -32 0
-1662 -58 0
-1662 -86 0
-1662 -278 0
-1662 -351 0
-1662 -373 0
-1662 425 0
-1662 -447 0
-1662 -914 0
-1662 -985 0
-1662 -1060 0
-1662 -1257 0
-1662 1322 0
-1662 1347 0
-1662 -1385 0
1662 32 58 86 278 351 373 -425 447 914 985 1060 1257 -1322 -1347 1385 0
-1664 32 0
-1664 -58 0
-1664 -86 0
-1664 -278 0
-1664 -985 0
-1664 1033 0
-1664 1060 0
-1664 -1257 0
-1664 -1322 0
1664 -32 58 86 278 985 -1033 -1060 1257 1322 0
-1665 32 0
-1665 -58 0
-1665 -86 0
-1665 -278 0
-1665 -985 0
-1665 1034 0
-1665 -1060 0
-1665 -1257 0
-1665 -1322 0
1665 -32 58 86 278 985 -1034 1060 1257 1322 0
-1666 -32 0
-1666 -58 0
-1666 -86 0
-1666 -278 0
-1666 -985 0
-1666 1011 0
-1666 1060 0
-1666 -1257 0
-1666 1322 0
1666 32 58 86 278 985 -1011 -1060 1257 -1322 0
-1668 32 0
-1668 58 0
-1668 86 0
-1668 278 0
-1668 -985 0
-1668 1022 0
-1668 -1060 0
-1668 -1257 0
-1668 -1322 0
1668 -32 -58 -86 -278 985 -1022 1060 1257 1322 0
-1669 32 0
-1669 58 0
-1669 86 0
-1669 278 0
-1669 -985 0
-1669 1024 0
-1669 1060 0
-1669 -1257 0
-1669 -1322 0
1669 -32 -58 -86 -278 985 -1024 -1060 1257 1322 0
-1671 -1516 0
-1671 -1664 0
-1671 -1665 0
-1671 -1666 0
-1671 -1668 0
-1671 -1669 0
1671 1516 1664 1665 1666 1668 1669 0
-1673 -1509 0
-1673 -1511 0
-1673 -1516 0
-1673 -1518 0
-1673 -1522 0
-1673 -1524 0
-1673 -1525 0
-1673 -1530 0
1673 1509 1511 1516 1518 1522 1524 1525 1530 0
-1675 -351 0
-1675 -373 0
-1675 425 0
-1675 -447 0
-1675 -914 0
-1675 -1671 0
-1675 -1673 0
1675 351 373 -425 447 914 1671 1673 0
-1676 -32 0
-1676 -58 0
-1676 -86 0
-1676 -278 0
-1676 -351 0
-1676 -373 0
-1676 425 0
-1676 -447 0
-1676 580 0
-1676 -914 0
-1676 -985 0
-1676 -1060 0
-1676 1257 0
-1676 1322 0
1676 32 58 86 278 351 373 -425 447 -580 914 985 1060 -1257 -1322 0
-1677 -32 0
-1677 -58 0
-1677 -86 0
-1677 -278 0
-1677 -351 0
-1677 -373 0
-1677 425 0
-1677 -447 0
-1677 539 0
-1677 -914 0
-1677 -985 0
-1677 1060 0
-1677 1257 0
-1677 1322 0
1677 32 58 86 278 351 373 -425 447 -539 914 985 -1060 -1257 -1322 0
-1678 32 0
-1678 -58 0
-1678 -86 0
-1678 -278 0
-1678 -351 0
-1678 -373 0
-1678 425 0
-1678 -447 0
-1678 480 0
-1678 -914 0
-1678 -985 0
-1678 -1060 0
-1678 1257 0
-1678 -1322 0
1678 -32 58 86 278 351 373 -425 447 -480 914 985 1060 -1257 1322 0
-1680 -1645 0
-1680 -1646 0
-1680 -1658 0
-1680 -1660 0
-1680 -1662 0
-1680 -1675 0
-1680 -1676 0
-1680 -1677 0
-1680 -1678 0
1680 1645 1646 1658 1660 1662 1675 1676 1677 1678 0
-1681 32 0
-1681 -58 0
-1681 -86 0
-1681 -278 0
-1681 -351 0
-1681 -373 0
-1681 396 0
-1681 425 0
-1681 -447 0
-1681 -914 0
-1681 -985 0
-1681 -1060 0
-1681 1257 0
-1681 -1322 0
1681 -32 58 86 278 351 373 -396 -425 447 914 985 1060 -1257 1322 0
-1682 -447 0
-1682 585 0
-1682 -1468 0
1682 447 -585 1468 0
-1683 -67 0
-1683 887 0
1683 67 -887 0
-1684 -32 0
-1684 -58 0
-1684 -86 0
-1684 -278 0
-1684 985 0
-1684 1060 0
-1684 -1257 0
-1684 -1322 0
-1684 -1683 0
1684 32 58 86 278 -985 -1060 1257 1322 1683 0
-1685 -390 0
-1685 887 0
1685 390 -887 0
-1686 -32 0
-1686 -58 0
-1686 -86 0
-1686 -278 0
-1686 -985 0
-1686 1060 0
-1686 -1257 0
-1686 -1322 0
-1686 -1685 0
1686 32 58 86 278 985 -1060 1257 1322 1685 0
-1687 -32 0
-1687 -58 0
-1687 -86 0
-1687 -278 0
-1687 409 0
-1687 -985 0
-1687 -1060 0
-1687 -1257 0
-1687 -1322 0
1687 32 58 86 278 -409 985 1060 1257 1322 0
-1688 -225 0
-1688 887 0
1688 225 -887 0
-1689 -32 0
-1689 -58 0
-1689 -86 0
-1689 -278 0
-1689 -985 0
-1689 -1060 0
-1689 1257 0
-1689 -1322 0
-1689 -1688 0
1689 32 58 86 278 985 1060 -1257 1322 1688 0
-1690 -321 0
-1690 887 0
1690 321 -887 0
-1691 -32 0
-1691 -58 0
-1691 -86 0
-1691 -278 0
-1691 985 0
-1691 -1060 0
-1691 1257 0
-1691 -1322 0
-1691 -1690 0
1691 32 58 86 278 -985 1060 -1257 1322 1690 0
-1693 -1684 0
-1693 -1686 0
-1693 -1687 0
-1693 -1689 0
-1693 -1691 0
1693 1684 1686 1687 1689 1691 0
-1694 -351 0
-1694 -373 0
-1694 425 0
-1694 -447 0
-1694 -914 0
-1694 -1493 0
-1694 -1693 0
1694 351 373 -425 447 914 1493 1693 0
-1696 -12 0
-1696 -32 0
-1696 -58 0
-1696 -86 0
-1696 -278 0
-1696 -351 0
-1696 -373 0
-1696 425 0
-1696 -447 0
-1696 -914 0
-1696 -985 0
-1696 1060 0
-1696 1257 0
-1696 -1322 0
-1696 1438 0
1696 12 32 58 86 278 351 373 -425 447 914 985 -1060 -1257 1322 -1438 0
-1698 -32 0
-1698 -58 0
-1698 -86 0
-1698 -278 0
-1698 -351 0
-1698 -373 0
-1698 425 0
-1698 -447 0
-1698 -914 0
-1698 -985 0
-1698 -1060 0
-1698 -1257 0
-1698 1322 0
-1698 1353 0
-1698 -1385 0
1698 32 58 86 278 351 373 -425 447 914 985 1060 1257 -1322 -1353 1385 0
-1700 32 0
-1700 -58 0
-1700 -86 0
-1700 -278 0
-1700 -985 0
-1700 1042 0
-1700 1060 0
-1700 -1257 0
-1700 -1322 0
1700 -32 58 86 278 985 -1042 -1060 1257 1322 0
-1701 32 0
-1701 -58 0
-1701 -86 0
-1701 -278 0
-1701 -985 0
-1701 1043 0
-1701 -1060 0
-1701 -1257 0
-1701 -1322 0
1701 -32 58 86 278 985 -1043 1060 1257 1322 0
-1702 -32 0
-1702 -58 0
-1702 -86 0
-1702 -278 0
-1702 -985 0
-1702 -1010 0
-1702 1060 0
-1702 -1257 0
-1702 1322 0
1702 32 58 86 278 985 1010 -1060 1257 -1322 0
-1704 32 0
-1704 58 0
-1704 86 0
-1704 278 0
-1704 -985 0
-1704 1026 0
-1704 -1060 0
-1704 -1257 0
-1704 -1322 0
1704 -32 -58 -86 -278 985 -1026 1060 1257 1322 0
-1705 32 0
-1705 58 0
-1705 86 0
-1705 278 0
-1705 -985 0
-1705 1027 0
-1705 1060 0
-1705 -1257 0
-1705 -1322 0
1705 -32 -58 -86 -278 985 -1027 -1060 1257 1322 0
-1707 -1700 0
-1707 -1701 0
-1707 -1702 0
-1707 -1704 0
-1707 -1705 0
1707 1700 1701 1702 1704 1705 0
-1708 -351 0
-1708 -373 0
-1708 425 0
-1708 -447 0
-1708 -914 0
-1708 -1673 0
-1708 -1707 0
1708 351 373 -425 447 914 1673 1707 0
-1709 32 0
-1709 -58 0
-1709 -86 0
-1709 -278 0
-1709 -351 0
-1709 -373 0
-1709 425 0
-1709 -447 0
-1709 -914 0
-1709 971 0
-1709 985 0
-1709 -1060 0
-1709 1257 0
-1709 -1322 0
1709 -32 58 86 278 351 373 -425 447 914 -971 -985 1060 -1257 1322 0
-1710 -32 0
-1710 -58 0
-1710 -86 0
-1710 -278 0
-1710 -351 0
-1710 -373 0
-1710 425 0
-1710 -447 0
-1710 581 0
-1710 -914 0
-1710 -985 0
-1710 -1060 0
-1710 1257 0
-1710 1322 0
1710 32 58 86 278 351 373 -425 447 -581 914 985 1060 -1257 -1322 0
-1711 -32 0
-1711 -58 0
-1711 -86 0
-1711 -278 0
-1711 -351 0
-1711 -373 0
-1711 425 0
-1711 -447 0
-1711 540 0
-1711 -914 0
-1711 -985 0
-1711 1060 0
-1711 1257 0
-1711 1322 0
1711 32 58 86 278 351 373 -425 447 -540 914 985 -1060 -1257 -1322 0
-1713 -1681 0
-1713 -1682 0
-1713 -1694 0
-1713 -1696 0
-1713 -1698 0
-1713 -1708 0
-1713 -1709 0
-1713 -1710 0
-1713 -1711 0
1713 1681 1682 1694 1696 1698 1708 1709 1710 1711 0
-2001 3 0
-2001 840 0
2001 -3 -840 0
-2002 -1375 0
-2002 -2001 0
2002 1375 2001 0
-2013 80 0
-2013 685 0
2013 -80 -685 0
-2014 80 0
-2014 -2013 0
2014 -80 2013 0
-2015 685 0
-2015 -2013 0
2015 -685 2013 0
-2017 77 0
-2017 683 0
2017 -77 -683 0
-2018 77 0
-2018 -2017 0
2018 -77 2017 0
-2019 683 0
-2019 -2017 0
2019 -683 2017 0
-2148 -1208 0
-2148 -1211 0
-2148 -1236 0
-2148 -1240 0
-2148 -1266 0
-2148 -1269 0
-2148 -1294 0
-2148 -1297 0
2148 1208 1211 1236 1240 1266 1269 1294 1297 0
-2149 887 0
-2149 -2148 0
2149 -887 2148 0
-2154 -1088 0
-2154 -1091 0
-2154 -1115 0
-2154 -1119 0
-2154 -1144 0
-2154 -1147 0
-2154 -1172 0
-2154 -1175 0
2154 1088 1091 1115 1119 1144 1147 1172 1175 0
-2155 887 0
-2155 -2154 0
2155 -887 2154 0
-2157 -1214 0
-2157 -1243 0
-2157 -1272 0
-2157 -1300 0
2157 1214 1243 1272 1300 0
-2158 887 0
-2158 -2157 0
2158 -887 2157 0
-2159 -1094 0
-2159 -1122 0
-2159 -1151 0
-2159 -1178 0
2159 1094 1122 1151 1178 0
-2160 887 0
-2160 -2159 0
2160 -887 2159 0
-2162 -973 0
-2162 -976 0
2162 973 976 0
-2163 887 0
-2163 -2162 0
2163 -887 2162 0
-2164 -889 0
-2164 -892 0
2164 889 892 0
-2165 887 0
-2165 -2164 0
2165 -887 2164 0
-2166 -806 0
-2166 -809 0
2166 806 809 0
-2167 887 0
-2167 -2166 0
2167 -887 2166 0
-2168 -482 0
-2168 -485 0
2168 482 485 0
-2169 887 0
-2169 -2168 0
2169 -887 2168 0
-2171 -400 0
-2171 -403 0
2171 400 403 0
-2172 -315 0
-2172 -318 0
2172 315 318 0
-2173 887 0
-2173 -2172 0
2173 -887 2172 0
-2174 -232 0
-2174 -235 0
2174 232 235 0
-2175 887 0
-2175 -2174 0
2175 -887 2174 0
-2176 -149 0
-2176 -152 0
2176 149 152 0
-2177 887 0
-2177 -2176 0
2177 -887 2176 0
-2179 -400 0
-2179 -403 0
-2179 -2163 0
-2179 -2165 0
-2179 -2167 0
-2179 -2169 0
-2179 -2173 0
-2179 -2175 0
-2179 -2177 0
2179 400 403 2163 2165 2167 2169 2173 2175 2177 0
-2180 155 0
-2180 887 0
2180 -155 -887 0
-2181 887 0
-2181 979 0
2181 -887 -979 0
-2182 887 0
-2182 896 0
2182 -887 -896 0
-2183 812 0
-2183 887 0
2183 -812 -887 0
-2184 661 0
-2184 887 0
2184 -661 -887 0
-2185 663 0
-2185 887 0
2185 -663 -887 0
-2186 -2184 0
-2186 -2185 0
2186 2184 2185 0
-2188 489 0
-2188 887 0
2188 -489 -887 0
-2189 322 0
-2189 887 0
2189 -322 -887 0
-2190 239 0
-2190 887 0
2190 -239 -887 0
-2192 -406 0
-2192 -2180 0
-2192 -2181 0
-2192 -2182 0
-2192 -2183 0
-2192 -2184 0
-2192 -2185 0
-2192 -2188 0
-2192 -2189 0
-2192 -2190 0
2192 406 2180 2181 2182 2183 2184 2185 2188 2189 2190 0
-2196 32 0
-2196 58 0
-2196 86 0
-2196 278 0
-2196 -985 0
-2196 -1060 0
-2196 -1257 0
-2196 -1322 0
-2196 1415 0
-2196 -1636 0
2196 -32 -58 -86 -278 985 1060 1257 1322 -1415 1636 0
-2199 -887 0
-2199 1022 0
2199 887 -1022 0
-2202 -2163 0
-2202 -2165 0
-2202 -2167 0
-2202 -2169 0
-2202 -2173 0
-2202 -2175 0
-2202 -2177 0
2202 2163 2165 2167 2169 2173 2175 2177 0
-2204 -2180 0
-2204 -2181 0
-2204 -2182 0
-2204 -2183 0
-2204 -2184 0
-2204 -2185 0
-2204 -2188 0
-2204 -2189 0
-2204 -2190 0
2204 2180 2181 2182 2183 2184 2185 2188 2189 2190 0
-2211 -400 0
-2211 -403 0
-2211 -406 0
2211 400 403 406 0
-2214 887 0
-2214 -1019 0
-2214 -1021 0
-2214 -2149 0
-2214 -2155 0
-2214 -2158 0
-2214 -2160 0
-2214 -2163 0
-2214 -2165 0
-2214 -2167 0
-2214 -2169 0
-2214 -2173 0
-2214 -2175 0
-2214 -2177 0
-2214 -2180 0
-2214 -2181 0
-2214 -2182 0
-2214 -2183 0
-2214 -2184 0
-2214 -2185 0
-2214 -2188 0
-2214 -2189 0
-2214 -2190 0
-2214 -2196 0
-2214 -2199 0
-2214 -2211 0
2214 -887 1019 1021 2149 2155 2158 2160 2163 2165 2167 2169 2173 2175 2177 2180 2181 2182 2183 2184 2185 2188 2189 2190 2196 2199 2211 0
-2294 32 0
-2294 -58 0
-2294 -86 0
-2294 -278 0
-2294 -985 0
-2294 1060 0
-2294 -1257 0
-2294 -1322 0
-2294 1415 0
-2294 -1680 0
2294 -32 58 86 278 985 -1060 1257 1322 -1415 1680 0
-2297 -887 0
-2297 1042 0
2297 887 -1042 0
-2305 887 0
-2305 -1033 0
-2305 -2163 0
-2305 -2165 0
-2305 -2167 0
-2305 -2169 0
-2305 -2171 0
-2305 -2173 0
-2305 -2175 0
-2305 -2177 0
-2305 -2294 0
-2305 -2297 0
2305 -887 1033 2163 2165 2167 2169 2171 2173 2175 2177 2294 2297 0
-2307 32 0
-2307 -58 0
-2307 -86 0
-2307 -278 0
-2307 -985 0
-2307 1060 0
-2307 -1257 0
-2307 -1322 0
-2307 1415 0
-2307 -1713 0
2307 -32 58 86 278 985 -1060 1257 1322 -1415 1713 0
-2310 -887 0
-2310 1044 0
2310 887 -1044 0
-2318 406 0
-2318 887 0
-2318 -1042 0
-2318 -2180 0
-2318 -2181 0
-2318 -2182 0
-2318 -2183 0
-2318 -2184 0
-2318 -2185 0
-2318 -2188 0
-2318 -2189 0
-2318 -2190 0
-2318 -2307 0
-2318 -2310 0
2318 -406 -887 1042 2180 2181 2182 2183 2184 2185 2188 2189 2190 2307 2310 0
-2345 77 0
-2345 -749 0
2345 -77 749 0
-2346 -749 0
-2346 -2345 0
2346 749 2345 0
-2347 77 0
-2347 -2345 0
2347 -77 2345 0
-2348 -2346 0
-2348 -2347 0
2348 2346 2347 0
-2349 80 0
-2349 -748 0
2349 -80 748 0
-2350 -748 0
-2350 -2349 0
2350 748 2349 0
-2351 80 0
-2351 -2349 0
2351 -80 2349 0
-2352 -2350 0
-2352 -2351 0
2352 2350 2351 0
-2550 32 0
-2550 -58 0
-2550 -86 0
-2550 -278 0
-2550 -985 0
-2550 -1060 0
-2550 1257 0
-2550 -1322 0
-2550 1415 0
2550 -32 58 86 278 985 1060 -1257 1322 -1415 0
-2561 396 0
-2561 -2550 0
2561 -396 2550 0
-2562 32 0
-2562 -58 0
-2562 -86 0
-2562 -278 0
-2562 -985 0
-2562 -1060 0
-2562 1257 0
-2562 -1322 0
-2562 1415 0
-2562 -1713 0
2562 -32 58 86 278 985 1060 -1257 1322 -1415 1713 0
-2563 -2561 0
-2563 -2562 0
2563 2561 2562 0
-4266 -562 0
-4266 -564 0
-4266 566 0
-4266 567 0
-4266 574 0
-4266 -583 0
-4266 591 0
-4266 593 0
-4266 594 0
4266 562 564 -566 -567 -574 583 -591 -593 -594 0
-4267 590 0
-4267 -4266 0
4267 -590 4266 0
-4268 19 0
-4268 590 0
-4268 -680 0
-4268 681 0
-4268 -686 0
-4268 -1431 0
-4268 -2002 0
-4268 -2014 0
-4268 -2015 0
-4268 -2018 0
-4268 -2019 0
-4268 -4266 0
4268 -19 -590 680 -681 686 1431 2002 2014 2015 2018 2019 4266 0
-4270 350 0
-4270 590 0
-4270 -4266 0
4270 -350 -590 4266 0
-4271 350 0
-4271 -363 0
-4271 590 0
-4271 -4266 0
-4271 -4268 0
4271 -350 363 -590 4266 4268 0
-4273 363 0
-4273 -4268 0
-4273 -4270 0
4273 -363 4268 4270 0
-4274 -4271 0
-4274 -4273 0
4274 4271 4273 0
350 4274 -4275 0
-350 -4274 -4275 0
350 -4274 4275 0
-350 4274 4275 0
-4276 350 0
-4276 -4267 0
4276 -350 4267 0
-4278 -350 0
-4278 590 0
-4278 -4266 0
-4278 -4268 0
4278 350 -590 4266 4268 0
-4279 -4276 0
-4279 -4278 0
4279 4276 4278 0
352 4279 -4280 0
-352 -4279 -4280 0
352 -4279 4280 0
-352 4279 4280 0
-5205 690 0
-5205 -750 0
-5205 -751 0
-5205 752 0
-5205 -1431 0
-5205 -2002 0
-5205 -2348 0
-5205 -2352 0
5205 -690 750 751 -752 1431 2002 2348 2352 0
-5207 392 0
-5207 393 0
5207 -392 -393 0
-5208 391 0
-5208 -5205 0
-5208 -5207 0
5208 -391 5205 5207 0
-5210 -391 0
-5210 392 0
-5210 393 0
-5210 -5205 0
5210 391 -392 -393 5205 0
-5211 -5208 0
-5211 -5210 0
5211 5208 5210 0
392 5211 -5212 0
-392 -5211 -5212 0
392 -5211 5212 0
-392 5211 5212 0
-5214 -392 0
-5214 393 0
-5214 -5205 0
5214 392 -393 5205 0
-5216 392 0
-5216 -393 0
-5216 -5205 0
5216 -392 393 5205 0
-5217 -5214 0
-5217 -5216 0
5217 5214 5216 0
393 5217 -5218 0
-393 -5217 -5218 0
393 -5217 5218 0
-393 5217 5218 0
-5221 -393 0
-5221 394 0
-5221 395 0
-5221 -5205 0
5221 393 -394 -395 5205 0
-5222 -393 0
-5222 395 0
-5222 -5205 0
5222 393 -395 5205 0
-5223 394 0
-5223 -5222 0
5223 -394 5222 0
-5225 -394 0
-5225 395 0
-5225 -5205 0
5225 394 -395 5205 0
-5227 394 0
-5227 -395 0
-5227 -5205 0
5227 -394 395 5205 0
-5228 -5225 0
-5228 -5227 0
5228 5225 5227 0
395 5228 -5229 0
-395 -5228 -5229 0
395 -5228 5229 0
-395 5228 5229 0
-5231 -49 0
-5231 423 0
-5231 -424 0
-5231 426 0
-5231 427 0
5231 49 -423 424 -426 -427 0
-5233 49 0
-5233 423 0
-5233 -424 0
-5233 427 0
-5233 428 0
5233 -49 -423 424 -427 -428 0
-5235 -49 0
-5235 424 0
-5235 -426 0
-5235 -427 0
-5235 433 0
5235 49 -424 426 427 -433 0
-5237 49 0
-5237 424 0
-5237 -427 0
-5237 -428 0
-5237 433 0
5237 -49 -424 427 428 -433 0
-5240 423 0
-5240 434 0
5240 -423 -434 0
-5241 423 0
-5241 432 0
-5241 434 0
5241 -423 -432 -434 0
-5242 423 0
-5242 431 0
-5242 432 0
-5242 434 0
5242 -423 -431 -432 -434 0
-5243 423 0
-5243 429 0
-5243 431 0
-5243 432 0
-5243 434 0
5243 -423 -429 -431 -432 -434 0
-5244 423 0
-5244 428 0
-5244 429 0
-5244 431 0
-5244 432 0
-5244 434 0
5244 -423 -428 -429 -431 -432 -434 0
-5245 423 0
-5245 427 0
-5245 428 0
-5245 429 0
-5245 431 0
-5245 432 0
-5245 434 0
5245 -423 -427 -428 -429 -431 -432 -434 0
-5246 423 0
-5246 426 0
-5246 427 0
-5246 428 0
-5246 429 0
-5246 431 0
-5246 432 0
-5246 434 0
5246 -423 -426 -427 -428 -429 -431 -432 -434 0
-5247 433 0
-5247 -434 0
5247 -433 434 0
-5248 -432 0
-5248 433 0
-5248 -434 0
5248 432 -433 434 0
-5249 -431 0
-5249 -432 0
-5249 433 0
-5249 -434 0
5249 431 432 -433 434 0
-5250 -429 0
-5250 -431 0
-5250 -432 0
-5250 433 0
-5250 -434 0
5250 429 431 432 -433 434 0
-5251 -428 0
-5251 -429 0
-5251 -431 0
-5251 -432 0
-5251 433 0
-5251 -434 0
5251 428 429 431 432 -433 434 0
-5252 -427 0
-5252 -428 0
-5252 -429 0
-5252 -431 0
-5252 -432 0
-5252 433 0
-5252 -434 0
5252 427 428 429 431 432 -433 434 0
-5253 -426 0
-5253 -427 0
-5253 -428 0
-5253 -429 0
-5253 -431 0
-5253 -432 0
-5253 433 0
-5253 -434 0
5253 426 427 428 429 431 432 -433 434 0
-5254 -5246 0
-5254 -5253 0
5254 5246 5253 0
-5255 424 0
-5255 -5231 0
-5255 -5233 0
-5255 -5235 0
-5255 -5237 0
-5255 -5246 0
-5255 -5253 0
5255 -424 5231 5233 5235 5237 5246 5253 0
-5256 -424 0
-5256 -5254 0
5256 424 5254 0
-5257 -5255 0
-5257 -5256 0
5257 5255 5256 0
426 5257 -5258 0
-426 -5257 -5258 0
426 -5257 5258 0
-426 5257 5258 0
-6159 -5241 0
-6159 -5248 0
6159 5241 5248 0
-6160 -431 0
-6160 -6159 0
6160 431 6159 0
-6162 431 0
-6162 -5231 0
-6162 -5233 0
-6162 -5235 0
-6162 -5237 0
-6162 -5241 0
-6162 -5248 0
6162 -431 5231 5233 5235 5237 5241 5248 0
-6163 -6160 0
-6163 -6162 0
6163 6160 6162 0
432 6163 -6164 0
-432 -6163 -6164 0
432 -6163 6164 0
-432 6163 6164 0
-6165 -5245 0
-6165 -5252 0
6165 5245 5252 0
-6166 -426 0
-6166 -6165 0
6166 426 6165 0
-6168 426 0
-6168 -5231 0
-6168 -5233 0
-6168 -5235 0
-6168 -5237 0
-6168 -5245 0
-6168 -5252 0
6168 -426 5231 5233 5235 5237 5245 5252 0
-6169 -6166 0
-6169 -6168 0
6169 6166 6168 0
427 6169 -6170 0
-427 -6169 -6170 0
427 -6169 6170 0
-427 6169 6170 0
-6172 -5240 0
-6172 -5247 0
6172 5240 5247 0
-6173 432 0
-6173 -5231 0
-6173 -5233 0
-6173 -5235 0
-6173 -5237 0
-6173 -5240 0
-6173 -5247 0
6173 -432 5231 5233 5235 5237 5240 5247 0
-6174 -432 0
-6174 -6172 0
6174 432 6172 0
-6175 -6173 0
-6175 -6174 0
6175 6173 6174 0
434 6175 -6176 0
-434 -6175 -6176 0
434 -6175 6176 0
-434 6175 6176 0
-6178 -5244 0
-6178 -5251 0
6178 5244 5251 0
-6179 427 0
-6179 -5231 0
-6179 -5233 0
-6179 -5235 0
-6179 -5237 0
-6179 -5244 0
-6179 -5251 0
6179 -427 5231 5233 5235 5237 5244 5251 0
-6180 -427 0
-6180 -6178 0
6180 427 6178 0
-6181 -6179 0
-6181 -6180 0
6181 6179 6180 0
428 6181 -6182 0
-428 -6181 -6182 0
428 -6181 6182 0
-428 6181 6182 0
-6183 -5243 0
-6183 -5250 0
6183 5243 5250 0
-6184 -428 0
-6184 -6183 0
6184 428 6183 0
-6186 428 0
-6186 -5231 0
-6186 -5233 0
-6186 -5235 0
-6186 -5237 0
-6186 -5243 0
-6186 -5250 0
6186 -428 5231 5233 5235 5237 5243 5250 0
-6187 -6184 0
-6187 -6186 0
6187 6184 6186 0
429 6187 -6188 0
-429 -6187 -6188 0
429 -6187 6188 0
-429 6187 6188 0
-6190 -5242 0
-6190 -5249 0
6190 5242 5249 0
-6191 429 0
-6191 -5231 0
-6191 -5233 0
-6191 -5235 0
-6191 -5237 0
-6191 -5242 0
-6191 -5249 0
6191 -429 5231 5233 5235 5237 5242 5249 0
-6192 -429 0
-6192 -6190 0
6192 429 6190 0
-6193 -6191 0
-6193 -6192 0
6193 6191 6192 0
431 6193 -6194 0
-431 -6193 -6194 0
431 -6193 6194 0
-431 6193 6194 0
-6196 -423 0
-6196 -433 0
6196 423 433 0
-6197 -434 0
-6197 -5231 0
-6197 -5233 0
-6197 -5235 0
-6197 -5237 0
-6197 -6196 0
6197 434 5231 5233 5235 5237 6196 0
-6198 -423 0
-6198 -433 0
-6198 434 0
6198 423 433 -434 0
-6199 -6197 0
-6199 -6198 0
6199 6197 6198 0
433 6199 -6200 0
-433 -6199 -6200 0
433 -6199 6200 0
-433 6199 6200 0
-6514 155 0
-6514 -406 0
-6514 887 0
-6514 -2181 0
-6514 -2182 0
-6514 -2183 0
-6514 -2184 0
-6514 -2185 0
-6514 -2188 0
-6514 -2189 0
-6514 -2190 0
6514 -155 406 -887 2181 2182 2183 2184 2185 2188 2189 2190 0
-6516 -406 0
-6516 887 0
-6516 979 0
-6516 -2180 0
-6516 -2182 0
-6516 -2183 0
-6516 -2184 0
-6516 -2185 0
-6516 -2188 0
-6516 -2189 0
-6516 -2190 0
6516 406 -887 -979 2180 2182 2183 2184 2185 2188 2189 2190 0
-6518 -406 0
-6518 887 0
-6518 896 0
-6518 -2180 0
-6518 -2181 0
-6518 -2183 0
-6518 -2184 0
-6518 -2185 0
-6518 -2188 0
-6518 -2189 0
-6518 -2190 0
6518 406 -887 -896 2180 2181 2183 2184 2185 2188 2189 2190 0
-6520 -406 0
-6520 812 0
-6520 887 0
-6520 -2180 0
-6520 -2181 0
-6520 -2182 0
-6520 -2184 0
-6520 -2185 0
-6520 -2188 0
-6520 -2189 0
-6520 -2190 0
6520 406 -812 -887 2180 2181 2182 2184 2185 2188 2189 2190 0
-6522 -406 0
-6522 -2180 0
-6522 -2181 0
-6522 -2182 0
-6522 -2183 0
-6522 -2186 0
-6522 -2188 0
-6522 -2189 0
-6522 -2190 0
6522 406 2180 2181 2182 2183 2186 2188 2189 2190 0
-6526 -406 0
-6526 489 0
-6526 887 0
-6526 -2180 0
-6526 -2181 0
-6526 -2182 0
-6526 -2183 0
-6526 -2184 0
-6526 -2185 0
-6526 -2189 0
-6526 -2190 0
6526 406 -489 -887 2180 2181 2182 2183 2184 2185 2189 2190 0
-6529 406 0
-6529 -2180 0
-6529 -2181 0
-6529 -2182 0
-6529 -2183 0
-6529 -2184 0
-6529 -2185 0
-6529 -2188 0
-6529 -2189 0
-6529 -2190 0
6529 -406 2180 2181 2182 2183 2184 2185 2188 2189 2190 0
-6532 322 0
-6532 -406 0
-6532 887 0
-6532 -2180 0
-6532 -2181 0
-6532 -2182 0
-6532 -2183 0
-6532 -2184 0
-6532 -2185 0
-6532 -2188 0
-6532 -2190 0
6532 -322 406 -887 2180 2181 2182 2183 2184 2185 2188 2190 0
-6534 239 0
-6534 -406 0
-6534 887 0
-6534 -2180 0
-6534 -2181 0
-6534 -2182 0
-6534 -2183 0
-6534 -2184 0
-6534 -2185 0
-6534 -2188 0
-6534 -2189 0
6534 -239 406 -887 2180 2181 2182 2183 2184 2185 2188 2189 0
-6537 -2192 0
-6537 -6514 0
-6537 -6516 0
-6537 -6518 0
-6537 -6520 0
-6537 -6522 0
-6537 -6526 0
-6537 -6529 0
-6537 -6532 0
-6537 -6534 0
6537 2192 6514 6516 6518 6520 6522 6526 6529 6532 6534 0
-6539 155 0
-6539 887 0
-6539 -2181 0
-6539 -2182 0
-6539 -2183 0
-6539 -2184 0
-6539 -2185 0
-6539 -2188 0
-6539 -2189 0
-6539 -2190 0
6539 -155 -887 2181 2182 2183 2184 2185 2188 2189 2190 0
-6540 887 0
-6540 979 0
-6540 -2180 0
-6540 -2182 0
-6540 -2183 0
-6540 -2184 0
-6540 -2185 0
-6540 -2188 0
-6540 -2189 0
-6540 -2190 0
6540 -887 -979 2180 2182 2183 2184 2185 2188 2189 2190 0
-6541 887 0
-6541 896 0
-6541 -2180 0
-6541 -2181 0
-6541 -2183 0
-6541 -2184 0
-6541 -2185 0
-6541 -2188 0
-6541 -2189 0
-6541 -2190 0
6541 -887 -896 2180 2181 2183 2184 2185 2188 2189 2190 0
-6542 812 0
-6542 887 0
-6542 -2180 0
-6542 -2181 0
-6542 -2182 0
-6542 -2184 0
-6542 -2185 0
-6542 -2188 0
-6542 -2189 0
-6542 -2190 0
6542 -812 -887 2180 2181 2182 2184 2185 2188 2189 2190 0
-6543 -2180 0
-6543 -2181 0
-6543 -2182 0
-6543 -2183 0
-6543 -2186 0
-6543 -2188 0
-6543 -2189 0
-6543 -2190 0
6543 2180 2181 2182 2183 2186 2188 2189 2190 0
-6546 489 0
-6546 887 0
-6546 -2180 0
-6546 -2181 0
-6546 -2182 0
-6546 -2183 0
-6546 -2184 0
-6546 -2185 0
-6546 -2189 0
-6546 -2190 0
6546 -489 -887 2180 2181 2182 2183 2184 2185 2189 2190 0
-6548 322 0
-6548 887 0
-6548 -2180 0
-6548 -2181 0
-6548 -2182 0
-6548 -2183 0
-6548 -2184 0
-6548 -2185 0
-6548 -2188 0
-6548 -2190 0
6548 -322 -887 2180 2181 2182 2183 2184 2185 2188 2190 0
-6549 239 0
-6549 887 0
-6549 -2180 0
-6549 -2181 0
-6549 -2182 0
-6549 -2183 0
-6549 -2184 0
-6549 -2185 0
-6549 -2188 0
-6549 -2189 0
6549 -239 -887 2180 2181 2182 2183 2184 2185 2188 2189 0
-6552 -2204 0
-6552 -6539 0
-6552 -6540 0
-6552 -6541 0
-6552 -6542 0
-6552 -6543 0
-6552 -6546 0
-6552 -6548 0
-6552 -6549 0
6552 2204 6539 6540 6541 6542 6543 6546 6548 6549 0
6537 6552 -6553 0
-6537 -6552 -6553 0
6537 -6552 6553 0
-6537 6552 6553 0
-6554 -696 0
-6554 726 0
6554 696 -726 0
-7006 391 0
-7006 392 0
-7006 393 0
7006 -391 -392 -393 0
-7007 391 0
-7007 392 0
-7007 393 0
-7007 -6554 0
7007 -391 -392 -393 6554 0
-7008 368 0
-7008 -7006 0
7008 -368 7006 0
-7009 -7007 0
-7009 -7008 0
7009 7007 7008 0
369 7009 -7010 0
-369 -7009 -7010 0
369 -7009 7010 0
-369 7009 7010 0
-7012 391 0
-7012 -392 0
-7012 393 0
7012 -391 392 -393 0
-7013 391 0
-7013 -392 0
-7013 393 0
-7013 -6554 0
7013 -391 392 -393 6554 0
-7014 383 0
-7014 -7012 0
7014 -383 7012 0
-7015 -7013 0
-7015 -7014 0
7015 7013 7014 0
370 7015 -7016 0
-370 -7015 -7016 0
370 -7015 7016 0
-370 7015 7016 0
-7018 -391 0
-7018 392 0
-7018 393 0
7018 391 -392 -393 0
-7019 -391 0
-7019 392 0
-7019 393 0
-7019 -6554 0
7019 391 -392 -393 6554 0
-7020 385 0
-7020 -7018 0
7020 -385 7018 0
-7021 -7019 0
-7021 -7020 0
7021 7019 7020 0
371 7021 -7022 0
-371 -7021 -7022 0
371 -7021 7022 0
-371 7021 7022 0
-7024 -391 0
-7024 -392 0
-7024 393 0
7024 391 392 -393 0
-7025 -391 0
-7025 -392 0
-7025 393 0
-7025 -6554 0
7025 391 392 -393 6554 0
-7026 387 0
-7026 -7024 0
7026 -387 7024 0
-7027 -7025 0
-7027 -7026 0
7027 7025 7026 0
372 7027 -7028 0
-372 -7027 -7028 0
372 -7027 7028 0
-372 7027 7028 0
-7029 391 0
-7029 392 0
-7029 394 0
-7029 395 0
7029 -391 -392 -394 -395 0
-7030 391 0
-7030 392 0
-7030 394 0
-7030 395 0
-7030 -6554 0
7030 -391 -392 -394 -395 6554 0
-7031 369 0
-7031 -7029 0
7031 -369 7029 0
-7032 -7030 0
-7032 -7031 0
7032 7030 7031 0
374 7032 -7033 0
-374 -7032 -7033 0
374 -7032 7033 0
-374 7032 7033 0
-7034 391 0
-7034 -392 0
-7034 394 0
-7034 395 0
7034 -391 392 -394 -395 0
-7035 391 0
-7035 -392 0
-7035 394 0
-7035 395 0
-7035 -6554 0
7035 -391 392 -394 -395 6554 0
-7036 370 0
-7036 -7034 0
7036 -370 7034 0
-7037 -7035 0
-7037 -7036 0
7037 7035 7036 0
375 7037 -7038 0
-375 -7037 -7038 0
375 -7037 7038 0
-375 7037 7038 0
-7039 -391 0
-7039 392 0
-7039 394 0
-7039 395 0
7039 391 -392 -394 -395 0
-7040 -391 0
-7040 392 0
-7040 394 0
-7040 395 0
-7040 -6554 0
7040 391 -392 -394 -395 6554 0
-7041 371 0
-7041 -7039 0
7041 -371 7039 0
-7042 -7040 0
-7042 -7041 0
7042 7040 7041 0
376 7042 -7043 0
-376 -7042 -7043 0
376 -7042 7043 0
-376 7042 7043 0
-7044 -391 0
-7044 -392 0
-7044 394 0
-7044 395 0
7044 391 392 -394 -395 0
-7045 -391 0
-7045 -392 0
-7045 394 0
-7045 395 0
-7045 -6554 0
7045 391 392 -394 -395 6554 0
-7046 372 0
-7046 -7044 0
7046 -372 7044 0
-7047 -7045 0
-7047 -7046 0
7047 7045 7046 0
378 7047 -7048 0
-378 -7047 -7048 0
378 -7047 7048 0
-378 7047 7048 0
-7050 391 0
-7050 392 0
-7050 394 0
-7050 -395 0
7050 -391 -392 -394 395 0
-7051 391 0
-7051 392 0
-7051 394 0
-7051 -395 0
-7051 -6554 0
7051 -391 -392 -394 395 6554 0
-7052 374 0
-7052 -7050 0
7052 -374 7050 0
-7053 -7051 0
-7053 -7052 0
7053 7051 7052 0
379 7053 -7054 0
-379 -7053 -7054 0
379 -7053 7054 0
-379 7053 7054 0
-7055 391 0
-7055 -392 0
-7055 394 0
-7055 -395 0
7055 -391 392 -394 395 0
-7056 391 0
-7056 -392 0
-7056 394 0
-7056 -395 0
-7056 -6554 0
7056 -391 392 -394 395 6554 0
-7057 375 0
-7057 -7055 0
7057 -375 7055 0
-7058 -7056 0
-7058 -7057 0
7058 7056 7057 0
380 7058 -7059 0
-380 -7058 -7059 0
380 -7058 7059 0
-380 7058 7059 0
-7060 -391 0
-7060 392 0
-7060 394 0
-7060 -395 0
7060 391 -392 -394 395 0
-7061 -391 0
-7061 392 0
-7061 394 0
-7061 -395 0
-7061 -6554 0
7061 391 -392 -394 395 6554 0
-7062 376 0
-7062 -7060 0
7062 -376 7060 0
-7063 -7061 0
-7063 -7062 0
7063 7061 7062 0
381 7063 -7064 0
-381 -7063 -7064 0
381 -7063 7064 0
-381 7063 7064 0
-7065 -391 0
-7065 -392 0
-7065 394 0
-7065 -395 0
7065 391 392 -394 395 0
-7066 -391 0
-7066 -392 0
-7066 394 0
-7066 -395 0
-7066 -6554 0
7066 391 392 -394 395 6554 0
-7067 378 0
-7067 -7065 0
7067 -378 7065 0
-7068 -7066 0
-7068 -7067 0
7068 7066 7067 0
382 7068 -7069 0
-382 -7068 -7069 0
382 -7068 7069 0
-382 7068 7069 0
-7071 391 0
-7071 392 0
-7071 -394 0
-7071 395 0
7071 -391 -392 394 -395 0
-7072 391 0
-7072 392 0
-7072 -394 0
-7072 395 0
-7072 -6554 0
7072 -391 -392 394 -395 6554 0
-7073 379 0
-7073 -7071 0
7073 -379 7071 0
-7074 -7072 0
-7074 -7073 0
7074 7072 7073 0
384 7074 -7075 0
-384 -7074 -7075 0
384 -7074 7075 0
-384 7074 7075 0
-7076 391 0
-7076 -392 0
-7076 -394 0
-7076 395 0
7076 -391 392 394 -395 0
-7077 391 0
-7077 -392 0
-7077 -394 0
-7077 395 0
-7077 -6554 0
7077 -391 392 394 -395 6554 0
-7078 380 0
-7078 -7076 0
7078 -380 7076 0
-7079 -7077 0
-7079 -7078 0
7079 7077 7078 0
386 7079 -7080 0
-386 -7079 -7080 0
386 -7079 7080 0
-386 7079 7080 0
-7081 -391 0
-7081 392 0
-7081 -394 0
-7081 395 0
7081 391 -392 394 -395 0
-7082 -391 0
-7082 392 0
-7082 -394 0
-7082 395 0
-7082 -6554 0
7082 391 -392 394 -395 6554 0
-7083 381 0
-7083 -7081 0
7083 -381 7081 0
-7084 -7082 0
-7084 -7083 0
7084 7082 7083 0
388 7084 -7085 0
-388 -7084 -7085 0
388 -7084 7085 0
-388 7084 7085 0
-7086 -391 0
-7086 -392 0
-7086 -394 0
-7086 395 0
7086 391 392 394 -395 0
-7087 -391 0
-7087 -392 0
-7087 -394 0
-7087 395 0
-7087 -6554 0
7087 391 392 394 -395 6554 0
-7088 382 0
-7088 -7086 0
7088 -382 7086 0
-7089 -7087 0
-7089 -7088 0
7089 7087 7088 0
389 7089 -7090 0
-389 -7089 -7090 0
389 -7089 7090 0
-389 7089 7090 0
-7092 391 0
-7092 392 0
-7092 -393 0
-7092 -394 0
-7092 -395 0
7092 -391 -392 393 394 395 0
-7093 391 0
-7093 392 0
-7093 -393 0
-7093 -394 0
-7093 -395 0
-7093 -6554 0
7093 -391 -392 393 394 395 6554 0
-7094 384 0
-7094 -7092 0
7094 -384 7092 0
-7095 -7093 0
-7095 -7094 0
7095 7093 7094 0
383 7095 -7096 0
-383 -7095 -7096 0
383 -7095 7096 0
-383 7095 7096 0
-7097 391 0
-7097 -392 0
-7097 -393 0
-7097 -394 0
-7097 -395 0
7097 -391 392 393 394 395 0
-7098 391 0
-7098 -392 0
-7098 -393 0
-7098 -394 0
-7098 -395 0
-7098 -6554 0
7098 -391 392 393 394 395 6554 0
-7099 386 0
-7099 -7097 0
7099 -386 7097 0
-7100 -7098 0
-7100 -7099 0
7100 7098 7099 0
385 7100 -7101 0
-385 -7100 -7101 0
385 -7100 7101 0
-385 7100 7101 0
-7102 -391 0
-7102 392 0
-7102 -393 0
-7102 -394 0
-7102 -395 0
7102 391 -392 393 394 395 0
-7103 -391 0
-7103 392 0
-7103 -393 0
-7103 -394 0
-7103 -395 0
-7103 -6554 0
7103 391 -392 393 394 395 6554 0
-7104 388 0
-7104 -7102 0
7104 -388 7102 0
-7105 -7103 0
-7105 -7104 0
7105 7103 7104 0
387 7105 -7106 0
-387 -7105 -7106 0
387 -7105 7106 0
-387 7105 7106 0
-7107 -391 0
-7107 -392 0
-7107 -393 0
-7107 -394 0
-7107 -395 0
7107 391 392 393 394 395 0
-7108 -391 0
-7108 -392 0
-7108 -393 0
-7108 -394 0
-7108 -395 0
-7108 -6554 0
7108 391 392 393 394 395 6554 0
-7109 389 0
-7109 -7107 0
7109 -389 7107 0
-7110 -7108 0
-7110 -7109 0
7110 7108 7109 0
391 7110 -7111 0
-391 -7110 -7111 0
391 -7110 7111 0
-391 7110 7111 0
-7112 -393 0
-7112 -395 0
-7112 -5205 0
7112 393 395 5205 0
-8561 397 0
-8561 -6554 0
-8561 -7006 0
8561 -397 6554 7006 0
-8562 -6554 0
-8562 -8561 0
8562 6554 8561 0
-8563 397 0
-8563 -7006 0
-8563 -8561 0
8563 -397 7006 8561 0
-8564 -8562 0
-8564 -8563 0
8564 8562 8563 0
-8565 350 0
-8565 354 0
-8565 363 0
-8565 365 0
8565 -350 -354 -363 -365 0
-8566 350 0
-8566 354 0
-8566 363 0
-8566 365 0
-8566 590 0
-8566 -4266 0
8566 -350 -354 -363 -365 -590 4266 0
-8567 350 0
-8567 354 0
-8567 363 0
-8567 365 0
-8567 -402 0
-8567 590 0
-8567 -4266 0
8567 -350 -354 -363 -365 402 -590 4266 0
-8568 402 0
-8568 -8566 0
8568 -402 8566 0
-8569 -8567 0
-8569 -8568 0
8569 8567 8568 0
403 8569 -8570 0
-403 -8569 -8570 0
403 -8569 8570 0
-403 8569 8570 0
-8571 -404 0
-8571 405 0
8571 404 -405 0
-8572 -404 0
-8572 -8571 0
8572 404 8571 0
-8573 405 0
-8573 -8571 0
8573 -405 8571 0
-8574 -8572 0
-8574 -8573 0
8574 8572 8573 0
-8575 350 0
-8575 354 0
-8575 363 0
-8575 365 0
-8575 590 0
-8575 -4266 0
-8575 -8574 0
8575 -350 -354 -363 -365 -590 4266 8574 0
-8576 403 0
-8576 -8566 0
8576 -403 8566 0
-8577 -8575 0
-8577 -8576 0
8577 8575 8576 0
404 8577 -8578 0
-404 -8577 -8578 0
404 -8577 8578 0
-404 8577 8578 0
-8579 350 0
-8579 354 0
-8579 363 0
-8579 365 0
-8579 405 0
-8579 590 0
-8579 -4266 0
8579 -350 -354 -363 -365 -405 -590 4266 0
-8580 404 0
-8580 -8566 0
8580 -404 8566 0
-8581 -8579 0
-8581 -8580 0
8581 8579 8580 0
405 8581 -8582 0
-405 -8581 -8582 0
405 -8581 8582 0
-405 8581 8582 0
-8583 407 0
-8583 408 0
8583 -407 -408 0
-8584 408 0
-8584 -8583 0
8584 -408 8583 0
-8585 407 0
-8585 -8583 0
8585 -407 8583 0
-8586 -8584 0
-8586 -8585 0
8586 8584 8585 0
-8587 350 0
-8587 354 0
-8587 363 0
-8587 365 0
-8587 590 0
-8587 -4266 0
-8587 -8586 0
8587 -350 -354 -363 -365 -590 4266 8586 0
-8588 406 0
-8588 -8566 0
8588 -406 8566 0
-8589 -8587 0
-8589 -8588 0
8589 8587 8588 0
408 8589 -8590 0
-408 -8589 -8590 0
408 -8589 8590 0
-408 8589 8590 0
-8591 408 0
-8591 -4267 0
8591 -408 4267 0
-8593 350 0
-8593 354 0
-8593 363 0
-8593 365 0
-8593 368 0
8593 -350 -354 -363 -365 -368 0
-8595 354 0
-8595 361 0
8595 -354 -361 0
-8596 354 0
-8596 -8595 0
8596 -354 8595 0
-8597 361 0
-8597 -8595 0
8597 -361 8595 0
-8598 -8596 0
-8598 -8597 0
8598 8596 8597 0
-8599 -350 0
-8599 363 0
-8599 366 0
-8599 369 0
-8599 -8598 0
8599 350 -363 -366 -369 8598 0
-8601 350 0
-8601 360 0
-8601 -363 0
-8601 374 0
-8601 -8598 0
8601 -350 -360 363 -374 8598 0
-8603 -350 0
-8603 -363 0
-8603 364 0
-8603 379 0
-8603 -8598 0
8603 350 363 -364 -379 8598 0
-8605 350 0
-8605 -354 0
-8605 361 0
-8605 363 0
-8605 384 0
8605 -350 354 -361 -363 -384 0
-8606 -350 0
-8606 -354 0
-8606 355 0
-8606 363 0
-8606 383 0
8606 350 354 -355 -363 -383 0
-8607 350 0
-8607 -354 0
-8607 356 0
-8607 -363 0
-8607 370 0
8607 -350 354 -356 363 -370 0
-8608 -350 0
-8608 -354 0
-8608 358 0
-8608 -363 0
-8608 375 0
8608 350 354 -358 363 -375 0
-8610 350 0
-8610 -354 0
-8610 359 0
-8610 363 0
-8610 380 0
8610 -350 354 -359 -363 -380 0
-8611 -350 0
-8611 -354 0
-8611 362 0
-8611 363 0
-8611 386 0
8611 350 354 -362 -363 -386 0
-8612 350 0
-8612 -354 0
-8612 -363 0
-8612 365 0
-8612 385 0
8612 -350 354 363 -365 -385 0
-8613 -350 0
-8613 -363 0
-8613 366 0
-8613 371 0
-8613 -8596 0
-8613 -8597 0
8613 350 363 -366 -371 8596 8597 0
-8615 350 0
-8615 360 0
-8615 363 0
-8615 376 0
-8615 -8596 0
-8615 -8597 0
8615 -350 -360 -363 -376 8596 8597 0
-8616 -350 0
-8616 363 0
-8616 364 0
-8616 381 0
-8616 -8596 0
-8616 -8597 0
8616 350 -363 -364 -381 8596 8597 0
-8617 350 0
-8617 354 0
-8617 361 0
-8617 -363 0
-8617 388 0
8617 -350 -354 -361 363 -388 0
-8618 -350 0
-8618 354 0
-8618 355 0
-8618 -363 0
-8618 387 0
8618 350 -354 -355 363 -387 0
-8620 350 0
-8620 354 0
-8620 356 0
-8620 363 0
-8620 372 0
8620 -350 -354 -356 -363 -372 0
-8621 -350 0
-8621 354 0
-8621 358 0
-8621 363 0
-8621 378 0
8621 350 -354 -358 -363 -378 0
-8622 350 0
-8622 354 0
-8622 359 0
-8622 -363 0
-8622 382 0
8622 -350 -354 -359 363 -382 0
-8623 -350 0
-8623 354 0
-8623 362 0
-8623 -363 0
-8623 389 0
8623 350 -354 -362 363 -389 0
-8626 -8593 0
-8626 -8599 0
-8626 -8601 0
-8626 -8603 0
-8626 -8605 0
-8626 -8606 0
-8626 -8607 0
-8626 -8608 0
-8626 -8610 0
-8626 -8611 0
-8626 -8612 0
-8626 -8613 0
-8626 -8615 0
-8626 -8616 0
-8626 -8617 0
-8626 -8618 0
-8626 -8620 0
-8626 -8621 0
-8626 -8622 0
-8626 -8623 0
8626 8593 8599 8601 8603 8605 8606 8607 8608 8610 8611 8612 8613 8615 8616 8617 8618 8620 8621 8622 8623 0
-8628 408 0
-8628 -8565 0
-8628 -8626 0
8628 -408 8565 8626 0
-8629 -8626 0
-8629 -8628 0
8629 8626 8628 0
-8630 408 0
-8630 -8565 0
-8630 -8628 0
8630 -408 8565 8628 0
-8631 -8629 0
-8631 -8630 0
8631 8629 8630 0
-8632 590 0
-8632 -4266 0
-8632 -8631 0
8632 -590 4266 8631 0
-8633 -8591 0
-8633 -8632 0
8633 8591 8632 0
407 8633 -8634 0
-407 -8633 -8634 0
407 -8633 8634 0
-407 8633 8634 0
-9560 556 0
-9560 -4267 0
9560 -556 4267 0
-9561 590 0
-9561 -4266 0
-9561 -8626 0
9561 -590 4266 8626 0
-9562 -9560 0
-9562 -9561 0
9562 9560 9561 0
368 9562 -9563 0
-368 -9562 -9563 0
368 -9562 9563 0
-368 9562 9563 0
-9564 -5235 0
-9564 -5237 0
9564 5235 5237 0
424 9564 -9565 0
-424 -9564 -9565 0
424 -9564 9565 0
-424 9564 9565 0
-9566 -5231 0
-9566 -5233 0
9566 5231 5233 0
422 9566 -9567 0
-422 -9566 -9567 0
422 -9566 9567 0
-422 9566 9567 0
-9933 -400 0
-9933 -403 0
-9933 887 0
-9933 -2162 0
-9933 -2165 0
-9933 -2167 0
-9933 -2169 0
-9933 -2173 0
-9933 -2175 0
-9933 -2177 0
9933 400 403 -887 2162 2165 2167 2169 2173 2175 2177 0
-9935 -400 0
-9935 -403 0
-9935 887 0
-9935 -2163 0
-9935 -2164 0
-9935 -2167 0
-9935 -2169 0
-9935 -2173 0
-9935 -2175 0
-9935 -2177 0
9935 400 403 -887 2163 2164 2167 2169 2173 2175 2177 0
-9937 -400 0
-9937 -403 0
-9937 887 0
-9937 -2163 0
-9937 -2165 0
-9937 -2166 0
-9937 -2169 0
-9937 -2173 0
-9937 -2175 0
-9937 -2177 0
9937 400 403 -887 2163 2165 2166 2169 2173 2175 2177 0
-9939 -400 0
-9939 -403 0
-9939 887 0
-9939 -2163 0
-9939 -2165 0
-9939 -2167 0
-9939 -2168 0
-9939 -2173 0
-9939 -2175 0
-9939 -2177 0
9939 400 403 -887 2163 2165 2167 2168 2173 2175 2177 0
-9943 -2163 0
-9943 -2165 0
-9943 -2167 0
-9943 -2169 0
-9943 -2171 0
-9943 -2173 0
-9943 -2175 0
-9943 -2177 0
9943 2163 2165 2167 2169 2171 2173 2175 2177 0
-9946 -400 0
-9946 -403 0
-9946 887 0
-9946 -2163 0
-9946 -2165 0
-9946 -2167 0
-9946 -2169 0
-9946 -2172 0
-9946 -2175 0
-9946 -2177 0
9946 400 403 -887 2163 2165 2167 2169 2172 2175 2177 0
-9949 -400 0
-9949 -403 0
-9949 887 0
-9949 -2163 0
-9949 -2165 0
-9949 -2167 0
-9949 -2169 0
-9949 -2173 0
-9949 -2174 0
-9949 -2177 0
9949 400 403 -887 2163 2165 2167 2169 2173 2174 2177 0
-9952 -400 0
-9952 -403 0
-9952 887 0
-9952 -2163 0
-9952 -2165 0
-9952 -2167 0
-9952 -2169 0
-9952 -2173 0
-9952 -2175 0
-9952 -2176 0
9952 400 403 -887 2163 2165 2167 2169 2173 2175 2176 0
-9955 -2179 0
-9955 -9933 0
-9955 -9935 0
-9955 -9937 0
-9955 -9939 0
-9955 -9943 0
-9955 -9946 0
-9955 -9949 0
-9955 -9952 0
9955 2179 9933 9935 9937 9939 9943 9946 9949 9952 0
-9956 887 0
-9956 -2162 0
-9956 -2165 0
-9956 -2167 0
-9956 -2169 0
-9956 -2173 0
-9956 -2175 0
-9956 -2177 0
9956 -887 2162 2165 2167 2169 2173 2175 2177 0
-9957 887 0
-9957 -2163 0
-9957 -2164 0
-9957 -2167 0
-9957 -2169 0
-9957 -2173 0
-9957 -2175 0
-9957 -2177 0
9957 -887 2163 2164 2167 2169 2173 2175 2177 0
-9958 887 0
-9958 -2163 0
-9958 -2165 0
-9958 -2166 0
-9958 -2169 0
-9958 -2173 0
-9958 -2175 0
-9958 -2177 0
9958 -887 2163 2165 2166 2169 2173 2175 2177 0
-9959 887 0
-9959 -2163 0
-9959 -2165 0
-9959 -2167 0
-9959 -2168 0
-9959 -2173 0
-9959 -2175 0
-9959 -2177 0
9959 -887 2163 2165 2167 2168 2173 2175 2177 0
-9962 887 0
-9962 -2163 0
-9962 -2165 0
-9962 -2167 0
-9962 -2169 0
-9962 -2172 0
-9962 -2175 0
-9962 -2177 0
9962 -887 2163 2165 2167 2169 2172 2175 2177 0
-9964 887 0
-9964 -2163 0
-9964 -2165 0
-9964 -2167 0
-9964 -2169 0
-9964 -2173 0
-9964 -2174 0
-9964 -2177 0
9964 -887 2163 2165 2167 2169 2173 2174 2177 0
-9966 887 0
-9966 -2163 0
-9966 -2165 0
-9966 -2167 0
-9966 -2169 0
-9966 -2173 0
-9966 -2175 0
-9966 -2176 0
9966 -887 2163 2165 2167 2169 2173 2175 2176 0
-9969 -2202 0
-9969 -9956 0
-9969 -9957 0
-9969 -9958 0
-9969 -9959 0
-9969 -9962 0
-9969 -9964 0
-9969 -9966 0
9969 2202 9956 9957 9958 9959 9962 9964 9966 0
9955 9969 -9970 0
-9955 -9969 -9970 0
9955 -9969 9970 0
-9955 9969 9970 0
-10752 391 0
-10752 392 0
-10752 393 0
-10752 397 0
10752 -391 -392 -393 -397 0
-10753 407 0
-10753 -7006 0
10753 -407 7006 0
-10754 -10752 0
-10754 -10753 0
10754 10752 10753 0
397 10754 -10755 0
-397 -10754 -10755 0
397 -10754 10755 0
-397 10754 10755 0
-10756 -401 0
-10756 402 0
10756 401 -402 0
-10757 -401 0
-10757 -10756 0
10757 401 10756 0
-10758 402 0
-10758 -10756 0
10758 -402 10756 0
-10759 -10757 0
-10759 -10758 0
10759 10757 10758 0
-10760 391 0
-10760 392 0
-10760 393 0
-10760 -10759 0
10760 -391 -392 -393 10759 0
-10761 400 0
-10761 -7006 0
10761 -400 7006 0
-10762 -10760 0
-10762 -10761 0
10762 10760 10761 0
401 10762 -10763 0
-401 -10762 -10763 0
401 -10762 10763 0
-401 10762 10763 0
-10764 391 0
-10764 392 0
-10764 393 0
-10764 402 0
10764 -391 -392 -393 -402 0
-10765 401 0
-10765 -7006 0
10765 -401 7006 0
-10766 -10764 0
-10766 -10765 0
10766 10764 10765 0
402 10766 -10767 0
-402 -10766 -10767 0
402 -10766 10767 0
-402 10766 10767 0
-10768 391 0
-10768 392 0
-10768 393 0
-10768 -405 0
10768 -391 -392 -393 405 0
-10769 405 0
-10769 -7006 0
10769 -405 7006 0
-10770 -10768 0
-10770 -10769 0
10770 10768 10769 0
406 10770 -10771 0
-406 -10770 -10771 0
406 -10770 10771 0
-406 10770 10771 0
-10772 421 0
-10772 422 0
10772 -421 -422 0
-10773 421 0
-10773 -422 0
10773 -421 422 0
-10774 -410 0
-10774 412 0
10774 410 -412 0
-10775 -433 0
-10775 -10774 0
10775 433 10774 0
-10776 -413 0
-10776 -10775 0
10776 413 10775 0
410 10776 -10777 0
-410 -10776 -10777 0
410 -10776 10777 0
-410 10776 10777 0
-10778 -411 0
-10778 413 0
10778 411 -413 0
-10779 -423 0
-10779 -10778 0
10779 423 10778 0
-10780 -412 0
-10780 -10779 0
10780 412 10779 0
411 10780 -10781 0
-411 -10780 -10781 0
411 -10780 10781 0
-411 10780 10781 0
354 423 -10782 0
-354 -423 -10782 0
354 -423 10782 0
-354 423 10782 0
-10783 416 0
-10783 417 0
10783 -416 -417 0
-10784 415 0
-10784 416 0
-10784 417 0
10784 -415 -416 -417 0
-10785 414 0
-10785 -10784 0
10785 -414 10784 0
-10786 -414 0
-10786 415 0
-10786 416 0
-10786 417 0
10786 414 -415 -416 -417 0
-10787 -10785 0
-10787 -10786 0
10787 10785 10786 0
415 10787 -10788 0
-415 -10787 -10788 0
415 -10787 10788 0
-415 10787 10788 0
-10789 -415 0
-10789 416 0
-10789 417 0
10789 415 -416 -417 0
-10790 415 0
-10790 -10783 0
10790 -415 10783 0
-10791 -10789 0
-10791 -10790 0
10791 10789 10790 0
416 10791 -10792 0
-416 -10791 -10792 0
416 -10791 10792 0
-416 10791 10792 0
-10793 416 0
-10793 -417 0
10793 -416 417 0
-10794 -416 0
-10794 417 0
10794 416 -417 0
-10795 -10793 0
-10795 -10794 0
10795 10793 10794 0
417 10795 -10796 0
-417 -10795 -10796 0
417 -10795 10796 0
-417 10795 10796 0
-10797 419 0
-10797 -421 0
10797 -419 421 0
-10798 419 0
-10798 -422 0
10798 -419 422 0
-10799 -417 0
-10799 -418 0
-10799 -10798 0
10799 417 418 10798 0
-10800 417 0
-10800 418 0
10800 -417 -418 0
-10801 -10797 0
-10801 -10799 0
-10801 -10800 0
10801 10797 10799 10800 0
418 10801 -10802 0
-418 -10801 -10802 0
418 -10801 10802 0
-418 10801 10802 0
-10803 -417 0
-10803 419 0
-10803 -421 0
10803 417 -419 421 0
-10804 417 0
-10804 419 0
-10804 -422 0
10804 -417 -419 422 0
-10805 -10803 0
-10805 -10804 0
10805 10803 10804 0
419 10805 -10806 0
-419 -10805 -10806 0
419 -10805 10806 0
-419 10805 10806 0
-11610 360 0
-11610 361 0
-11610 364 0
-11610 366 0
11610 -360 -361 -364 -366 0
-11611 354 0
-11611 360 0
-11611 361 0
-11611 364 0
-11611 366 0
11611 -354 -360 -361 -364 -366 0
-11612 353 0
-11612 -11611 0
11612 -353 11611 0
-11613 353 0
-11613 354 0
-11613 360 0
-11613 361 0
-11613 364 0
-11613 366 0
11613 -353 -354 -360 -361 -364 -366 0
-11614 -352 0
-11614 -11611 0
11614 352 11611 0
354 11614 -11615 0
-354 -11614 -11615 0
354 -11614 11615 0
-354 11614 11615 0
-11616 -354 0
-11616 360 0
-11616 361 0
-11616 364 0
-11616 366 0
11616 354 -360 -361 -364 -366 0
-11617 354 0
-11617 -11610 0
11617 -354 11610 0
-11618 -11616 0
-11618 -11617 0
11618 11616 11617 0
355 11618 -11619 0
-355 -11618 -11619 0
355 -11618 11619 0
-355 11618 11619 0
-11620 -360 0
-11620 366 0
11620 360 -366 0
-11621 360 0
-11621 -364 0
11621 -360 364 0
-11622 -361 0
-11622 364 0
11622 361 -364 0
-11623 362 0
-11623 -365 0
11623 -362 365 0
-11624 365 0
-11624 -366 0
11624 -365 366 0
-11626 -11610 0
-11626 -11620 0
-11626 -11621 0
-11626 -11622 0
-11626 -11623 0
-11626 -11624 0
11626 11610 11620 11621 11622 11623 11624 0
-12153 -391 0
-12153 -2214 0
-12153 -2305 0
-12153 -2318 0
-12153 -2561 0
-12153 -2562 0
-12153 4275 0
-12153 4280 0
-12153 5212 0
-12153 5218 0
-12153 -5223 0
-12153 5229 0
-12153 5258 0
-12153 6164 0
-12153 6170 0
-12153 6176 0
-12153 6182 0
-12153 6188 0
-12153 6194 0
-12153 6200 0
-12153 -6553 0
-12153 7010 0
-12153 7016 0
-12153 7022 0
-12153 7028 0
-12153 7033 0
-12153 7038 0
-12153 7043 0
-12153 7048 0
-12153 7054 0
-12153 7059 0
-12153 7064 0
-12153 7069 0
-12153 7075 0
-12153 7080 0
-12153 7085 0
-12153 7090 0
-12153 7096 0
-12153 7101 0
-12153 7106 0
-12153 7111 0
-12153 -7112 0
-12153 -8562 0
-12153 -8563 0
-12153 8570 0
-12153 8578 0
-12153 8582 0
-12153 8590 0
-12153 8634 0
-12153 9563 0
-12153 -9565 0
-12153 -9567 0
-12153 -9970 0
-12153 10755 0
-12153 10763 0
-12153 10767 0
-12153 10771 0
-12153 -10773 0
-12153 -10777 0
-12153 -10781 0
-12153 -10782 0
-12153 10788 0
-12153 10792 0
-12153 10796 0
-12153 10802 0
-12153 10806 0
-12153 -11613 0
-12153 -11615 0
-12153 11619 0
-12153 -11626 0
12153 391 2214 2305 2318 2561 2562 -4275 -4280 -5212 -5218 5223 -5229 -5258 -6164 -6170 -6176 -6182 -6188 -6194 -6200 6553 -7010 -7016 -7022 -7028 -7033 -7038 -7043 -7048 -7054 -7059 -7064 -7069 -7075 -7080 -7085 -7090 -7096 -7101 -7106 -7111 7112 8562 8563 -8570 -8578 -8582 -8590 -8634 -9563 9565 9567 9970 -10755 -10763 -10767 -10771 10773 10777 10781 10782 -10788 -10792 -10796 -10802 -10806 11613 11615 -11619 11626 0
-12154 887 0
-12154 -2171 0
12154 -887 2171 0
-12156 -2163 0
-12156 -2165 0
-12156 -2167 0
-12156 -2169 0
-12156 -2173 0
-12156 -2175 0
-12156 -2177 0
-12156 -12154 0
12156 2163 2165 2167 2169 2173 2175 2177 12154 0
-12157 406 0
-12157 887 0
12157 -406 -887 0
-12159 -2180 0
-12159 -2181 0
-12159 -2182 0
-12159 -2183 0
-12159 -2184 0
-12159 -2185 0
-12159 -2188 0
-12159 -2189 0
-12159 -2190 0
-12159 -12157 0
12159 2180 2181 2182 2183 2184 2185 2188 2189 2190 12157 0
-12166 -12154 0
-12166 -12157 0
12166 12154 12157 0
2211 12166 -12167 0
-2211 -12166 -12167 0
2211 -12166 12167 0
-2211 12166 12167 0
-12170 887 0
-12170 -1019 0
-12170 -1021 0
-12170 -2149 0
-12170 -2155 0
-12170 -2158 0
-12170 -2160 0
-12170 -2163 0
-12170 -2165 0
-12170 -2167 0
-12170 -2169 0
-12170 -2173 0
-12170 -2175 0
-12170 -2177 0
-12170 -2180 0
-12170 -2181 0
-12170 -2182 0
-12170 -2183 0
-12170 -2184 0
-12170 -2185 0
-12170 -2188 0
-12170 -2189 0
-12170 -2190 0
-12170 -2196 0
-12170 -2199 0
-12170 12167 0
12170 -887 1019 1021 2149 2155 2158 2160 2163 2165 2167 2169 2173 2175 2177 2180 2181 2182 2183 2184 2185 2188 2189 2190 2196 2199 -12167 0
2171 12154 -12175 0
-2171 -12154 -12175 0
2171 -12154 12175 0
-2171 12154 12175 0
-12178 887 0
-12178 -1033 0
-12178 -2163 0
-12178 -2165 0
-12178 -2167 0
-12178 -2169 0
-12178 -2173 0
-12178 -2175 0
-12178 -2177 0
-12178 -2294 0
-12178 -2297 0
-12178 -12175 0
12178 -887 1033 2163 2165 2167 2169 2173 2175 2177 2294 2297 12175 0
-12183 406 0
-12183 -887 0
12183 -406 887 0
-12185 887 0
-12185 -2563 0
12185 -887 2563 0
2563 12185 -12187 0
-2563 -12185 -12187 0
2563 -12185 12187 0
-2563 12185 12187 0
-12188 887 0
-12188 -4274 0
12188 -887 4274 0
-12189 350 0
-12189 -887 0
12189 -350 887 0
-12190 -12188 0
-12190 -12189 0
12190 12188 12189 0
4274 12190 -12191 0
-4274 -12190 -12191 0
4274 -12190 12191 0
-4274 12190 12191 0
-12192 887 0
-12192 -4279 0
12192 -887 4279 0
-12193 352 0
-12193 -887 0
12193 -352 887 0
-12194 -12192 0
-12194 -12193 0
12194 12192 12193 0
4279 12194 -12195 0
-4279 -12194 -12195 0
4279 -12194 12195 0
-4279 12194 12195 0
-12196 887 0
-12196 -5211 0
12196 -887 5211 0
-12197 392 0
-12197 -887 0
12197 -392 887 0
-12198 -12196 0
-12198 -12197 0
12198 12196 12197 0
5211 12198 -12199 0
-5211 -12198 -12199 0
5211 -12198 12199 0
-5211 12198 12199 0
-12200 887 0
-12200 -5217 0
12200 -887 5217 0
-12201 393 0
-12201 -887 0
12201 -393 887 0
-12202 -12200 0
-12202 -12201 0
12202 12200 12201 0
5217 12202 -12203 0
-5217 -12202 -12203 0
5217 -12202 12203 0
-5217 12202 12203 0
-12204 -393 0
-12204 394 0
-12204 395 0
-12204 887 0
-12204 -5205 0
12204 393 -394 -395 -887 5205 0
-12205 394 0
-12205 -887 0
12205 -394 887 0
-12206 -12204 0
-12206 -12205 0
12206 12204 12205 0
5221 12206 -12207 0
-5221 -12206 -12207 0
5221 -12206 12207 0
-5221 12206 12207 0
-12208 887 0
-12208 -5228 0
12208 -887 5228 0
-12209 395 0
-12209 -887 0
12209 -395 887 0
-12210 -12208 0
-12210 -12209 0
12210 12208 12209 0
5228 12210 -12211 0
-5228 -12210 -12211 0
5228 -12210 12211 0
-5228 12210 12211 0
-12212 887 0
-12212 -5257 0
12212 -887 5257 0
-12213 426 0
-12213 -887 0
12213 -426 887 0
-12214 -12212 0
-12214 -12213 0
12214 12212 12213 0
5257 12214 -12215 0
-5257 -12214 -12215 0
5257 -12214 12215 0
-5257 12214 12215 0
-12216 887 0
-12216 -6163 0
12216 -887 6163 0
-12217 432 0
-12217 -887 0
12217 -432 887 0
-12218 -12216 0
-12218 -12217 0
12218 12216 12217 0
6163 12218 -12219 0
-6163 -12218 -12219 0
6163 -12218 12219 0
-6163 12218 12219 0
-12220 887 0
-12220 -6169 0
12220 -887 6169 0
-12221 427 0
-12221 -887 0
12221 -427 887 0
-12222 -12220 0
-12222 -12221 0
12222 12220 12221 0
6169 12222 -12223 0
-6169 -12222 -12223 0
6169 -12222 12223 0
-6169 12222 12223 0
-12224 887 0
-12224 -6175 0
12224 -887 6175 0
-12225 434 0
-12225 -887 0
12225 -434 887 0
-12226 -12224 0
-12226 -12225 0
12226 12224 12225 0
6175 12226 -12227 0
-6175 -12226 -12227 0
6175 -12226 12227 0
-6175 12226 12227 0
-12228 887 0
-12228 -6181 0
12228 -887 6181 0
-12229 428 0
-12229 -887 0
12229 -428 887 0
-12230 -12228 0
-12230 -12229 0
12230 12228 12229 0
6181 12230 -12231 0
-6181 -12230 -12231 0
6181 -12230 12231 0
-6181 12230 12231 0
-12232 887 0
-12232 -6187 0
12232 -887 6187 0
-12233 429 0
-12233 -887 0
12233 -429 887 0
-12234 -12232 0
-12234 -12233 0
12234 12232 12233 0
6187 12234 -12235 0
-6187 -12234 -12235 0
6187 -12234 12235 0
-6187 12234 12235 0
-12236 887 0
-12236 -6193 0
12236 -887 6193 0
-12237 431 0
-12237 -887 0
12237 -431 887 0
-12238 -12236 0
-12238 -12237 0
12238 12236 12237 0
6193 12238 -12239 0
-6193 -12238 -12239 0
6193 -12238 12239 0
-6193 12238 12239 0
-12240 887 0
-12240 -6199 0
12240 -887 6199 0
-12241 433 0
-12241 -887 0
12241 -433 887 0
-12242 -12240 0
-12242 -12241 0
12242 12240 12241 0
6199 12242 -12243 0
-6199 -12242 -12243 0
6199 -12242 12243 0
-6199 12242 12243 0
-12245 155 0
-12245 887 0
-12245 -2181 0
-12245 -2182 0
-12245 -2183 0
-12245 -2184 0
-12245 -2185 0
-12245 -2188 0
-12245 -2189 0
-12245 -2190 0
-12245 -12157 0
12245 -155 -887 2181 2182 2183 2184 2185 2188 2189 2190 12157 0
-12246 887 0
-12246 979 0
-12246 -2180 0
-12246 -2182 0
-12246 -2183 0
-12246 -2184 0
-12246 -2185 0
-12246 -2188 0
-12246 -2189 0
-12246 -2190 0
-12246 -12157 0
12246 -887 -979 2180 2182 2183 2184 2185 2188 2189 2190 12157 0
-12247 887 0
-12247 896 0
-12247 -2180 0
-12247 -2181 0
-12247 -2183 0
-12247 -2184 0
-12247 -2185 0
-12247 -2188 0
-12247 -2189 0
-12247 -2190 0
-12247 -12157 0
12247 -887 -896 2180 2181 2183 2184 2185 2188 2189 2190 12157 0
-12248 812 0
-12248 887 0
-12248 -2180 0
-12248 -2181 0
-12248 -2182 0
-12248 -2184 0
-12248 -2185 0
-12248 -2188 0
-12248 -2189 0
-12248 -2190 0
-12248 -12157 0
12248 -812 -887 2180 2181 2182 2184 2185 2188 2189 2190 12157 0
-12249 -2180 0
-12249 -2181 0
-12249 -2182 0
-12249 -2183 0
-12249 -2186 0
-12249 -2188 0
-12249 -2189 0
-12249 -2190 0
-12249 -12157 0
12249 2180 2181 2182 2183 2186 2188 2189 2190 12157 0
-12252 489 0
-12252 887 0
-12252 -2180 0
-12252 -2181 0
-12252 -2182 0
-12252 -2183 0
-12252 -2184 0
-12252 -2185 0
-12252 -2189 0
-12252 -2190 0
-12252 -12157 0
12252 -489 -887 2180 2181 2182 2183 2184 2185 2189 2190 12157 0
-12254 406 0
-12254 887 0
-12254 -2180 0
-12254 -2181 0
-12254 -2182 0
-12254 -2183 0
-12254 -2184 0
-12254 -2185 0
-12254 -2188 0
-12254 -2189 0
-12254 -2190 0
12254 -406 -887 2180 2181 2182 2183 2184 2185 2188 2189 2190 0
-12256 322 0
-12256 887 0
-12256 -2180 0
-12256 -2181 0
-12256 -2182 0
-12256 -2183 0
-12256 -2184 0
-12256 -2185 0
-12256 -2188 0
-12256 -2190 0
-12256 -12157 0
12256 -322 -887 2180 2181 2182 2183 2184 2185 2188 2190 12157 0
-12257 239 0
-12257 887 0
-12257 -2180 0
-12257 -2181 0
-12257 -2182 0
-12257 -2183 0
-12257 -2184 0
-12257 -2185 0
-12257 -2188 0
-12257 -2189 0
-12257 -12157 0
12257 -239 -887 2180 2181 2182 2183 2184 2185 2188 2189 12157 0
-12260 -12159 0
-12260 -12245 0
-12260 -12246 0
-12260 -12247 0
-12260 -12248 0
-12260 -12249 0
-12260 -12252 0
-12260 -12254 0
-12260 -12256 0
-12260 -12257 0
12260 12159 12245 12246 12247 12248 12249 12252 12254 12256 12257 0
6537 12260 -12261 0
-6537 -12260 -12261 0
6537 -12260 12261 0
-6537 12260 12261 0
-12262 887 0
-12262 -7009 0
12262 -887 7009 0
-12263 369 0
-12263 -887 0
12263 -369 887 0
-12264 -12262 0
-12264 -12263 0
12264 12262 12263 0
7009 12264 -12265 0
-7009 -12264 -12265 0
7009 -12264 12265 0
-7009 12264 12265 0
-12266 887 0
-12266 -7015 0
12266 -887 7015 0
-12267 370 0
-12267 -887 0
12267 -370 887 0
-12268 -12266 0
-12268 -12267 0
12268 12266 12267 0
7015 12268 -12269 0
-7015 -12268 -12269 0
7015 -12268 12269 0
-7015 12268 12269 0
-12270 887 0
-12270 -7021 0
12270 -887 7021 0
-12271 371 0
-12271 -887 0
12271 -371 887 0
-12272 -12270 0
-12272 -12271 0
12272 12270 12271 0
7021 12272 -12273 0
-7021 -12272 -12273 0
7021 -12272 12273 0
-7021 12272 12273 0
-12274 887 0
-12274 -7027 0
12274 -887 7027 0
-12275 372 0
-12275 -887 0
12275 -372 887 0
-12276 -12274 0
-12276 -12275 0
12276 12274 12275 0
7027 12276 -12277 0
-7027 -12276 -12277 0
7027 -12276 12277 0
-7027 12276 12277 0
-12278 887 0
-12278 -7032 0
12278 -887 7032 0
-12279 374 0
-12279 -887 0
12279 -374 887 0
-12280 -12278 0
-12280 -12279 0
12280 12278 12279 0
7032 12280 -12281 0
-7032 -12280 -12281 0
7032 -12280 12281 0
-7032 12280 12281 0
-12282 887 0
-12282 -7037 0
12282 -887 7037 0
-12283 375 0
-12283 -887 0
12283 -375 887 0
-12284 -12282 0
-12284 -12283 0
12284 12282 12283 0
7037 12284 -12285 0
-7037 -12284 -12285 0
7037 -12284 12285 0
-7037 12284 12285 0
-12286 887 0
-12286 -7042 0
12286 -887 7042 0
-12287 376 0
-12287 -887 0
12287 -376 887 0
-12288 -12286 0
-12288 -12287 0
12288 12286 12287 0
7042 12288 -12289 0
-7042 -12288 -12289 0
7042 -12288 12289 0
-7042 12288 12289 0
-12290 887 0
-12290 -7047 0
12290 -887 7047 0
-12291 378 0
-12291 -887 0
12291 -378 887 0
-12292 -12290 0
-12292 -12291 0
12292 12290 12291 0
7047 12292 -12293 0
-7047 -12292 -12293 0
7047 -12292 12293 0
-7047 12292 12293 0
-12294 887 0
-12294 -7053 0
12294 -887 7053 0
-12295 379 0
-12295 -887 0
12295 -379 887 0
-12296 -12294 0
-12296 -12295 0
12296 12294 12295 0
7053 12296 -12297 0
-7053 -12296 -12297 0
7053 -12296 12297 0
-7053 12296 12297 0
-12298 887 0
-12298 -7058 0
12298 -887 7058 0
-12299 380 0
-12299 -887 0
12299 -380 887 0
-12300 -12298 0
-12300 -12299 0
12300 12298 12299 0
7058 12300 -12301 0
-7058 -12300 -12301 0
7058 -12300 12301 0
-7058 12300 12301 0
-12302 887 0
-12302 -7063 0
12302 -887 7063 0
-12303 381 0
-12303 -887 0
12303 -381 887 0
-12304 -12302 0
-12304 -12303 0
12304 12302 12303 0
7063 12304 -12305 0
-7063 -12304 -12305 0
7063 -12304 12305 0
-7063 12304 12305 0
-12306 887 0
-12306 -7068 0
12306 -887 7068 0
-12307 382 0
-12307 -887 0
12307 -382 887 0
-12308 -12306 0
-12308 -12307 0
12308 12306 12307 0
7068 12308 -12309 0
-7068 -12308 -12309 0
7068 -12308 12309 0
-7068 12308 12309 0
-12310 887 0
-12310 -7074 0
12310 -887 7074 0
-12311 384 0
-12311 -887 0
12311 -384 887 0
-12312 -12310 0
-12312 -12311 0
12312 12310 12311 0
7074 12312 -12313 0
-7074 -12312 -12313 0
7074 -12312 12313 0
-7074 12312 12313 0
-12314 887 0
-12314 -7079 0
12314 -887 7079 0
-12315 386 0
-12315 -887 0
12315 -386 887 0
-12316 -12314 0
-12316 -12315 0
12316 12314 12315 0
7079 12316 -12317 0
-7079 -12316 -12317 0
7079 -12316 12317 0
-7079 12316 12317 0
-12318 887 0
-12318 -7084 0
12318 -887 7084 0
-12319 388 0
-12319 -887 0
12319 -388 887 0
-12320 -12318 0
-12320 -12319 0
12320 12318 12319 0
7084 12320 -12321 0
-7084 -12320 -12321 0
7084 -12320 12321 0
-7084 12320 12321 0
-12322 887 0
-12322 -7089 0
12322 -887 7089 0
-12323 389 0
-12323 -887 0
12323 -389 887 0
-12324 -12322 0
-12324 -12323 0
12324 12322 12323 0
7089 12324 -12325 0
-7089 -12324 -12325 0
7089 -12324 12325 0
-7089 12324 12325 0
-12326 887 0
-12326 -7095 0
12326 -887 7095 0
-12327 383 0
-12327 -887 0
12327 -383 887 0
-12328 -12326 0
-12328 -12327 0
12328 12326 12327 0
7095 12328 -12329 0
-7095 -12328 -12329 0
7095 -12328 12329 0
-7095 12328 12329 0
-12330 887 0
-12330 -7100 0
12330 -887 7100 0
-12331 385 0
-12331 -887 0
12331 -385 887 0
-12332 -12330 0
-12332 -12331 0
12332 12330 12331 0
7100 12332 -12333 0
-7100 -12332 -12333 0
7100 -12332 12333 0
-7100 12332 12333 0
-12334 887 0
-12334 -7105 0
12334 -887 7105 0
-12335 387 0
-12335 -887 0
12335 -387 887 0
-12336 -12334 0
-12336 -12335 0
12336 12334 12335 0
7105 12336 -12337 0
-7105 -12336 -12337 0
7105 -12336 12337 0
-7105 12336 12337 0
-12338 887 0
-12338 -7110 0
12338 -887 7110 0
-12339 391 0
-12339 -887 0
12339 -391 887 0
-12340 -12338 0
-12340 -12339 0
12340 12338 12339 0
7110 12340 -12341 0
-7110 -12340 -12341 0
7110 -12340 12341 0
-7110 12340 12341 0
-12344 -393 0
-12344 -395 0
-12344 -887 0
-12344 -5205 0
12344 393 395 887 5205 0
-12345 887 0
-12345 -8564 0
12345 -887 8564 0
8564 12345 -12347 0
-8564 -12345 -12347 0
8564 -12345 12347 0
-8564 12345 12347 0
-12348 887 0
-12348 -8569 0
12348 -887 8569 0
-12349 403 0
-12349 -887 0
12349 -403 887 0
-12350 -12348 0
-12350 -12349 0
12350 12348 12349 0
8569 12350 -12351 0
-8569 -12350 -12351 0
8569 -12350 12351 0
-8569 12350 12351 0
-12352 887 0
-12352 -8577 0
12352 -887 8577 0
-12353 404 0
-12353 -887 0
12353 -404 887 0
-12354 -12352 0
-12354 -12353 0
12354 12352 12353 0
8577 12354 -12355 0
-8577 -12354 -12355 0
8577 -12354 12355 0
-8577 12354 12355 0
-12356 887 0
-12356 -8581 0
12356 -887 8581 0
-12357 405 0
-12357 -887 0
12357 -405 887 0
-12358 -12356 0
-12358 -12357 0
12358 12356 12357 0
8581 12358 -12359 0
-8581 -12358 -12359 0
8581 -12358 12359 0
-8581 12358 12359 0
-12360 887 0
-12360 -8589 0
12360 -887 8589 0
-12361 408 0
-12361 -887 0
12361 -408 887 0
-12362 -12360 0
-12362 -12361 0
12362 12360 12361 0
8589 12362 -12363 0
-8589 -12362 -12363 0
8589 -12362 12363 0
-8589 12362 12363 0
-12364 887 0
-12364 -8633 0
12364 -887 8633 0
-12365 407 0
-12365 -887 0
12365 -407 887 0
-12366 -12364 0
-12366 -12365 0
12366 12364 12365 0
8633 12366 -12367 0
-8633 -12366 -12367 0
8633 -12366 12367 0
-8633 12366 12367 0
-12368 887 0
-12368 -9562 0
12368 -887 9562 0
-12369 368 0
-12369 -887 0
12369 -368 887 0
-12370 -12368 0
-12370 -12369 0
12370 12368 12369 0
9562 12370 -12371 0
-9562 -12370 -12371 0
9562 -12370 12371 0
-9562 12370 12371 0
-12372 887 0
-12372 -5235 0
-12372 -5237 0
12372 -887 5235 5237 0
-12373 424 0
-12373 -887 0
12373 -424 887 0
-12374 -12372 0
-12374 -12373 0
12374 12372 12373 0
9564 12374 -12375 0
-9564 -12374 -12375 0
9564 -12374 12375 0
-9564 12374 12375 0
-12376 887 0
-12376 -5231 0
-12376 -5233 0
12376 -887 5231 5233 0
-12377 422 0
-12377 -887 0
12377 -422 887 0
-12378 -12376 0
-12378 -12377 0
12378 12376 12377 0
9566 12378 -12379 0
-9566 -12378 -12379 0
9566 -12378 12379 0
-9566 12378 12379 0
-12380 887 0
-12380 -2162 0
-12380 -2165 0
-12380 -2167 0
-12380 -2169 0
-12380 -2173 0
-12380 -2175 0
-12380 -2177 0
-12380 -12154 0
12380 -887 2162 2165 2167 2169 2173 2175 2177 12154 0
-12381 887 0
-12381 -2163 0
-12381 -2164 0
-12381 -2167 0
-12381 -2169 0
-12381 -2173 0
-12381 -2175 0
-12381 -2177 0
-12381 -12154 0
12381 -887 2163 2164 2167 2169 2173 2175 2177 12154 0
-12382 887 0
-12382 -2163 0
-12382 -2165 0
-12382 -2166 0
-12382 -2169 0
-12382 -2173 0
-12382 -2175 0
-12382 -2177 0
-12382 -12154 0
12382 -887 2163 2165 2166 2169 2173 2175 2177 12154 0
-12383 887 0
-12383 -2163 0
-12383 -2165 0
-12383 -2167 0
-12383 -2168 0
-12383 -2173 0
-12383 -2175 0
-12383 -2177 0
-12383 -12154 0
12383 -887 2163 2165 2167 2168 2173 2175 2177 12154 0
-12386 887 0
-12386 -2163 0
-12386 -2165 0
-12386 -2167 0
-12386 -2169 0
-12386 -2171 0
-12386 -2173 0
-12386 -2175 0
-12386 -2177 0
12386 -887 2163 2165 2167 2169 2171 2173 2175 2177 0
-12388 887 0
-12388 -2163 0
-12388 -2165 0
-12388 -2167 0
-12388 -2169 0
-12388 -2172 0
-12388 -2175 0
-12388 -2177 0
-12388 -12154 0
12388 -887 2163 2165 2167 2169 2172 2175 2177 12154 0
-12390 887 0
-12390 -2163 0
-12390 -2165 0
-12390 -2167 0
-12390 -2169 0
-12390 -2173 0
-12390 -2174 0
-12390 -2177 0
-12390 -12154 0
12390 -887 2163 2165 2167 2169 2173 2174 2177 12154 0
-12392 887 0
-12392 -2163 0
-12392 -2165 0
-12392 -2167 0
-12392 -2169 0
-12392 -2173 0
-12392 -2175 0
-12392 -2176 0
-12392 -12154 0
12392 -887 2163 2165 2167 2169 2173 2175 2176 12154 0
-12395 -12156 0
-12395 -12380 0
-12395 -12381 0
-12395 -12382 0
-12395 -12383 0
-12395 -12386 0
-12395 -12388 0
-12395 -12390 0
-12395 -12392 0
12395 12156 12380 12381 12382 12383 12386 12388 12390 12392 0
9955 12395 -12396 0
-9955 -12395 -12396 0
9955 -12395 12396 0
-9955 12395 12396 0
-12397 887 0
-12397 -10754 0
12397 -887 10754 0
-12398 397 0
-12398 -887 0
12398 -397 887 0
-12399 -12397 0
-12399 -12398 0
12399 12397 12398 0
10754 12399 -12400 0
-10754 -12399 -12400 0
10754 -12399 12400 0
-10754 12399 12400 0
-12401 887 0
-12401 -10762 0
12401 -887 10762 0
-12402 401 0
-12402 -887 0
12402 -401 887 0
-12403 -12401 0
-12403 -12402 0
12403 12401 12402 0
10762 12403 -12404 0
-10762 -12403 -12404 0
10762 -12403 12404 0
-10762 12403 12404 0
-12405 887 0
-12405 -10766 0
12405 -887 10766 0
-12406 402 0
-12406 -887 0
12406 -402 887 0
-12407 -12405 0
-12407 -12406 0
12407 12405 12406 0
10766 12407 -12408 0
-10766 -12407 -12408 0
10766 -12407 12408 0
-10766 12407 12408 0
-12409 887 0
-12409 -10770 0
12409 -887 10770 0
-12410 -12183 0
-12410 -12409 0
12410 12183 12409 0
10770 12410 -12411 0
-10770 -12410 -12411 0
10770 -12410 12411 0
-10770 12410 12411 0
-12412 421 0
-12412 422 0
-12412 887 0
12412 -421 -422 -887 0
-12413 421 0
-12413 -887 0
12413 -421 887 0
-12414 -12412 0
-12414 -12413 0
12414 12412 12413 0
10772 12414 -12415 0
-10772 -12414 -12415 0
10772 -12414 12415 0
-10772 12414 12415 0
-12416 -413 0
-12416 887 0
-12416 -10775 0
12416 413 -887 10775 0
-12417 410 0
-12417 -887 0
12417 -410 887 0
-12418 -12416 0
-12418 -12417 0
12418 12416 12417 0
10776 12418 -12419 0
-10776 -12418 -12419 0
10776 -12418 12419 0
-10776 12418 12419 0
-12420 -412 0
-12420 887 0
-12420 -10779 0
12420 412 -887 10779 0
-12421 411 0
-12421 -887 0
12421 -411 887 0
-12422 -12420 0
-12422 -12421 0
12422 12420 12421 0
10780 12422 -12423 0
-10780 -12422 -12423 0
10780 -12422 12423 0
-10780 12422 12423 0
-12424 354 0
-12424 887 0
12424 -354 -887 0
-12425 423 0
-12425 -887 0
12425 -423 887 0
-12426 -12424 0
-12426 -12425 0
12426 12424 12425 0
354 12426 -12427 0
-354 -12426 -12427 0
354 -12426 12427 0
-354 12426 12427 0
-12430 887 0
-12430 -10787 0
12430 -887 10787 0
-12431 415 0
-12431 -887 0
12431 -415 887 0
-12432 -12430 0
-12432 -12431 0
12432 12430 12431 0
10787 12432 -12433 0
-10787 -12432 -12433 0
10787 -12432 12433 0
-10787 12432 12433 0
-12434 887 0
-12434 -10791 0
12434 -887 10791 0
-12435 416 0
-12435 -887 0
12435 -416 887 0
-12436 -12434 0
-12436 -12435 0
12436 12434 12435 0
10791 12436 -12437 0
-10791 -12436 -12437 0
10791 -12436 12437 0
-10791 12436 12437 0
-12438 887 0
-12438 -10795 0
12438 -887 10795 0
-12439 417 0
-12439 -887 0
12439 -417 887 0
-12440 -12438 0
-12440 -12439 0
12440 12438 12439 0
10795 12440 -12441 0
-10795 -12440 -12441 0
10795 -12440 12441 0
-10795 12440 12441 0
-12442 887 0
-12442 -10801 0
12442 -887 10801 0
-12443 418 0
-12443 -887 0
12443 -418 887 0
-12444 -12442 0
-12444 -12443 0
12444 12442 12443 0
10801 12444 -12445 0
-10801 -12444 -12445 0
10801 -12444 12445 0
-10801 12444 12445 0
-12446 887 0
-12446 -10805 0
12446 -887 10805 0
-12447 419 0
-12447 -887 0
12447 -419 887 0
-12448 -12446 0
-12448 -12447 0
12448 12446 12447 0
10805 12448 -12449 0
-10805 -12448 -12449 0
10805 -12448 12449 0
-10805 12448 12449 0
-12450 353 0
-12450 887 0
-12450 -11611 0
12450 -353 -887 11611 0
-12451 353 0
-12451 -887 0
12451 -353 887 0
-12452 -12450 0
-12452 -12451 0
12452 12450 12451 0
11612 12452 -12453 0
-11612 -12452 -12453 0
11612 -12452 12453 0
-11612 12452 12453 0
-12454 -352 0
-12454 887 0
-12454 -11611 0
12454 352 -887 11611 0
-12455 354 0
-12455 -887 0
12455 -354 887 0
-12456 -12454 0
-12456 -12455 0
12456 12454 12455 0
11614 12456 -12457 0
-11614 -12456 -12457 0
11614 -12456 12457 0
-11614 12456 12457 0
-12458 887 0
-12458 -11618 0
12458 -887 11618 0
-12459 355 0
-12459 -887 0
12459 -355 887 0
-12460 -12458 0
-12460 -12459 0
12460 12458 12459 0
11618 12460 -12461 0
-11618 -12460 -12461 0
11618 -12460 12461 0
-11618 12460 12461 0
-12464 -887 0
-12464 -11610 0
-12464 -11620 0
-12464 -11621 0
-12464 -11622 0
-12464 -11623 0
-12464 -11624 0
12464 887 11610 11620 11621 11622 11623 11624 0
-12465 -12170 0
-12465 -12178 0
-12465 12187 0
-12465 -12191 0
-12465 -12195 0
-12465 -12199 0
-12465 -12203 0
-12465 12207 0
-12465 -12211 0
-12465 -12215 0
-12465 -12219 0
-12465 -12223 0
-12465 -12227 0
-12465 -12231 0
-12465 -12235 0
-12465 -12239 0
-12465 -12243 0
-12465 -12261 0
-12465 -12265 0
-12465 -12269 0
-12465 -12273 0
-12465 -12277 0
-12465 -12281 0
-12465 -12285 0
-12465 -12289 0
-12465 -12293 0
-12465 -12297 0
-12465 -12301 0
-12465 -12305 0
-12465 -12309 0
-12465 -12313 0
-12465 -12317 0
-12465 -12321 0
-12465 -12325 0
-12465 -12329 0
-12465 -12333 0
-12465 -12337 0
-12465 -12339 0
-12465 -12341 0
-12465 -12344 0
-12465 12347 0
-12465 -12351 0
-12465 -12355 0
-12465 -12359 0
-12465 -12363 0
-12465 -12367 0
-12465 -12371 0
-12465 12375 0
-12465 12379 0
-12465 -12396 0
-12465 -12400 0
-12465 -12404 0
-12465 -12408 0
-12465 -12411 0
-12465 12415 0
-12465 12419 0
-12465 12423 0
-12465 12427 0
-12465 -12433 0
-12465 -12437 0
-12465 -12441 0
-12465 -12445 0
-12465 -12449 0
-12465 12453 0
-12465 12457 0
-12465 -12461 0
-12465 -12464 0
12465 12170 12178 -12187 12191 12195 12199 12203 -12207 12211 12215 12219 12223 12227 12231 12235 12239 12243 12261 12265 12269 12273 12277 12281 12285 12289 12293 12297 12301 12305 12309 12313 12317 12321 12325 12329 12333 12337 12339 12341 12344 -12347 12351 12355 12359 12363 12367 12371 -12375 -12379 12396 12400 12404 12408 12411 -12415 -12419 -12423 -12427 12433 12437 12441 12445 12449 -12453 -12457 12461 12464 0
-12466 -887 0
-12466 -12153 0
12466 887 12153 0
12465 12466 -12467 0
-12465 -12466 -12467 0
12465 -12466 12467 0
-12465 12466 12467 0
