p cnf 1212 108
-218 -15 0
-218 -25 0
-218 -33 0
218 15 25 33 0
-219 15 0
-219 -25 0
-219 33 0
219 -15 25 -33 0
-220 15 0
-220 25 0
-220 -33 0
220 -15 -25 33 0
-221 -15 0
-221 25 0
-221 33 0
221 15 -25 -33 0
-222 -218 0
-222 -219 0
-222 -220 0
-222 -221 0
222 218 219 220 221 0
-223 32 0
-223 -42 0
223 -32 42 0
-224 -32 0
-224 42 0
224 32 -42 0
-225 -223 0
-225 -224 0
225 223 224 0
-226 -47 0
-226 -48 0
-226 -49 0
226 47 48 49 0
-227 -47 0
-227 48 0
-227 49 0
227 47 -48 -49 0
-228 47 0
-228 -48 0
-228 49 0
228 -47 48 -49 0
-229 47 0
-229 48 0
-229 -49 0
229 -47 -48 49 0
-230 -226 0
-230 -227 0
-230 -228 0
-230 -229 0
230 226 227 228 229 0
-231 -222 0
-231 -223 0
-231 -224 0
-231 -230 0
231 222 223 224 230 0
-232 -222 0
-232 -225 0
-232 -226 0
-232 -227 0
-232 -228 0
-232 -229 0
232 222 225 226 227 228 229 0
-233 -218 0
-233 -219 0
-233 -220 0
-233 -221 0
-233 -223 0
-233 -224 0
-233 -226 0
-233 -227 0
-233 -228 0
-233 -229 0
233 218 219 220 221 223 224 226 227 228 229 0
-234 -218 0
-234 -219 0
-234 -220 0
-234 -221 0
-234 -225 0
-234 -230 0
234 218 219 220 221 225 230 0
-235 -231 0
-235 -232 0
-235 -233 0
-235 -234 0
235 231 232 233 234 0
-239 -16 0
-239 -17 0
-239 19 0
-239 39 0
-239 -116 0
239 16 17 -19 -39 116 0
-240 -16 0
-240 -17 0
-240 19 0
-240 39 0
-240 -116 0
-240 -231 0
-240 -232 0
-240 -233 0
-240 -234 0
240 16 17 -19 -39 116 231 232 233 234 0
-241 -235 0
-241 -239 0
241 235 239 0
-242 -240 0
-242 -241 0
242 240 241 0
