p cnf 7196 31168
429 0
425 430 0
-425 -430 0
430 431 0
-430 -431 0
431 432 0
-431 -432 0
432 433 0
-432 -433 0
215 434 0
-215 -434 0
434 435 0
-434 -435 0
435 436 0
-435 -436 0
436 437 0
-436 -437 0
220 438 0
-220 -438 0
438 439 0
-438 -439 0
439 440 0
-439 -440 0
440 441 0
-440 -441 0
433 437 441 442 0
433 437 -441 -442 0
433 -437 441 -442 0
433 -437 -441 -442 0
-433 437 441 -442 0
-433 437 -441 -442 0
-433 -437 441 -442 0
-433 -437 -441 -442 0
215 443 0
-215 -443 0
443 444 0
-443 -444 0
444 445 0
-444 -445 0
220 446 0
-220 -446 0
446 447 0
-446 -447 0
447 448 0
-447 -448 0
433 445 448 449 0
433 445 -448 -449 0
433 -445 448 -449 0
433 -445 -448 -449 0
-433 445 448 -449 0
-433 445 -448 -449 0
-433 -445 448 -449 0
-433 -445 -448 -449 0
425 450 0
-425 -450 0
450 451 0
-450 -451 0
451 452 0
-451 -452 0
452 437 448 453 0
452 437 -448 -453 0
452 -437 448 -453 0
452 -437 -448 -453 0
-452 437 448 -453 0
-452 437 -448 -453 0
-452 -437 448 -453 0
-452 -437 -448 -453 0
452 445 441 454 0
452 445 -441 -454 0
452 -445 441 -454 0
452 -445 -441 -454 0
-452 445 441 -454 0
-452 445 -441 -454 0
-452 -445 441 -454 0
-452 -445 -441 -454 0
442 449 453 454 -455 0
442 449 453 -454 455 0
442 449 -453 454 455 0
442 449 -453 -454 455 0
442 -449 453 454 455 0
442 -449 453 -454 455 0
442 -449 -453 454 455 0
442 -449 -453 -454 455 0
-442 449 453 454 455 0
-442 449 453 -454 455 0
-442 449 -453 454 455 0
-442 449 -453 -454 455 0
-442 -449 453 454 455 0
-442 -449 453 -454 455 0
-442 -449 -453 454 455 0
-442 -449 -453 -454 455 0
455 456 0
-455 -456 0
456 457 0
-456 -457 0
457 458 0
-457 -458 0
415 459 0
-415 -459 0
459 460 0
-459 -460 0
460 461 0
-460 -461 0
461 462 0
-461 -462 0
417 463 0
-417 -463 0
463 464 0
-463 -464 0
464 465 0
-464 -465 0
465 466 0
-465 -466 0
414 467 0
-414 -467 0
467 468 0
-467 -468 0
468 469 0
-468 -469 0
469 470 0
-469 -470 0
462 466 470 471 0
462 466 -470 -471 0
462 -466 470 -471 0
462 -466 -470 -471 0
-462 466 470 -471 0
-462 466 -470 -471 0
-462 -466 470 -471 0
-462 -466 -470 -471 0
417 472 0
-417 -472 0
472 473 0
-472 -473 0
473 474 0
-473 -474 0
414 475 0
-414 -475 0
475 476 0
-475 -476 0
476 477 0
-476 -477 0
462 474 477 478 0
462 474 -477 -478 0
462 -474 477 -478 0
462 -474 -477 -478 0
-462 474 477 -478 0
-462 474 -477 -478 0
-462 -474 477 -478 0
-462 -474 -477 -478 0
415 479 0
-415 -479 0
479 480 0
-479 -480 0
480 481 0
-480 -481 0
481 466 477 482 0
481 466 -477 -482 0
481 -466 477 -482 0
481 -466 -477 -482 0
-481 466 477 -482 0
-481 466 -477 -482 0
-481 -466 477 -482 0
-481 -466 -477 -482 0
481 474 470 483 0
481 474 -470 -483 0
481 -474 470 -483 0
481 -474 -470 -483 0
-481 474 470 -483 0
-481 474 -470 -483 0
-481 -474 470 -483 0
-481 -474 -470 -483 0
471 478 482 483 -484 0
471 478 482 -483 484 0
471 478 -482 483 484 0
471 478 -482 -483 484 0
471 -478 482 483 484 0
471 -478 482 -483 484 0
471 -478 -482 483 484 0
471 -478 -482 -483 484 0
-471 478 482 483 484 0
-471 478 482 -483 484 0
-471 478 -482 483 484 0
-471 478 -482 -483 484 0
-471 -478 482 483 484 0
-471 -478 482 -483 484 0
-471 -478 -482 483 484 0
-471 -478 -482 -483 484 0
484 485 0
-484 -485 0
485 486 0
-485 -486 0
219 487 0
-219 -487 0
487 488 0
-487 -488 0
488 489 0
-488 -489 0
489 490 0
-489 -490 0
423 491 0
-423 -491 0
491 492 0
-491 -492 0
492 493 0
-492 -493 0
493 494 0
-493 -494 0
420 495 0
-420 -495 0
495 496 0
-495 -496 0
496 497 0
-496 -497 0
497 498 0
-497 -498 0
490 494 498 499 0
490 494 -498 -499 0
490 -494 498 -499 0
490 -494 -498 -499 0
-490 494 498 -499 0
-490 494 -498 -499 0
-490 -494 498 -499 0
-490 -494 -498 -499 0
423 500 0
-423 -500 0
500 501 0
-500 -501 0
501 502 0
-501 -502 0
420 503 0
-420 -503 0
503 504 0
-503 -504 0
504 505 0
-504 -505 0
490 502 505 506 0
490 502 -505 -506 0
490 -502 505 -506 0
490 -502 -505 -506 0
-490 502 505 -506 0
-490 502 -505 -506 0
-490 -502 505 -506 0
-490 -502 -505 -506 0
219 507 0
-219 -507 0
507 508 0
-507 -508 0
508 509 0
-508 -509 0
509 494 505 510 0
509 494 -505 -510 0
509 -494 505 -510 0
509 -494 -505 -510 0
-509 494 505 -510 0
-509 494 -505 -510 0
-509 -494 505 -510 0
-509 -494 -505 -510 0
509 502 498 511 0
509 502 -498 -511 0
509 -502 498 -511 0
509 -502 -498 -511 0
-509 502 498 -511 0
-509 502 -498 -511 0
-509 -502 498 -511 0
-509 -502 -498 -511 0
499 506 510 511 -512 0
499 506 510 -511 512 0
499 506 -510 511 512 0
499 506 -510 -511 512 0
499 -506 510 511 512 0
499 -506 510 -511 512 0
499 -506 -510 511 512 0
499 -506 -510 -511 512 0
-499 506 510 511 512 0
-499 506 510 -511 512 0
-499 506 -510 511 512 0
-499 506 -510 -511 512 0
-499 -506 510 511 512 0
-499 -506 510 -511 512 0
-499 -506 -510 511 512 0
-499 -506 -510 -511 512 0
512 513 0
-512 -513 0
513 514 0
-513 -514 0
514 515 0
-514 -515 0
458 486 515 516 0
458 486 -515 -516 0
458 -486 515 -516 0
458 -486 -515 -516 0
-458 486 515 -516 0
-458 486 -515 -516 0
-458 -486 515 -516 0
-458 -486 -515 -516 0
484 517 0
-484 -517 0
517 518 0
-517 -518 0
518 519 0
-518 -519 0
512 520 0
-512 -520 0
520 521 0
-520 -521 0
458 519 521 522 0
458 519 -521 -522 0
458 -519 521 -522 0
458 -519 -521 -522 0
-458 519 521 -522 0
-458 519 -521 -522 0
-458 -519 521 -522 0
-458 -519 -521 -522 0
455 523 0
-455 -523 0
523 524 0
-523 -524 0
524 486 521 525 0
524 486 -521 -525 0
524 -486 521 -525 0
524 -486 -521 -525 0
-524 486 521 -525 0
-524 486 -521 -525 0
-524 -486 521 -525 0
-524 -486 -521 -525 0
524 519 515 526 0
524 519 -515 -526 0
524 -519 515 -526 0
524 -519 -515 -526 0
-524 519 515 -526 0
-524 519 -515 -526 0
-524 -519 515 -526 0
-524 -519 -515 -526 0
516 522 525 526 -527 0
516 522 525 -526 527 0
516 522 -525 526 527 0
516 522 -525 -526 527 0
516 -522 525 526 527 0
516 -522 525 -526 527 0
516 -522 -525 526 527 0
516 -522 -525 -526 527 0
-516 522 525 526 527 0
-516 522 525 -526 527 0
-516 522 -525 526 527 0
-516 522 -525 -526 527 0
-516 -522 525 526 527 0
-516 -522 525 -526 527 0
-516 -522 -525 526 527 0
-516 -522 -525 -526 527 0
425 528 0
-425 -528 0
528 529 0
-528 -529 0
529 530 0
-529 -530 0
530 531 0
-530 -531 0
215 532 0
-215 -532 0
532 533 0
-532 -533 0
533 534 0
-533 -534 0
534 535 0
-534 -535 0
220 536 0
-220 -536 0
536 537 0
-536 -537 0
537 538 0
-537 -538 0
538 539 0
-538 -539 0
531 535 539 540 0
531 535 -539 -540 0
531 -535 539 -540 0
531 -535 -539 -540 0
-531 535 539 -540 0
-531 535 -539 -540 0
-531 -535 539 -540 0
-531 -535 -539 -540 0
215 541 0
-215 -541 0
541 542 0
-541 -542 0
542 543 0
-542 -543 0
220 544 0
-220 -544 0
544 545 0
-544 -545 0
545 546 0
-545 -546 0
531 543 546 547 0
531 543 -546 -547 0
531 -543 546 -547 0
531 -543 -546 -547 0
-531 543 546 -547 0
-531 543 -546 -547 0
-531 -543 546 -547 0
-531 -543 -546 -547 0
425 548 0
-425 -548 0
548 549 0
-548 -549 0
549 550 0
-549 -550 0
550 535 546 551 0
550 535 -546 -551 0
550 -535 546 -551 0
550 -535 -546 -551 0
-550 535 546 -551 0
-550 535 -546 -551 0
-550 -535 546 -551 0
-550 -535 -546 -551 0
550 543 539 552 0
550 543 -539 -552 0
550 -543 539 -552 0
550 -543 -539 -552 0
-550 543 539 -552 0
-550 543 -539 -552 0
-550 -543 539 -552 0
-550 -543 -539 -552 0
540 547 551 552 -553 0
540 547 551 -552 553 0
540 547 -551 552 553 0
540 547 -551 -552 553 0
540 -547 551 552 553 0
540 -547 551 -552 553 0
540 -547 -551 552 553 0
540 -547 -551 -552 553 0
-540 547 551 552 553 0
-540 547 551 -552 553 0
-540 547 -551 552 553 0
-540 547 -551 -552 553 0
-540 -547 551 552 553 0
-540 -547 551 -552 553 0
-540 -547 -551 552 553 0
-540 -547 -551 -552 553 0
553 554 0
-553 -554 0
554 555 0
-554 -555 0
555 556 0
-555 -556 0
415 557 0
-415 -557 0
557 558 0
-557 -558 0
558 559 0
-558 -559 0
559 560 0
-559 -560 0
417 561 0
-417 -561 0
561 562 0
-561 -562 0
562 563 0
-562 -563 0
563 564 0
-563 -564 0
414 565 0
-414 -565 0
565 566 0
-565 -566 0
566 567 0
-566 -567 0
567 568 0
-567 -568 0
560 564 568 569 0
560 564 -568 -569 0
560 -564 568 -569 0
560 -564 -568 -569 0
-560 564 568 -569 0
-560 564 -568 -569 0
-560 -564 568 -569 0
-560 -564 -568 -569 0
417 570 0
-417 -570 0
570 571 0
-570 -571 0
571 572 0
-571 -572 0
414 573 0
-414 -573 0
573 574 0
-573 -574 0
574 575 0
-574 -575 0
560 572 575 576 0
560 572 -575 -576 0
560 -572 575 -576 0
560 -572 -575 -576 0
-560 572 575 -576 0
-560 572 -575 -576 0
-560 -572 575 -576 0
-560 -572 -575 -576 0
415 577 0
-415 -577 0
577 578 0
-577 -578 0
578 579 0
-578 -579 0
579 564 575 580 0
579 564 -575 -580 0
579 -564 575 -580 0
579 -564 -575 -580 0
-579 564 575 -580 0
-579 564 -575 -580 0
-579 -564 575 -580 0
-579 -564 -575 -580 0
579 572 568 581 0
579 572 -568 -581 0
579 -572 568 -581 0
579 -572 -568 -581 0
-579 572 568 -581 0
-579 572 -568 -581 0
-579 -572 568 -581 0
-579 -572 -568 -581 0
569 576 580 581 -582 0
569 576 580 -581 582 0
569 576 -580 581 582 0
569 576 -580 -581 582 0
569 -576 580 581 582 0
569 -576 580 -581 582 0
569 -576 -580 581 582 0
569 -576 -580 -581 582 0
-569 576 580 581 582 0
-569 576 580 -581 582 0
-569 576 -580 581 582 0
-569 576 -580 -581 582 0
-569 -576 580 581 582 0
-569 -576 580 -581 582 0
-569 -576 -580 581 582 0
-569 -576 -580 -581 582 0
582 583 0
-582 -583 0
583 584 0
-583 -584 0
219 585 0
-219 -585 0
585 586 0
-585 -586 0
586 587 0
-586 -587 0
587 588 0
-587 -588 0
423 589 0
-423 -589 0
589 590 0
-589 -590 0
590 591 0
-590 -591 0
591 592 0
-591 -592 0
420 593 0
-420 -593 0
593 594 0
-593 -594 0
594 595 0
-594 -595 0
595 596 0
-595 -596 0
588 592 596 597 0
588 592 -596 -597 0
588 -592 596 -597 0
588 -592 -596 -597 0
-588 592 596 -597 0
-588 592 -596 -597 0
-588 -592 596 -597 0
-588 -592 -596 -597 0
423 598 0
-423 -598 0
598 599 0
-598 -599 0
599 600 0
-599 -600 0
420 601 0
-420 -601 0
601 602 0
-601 -602 0
602 603 0
-602 -603 0
588 600 603 604 0
588 600 -603 -604 0
588 -600 603 -604 0
588 -600 -603 -604 0
-588 600 603 -604 0
-588 600 -603 -604 0
-588 -600 603 -604 0
-588 -600 -603 -604 0
219 605 0
-219 -605 0
605 606 0
-605 -606 0
606 607 0
-606 -607 0
607 592 603 608 0
607 592 -603 -608 0
607 -592 603 -608 0
607 -592 -603 -608 0
-607 592 603 -608 0
-607 592 -603 -608 0
-607 -592 603 -608 0
-607 -592 -603 -608 0
607 600 596 609 0
607 600 -596 -609 0
607 -600 596 -609 0
607 -600 -596 -609 0
-607 600 596 -609 0
-607 600 -596 -609 0
-607 -600 596 -609 0
-607 -600 -596 -609 0
597 604 608 609 -610 0
597 604 608 -609 610 0
597 604 -608 609 610 0
597 604 -608 -609 610 0
597 -604 608 609 610 0
597 -604 608 -609 610 0
597 -604 -608 609 610 0
597 -604 -608 -609 610 0
-597 604 608 609 610 0
-597 604 608 -609 610 0
-597 604 -608 609 610 0
-597 604 -608 -609 610 0
-597 -604 608 609 610 0
-597 -604 608 -609 610 0
-597 -604 -608 609 610 0
-597 -604 -608 -609 610 0
610 611 0
-610 -611 0
611 612 0
-611 -612 0
612 613 0
-612 -613 0
556 584 613 614 0
556 584 -613 -614 0
556 -584 613 -614 0
556 -584 -613 -614 0
-556 584 613 -614 0
-556 584 -613 -614 0
-556 -584 613 -614 0
-556 -584 -613 -614 0
582 615 0
-582 -615 0
615 616 0
-615 -616 0
616 617 0
-616 -617 0
610 618 0
-610 -618 0
618 619 0
-618 -619 0
556 617 619 620 0
556 617 -619 -620 0
556 -617 619 -620 0
556 -617 -619 -620 0
-556 617 619 -620 0
-556 617 -619 -620 0
-556 -617 619 -620 0
-556 -617 -619 -620 0
553 621 0
-553 -621 0
621 622 0
-621 -622 0
622 584 619 623 0
622 584 -619 -623 0
622 -584 619 -623 0
622 -584 -619 -623 0
-622 584 619 -623 0
-622 584 -619 -623 0
-622 -584 619 -623 0
-622 -584 -619 -623 0
622 617 613 624 0
622 617 -613 -624 0
622 -617 613 -624 0
622 -617 -613 -624 0
-622 617 613 -624 0
-622 617 -613 -624 0
-622 -617 613 -624 0
-622 -617 -613 -624 0
614 620 623 624 -625 0
614 620 623 -624 625 0
614 620 -623 624 625 0
614 620 -623 -624 625 0
614 -620 623 624 625 0
614 -620 623 -624 625 0
614 -620 -623 624 625 0
614 -620 -623 -624 625 0
-614 620 623 624 625 0
-614 620 623 -624 625 0
-614 620 -623 624 625 0
-614 620 -623 -624 625 0
-614 -620 623 624 625 0
-614 -620 623 -624 625 0
-614 -620 -623 624 625 0
-614 -620 -623 -624 625 0
527 625 -626 0
527 -625 626 0
-527 625 626 0
-527 -625 -626 0
218 627 0
-218 -627 0
218 628 0
-218 -628 0
627 628 -629 0
627 -628 629 0
-627 628 629 0
-627 -628 -629 0
223 630 0
-223 -630 0
223 631 0
-223 -631 0
630 631 -632 0
630 -631 632 0
-630 631 632 0
-630 -631 -632 0
224 633 0
-224 -633 0
224 634 0
-224 -634 0
633 634 -635 0
633 -634 635 0
-633 634 635 0
-633 -634 -635 0
225 636 0
-225 -636 0
225 637 0
-225 -637 0
636 637 -638 0
636 -637 638 0
-636 637 638 0
-636 -637 -638 0
275 639 0
-275 -639 0
639 640 0
-639 -640 0
640 641 0
-640 -641 0
641 642 0
-641 -642 0
276 643 0
-276 -643 0
643 644 0
-643 -644 0
644 645 0
-644 -645 0
642 645 646 0
642 -645 -646 0
-642 645 -646 0
-642 -645 -646 0
646 647 0
-646 -647 0
378 648 0
-378 -648 0
648 649 0
-648 -649 0
649 650 0
-649 -650 0
279 651 0
-279 -651 0
651 652 0
-651 -652 0
652 653 0
-652 -653 0
653 654 0
-653 -654 0
280 655 0
-280 -655 0
655 656 0
-655 -656 0
656 657 0
-656 -657 0
657 658 0
-657 -658 0
270 659 0
-270 -659 0
659 660 0
-659 -660 0
660 661 0
-660 -661 0
661 662 0
-661 -662 0
662 663 0
-662 -663 0
650 654 658 663 664 0
650 654 658 -663 -664 0
650 654 -658 663 -664 0
650 654 -658 -663 -664 0
650 -654 658 663 -664 0
650 -654 658 -663 -664 0
650 -654 -658 663 -664 0
650 -654 -658 -663 -664 0
-650 654 658 663 -664 0
-650 654 658 -663 -664 0
-650 654 -658 663 -664 0
-650 654 -658 -663 -664 0
-650 -654 658 663 -664 0
-650 -654 658 -663 -664 0
-650 -654 -658 663 -664 0
-650 -654 -658 -663 -664 0
664 665 0
-664 -665 0
278 666 0
-278 -666 0
666 667 0
-666 -667 0
667 668 0
-667 -668 0
277 669 0
-277 -669 0
669 670 0
-669 -670 0
670 671 0
-670 -671 0
668 671 672 0
668 -671 -672 0
-668 671 -672 0
-668 -671 -672 0
672 673 0
-672 -673 0
647 665 673 674 0
647 665 -673 -674 0
647 -665 673 -674 0
647 -665 -673 -674 0
-647 665 673 -674 0
-647 665 -673 -674 0
-647 -665 673 -674 0
-647 -665 -673 -674 0
674 675 0
-674 -675 0
272 271 -676 0
272 -271 676 0
-272 271 676 0
-272 -271 676 0
676 677 0
-676 -677 0
677 678 0
-677 -678 0
678 679 0
-678 -679 0
675 679 680 0
675 -679 -680 0
-675 679 -680 0
-675 -679 -680 0
269 681 0
-269 -681 0
681 682 0
-681 -682 0
682 683 0
-682 -683 0
683 684 0
-683 -684 0
684 685 0
-684 -685 0
268 686 0
-268 -686 0
686 687 0
-686 -687 0
687 688 0
-687 -688 0
688 689 0
-688 -689 0
689 690 0
-689 -690 0
648 691 0
-648 -691 0
691 692 0
-691 -692 0
667 693 0
-667 -693 0
693 694 0
-693 -694 0
694 658 654 -695 0
694 658 -654 695 0
694 -658 654 695 0
694 -658 -654 695 0
-694 658 654 695 0
-694 658 -654 695 0
-694 -658 654 695 0
-694 -658 -654 695 0
690 692 695 -696 0
690 692 -695 696 0
690 -692 695 696 0
690 -692 -695 696 0
-690 692 695 696 0
-690 692 -695 696 0
-690 -692 695 696 0
-690 -692 -695 696 0
696 697 0
-696 -697 0
697 698 0
-697 -698 0
698 645 699 0
698 -645 -699 0
-698 645 -699 0
-698 -645 -699 0
699 700 0
-699 -700 0
698 671 701 0
698 -671 -701 0
-698 671 -701 0
-698 -671 -701 0
701 702 0
-701 -702 0
640 703 0
-640 -703 0
698 703 704 0
698 -703 -704 0
-698 703 -704 0
-698 -703 -704 0
704 705 0
-704 -705 0
700 702 705 706 0
700 702 -705 -706 0
700 -702 705 -706 0
700 -702 -705 -706 0
-700 702 705 -706 0
-700 702 -705 -706 0
-700 -702 705 -706 0
-700 -702 -705 -706 0
706 707 0
-706 -707 0
685 707 708 0
685 -707 -708 0
-685 707 -708 0
-685 -707 -708 0
680 708 709 0
680 -708 -709 0
-680 708 -709 0
-680 -708 -709 0
709 710 0
-709 -710 0
275 711 0
-275 -711 0
711 712 0
-711 -712 0
712 713 0
-712 -713 0
713 714 0
-713 -714 0
276 715 0
-276 -715 0
715 716 0
-715 -716 0
716 717 0
-716 -717 0
714 717 718 0
714 -717 -718 0
-714 717 -718 0
-714 -717 -718 0
718 719 0
-718 -719 0
378 720 0
-378 -720 0
720 721 0
-720 -721 0
721 722 0
-721 -722 0
279 723 0
-279 -723 0
723 724 0
-723 -724 0
724 725 0
-724 -725 0
725 726 0
-725 -726 0
280 727 0
-280 -727 0
727 728 0
-727 -728 0
728 729 0
-728 -729 0
729 730 0
-729 -730 0
270 731 0
-270 -731 0
731 732 0
-731 -732 0
732 733 0
-732 -733 0
733 734 0
-733 -734 0
734 735 0
-734 -735 0
722 726 730 735 736 0
722 726 730 -735 -736 0
722 726 -730 735 -736 0
722 726 -730 -735 -736 0
722 -726 730 735 -736 0
722 -726 730 -735 -736 0
722 -726 -730 735 -736 0
722 -726 -730 -735 -736 0
-722 726 730 735 -736 0
-722 726 730 -735 -736 0
-722 726 -730 735 -736 0
-722 726 -730 -735 -736 0
-722 -726 730 735 -736 0
-722 -726 730 -735 -736 0
-722 -726 -730 735 -736 0
-722 -726 -730 -735 -736 0
736 737 0
-736 -737 0
278 738 0
-278 -738 0
738 739 0
-738 -739 0
739 740 0
-739 -740 0
277 741 0
-277 -741 0
741 742 0
-741 -742 0
742 743 0
-742 -743 0
740 743 744 0
740 -743 -744 0
-740 743 -744 0
-740 -743 -744 0
744 745 0
-744 -745 0
719 737 745 746 0
719 737 -745 -746 0
719 -737 745 -746 0
719 -737 -745 -746 0
-719 737 745 -746 0
-719 737 -745 -746 0
-719 -737 745 -746 0
-719 -737 -745 -746 0
746 747 0
-746 -747 0
272 271 -748 0
272 -271 748 0
-272 271 748 0
-272 -271 748 0
748 749 0
-748 -749 0
749 750 0
-749 -750 0
750 751 0
-750 -751 0
747 751 752 0
747 -751 -752 0
-747 751 -752 0
-747 -751 -752 0
269 753 0
-269 -753 0
753 754 0
-753 -754 0
754 755 0
-754 -755 0
755 756 0
-755 -756 0
756 757 0
-756 -757 0
268 758 0
-268 -758 0
758 759 0
-758 -759 0
759 760 0
-759 -760 0
760 761 0
-760 -761 0
761 762 0
-761 -762 0
720 763 0
-720 -763 0
763 764 0
-763 -764 0
739 765 0
-739 -765 0
765 766 0
-765 -766 0
766 730 726 -767 0
766 730 -726 767 0
766 -730 726 767 0
766 -730 -726 767 0
-766 730 726 767 0
-766 730 -726 767 0
-766 -730 726 767 0
-766 -730 -726 767 0
762 764 767 -768 0
762 764 -767 768 0
762 -764 767 768 0
762 -764 -767 768 0
-762 764 767 768 0
-762 764 -767 768 0
-762 -764 767 768 0
-762 -764 -767 768 0
768 769 0
-768 -769 0
769 770 0
-769 -770 0
770 717 771 0
770 -717 -771 0
-770 717 -771 0
-770 -717 -771 0
771 772 0
-771 -772 0
770 743 773 0
770 -743 -773 0
-770 743 -773 0
-770 -743 -773 0
773 774 0
-773 -774 0
712 775 0
-712 -775 0
770 775 776 0
770 -775 -776 0
-770 775 -776 0
-770 -775 -776 0
776 777 0
-776 -777 0
772 774 777 778 0
772 774 -777 -778 0
772 -774 777 -778 0
772 -774 -777 -778 0
-772 774 777 -778 0
-772 774 -777 -778 0
-772 -774 777 -778 0
-772 -774 -777 -778 0
778 779 0
-778 -779 0
757 779 780 0
757 -779 -780 0
-757 779 -780 0
-757 -779 -780 0
752 780 781 0
752 -780 -781 0
-752 780 -781 0
-752 -780 -781 0
781 782 0
-781 -782 0
710 782 -783 0
710 -782 783 0
-710 782 783 0
-710 -782 -783 0
226 784 0
-226 -784 0
226 785 0
-226 -785 0
784 785 -786 0
784 -785 786 0
-784 785 786 0
-784 -785 -786 0
227 787 0
-227 -787 0
227 788 0
-227 -788 0
787 788 -789 0
787 -788 789 0
-787 788 789 0
-787 -788 -789 0
656 790 0
-656 -790 0
790 791 0
-790 -791 0
791 792 0
-791 -792 0
668 793 0
-668 -793 0
793 794 0
-793 -794 0
652 795 0
-652 -795 0
795 796 0
-795 -796 0
796 797 0
-796 -797 0
792 794 797 798 0
792 794 -797 -798 0
792 -794 797 -798 0
792 -794 -797 -798 0
-792 794 797 -798 0
-792 794 -797 -798 0
-792 -794 797 -798 0
-792 -794 -797 -798 0
694 799 0
-694 -799 0
799 800 0
-799 -800 0
654 801 0
-654 -801 0
801 802 0
-801 -802 0
792 800 802 803 0
792 800 -802 -803 0
792 -800 802 -803 0
792 -800 -802 -803 0
-792 800 802 -803 0
-792 800 -802 -803 0
-792 -800 802 -803 0
-792 -800 -802 -803 0
658 804 0
-658 -804 0
804 805 0
-804 -805 0
805 794 802 806 0
805 794 -802 -806 0
805 -794 802 -806 0
805 -794 -802 -806 0
-805 794 802 -806 0
-805 794 -802 -806 0
-805 -794 802 -806 0
-805 -794 -802 -806 0
805 800 797 807 0
805 800 -797 -807 0
805 -800 797 -807 0
805 -800 -797 -807 0
-805 800 797 -807 0
-805 800 -797 -807 0
-805 -800 797 -807 0
-805 -800 -797 -807 0
798 803 806 807 -808 0
798 803 806 -807 808 0
798 803 -806 807 808 0
798 803 -806 -807 808 0
798 -803 806 807 808 0
798 -803 806 -807 808 0
798 -803 -806 807 808 0
798 -803 -806 -807 808 0
-798 803 806 807 808 0
-798 803 806 -807 808 0
-798 803 -806 807 808 0
-798 803 -806 -807 808 0
-798 -803 806 807 808 0
-798 -803 806 -807 808 0
-798 -803 -806 807 808 0
-798 -803 -806 -807 808 0
808 809 0
-808 -809 0
809 810 0
-809 -810 0
810 811 0
-810 -811 0
274 812 0
-274 -812 0
812 813 0
-812 -813 0
813 814 0
-813 -814 0
642 814 815 0
642 -814 -815 0
-642 814 -815 0
-642 -814 -815 0
813 816 0
-813 -816 0
816 817 0
-816 -817 0
703 817 818 0
703 -817 -818 0
-703 817 -818 0
-703 -817 -818 0
815 818 -819 0
815 -818 819 0
-815 818 819 0
-815 -818 819 0
819 820 0
-819 -820 0
820 821 0
-820 -821 0
644 822 0
-644 -822 0
822 823 0
-822 -823 0
823 671 824 0
823 -671 -824 0
-823 671 -824 0
-823 -671 -824 0
670 825 0
-670 -825 0
825 826 0
-825 -826 0
645 826 827 0
645 -826 -827 0
-645 826 -827 0
-645 -826 -827 0
824 827 -828 0
824 -827 828 0
-824 827 828 0
-824 -827 828 0
828 829 0
-828 -829 0
829 830 0
-829 -830 0
830 831 0
-830 -831 0
811 821 831 832 0
811 821 -831 -832 0
811 -821 831 -832 0
811 -821 -831 -832 0
-811 821 831 -832 0
-811 821 -831 -832 0
-811 -821 831 -832 0
-811 -821 -831 -832 0
819 833 0
-819 -833 0
833 834 0
-833 -834 0
834 835 0
-834 -835 0
828 836 0
-828 -836 0
836 837 0
-836 -837 0
811 835 837 838 0
811 835 -837 -838 0
811 -835 837 -838 0
811 -835 -837 -838 0
-811 835 837 -838 0
-811 835 -837 -838 0
-811 -835 837 -838 0
-811 -835 -837 -838 0
808 839 0
-808 -839 0
839 840 0
-839 -840 0
840 821 837 841 0
840 821 -837 -841 0
840 -821 837 -841 0
840 -821 -837 -841 0
-840 821 837 -841 0
-840 821 -837 -841 0
-840 -821 837 -841 0
-840 -821 -837 -841 0
840 835 831 842 0
840 835 -831 -842 0
840 -835 831 -842 0
840 -835 -831 -842 0
-840 835 831 -842 0
-840 835 -831 -842 0
-840 -835 831 -842 0
-840 -835 -831 -842 0
832 838 841 842 -843 0
832 838 841 -842 843 0
832 838 -841 842 843 0
832 838 -841 -842 843 0
832 -838 841 842 843 0
832 -838 841 -842 843 0
832 -838 -841 842 843 0
832 -838 -841 -842 843 0
-832 838 841 842 843 0
-832 838 841 -842 843 0
-832 838 -841 842 843 0
-832 838 -841 -842 843 0
-832 -838 841 842 843 0
-832 -838 841 -842 843 0
-832 -838 -841 842 843 0
-832 -838 -841 -842 843 0
728 844 0
-728 -844 0
844 845 0
-844 -845 0
845 846 0
-845 -846 0
740 847 0
-740 -847 0
847 848 0
-847 -848 0
724 849 0
-724 -849 0
849 850 0
-849 -850 0
850 851 0
-850 -851 0
846 848 851 852 0
846 848 -851 -852 0
846 -848 851 -852 0
846 -848 -851 -852 0
-846 848 851 -852 0
-846 848 -851 -852 0
-846 -848 851 -852 0
-846 -848 -851 -852 0
766 853 0
-766 -853 0
853 854 0
-853 -854 0
726 855 0
-726 -855 0
855 856 0
-855 -856 0
846 854 856 857 0
846 854 -856 -857 0
846 -854 856 -857 0
846 -854 -856 -857 0
-846 854 856 -857 0
-846 854 -856 -857 0
-846 -854 856 -857 0
-846 -854 -856 -857 0
730 858 0
-730 -858 0
858 859 0
-858 -859 0
859 848 856 860 0
859 848 -856 -860 0
859 -848 856 -860 0
859 -848 -856 -860 0
-859 848 856 -860 0
-859 848 -856 -860 0
-859 -848 856 -860 0
-859 -848 -856 -860 0
859 854 851 861 0
859 854 -851 -861 0
859 -854 851 -861 0
859 -854 -851 -861 0
-859 854 851 -861 0
-859 854 -851 -861 0
-859 -854 851 -861 0
-859 -854 -851 -861 0
852 857 860 861 -862 0
852 857 860 -861 862 0
852 857 -860 861 862 0
852 857 -860 -861 862 0
852 -857 860 861 862 0
852 -857 860 -861 862 0
852 -857 -860 861 862 0
852 -857 -860 -861 862 0
-852 857 860 861 862 0
-852 857 860 -861 862 0
-852 857 -860 861 862 0
-852 857 -860 -861 862 0
-852 -857 860 861 862 0
-852 -857 860 -861 862 0
-852 -857 -860 861 862 0
-852 -857 -860 -861 862 0
862 863 0
-862 -863 0
863 864 0
-863 -864 0
864 865 0
-864 -865 0
274 866 0
-274 -866 0
866 867 0
-866 -867 0
867 868 0
-867 -868 0
714 868 869 0
714 -868 -869 0
-714 868 -869 0
-714 -868 -869 0
867 870 0
-867 -870 0
870 871 0
-870 -871 0
775 871 872 0
775 -871 -872 0
-775 871 -872 0
-775 -871 -872 0
869 872 -873 0
869 -872 873 0
-869 872 873 0
-869 -872 873 0
873 874 0
-873 -874 0
874 875 0
-874 -875 0
716 876 0
-716 -876 0
876 877 0
-876 -877 0
877 743 878 0
877 -743 -878 0
-877 743 -878 0
-877 -743 -878 0
742 879 0
-742 -879 0
879 880 0
-879 -880 0
717 880 881 0
717 -880 -881 0
-717 880 -881 0
-717 -880 -881 0
878 881 -882 0
878 -881 882 0
-878 881 882 0
-878 -881 882 0
882 883 0
-882 -883 0
883 884 0
-883 -884 0
884 885 0
-884 -885 0
865 875 885 886 0
865 875 -885 -886 0
865 -875 885 -886 0
865 -875 -885 -886 0
-865 875 885 -886 0
-865 875 -885 -886 0
-865 -875 885 -886 0
-865 -875 -885 -886 0
873 887 0
-873 -887 0
887 888 0
-887 -888 0
888 889 0
-888 -889 0
882 890 0
-882 -890 0
890 891 0
-890 -891 0
865 889 891 892 0
865 889 -891 -892 0
865 -889 891 -892 0
865 -889 -891 -892 0
-865 889 891 -892 0
-865 889 -891 -892 0
-865 -889 891 -892 0
-865 -889 -891 -892 0
862 893 0
-862 -893 0
893 894 0
-893 -894 0
894 875 891 895 0
894 875 -891 -895 0
894 -875 891 -895 0
894 -875 -891 -895 0
-894 875 891 -895 0
-894 875 -891 -895 0
-894 -875 891 -895 0
-894 -875 -891 -895 0
894 889 885 896 0
894 889 -885 -896 0
894 -889 885 -896 0
894 -889 -885 -896 0
-894 889 885 -896 0
-894 889 -885 -896 0
-894 -889 885 -896 0
-894 -889 -885 -896 0
886 892 895 896 -897 0
886 892 895 -896 897 0
886 892 -895 896 897 0
886 892 -895 -896 897 0
886 -892 895 896 897 0
886 -892 895 -896 897 0
886 -892 -895 896 897 0
886 -892 -895 -896 897 0
-886 892 895 896 897 0
-886 892 895 -896 897 0
-886 892 -895 896 897 0
-886 892 -895 -896 897 0
-886 -892 895 896 897 0
-886 -892 895 -896 897 0
-886 -892 -895 896 897 0
-886 -892 -895 -896 897 0
843 897 -898 0
843 -897 898 0
-843 897 898 0
-843 -897 -898 0
232 899 0
-232 -899 0
232 900 0
-232 -900 0
899 900 -901 0
899 -900 901 0
-899 900 901 0
-899 -900 -901 0
234 902 0
-234 -902 0
234 903 0
-234 -903 0
902 903 -904 0
902 -903 904 0
-902 903 904 0
-902 -903 -904 0
235 905 0
-235 -905 0
235 906 0
-235 -906 0
905 906 -907 0
905 -906 907 0
-905 906 907 0
-905 -906 -907 0
243 908 0
-243 -908 0
243 909 0
-243 -909 0
908 909 -910 0
908 -909 910 0
-908 909 910 0
-908 -909 -910 0
236 911 0
-236 -911 0
911 912 0
-911 -912 0
912 913 0
-912 -913 0
913 914 0
-913 -914 0
228 915 0
-228 -915 0
915 916 0
-915 -916 0
916 917 0
-916 -917 0
917 918 0
-917 -918 0
245 919 0
-245 -919 0
919 920 0
-919 -920 0
920 921 0
-920 -921 0
921 922 0
-921 -922 0
914 918 922 923 0
914 918 -922 -923 0
914 -918 922 -923 0
914 -918 -922 -923 0
-914 918 922 -923 0
-914 918 -922 -923 0
-914 -918 922 -923 0
-914 -918 -922 -923 0
228 924 0
-228 -924 0
924 925 0
-924 -925 0
925 926 0
-925 -926 0
245 927 0
-245 -927 0
927 928 0
-927 -928 0
928 929 0
-928 -929 0
914 926 929 930 0
914 926 -929 -930 0
914 -926 929 -930 0
914 -926 -929 -930 0
-914 926 929 -930 0
-914 926 -929 -930 0
-914 -926 929 -930 0
-914 -926 -929 -930 0
236 931 0
-236 -931 0
931 932 0
-931 -932 0
932 933 0
-932 -933 0
933 918 929 934 0
933 918 -929 -934 0
933 -918 929 -934 0
933 -918 -929 -934 0
-933 918 929 -934 0
-933 918 -929 -934 0
-933 -918 929 -934 0
-933 -918 -929 -934 0
933 926 922 935 0
933 926 -922 -935 0
933 -926 922 -935 0
933 -926 -922 -935 0
-933 926 922 -935 0
-933 926 -922 -935 0
-933 -926 922 -935 0
-933 -926 -922 -935 0
923 930 934 935 -936 0
923 930 934 -935 936 0
923 930 -934 935 936 0
923 930 -934 -935 936 0
923 -930 934 935 936 0
923 -930 934 -935 936 0
923 -930 -934 935 936 0
923 -930 -934 -935 936 0
-923 930 934 935 936 0
-923 930 934 -935 936 0
-923 930 -934 935 936 0
-923 930 -934 -935 936 0
-923 -930 934 935 936 0
-923 -930 934 -935 936 0
-923 -930 -934 935 936 0
-923 -930 -934 -935 936 0
936 937 0
-936 -937 0
937 938 0
-937 -938 0
938 939 0
-938 -939 0
226 940 0
-226 -940 0
940 941 0
-940 -941 0
941 942 0
-941 -942 0
942 943 0
-942 -943 0
227 944 0
-227 -944 0
944 945 0
-944 -945 0
945 946 0
-945 -946 0
946 947 0
-946 -947 0
218 948 0
-218 -948 0
948 949 0
-948 -949 0
949 950 0
-949 -950 0
950 951 0
-950 -951 0
943 947 951 952 0
943 947 -951 -952 0
943 -947 951 -952 0
943 -947 -951 -952 0
-943 947 951 -952 0
-943 947 -951 -952 0
-943 -947 951 -952 0
-943 -947 -951 -952 0
787 953 0
-787 -953 0
953 954 0
-953 -954 0
627 955 0
-627 -955 0
955 956 0
-955 -956 0
943 954 956 957 0
943 954 -956 -957 0
943 -954 956 -957 0
943 -954 -956 -957 0
-943 954 956 -957 0
-943 954 -956 -957 0
-943 -954 956 -957 0
-943 -954 -956 -957 0
784 958 0
-784 -958 0
958 959 0
-958 -959 0
959 947 956 960 0
959 947 -956 -960 0
959 -947 956 -960 0
959 -947 -956 -960 0
-959 947 956 -960 0
-959 947 -956 -960 0
-959 -947 956 -960 0
-959 -947 -956 -960 0
959 954 951 961 0
959 954 -951 -961 0
959 -954 951 -961 0
959 -954 -951 -961 0
-959 954 951 -961 0
-959 954 -951 -961 0
-959 -954 951 -961 0
-959 -954 -951 -961 0
952 957 960 961 -962 0
952 957 960 -961 962 0
952 957 -960 961 962 0
952 957 -960 -961 962 0
952 -957 960 961 962 0
952 -957 960 -961 962 0
952 -957 -960 961 962 0
952 -957 -960 -961 962 0
-952 957 960 961 962 0
-952 957 960 -961 962 0
-952 957 -960 961 962 0
-952 957 -960 -961 962 0
-952 -957 960 961 962 0
-952 -957 960 -961 962 0
-952 -957 -960 961 962 0
-952 -957 -960 -961 962 0
962 963 0
-962 -963 0
963 964 0
-963 -964 0
244 965 0
-244 -965 0
965 966 0
-965 -966 0
966 967 0
-966 -967 0
967 968 0
-967 -968 0
235 969 0
-235 -969 0
969 970 0
-969 -970 0
970 971 0
-970 -971 0
971 972 0
-971 -972 0
234 973 0
-234 -973 0
973 974 0
-973 -974 0
974 975 0
-974 -975 0
975 976 0
-975 -976 0
968 972 976 977 0
968 972 -976 -977 0
968 -972 976 -977 0
968 -972 -976 -977 0
-968 972 976 -977 0
-968 972 -976 -977 0
-968 -972 976 -977 0
-968 -972 -976 -977 0
905 978 0
-905 -978 0
978 979 0
-978 -979 0
902 980 0
-902 -980 0
980 981 0
-980 -981 0
968 979 981 982 0
968 979 -981 -982 0
968 -979 981 -982 0
968 -979 -981 -982 0
-968 979 981 -982 0
-968 979 -981 -982 0
-968 -979 981 -982 0
-968 -979 -981 -982 0
244 983 0
-244 -983 0
983 984 0
-983 -984 0
984 985 0
-984 -985 0
985 972 981 986 0
985 972 -981 -986 0
985 -972 981 -986 0
985 -972 -981 -986 0
-985 972 981 -986 0
-985 972 -981 -986 0
-985 -972 981 -986 0
-985 -972 -981 -986 0
985 979 976 987 0
985 979 -976 -987 0
985 -979 976 -987 0
985 -979 -976 -987 0
-985 979 976 -987 0
-985 979 -976 -987 0
-985 -979 976 -987 0
-985 -979 -976 -987 0
977 982 986 987 -988 0
977 982 986 -987 988 0
977 982 -986 987 988 0
977 982 -986 -987 988 0
977 -982 986 987 988 0
977 -982 986 -987 988 0
977 -982 -986 987 988 0
977 -982 -986 -987 988 0
-977 982 986 987 988 0
-977 982 986 -987 988 0
-977 982 -986 987 988 0
-977 982 -986 -987 988 0
-977 -982 986 987 988 0
-977 -982 986 -987 988 0
-977 -982 -986 987 988 0
-977 -982 -986 -987 988 0
988 989 0
-988 -989 0
989 990 0
-989 -990 0
990 991 0
-990 -991 0
939 964 991 992 0
939 964 -991 -992 0
939 -964 991 -992 0
939 -964 -991 -992 0
-939 964 991 -992 0
-939 964 -991 -992 0
-939 -964 991 -992 0
-939 -964 -991 -992 0
962 993 0
-962 -993 0
993 994 0
-993 -994 0
994 995 0
-994 -995 0
988 996 0
-988 -996 0
996 997 0
-996 -997 0
939 995 997 998 0
939 995 -997 -998 0
939 -995 997 -998 0
939 -995 -997 -998 0
-939 995 997 -998 0
-939 995 -997 -998 0
-939 -995 997 -998 0
-939 -995 -997 -998 0
936 999 0
-936 -999 0
999 1000 0
-999 -1000 0
1000 964 997 1001 0
1000 964 -997 -1001 0
1000 -964 997 -1001 0
1000 -964 -997 -1001 0
-1000 964 997 -1001 0
-1000 964 -997 -1001 0
-1000 -964 997 -1001 0
-1000 -964 -997 -1001 0
1000 995 991 1002 0
1000 995 -991 -1002 0
1000 -995 991 -1002 0
1000 -995 -991 -1002 0
-1000 995 991 -1002 0
-1000 995 -991 -1002 0
-1000 -995 991 -1002 0
-1000 -995 -991 -1002 0
992 998 1001 1002 -1003 0
992 998 1001 -1002 1003 0
992 998 -1001 1002 1003 0
992 998 -1001 -1002 1003 0
992 -998 1001 1002 1003 0
992 -998 1001 -1002 1003 0
992 -998 -1001 1002 1003 0
992 -998 -1001 -1002 1003 0
-992 998 1001 1002 1003 0
-992 998 1001 -1002 1003 0
-992 998 -1001 1002 1003 0
-992 998 -1001 -1002 1003 0
-992 -998 1001 1002 1003 0
-992 -998 1001 -1002 1003 0
-992 -998 -1001 1002 1003 0
-992 -998 -1001 -1002 1003 0
236 1004 0
-236 -1004 0
1004 1005 0
-1004 -1005 0
1005 1006 0
-1005 -1006 0
1006 1007 0
-1006 -1007 0
228 1008 0
-228 -1008 0
1008 1009 0
-1008 -1009 0
1009 1010 0
-1009 -1010 0
1010 1011 0
-1010 -1011 0
245 1012 0
-245 -1012 0
1012 1013 0
-1012 -1013 0
1013 1014 0
-1013 -1014 0
1014 1015 0
-1014 -1015 0
1007 1011 1015 1016 0
1007 1011 -1015 -1016 0
1007 -1011 1015 -1016 0
1007 -1011 -1015 -1016 0
-1007 1011 1015 -1016 0
-1007 1011 -1015 -1016 0
-1007 -1011 1015 -1016 0
-1007 -1011 -1015 -1016 0
228 1017 0
-228 -1017 0
1017 1018 0
-1017 -1018 0
1018 1019 0
-1018 -1019 0
245 1020 0
-245 -1020 0
1020 1021 0
-1020 -1021 0
1021 1022 0
-1021 -1022 0
1007 1019 1022 1023 0
1007 1019 -1022 -1023 0
1007 -1019 1022 -1023 0
1007 -1019 -1022 -1023 0
-1007 1019 1022 -1023 0
-1007 1019 -1022 -1023 0
-1007 -1019 1022 -1023 0
-1007 -1019 -1022 -1023 0
236 1024 0
-236 -1024 0
1024 1025 0
-1024 -1025 0
1025 1026 0
-1025 -1026 0
1026 1011 1022 1027 0
1026 1011 -1022 -1027 0
1026 -1011 1022 -1027 0
1026 -1011 -1022 -1027 0
-1026 1011 1022 -1027 0
-1026 1011 -1022 -1027 0
-1026 -1011 1022 -1027 0
-1026 -1011 -1022 -1027 0
1026 1019 1015 1028 0
1026 1019 -1015 -1028 0
1026 -1019 1015 -1028 0
1026 -1019 -1015 -1028 0
-1026 1019 1015 -1028 0
-1026 1019 -1015 -1028 0
-1026 -1019 1015 -1028 0
-1026 -1019 -1015 -1028 0
1016 1023 1027 1028 -1029 0
1016 1023 1027 -1028 1029 0
1016 1023 -1027 1028 1029 0
1016 1023 -1027 -1028 1029 0
1016 -1023 1027 1028 1029 0
1016 -1023 1027 -1028 1029 0
1016 -1023 -1027 1028 1029 0
1016 -1023 -1027 -1028 1029 0
-1016 1023 1027 1028 1029 0
-1016 1023 1027 -1028 1029 0
-1016 1023 -1027 1028 1029 0
-1016 1023 -1027 -1028 1029 0
-1016 -1023 1027 1028 1029 0
-1016 -1023 1027 -1028 1029 0
-1016 -1023 -1027 1028 1029 0
-1016 -1023 -1027 -1028 1029 0
1029 1030 0
-1029 -1030 0
1030 1031 0
-1030 -1031 0
1031 1032 0
-1031 -1032 0
226 1033 0
-226 -1033 0
1033 1034 0
-1033 -1034 0
1034 1035 0
-1034 -1035 0
1035 1036 0
-1035 -1036 0
227 1037 0
-227 -1037 0
1037 1038 0
-1037 -1038 0
1038 1039 0
-1038 -1039 0
1039 1040 0
-1039 -1040 0
218 1041 0
-218 -1041 0
1041 1042 0
-1041 -1042 0
1042 1043 0
-1042 -1043 0
1043 1044 0
-1043 -1044 0
1036 1040 1044 1045 0
1036 1040 -1044 -1045 0
1036 -1040 1044 -1045 0
1036 -1040 -1044 -1045 0
-1036 1040 1044 -1045 0
-1036 1040 -1044 -1045 0
-1036 -1040 1044 -1045 0
-1036 -1040 -1044 -1045 0
788 1046 0
-788 -1046 0
1046 1047 0
-1046 -1047 0
628 1048 0
-628 -1048 0
1048 1049 0
-1048 -1049 0
1036 1047 1049 1050 0
1036 1047 -1049 -1050 0
1036 -1047 1049 -1050 0
1036 -1047 -1049 -1050 0
-1036 1047 1049 -1050 0
-1036 1047 -1049 -1050 0
-1036 -1047 1049 -1050 0
-1036 -1047 -1049 -1050 0
785 1051 0
-785 -1051 0
1051 1052 0
-1051 -1052 0
1052 1040 1049 1053 0
1052 1040 -1049 -1053 0
1052 -1040 1049 -1053 0
1052 -1040 -1049 -1053 0
-1052 1040 1049 -1053 0
-1052 1040 -1049 -1053 0
-1052 -1040 1049 -1053 0
-1052 -1040 -1049 -1053 0
1052 1047 1044 1054 0
1052 1047 -1044 -1054 0
1052 -1047 1044 -1054 0
1052 -1047 -1044 -1054 0
-1052 1047 1044 -1054 0
-1052 1047 -1044 -1054 0
-1052 -1047 1044 -1054 0
-1052 -1047 -1044 -1054 0
1045 1050 1053 1054 -1055 0
1045 1050 1053 -1054 1055 0
1045 1050 -1053 1054 1055 0
1045 1050 -1053 -1054 1055 0
1045 -1050 1053 1054 1055 0
1045 -1050 1053 -1054 1055 0
1045 -1050 -1053 1054 1055 0
1045 -1050 -1053 -1054 1055 0
-1045 1050 1053 1054 1055 0
-1045 1050 1053 -1054 1055 0
-1045 1050 -1053 1054 1055 0
-1045 1050 -1053 -1054 1055 0
-1045 -1050 1053 1054 1055 0
-1045 -1050 1053 -1054 1055 0
-1045 -1050 -1053 1054 1055 0
-1045 -1050 -1053 -1054 1055 0
1055 1056 0
-1055 -1056 0
1056 1057 0
-1056 -1057 0
244 1058 0
-244 -1058 0
1058 1059 0
-1058 -1059 0
1059 1060 0
-1059 -1060 0
1060 1061 0
-1060 -1061 0
235 1062 0
-235 -1062 0
1062 1063 0
-1062 -1063 0
1063 1064 0
-1063 -1064 0
1064 1065 0
-1064 -1065 0
234 1066 0
-234 -1066 0
1066 1067 0
-1066 -1067 0
1067 1068 0
-1067 -1068 0
1068 1069 0
-1068 -1069 0
1061 1065 1069 1070 0
1061 1065 -1069 -1070 0
1061 -1065 1069 -1070 0
1061 -1065 -1069 -1070 0
-1061 1065 1069 -1070 0
-1061 1065 -1069 -1070 0
-1061 -1065 1069 -1070 0
-1061 -1065 -1069 -1070 0
906 1071 0
-906 -1071 0
1071 1072 0
-1071 -1072 0
903 1073 0
-903 -1073 0
1073 1074 0
-1073 -1074 0
1061 1072 1074 1075 0
1061 1072 -1074 -1075 0
1061 -1072 1074 -1075 0
1061 -1072 -1074 -1075 0
-1061 1072 1074 -1075 0
-1061 1072 -1074 -1075 0
-1061 -1072 1074 -1075 0
-1061 -1072 -1074 -1075 0
244 1076 0
-244 -1076 0
1076 1077 0
-1076 -1077 0
1077 1078 0
-1077 -1078 0
1078 1065 1074 1079 0
1078 1065 -1074 -1079 0
1078 -1065 1074 -1079 0
1078 -1065 -1074 -1079 0
-1078 1065 1074 -1079 0
-1078 1065 -1074 -1079 0
-1078 -1065 1074 -1079 0
-1078 -1065 -1074 -1079 0
1078 1072 1069 1080 0
1078 1072 -1069 -1080 0
1078 -1072 1069 -1080 0
1078 -1072 -1069 -1080 0
-1078 1072 1069 -1080 0
-1078 1072 -1069 -1080 0
-1078 -1072 1069 -1080 0
-1078 -1072 -1069 -1080 0
1070 1075 1079 1080 -1081 0
1070 1075 1079 -1080 1081 0
1070 1075 -1079 1080 1081 0
1070 1075 -1079 -1080 1081 0
1070 -1075 1079 1080 1081 0
1070 -1075 1079 -1080 1081 0
1070 -1075 -1079 1080 1081 0
1070 -1075 -1079 -1080 1081 0
-1070 1075 1079 1080 1081 0
-1070 1075 1079 -1080 1081 0
-1070 1075 -1079 1080 1081 0
-1070 1075 -1079 -1080 1081 0
-1070 -1075 1079 1080 1081 0
-1070 -1075 1079 -1080 1081 0
-1070 -1075 -1079 1080 1081 0
-1070 -1075 -1079 -1080 1081 0
1081 1082 0
-1081 -1082 0
1082 1083 0
-1082 -1083 0
1083 1084 0
-1083 -1084 0
1032 1057 1084 1085 0
1032 1057 -1084 -1085 0
1032 -1057 1084 -1085 0
1032 -1057 -1084 -1085 0
-1032 1057 1084 -1085 0
-1032 1057 -1084 -1085 0
-1032 -1057 1084 -1085 0
-1032 -1057 -1084 -1085 0
1055 1086 0
-1055 -1086 0
1086 1087 0
-1086 -1087 0
1087 1088 0
-1087 -1088 0
1081 1089 0
-1081 -1089 0
1089 1090 0
-1089 -1090 0
1032 1088 1090 1091 0
1032 1088 -1090 -1091 0
1032 -1088 1090 -1091 0
1032 -1088 -1090 -1091 0
-1032 1088 1090 -1091 0
-1032 1088 -1090 -1091 0
-1032 -1088 1090 -1091 0
-1032 -1088 -1090 -1091 0
1029 1092 0
-1029 -1092 0
1092 1093 0
-1092 -1093 0
1093 1057 1090 1094 0
1093 1057 -1090 -1094 0
1093 -1057 1090 -1094 0
1093 -1057 -1090 -1094 0
-1093 1057 1090 -1094 0
-1093 1057 -1090 -1094 0
-1093 -1057 1090 -1094 0
-1093 -1057 -1090 -1094 0
1093 1088 1084 1095 0
1093 1088 -1084 -1095 0
1093 -1088 1084 -1095 0
1093 -1088 -1084 -1095 0
-1093 1088 1084 -1095 0
-1093 1088 -1084 -1095 0
-1093 -1088 1084 -1095 0
-1093 -1088 -1084 -1095 0
1085 1091 1094 1095 -1096 0
1085 1091 1094 -1095 1096 0
1085 1091 -1094 1095 1096 0
1085 1091 -1094 -1095 1096 0
1085 -1091 1094 1095 1096 0
1085 -1091 1094 -1095 1096 0
1085 -1091 -1094 1095 1096 0
1085 -1091 -1094 -1095 1096 0
-1085 1091 1094 1095 1096 0
-1085 1091 1094 -1095 1096 0
-1085 1091 -1094 1095 1096 0
-1085 1091 -1094 -1095 1096 0
-1085 -1091 1094 1095 1096 0
-1085 -1091 1094 -1095 1096 0
-1085 -1091 -1094 1095 1096 0
-1085 -1091 -1094 -1095 1096 0
1003 1096 -1097 0
1003 -1096 1097 0
-1003 1096 1097 0
-1003 -1096 -1097 0
299 1098 0
-299 -1098 0
1098 1099 0
-1098 -1099 0
1099 1100 0
-1099 -1100 0
1100 1101 0
-1100 -1101 0
393 1102 0
-393 -1102 0
1102 1103 0
-1102 -1103 0
1103 1104 0
-1103 -1104 0
1104 1105 0
-1104 -1105 0
300 1106 0
-300 -1106 0
1106 1107 0
-1106 -1107 0
1107 1108 0
-1107 -1108 0
1108 1109 0
-1108 -1109 0
1101 1105 1109 1110 0
1101 1105 -1109 -1110 0
1101 -1105 1109 -1110 0
1101 -1105 -1109 -1110 0
-1101 1105 1109 -1110 0
-1101 1105 -1109 -1110 0
-1101 -1105 1109 -1110 0
-1101 -1105 -1109 -1110 0
393 1111 0
-393 -1111 0
1111 1112 0
-1111 -1112 0
1112 1113 0
-1112 -1113 0
300 1114 0
-300 -1114 0
1114 1115 0
-1114 -1115 0
1115 1116 0
-1115 -1116 0
1101 1113 1116 1117 0
1101 1113 -1116 -1117 0
1101 -1113 1116 -1117 0
1101 -1113 -1116 -1117 0
-1101 1113 1116 -1117 0
-1101 1113 -1116 -1117 0
-1101 -1113 1116 -1117 0
-1101 -1113 -1116 -1117 0
299 1118 0
-299 -1118 0
1118 1119 0
-1118 -1119 0
1119 1120 0
-1119 -1120 0
1120 1105 1116 1121 0
1120 1105 -1116 -1121 0
1120 -1105 1116 -1121 0
1120 -1105 -1116 -1121 0
-1120 1105 1116 -1121 0
-1120 1105 -1116 -1121 0
-1120 -1105 1116 -1121 0
-1120 -1105 -1116 -1121 0
1120 1113 1109 1122 0
1120 1113 -1109 -1122 0
1120 -1113 1109 -1122 0
1120 -1113 -1109 -1122 0
-1120 1113 1109 -1122 0
-1120 1113 -1109 -1122 0
-1120 -1113 1109 -1122 0
-1120 -1113 -1109 -1122 0
1110 1117 1121 1122 -1123 0
1110 1117 1121 -1122 1123 0
1110 1117 -1121 1122 1123 0
1110 1117 -1121 -1122 1123 0
1110 -1117 1121 1122 1123 0
1110 -1117 1121 -1122 1123 0
1110 -1117 -1121 1122 1123 0
1110 -1117 -1121 -1122 1123 0
-1110 1117 1121 1122 1123 0
-1110 1117 1121 -1122 1123 0
-1110 1117 -1121 1122 1123 0
-1110 1117 -1121 -1122 1123 0
-1110 -1117 1121 1122 1123 0
-1110 -1117 1121 -1122 1123 0
-1110 -1117 -1121 1122 1123 0
-1110 -1117 -1121 -1122 1123 0
1123 1124 0
-1123 -1124 0
1124 1125 0
-1124 -1125 0
1125 1126 0
-1125 -1126 0
221 1127 0
-221 -1127 0
1127 1128 0
-1127 -1128 0
1128 1129 0
-1128 -1129 0
1129 1130 0
-1129 -1130 0
428 1131 0
-428 -1131 0
1131 1132 0
-1131 -1132 0
1132 1133 0
-1132 -1133 0
1133 1134 0
-1133 -1134 0
217 1135 0
-217 -1135 0
1135 1136 0
-1135 -1136 0
1136 1137 0
-1136 -1137 0
1137 1138 0
-1137 -1138 0
1130 1134 1138 1139 0
1130 1134 -1138 -1139 0
1130 -1134 1138 -1139 0
1130 -1134 -1138 -1139 0
-1130 1134 1138 -1139 0
-1130 1134 -1138 -1139 0
-1130 -1134 1138 -1139 0
-1130 -1134 -1138 -1139 0
428 1140 0
-428 -1140 0
1140 1141 0
-1140 -1141 0
1141 1142 0
-1141 -1142 0
217 1143 0
-217 -1143 0
1143 1144 0
-1143 -1144 0
1144 1145 0
-1144 -1145 0
1130 1142 1145 1146 0
1130 1142 -1145 -1146 0
1130 -1142 1145 -1146 0
1130 -1142 -1145 -1146 0
-1130 1142 1145 -1146 0
-1130 1142 -1145 -1146 0
-1130 -1142 1145 -1146 0
-1130 -1142 -1145 -1146 0
221 1147 0
-221 -1147 0
1147 1148 0
-1147 -1148 0
1148 1149 0
-1148 -1149 0
1149 1134 1145 1150 0
1149 1134 -1145 -1150 0
1149 -1134 1145 -1150 0
1149 -1134 -1145 -1150 0
-1149 1134 1145 -1150 0
-1149 1134 -1145 -1150 0
-1149 -1134 1145 -1150 0
-1149 -1134 -1145 -1150 0
1149 1142 1138 1151 0
1149 1142 -1138 -1151 0
1149 -1142 1138 -1151 0
1149 -1142 -1138 -1151 0
-1149 1142 1138 -1151 0
-1149 1142 -1138 -1151 0
-1149 -1142 1138 -1151 0
-1149 -1142 -1138 -1151 0
1139 1146 1150 1151 -1152 0
1139 1146 1150 -1151 1152 0
1139 1146 -1150 1151 1152 0
1139 1146 -1150 -1151 1152 0
1139 -1146 1150 1151 1152 0
1139 -1146 1150 -1151 1152 0
1139 -1146 -1150 1151 1152 0
1139 -1146 -1150 -1151 1152 0
-1139 1146 1150 1151 1152 0
-1139 1146 1150 -1151 1152 0
-1139 1146 -1150 1151 1152 0
-1139 1146 -1150 -1151 1152 0
-1139 -1146 1150 1151 1152 0
-1139 -1146 1150 -1151 1152 0
-1139 -1146 -1150 1151 1152 0
-1139 -1146 -1150 -1151 1152 0
1152 1153 0
-1152 -1153 0
1153 1154 0
-1153 -1154 0
301 1155 0
-301 -1155 0
1155 1156 0
-1155 -1156 0
1156 1157 0
-1156 -1157 0
1157 1158 0
-1157 -1158 0
251 1159 0
-251 -1159 0
1159 1160 0
-1159 -1160 0
1160 1161 0
-1160 -1161 0
1161 1162 0
-1161 -1162 0
252 1163 0
-252 -1163 0
1163 1164 0
-1163 -1164 0
1164 1165 0
-1164 -1165 0
1165 1166 0
-1165 -1166 0
1158 1162 1166 1167 0
1158 1162 -1166 -1167 0
1158 -1162 1166 -1167 0
1158 -1162 -1166 -1167 0
-1158 1162 1166 -1167 0
-1158 1162 -1166 -1167 0
-1158 -1162 1166 -1167 0
-1158 -1162 -1166 -1167 0
251 1168 0
-251 -1168 0
1168 1169 0
-1168 -1169 0
1169 1170 0
-1169 -1170 0
252 1171 0
-252 -1171 0
1171 1172 0
-1171 -1172 0
1172 1173 0
-1172 -1173 0
1158 1170 1173 1174 0
1158 1170 -1173 -1174 0
1158 -1170 1173 -1174 0
1158 -1170 -1173 -1174 0
-1158 1170 1173 -1174 0
-1158 1170 -1173 -1174 0
-1158 -1170 1173 -1174 0
-1158 -1170 -1173 -1174 0
301 1175 0
-301 -1175 0
1175 1176 0
-1175 -1176 0
1176 1177 0
-1176 -1177 0
1177 1162 1173 1178 0
1177 1162 -1173 -1178 0
1177 -1162 1173 -1178 0
1177 -1162 -1173 -1178 0
-1177 1162 1173 -1178 0
-1177 1162 -1173 -1178 0
-1177 -1162 1173 -1178 0
-1177 -1162 -1173 -1178 0
1177 1170 1166 1179 0
1177 1170 -1166 -1179 0
1177 -1170 1166 -1179 0
1177 -1170 -1166 -1179 0
-1177 1170 1166 -1179 0
-1177 1170 -1166 -1179 0
-1177 -1170 1166 -1179 0
-1177 -1170 -1166 -1179 0
1167 1174 1178 1179 -1180 0
1167 1174 1178 -1179 1180 0
1167 1174 -1178 1179 1180 0
1167 1174 -1178 -1179 1180 0
1167 -1174 1178 1179 1180 0
1167 -1174 1178 -1179 1180 0
1167 -1174 -1178 1179 1180 0
1167 -1174 -1178 -1179 1180 0
-1167 1174 1178 1179 1180 0
-1167 1174 1178 -1179 1180 0
-1167 1174 -1178 1179 1180 0
-1167 1174 -1178 -1179 1180 0
-1167 -1174 1178 1179 1180 0
-1167 -1174 1178 -1179 1180 0
-1167 -1174 -1178 1179 1180 0
-1167 -1174 -1178 -1179 1180 0
1180 1181 0
-1180 -1181 0
1181 1182 0
-1181 -1182 0
1182 1183 0
-1182 -1183 0
1126 1154 1183 1184 0
1126 1154 -1183 -1184 0
1126 -1154 1183 -1184 0
1126 -1154 -1183 -1184 0
-1126 1154 1183 -1184 0
-1126 1154 -1183 -1184 0
-1126 -1154 1183 -1184 0
-1126 -1154 -1183 -1184 0
1152 1185 0
-1152 -1185 0
1185 1186 0
-1185 -1186 0
1186 1187 0
-1186 -1187 0
1180 1188 0
-1180 -1188 0
1188 1189 0
-1188 -1189 0
1126 1187 1189 1190 0
1126 1187 -1189 -1190 0
1126 -1187 1189 -1190 0
1126 -1187 -1189 -1190 0
-1126 1187 1189 -1190 0
-1126 1187 -1189 -1190 0
-1126 -1187 1189 -1190 0
-1126 -1187 -1189 -1190 0
1123 1191 0
-1123 -1191 0
1191 1192 0
-1191 -1192 0
1192 1154 1189 1193 0
1192 1154 -1189 -1193 0
1192 -1154 1189 -1193 0
1192 -1154 -1189 -1193 0
-1192 1154 1189 -1193 0
-1192 1154 -1189 -1193 0
-1192 -1154 1189 -1193 0
-1192 -1154 -1189 -1193 0
1192 1187 1183 1194 0
1192 1187 -1183 -1194 0
1192 -1187 1183 -1194 0
1192 -1187 -1183 -1194 0
-1192 1187 1183 -1194 0
-1192 1187 -1183 -1194 0
-1192 -1187 1183 -1194 0
-1192 -1187 -1183 -1194 0
1184 1190 1193 1194 -1195 0
1184 1190 1193 -1194 1195 0
1184 1190 -1193 1194 1195 0
1184 1190 -1193 -1194 1195 0
1184 -1190 1193 1194 1195 0
1184 -1190 1193 -1194 1195 0
1184 -1190 -1193 1194 1195 0
1184 -1190 -1193 -1194 1195 0
-1184 1190 1193 1194 1195 0
-1184 1190 1193 -1194 1195 0
-1184 1190 -1193 1194 1195 0
-1184 1190 -1193 -1194 1195 0
-1184 -1190 1193 1194 1195 0
-1184 -1190 1193 -1194 1195 0
-1184 -1190 -1193 1194 1195 0
-1184 -1190 -1193 -1194 1195 0
299 1196 0
-299 -1196 0
1196 1197 0
-1196 -1197 0
1197 1198 0
-1197 -1198 0
1198 1199 0
-1198 -1199 0
393 1200 0
-393 -1200 0
1200 1201 0
-1200 -1201 0
1201 1202 0
-1201 -1202 0
1202 1203 0
-1202 -1203 0
300 1204 0
-300 -1204 0
1204 1205 0
-1204 -1205 0
1205 1206 0
-1205 -1206 0
1206 1207 0
-1206 -1207 0
1199 1203 1207 1208 0
1199 1203 -1207 -1208 0
1199 -1203 1207 -1208 0
1199 -1203 -1207 -1208 0
-1199 1203 1207 -1208 0
-1199 1203 -1207 -1208 0
-1199 -1203 1207 -1208 0
-1199 -1203 -1207 -1208 0
393 1209 0
-393 -1209 0
1209 1210 0
-1209 -1210 0
1210 1211 0
-1210 -1211 0
300 1212 0
-300 -1212 0
1212 1213 0
-1212 -1213 0
1213 1214 0
-1213 -1214 0
1199 1211 1214 1215 0
1199 1211 -1214 -1215 0
1199 -1211 1214 -1215 0
1199 -1211 -1214 -1215 0
-1199 1211 1214 -1215 0
-1199 1211 -1214 -1215 0
-1199 -1211 1214 -1215 0
-1199 -1211 -1214 -1215 0
299 1216 0
-299 -1216 0
1216 1217 0
-1216 -1217 0
1217 1218 0
-1217 -1218 0
1218 1203 1214 1219 0
1218 1203 -1214 -1219 0
1218 -1203 1214 -1219 0
1218 -1203 -1214 -1219 0
-1218 1203 1214 -1219 0
-1218 1203 -1214 -1219 0
-1218 -1203 1214 -1219 0
-1218 -1203 -1214 -1219 0
1218 1211 1207 1220 0
1218 1211 -1207 -1220 0
1218 -1211 1207 -1220 0
1218 -1211 -1207 -1220 0
-1218 1211 1207 -1220 0
-1218 1211 -1207 -1220 0
-1218 -1211 1207 -1220 0
-1218 -1211 -1207 -1220 0
1208 1215 1219 1220 -1221 0
1208 1215 1219 -1220 1221 0
1208 1215 -1219 1220 1221 0
1208 1215 -1219 -1220 1221 0
1208 -1215 1219 1220 1221 0
1208 -1215 1219 -1220 1221 0
1208 -1215 -1219 1220 1221 0
1208 -1215 -1219 -1220 1221 0
-1208 1215 1219 1220 1221 0
-1208 1215 1219 -1220 1221 0
-1208 1215 -1219 1220 1221 0
-1208 1215 -1219 -1220 1221 0
-1208 -1215 1219 1220 1221 0
-1208 -1215 1219 -1220 1221 0
-1208 -1215 -1219 1220 1221 0
-1208 -1215 -1219 -1220 1221 0
1221 1222 0
-1221 -1222 0
1222 1223 0
-1222 -1223 0
1223 1224 0
-1223 -1224 0
221 1225 0
-221 -1225 0
1225 1226 0
-1225 -1226 0
1226 1227 0
-1226 -1227 0
1227 1228 0
-1227 -1228 0
428 1229 0
-428 -1229 0
1229 1230 0
-1229 -1230 0
1230 1231 0
-1230 -1231 0
1231 1232 0
-1231 -1232 0
217 1233 0
-217 -1233 0
1233 1234 0
-1233 -1234 0
1234 1235 0
-1234 -1235 0
1235 1236 0
-1235 -1236 0
1228 1232 1236 1237 0
1228 1232 -1236 -1237 0
1228 -1232 1236 -1237 0
1228 -1232 -1236 -1237 0
-1228 1232 1236 -1237 0
-1228 1232 -1236 -1237 0
-1228 -1232 1236 -1237 0
-1228 -1232 -1236 -1237 0
428 1238 0
-428 -1238 0
1238 1239 0
-1238 -1239 0
1239 1240 0
-1239 -1240 0
217 1241 0
-217 -1241 0
1241 1242 0
-1241 -1242 0
1242 1243 0
-1242 -1243 0
1228 1240 1243 1244 0
1228 1240 -1243 -1244 0
1228 -1240 1243 -1244 0
1228 -1240 -1243 -1244 0
-1228 1240 1243 -1244 0
-1228 1240 -1243 -1244 0
-1228 -1240 1243 -1244 0
-1228 -1240 -1243 -1244 0
221 1245 0
-221 -1245 0
1245 1246 0
-1245 -1246 0
1246 1247 0
-1246 -1247 0
1247 1232 1243 1248 0
1247 1232 -1243 -1248 0
1247 -1232 1243 -1248 0
1247 -1232 -1243 -1248 0
-1247 1232 1243 -1248 0
-1247 1232 -1243 -1248 0
-1247 -1232 1243 -1248 0
-1247 -1232 -1243 -1248 0
1247 1240 1236 1249 0
1247 1240 -1236 -1249 0
1247 -1240 1236 -1249 0
1247 -1240 -1236 -1249 0
-1247 1240 1236 -1249 0
-1247 1240 -1236 -1249 0
-1247 -1240 1236 -1249 0
-1247 -1240 -1236 -1249 0
1237 1244 1248 1249 -1250 0
1237 1244 1248 -1249 1250 0
1237 1244 -1248 1249 1250 0
1237 1244 -1248 -1249 1250 0
1237 -1244 1248 1249 1250 0
1237 -1244 1248 -1249 1250 0
1237 -1244 -1248 1249 1250 0
1237 -1244 -1248 -1249 1250 0
-1237 1244 1248 1249 1250 0
-1237 1244 1248 -1249 1250 0
-1237 1244 -1248 1249 1250 0
-1237 1244 -1248 -1249 1250 0
-1237 -1244 1248 1249 1250 0
-1237 -1244 1248 -1249 1250 0
-1237 -1244 -1248 1249 1250 0
-1237 -1244 -1248 -1249 1250 0
1250 1251 0
-1250 -1251 0
1251 1252 0
-1251 -1252 0
301 1253 0
-301 -1253 0
1253 1254 0
-1253 -1254 0
1254 1255 0
-1254 -1255 0
1255 1256 0
-1255 -1256 0
251 1257 0
-251 -1257 0
1257 1258 0
-1257 -1258 0
1258 1259 0
-1258 -1259 0
1259 1260 0
-1259 -1260 0
252 1261 0
-252 -1261 0
1261 1262 0
-1261 -1262 0
1262 1263 0
-1262 -1263 0
1263 1264 0
-1263 -1264 0
1256 1260 1264 1265 0
1256 1260 -1264 -1265 0
1256 -1260 1264 -1265 0
1256 -1260 -1264 -1265 0
-1256 1260 1264 -1265 0
-1256 1260 -1264 -1265 0
-1256 -1260 1264 -1265 0
-1256 -1260 -1264 -1265 0
251 1266 0
-251 -1266 0
1266 1267 0
-1266 -1267 0
1267 1268 0
-1267 -1268 0
252 1269 0
-252 -1269 0
1269 1270 0
-1269 -1270 0
1270 1271 0
-1270 -1271 0
1256 1268 1271 1272 0
1256 1268 -1271 -1272 0
1256 -1268 1271 -1272 0
1256 -1268 -1271 -1272 0
-1256 1268 1271 -1272 0
-1256 1268 -1271 -1272 0
-1256 -1268 1271 -1272 0
-1256 -1268 -1271 -1272 0
301 1273 0
-301 -1273 0
1273 1274 0
-1273 -1274 0
1274 1275 0
-1274 -1275 0
1275 1260 1271 1276 0
1275 1260 -1271 -1276 0
1275 -1260 1271 -1276 0
1275 -1260 -1271 -1276 0
-1275 1260 1271 -1276 0
-1275 1260 -1271 -1276 0
-1275 -1260 1271 -1276 0
-1275 -1260 -1271 -1276 0
1275 1268 1264 1277 0
1275 1268 -1264 -1277 0
1275 -1268 1264 -1277 0
1275 -1268 -1264 -1277 0
-1275 1268 1264 -1277 0
-1275 1268 -1264 -1277 0
-1275 -1268 1264 -1277 0
-1275 -1268 -1264 -1277 0
1265 1272 1276 1277 -1278 0
1265 1272 1276 -1277 1278 0
1265 1272 -1276 1277 1278 0
1265 1272 -1276 -1277 1278 0
1265 -1272 1276 1277 1278 0
1265 -1272 1276 -1277 1278 0
1265 -1272 -1276 1277 1278 0
1265 -1272 -1276 -1277 1278 0
-1265 1272 1276 1277 1278 0
-1265 1272 1276 -1277 1278 0
-1265 1272 -1276 1277 1278 0
-1265 1272 -1276 -1277 1278 0
-1265 -1272 1276 1277 1278 0
-1265 -1272 1276 -1277 1278 0
-1265 -1272 -1276 1277 1278 0
-1265 -1272 -1276 -1277 1278 0
1278 1279 0
-1278 -1279 0
1279 1280 0
-1279 -1280 0
1280 1281 0
-1280 -1281 0
1224 1252 1281 1282 0
1224 1252 -1281 -1282 0
1224 -1252 1281 -1282 0
1224 -1252 -1281 -1282 0
-1224 1252 1281 -1282 0
-1224 1252 -1281 -1282 0
-1224 -1252 1281 -1282 0
-1224 -1252 -1281 -1282 0
1250 1283 0
-1250 -1283 0
1283 1284 0
-1283 -1284 0
1284 1285 0
-1284 -1285 0
1278 1286 0
-1278 -1286 0
1286 1287 0
-1286 -1287 0
1224 1285 1287 1288 0
1224 1285 -1287 -1288 0
1224 -1285 1287 -1288 0
1224 -1285 -1287 -1288 0
-1224 1285 1287 -1288 0
-1224 1285 -1287 -1288 0
-1224 -1285 1287 -1288 0
-1224 -1285 -1287 -1288 0
1221 1289 0
-1221 -1289 0
1289 1290 0
-1289 -1290 0
1290 1252 1287 1291 0
1290 1252 -1287 -1291 0
1290 -1252 1287 -1291 0
1290 -1252 -1287 -1291 0
-1290 1252 1287 -1291 0
-1290 1252 -1287 -1291 0
-1290 -1252 1287 -1291 0
-1290 -1252 -1287 -1291 0
1290 1285 1281 1292 0
1290 1285 -1281 -1292 0
1290 -1285 1281 -1292 0
1290 -1285 -1281 -1292 0
-1290 1285 1281 -1292 0
-1290 1285 -1281 -1292 0
-1290 -1285 1281 -1292 0
-1290 -1285 -1281 -1292 0
1282 1288 1291 1292 -1293 0
1282 1288 1291 -1292 1293 0
1282 1288 -1291 1292 1293 0
1282 1288 -1291 -1292 1293 0
1282 -1288 1291 1292 1293 0
1282 -1288 1291 -1292 1293 0
1282 -1288 -1291 1292 1293 0
1282 -1288 -1291 -1292 1293 0
-1282 1288 1291 1292 1293 0
-1282 1288 1291 -1292 1293 0
-1282 1288 -1291 1292 1293 0
-1282 1288 -1291 -1292 1293 0
-1282 -1288 1291 1292 1293 0
-1282 -1288 1291 -1292 1293 0
-1282 -1288 -1291 1292 1293 0
-1282 -1288 -1291 -1292 1293 0
1195 1293 -1294 0
1195 -1293 1294 0
-1195 1293 1294 0
-1195 -1293 -1294 0
224 1295 0
-224 -1295 0
1295 1296 0
-1295 -1296 0
1296 1297 0
-1296 -1297 0
1297 1298 0
-1297 -1298 0
232 1299 0
-232 -1299 0
1299 1300 0
-1299 -1300 0
1300 1301 0
-1300 -1301 0
1301 1302 0
-1301 -1302 0
223 1303 0
-223 -1303 0
1303 1304 0
-1303 -1304 0
1304 1305 0
-1304 -1305 0
1305 1306 0
-1305 -1306 0
1298 1302 1306 1307 0
1298 1302 -1306 -1307 0
1298 -1302 1306 -1307 0
1298 -1302 -1306 -1307 0
-1298 1302 1306 -1307 0
-1298 1302 -1306 -1307 0
-1298 -1302 1306 -1307 0
-1298 -1302 -1306 -1307 0
899 1308 0
-899 -1308 0
1308 1309 0
-1308 -1309 0
630 1310 0
-630 -1310 0
1310 1311 0
-1310 -1311 0
1298 1309 1311 1312 0
1298 1309 -1311 -1312 0
1298 -1309 1311 -1312 0
1298 -1309 -1311 -1312 0
-1298 1309 1311 -1312 0
-1298 1309 -1311 -1312 0
-1298 -1309 1311 -1312 0
-1298 -1309 -1311 -1312 0
633 1313 0
-633 -1313 0
1313 1314 0
-1313 -1314 0
1314 1302 1311 1315 0
1314 1302 -1311 -1315 0
1314 -1302 1311 -1315 0
1314 -1302 -1311 -1315 0
-1314 1302 1311 -1315 0
-1314 1302 -1311 -1315 0
-1314 -1302 1311 -1315 0
-1314 -1302 -1311 -1315 0
1314 1309 1306 1316 0
1314 1309 -1306 -1316 0
1314 -1309 1306 -1316 0
1314 -1309 -1306 -1316 0
-1314 1309 1306 -1316 0
-1314 1309 -1306 -1316 0
-1314 -1309 1306 -1316 0
-1314 -1309 -1306 -1316 0
1307 1312 1315 1316 -1317 0
1307 1312 1315 -1316 1317 0
1307 1312 -1315 1316 1317 0
1307 1312 -1315 -1316 1317 0
1307 -1312 1315 1316 1317 0
1307 -1312 1315 -1316 1317 0
1307 -1312 -1315 1316 1317 0
1307 -1312 -1315 -1316 1317 0
-1307 1312 1315 1316 1317 0
-1307 1312 1315 -1316 1317 0
-1307 1312 -1315 1316 1317 0
-1307 1312 -1315 -1316 1317 0
-1307 -1312 1315 1316 1317 0
-1307 -1312 1315 -1316 1317 0
-1307 -1312 -1315 1316 1317 0
-1307 -1312 -1315 -1316 1317 0
1317 1318 0
-1317 -1318 0
1318 1319 0
-1318 -1319 0
1319 1320 0
-1319 -1320 0
241 1321 0
-241 -1321 0
1321 1322 0
-1321 -1322 0
1322 1323 0
-1322 -1323 0
1323 1324 0
-1323 -1324 0
225 1325 0
-225 -1325 0
1325 1326 0
-1325 -1326 0
1326 1327 0
-1326 -1327 0
1327 1328 0
-1327 -1328 0
240 1329 0
-240 -1329 0
1329 1330 0
-1329 -1330 0
1330 1331 0
-1330 -1331 0
1331 1332 0
-1331 -1332 0
1324 1328 1332 1333 0
1324 1328 -1332 -1333 0
1324 -1328 1332 -1333 0
1324 -1328 -1332 -1333 0
-1324 1328 1332 -1333 0
-1324 1328 -1332 -1333 0
-1324 -1328 1332 -1333 0
-1324 -1328 -1332 -1333 0
636 1334 0
-636 -1334 0
1334 1335 0
-1334 -1335 0
240 1336 0
-240 -1336 0
1336 1337 0
-1336 -1337 0
1337 1338 0
-1337 -1338 0
1324 1335 1338 1339 0
1324 1335 -1338 -1339 0
1324 -1335 1338 -1339 0
1324 -1335 -1338 -1339 0
-1324 1335 1338 -1339 0
-1324 1335 -1338 -1339 0
-1324 -1335 1338 -1339 0
-1324 -1335 -1338 -1339 0
241 1340 0
-241 -1340 0
1340 1341 0
-1340 -1341 0
1341 1342 0
-1341 -1342 0
1342 1328 1338 1343 0
1342 1328 -1338 -1343 0
1342 -1328 1338 -1343 0
1342 -1328 -1338 -1343 0
-1342 1328 1338 -1343 0
-1342 1328 -1338 -1343 0
-1342 -1328 1338 -1343 0
-1342 -1328 -1338 -1343 0
1342 1335 1332 1344 0
1342 1335 -1332 -1344 0
1342 -1335 1332 -1344 0
1342 -1335 -1332 -1344 0
-1342 1335 1332 -1344 0
-1342 1335 -1332 -1344 0
-1342 -1335 1332 -1344 0
-1342 -1335 -1332 -1344 0
1333 1339 1343 1344 -1345 0
1333 1339 1343 -1344 1345 0
1333 1339 -1343 1344 1345 0
1333 1339 -1343 -1344 1345 0
1333 -1339 1343 1344 1345 0
1333 -1339 1343 -1344 1345 0
1333 -1339 -1343 1344 1345 0
1333 -1339 -1343 -1344 1345 0
-1333 1339 1343 1344 1345 0
-1333 1339 1343 -1344 1345 0
-1333 1339 -1343 1344 1345 0
-1333 1339 -1343 -1344 1345 0
-1333 -1339 1343 1344 1345 0
-1333 -1339 1343 -1344 1345 0
-1333 -1339 -1343 1344 1345 0
-1333 -1339 -1343 -1344 1345 0
1345 1346 0
-1345 -1346 0
1346 1347 0
-1346 -1347 0
243 1348 0
-243 -1348 0
1348 1349 0
-1348 -1349 0
1349 1350 0
-1349 -1350 0
1350 1351 0
-1350 -1351 0
242 1352 0
-242 -1352 0
1352 1353 0
-1352 -1353 0
1353 1354 0
-1353 -1354 0
1354 1355 0
-1354 -1355 0
248 1356 0
-248 -1356 0
1356 1357 0
-1356 -1357 0
1357 1358 0
-1357 -1358 0
1358 1359 0
-1358 -1359 0
1351 1355 1359 1360 0
1351 1355 -1359 -1360 0
1351 -1355 1359 -1360 0
1351 -1355 -1359 -1360 0
-1351 1355 1359 -1360 0
-1351 1355 -1359 -1360 0
-1351 -1355 1359 -1360 0
-1351 -1355 -1359 -1360 0
242 1361 0
-242 -1361 0
1361 1362 0
-1361 -1362 0
1362 1363 0
-1362 -1363 0
248 1364 0
-248 -1364 0
1364 1365 0
-1364 -1365 0
1365 1366 0
-1365 -1366 0
1351 1363 1366 1367 0
1351 1363 -1366 -1367 0
1351 -1363 1366 -1367 0
1351 -1363 -1366 -1367 0
-1351 1363 1366 -1367 0
-1351 1363 -1366 -1367 0
-1351 -1363 1366 -1367 0
-1351 -1363 -1366 -1367 0
908 1368 0
-908 -1368 0
1368 1369 0
-1368 -1369 0
1369 1355 1366 1370 0
1369 1355 -1366 -1370 0
1369 -1355 1366 -1370 0
1369 -1355 -1366 -1370 0
-1369 1355 1366 -1370 0
-1369 1355 -1366 -1370 0
-1369 -1355 1366 -1370 0
-1369 -1355 -1366 -1370 0
1369 1363 1359 1371 0
1369 1363 -1359 -1371 0
1369 -1363 1359 -1371 0
1369 -1363 -1359 -1371 0
-1369 1363 1359 -1371 0
-1369 1363 -1359 -1371 0
-1369 -1363 1359 -1371 0
-1369 -1363 -1359 -1371 0
1360 1367 1370 1371 -1372 0
1360 1367 1370 -1371 1372 0
1360 1367 -1370 1371 1372 0
1360 1367 -1370 -1371 1372 0
1360 -1367 1370 1371 1372 0
1360 -1367 1370 -1371 1372 0
1360 -1367 -1370 1371 1372 0
1360 -1367 -1370 -1371 1372 0
-1360 1367 1370 1371 1372 0
-1360 1367 1370 -1371 1372 0
-1360 1367 -1370 1371 1372 0
-1360 1367 -1370 -1371 1372 0
-1360 -1367 1370 1371 1372 0
-1360 -1367 1370 -1371 1372 0
-1360 -1367 -1370 1371 1372 0
-1360 -1367 -1370 -1371 1372 0
1372 1373 0
-1372 -1373 0
1373 1374 0
-1373 -1374 0
1374 1375 0
-1374 -1375 0
1320 1347 1375 1376 0
1320 1347 -1375 -1376 0
1320 -1347 1375 -1376 0
1320 -1347 -1375 -1376 0
-1320 1347 1375 -1376 0
-1320 1347 -1375 -1376 0
-1320 -1347 1375 -1376 0
-1320 -1347 -1375 -1376 0
1345 1377 0
-1345 -1377 0
1377 1378 0
-1377 -1378 0
1378 1379 0
-1378 -1379 0
1372 1380 0
-1372 -1380 0
1380 1381 0
-1380 -1381 0
1320 1379 1381 1382 0
1320 1379 -1381 -1382 0
1320 -1379 1381 -1382 0
1320 -1379 -1381 -1382 0
-1320 1379 1381 -1382 0
-1320 1379 -1381 -1382 0
-1320 -1379 1381 -1382 0
-1320 -1379 -1381 -1382 0
1317 1383 0
-1317 -1383 0
1383 1384 0
-1383 -1384 0
1384 1347 1381 1385 0
1384 1347 -1381 -1385 0
1384 -1347 1381 -1385 0
1384 -1347 -1381 -1385 0
-1384 1347 1381 -1385 0
-1384 1347 -1381 -1385 0
-1384 -1347 1381 -1385 0
-1384 -1347 -1381 -1385 0
1384 1379 1375 1386 0
1384 1379 -1375 -1386 0
1384 -1379 1375 -1386 0
1384 -1379 -1375 -1386 0
-1384 1379 1375 -1386 0
-1384 1379 -1375 -1386 0
-1384 -1379 1375 -1386 0
-1384 -1379 -1375 -1386 0
1376 1382 1385 1386 -1387 0
1376 1382 1385 -1386 1387 0
1376 1382 -1385 1386 1387 0
1376 1382 -1385 -1386 1387 0
1376 -1382 1385 1386 1387 0
1376 -1382 1385 -1386 1387 0
1376 -1382 -1385 1386 1387 0
1376 -1382 -1385 -1386 1387 0
-1376 1382 1385 1386 1387 0
-1376 1382 1385 -1386 1387 0
-1376 1382 -1385 1386 1387 0
-1376 1382 -1385 -1386 1387 0
-1376 -1382 1385 1386 1387 0
-1376 -1382 1385 -1386 1387 0
-1376 -1382 -1385 1386 1387 0
-1376 -1382 -1385 -1386 1387 0
224 1388 0
-224 -1388 0
1388 1389 0
-1388 -1389 0
1389 1390 0
-1389 -1390 0
1390 1391 0
-1390 -1391 0
232 1392 0
-232 -1392 0
1392 1393 0
-1392 -1393 0
1393 1394 0
-1393 -1394 0
1394 1395 0
-1394 -1395 0
223 1396 0
-223 -1396 0
1396 1397 0
-1396 -1397 0
1397 1398 0
-1397 -1398 0
1398 1399 0
-1398 -1399 0
1391 1395 1399 1400 0
1391 1395 -1399 -1400 0
1391 -1395 1399 -1400 0
1391 -1395 -1399 -1400 0
-1391 1395 1399 -1400 0
-1391 1395 -1399 -1400 0
-1391 -1395 1399 -1400 0
-1391 -1395 -1399 -1400 0
900 1401 0
-900 -1401 0
1401 1402 0
-1401 -1402 0
631 1403 0
-631 -1403 0
1403 1404 0
-1403 -1404 0
1391 1402 1404 1405 0
1391 1402 -1404 -1405 0
1391 -1402 1404 -1405 0
1391 -1402 -1404 -1405 0
-1391 1402 1404 -1405 0
-1391 1402 -1404 -1405 0
-1391 -1402 1404 -1405 0
-1391 -1402 -1404 -1405 0
634 1406 0
-634 -1406 0
1406 1407 0
-1406 -1407 0
1407 1395 1404 1408 0
1407 1395 -1404 -1408 0
1407 -1395 1404 -1408 0
1407 -1395 -1404 -1408 0
-1407 1395 1404 -1408 0
-1407 1395 -1404 -1408 0
-1407 -1395 1404 -1408 0
-1407 -1395 -1404 -1408 0
1407 1402 1399 1409 0
1407 1402 -1399 -1409 0
1407 -1402 1399 -1409 0
1407 -1402 -1399 -1409 0
-1407 1402 1399 -1409 0
-1407 1402 -1399 -1409 0
-1407 -1402 1399 -1409 0
-1407 -1402 -1399 -1409 0
1400 1405 1408 1409 -1410 0
1400 1405 1408 -1409 1410 0
1400 1405 -1408 1409 1410 0
1400 1405 -1408 -1409 1410 0
1400 -1405 1408 1409 1410 0
1400 -1405 1408 -1409 1410 0
1400 -1405 -1408 1409 1410 0
1400 -1405 -1408 -1409 1410 0
-1400 1405 1408 1409 1410 0
-1400 1405 1408 -1409 1410 0
-1400 1405 -1408 1409 1410 0
-1400 1405 -1408 -1409 1410 0
-1400 -1405 1408 1409 1410 0
-1400 -1405 1408 -1409 1410 0
-1400 -1405 -1408 1409 1410 0
-1400 -1405 -1408 -1409 1410 0
1410 1411 0
-1410 -1411 0
1411 1412 0
-1411 -1412 0
1412 1413 0
-1412 -1413 0
241 1414 0
-241 -1414 0
1414 1415 0
-1414 -1415 0
1415 1416 0
-1415 -1416 0
1416 1417 0
-1416 -1417 0
225 1418 0
-225 -1418 0
1418 1419 0
-1418 -1419 0
1419 1420 0
-1419 -1420 0
1420 1421 0
-1420 -1421 0
240 1422 0
-240 -1422 0
1422 1423 0
-1422 -1423 0
1423 1424 0
-1423 -1424 0
1424 1425 0
-1424 -1425 0
1417 1421 1425 1426 0
1417 1421 -1425 -1426 0
1417 -1421 1425 -1426 0
1417 -1421 -1425 -1426 0
-1417 1421 1425 -1426 0
-1417 1421 -1425 -1426 0
-1417 -1421 1425 -1426 0
-1417 -1421 -1425 -1426 0
637 1427 0
-637 -1427 0
1427 1428 0
-1427 -1428 0
240 1429 0
-240 -1429 0
1429 1430 0
-1429 -1430 0
1430 1431 0
-1430 -1431 0
1417 1428 1431 1432 0
1417 1428 -1431 -1432 0
1417 -1428 1431 -1432 0
1417 -1428 -1431 -1432 0
-1417 1428 1431 -1432 0
-1417 1428 -1431 -1432 0
-1417 -1428 1431 -1432 0
-1417 -1428 -1431 -1432 0
241 1433 0
-241 -1433 0
1433 1434 0
-1433 -1434 0
1434 1435 0
-1434 -1435 0
1435 1421 1431 1436 0
1435 1421 -1431 -1436 0
1435 -1421 1431 -1436 0
1435 -1421 -1431 -1436 0
-1435 1421 1431 -1436 0
-1435 1421 -1431 -1436 0
-1435 -1421 1431 -1436 0
-1435 -1421 -1431 -1436 0
1435 1428 1425 1437 0
1435 1428 -1425 -1437 0
1435 -1428 1425 -1437 0
1435 -1428 -1425 -1437 0
-1435 1428 1425 -1437 0
-1435 1428 -1425 -1437 0
-1435 -1428 1425 -1437 0
-1435 -1428 -1425 -1437 0
1426 1432 1436 1437 -1438 0
1426 1432 1436 -1437 1438 0
1426 1432 -1436 1437 1438 0
1426 1432 -1436 -1437 1438 0
1426 -1432 1436 1437 1438 0
1426 -1432 1436 -1437 1438 0
1426 -1432 -1436 1437 1438 0
1426 -1432 -1436 -1437 1438 0
-1426 1432 1436 1437 1438 0
-1426 1432 1436 -1437 1438 0
-1426 1432 -1436 1437 1438 0
-1426 1432 -1436 -1437 1438 0
-1426 -1432 1436 1437 1438 0
-1426 -1432 1436 -1437 1438 0
-1426 -1432 -1436 1437 1438 0
-1426 -1432 -1436 -1437 1438 0
1438 1439 0
-1438 -1439 0
1439 1440 0
-1439 -1440 0
243 1441 0
-243 -1441 0
1441 1442 0
-1441 -1442 0
1442 1443 0
-1442 -1443 0
1443 1444 0
-1443 -1444 0
242 1445 0
-242 -1445 0
1445 1446 0
-1445 -1446 0
1446 1447 0
-1446 -1447 0
1447 1448 0
-1447 -1448 0
248 1449 0
-248 -1449 0
1449 1450 0
-1449 -1450 0
1450 1451 0
-1450 -1451 0
1451 1452 0
-1451 -1452 0
1444 1448 1452 1453 0
1444 1448 -1452 -1453 0
1444 -1448 1452 -1453 0
1444 -1448 -1452 -1453 0
-1444 1448 1452 -1453 0
-1444 1448 -1452 -1453 0
-1444 -1448 1452 -1453 0
-1444 -1448 -1452 -1453 0
242 1454 0
-242 -1454 0
1454 1455 0
-1454 -1455 0
1455 1456 0
-1455 -1456 0
248 1457 0
-248 -1457 0
1457 1458 0
-1457 -1458 0
1458 1459 0
-1458 -1459 0
1444 1456 1459 1460 0
1444 1456 -1459 -1460 0
1444 -1456 1459 -1460 0
1444 -1456 -1459 -1460 0
-1444 1456 1459 -1460 0
-1444 1456 -1459 -1460 0
-1444 -1456 1459 -1460 0
-1444 -1456 -1459 -1460 0
909 1461 0
-909 -1461 0
1461 1462 0
-1461 -1462 0
1462 1448 1459 1463 0
1462 1448 -1459 -1463 0
1462 -1448 1459 -1463 0
1462 -1448 -1459 -1463 0
-1462 1448 1459 -1463 0
-1462 1448 -1459 -1463 0
-1462 -1448 1459 -1463 0
-1462 -1448 -1459 -1463 0
1462 1456 1452 1464 0
1462 1456 -1452 -1464 0
1462 -1456 1452 -1464 0
1462 -1456 -1452 -1464 0
-1462 1456 1452 -1464 0
-1462 1456 -1452 -1464 0
-1462 -1456 1452 -1464 0
-1462 -1456 -1452 -1464 0
1453 1460 1463 1464 -1465 0
1453 1460 1463 -1464 1465 0
1453 1460 -1463 1464 1465 0
1453 1460 -1463 -1464 1465 0
1453 -1460 1463 1464 1465 0
1453 -1460 1463 -1464 1465 0
1453 -1460 -1463 1464 1465 0
1453 -1460 -1463 -1464 1465 0
-1453 1460 1463 1464 1465 0
-1453 1460 1463 -1464 1465 0
-1453 1460 -1463 1464 1465 0
-1453 1460 -1463 -1464 1465 0
-1453 -1460 1463 1464 1465 0
-1453 -1460 1463 -1464 1465 0
-1453 -1460 -1463 1464 1465 0
-1453 -1460 -1463 -1464 1465 0
1465 1466 0
-1465 -1466 0
1466 1467 0
-1466 -1467 0
1467 1468 0
-1467 -1468 0
1413 1440 1468 1469 0
1413 1440 -1468 -1469 0
1413 -1440 1468 -1469 0
1413 -1440 -1468 -1469 0
-1413 1440 1468 -1469 0
-1413 1440 -1468 -1469 0
-1413 -1440 1468 -1469 0
-1413 -1440 -1468 -1469 0
1438 1470 0
-1438 -1470 0
1470 1471 0
-1470 -1471 0
1471 1472 0
-1471 -1472 0
1465 1473 0
-1465 -1473 0
1473 1474 0
-1473 -1474 0
1413 1472 1474 1475 0
1413 1472 -1474 -1475 0
1413 -1472 1474 -1475 0
1413 -1472 -1474 -1475 0
-1413 1472 1474 -1475 0
-1413 1472 -1474 -1475 0
-1413 -1472 1474 -1475 0
-1413 -1472 -1474 -1475 0
1410 1476 0
-1410 -1476 0
1476 1477 0
-1476 -1477 0
1477 1440 1474 1478 0
1477 1440 -1474 -1478 0
1477 -1440 1474 -1478 0
1477 -1440 -1474 -1478 0
-1477 1440 1474 -1478 0
-1477 1440 -1474 -1478 0
-1477 -1440 1474 -1478 0
-1477 -1440 -1474 -1478 0
1477 1472 1468 1479 0
1477 1472 -1468 -1479 0
1477 -1472 1468 -1479 0
1477 -1472 -1468 -1479 0
-1477 1472 1468 -1479 0
-1477 1472 -1468 -1479 0
-1477 -1472 1468 -1479 0
-1477 -1472 -1468 -1479 0
1469 1475 1478 1479 -1480 0
1469 1475 1478 -1479 1480 0
1469 1475 -1478 1479 1480 0
1469 1475 -1478 -1479 1480 0
1469 -1475 1478 1479 1480 0
1469 -1475 1478 -1479 1480 0
1469 -1475 -1478 1479 1480 0
1469 -1475 -1478 -1479 1480 0
-1469 1475 1478 1479 1480 0
-1469 1475 1478 -1479 1480 0
-1469 1475 -1478 1479 1480 0
-1469 1475 -1478 -1479 1480 0
-1469 -1475 1478 1479 1480 0
-1469 -1475 1478 -1479 1480 0
-1469 -1475 -1478 1479 1480 0
-1469 -1475 -1478 -1479 1480 0
1387 1480 -1481 0
1387 -1480 1481 0
-1387 1480 1481 0
-1387 -1480 -1481 0
302 1482 0
-302 -1482 0
1482 1483 0
-1482 -1483 0
1483 1484 0
-1483 -1484 0
1484 1485 0
-1484 -1485 0
394 1486 0
-394 -1486 0
1486 1487 0
-1486 -1487 0
1487 1488 0
-1487 -1488 0
1488 1489 0
-1488 -1489 0
258 1490 0
-258 -1490 0
1490 1491 0
-1490 -1491 0
1491 1492 0
-1491 -1492 0
1492 1493 0
-1492 -1493 0
1485 1489 1493 1494 0
1485 1489 -1493 -1494 0
1485 -1489 1493 -1494 0
1485 -1489 -1493 -1494 0
-1485 1489 1493 -1494 0
-1485 1489 -1493 -1494 0
-1485 -1489 1493 -1494 0
-1485 -1489 -1493 -1494 0
394 1495 0
-394 -1495 0
1495 1496 0
-1495 -1496 0
1496 1497 0
-1496 -1497 0
258 1498 0
-258 -1498 0
1498 1499 0
-1498 -1499 0
1499 1500 0
-1499 -1500 0
1485 1497 1500 1501 0
1485 1497 -1500 -1501 0
1485 -1497 1500 -1501 0
1485 -1497 -1500 -1501 0
-1485 1497 1500 -1501 0
-1485 1497 -1500 -1501 0
-1485 -1497 1500 -1501 0
-1485 -1497 -1500 -1501 0
302 1502 0
-302 -1502 0
1502 1503 0
-1502 -1503 0
1503 1504 0
-1503 -1504 0
1504 1489 1500 1505 0
1504 1489 -1500 -1505 0
1504 -1489 1500 -1505 0
1504 -1489 -1500 -1505 0
-1504 1489 1500 -1505 0
-1504 1489 -1500 -1505 0
-1504 -1489 1500 -1505 0
-1504 -1489 -1500 -1505 0
1504 1497 1493 1506 0
1504 1497 -1493 -1506 0
1504 -1497 1493 -1506 0
1504 -1497 -1493 -1506 0
-1504 1497 1493 -1506 0
-1504 1497 -1493 -1506 0
-1504 -1497 1493 -1506 0
-1504 -1497 -1493 -1506 0
1494 1501 1505 1506 -1507 0
1494 1501 1505 -1506 1507 0
1494 1501 -1505 1506 1507 0
1494 1501 -1505 -1506 1507 0
1494 -1501 1505 1506 1507 0
1494 -1501 1505 -1506 1507 0
1494 -1501 -1505 1506 1507 0
1494 -1501 -1505 -1506 1507 0
-1494 1501 1505 1506 1507 0
-1494 1501 1505 -1506 1507 0
-1494 1501 -1505 1506 1507 0
-1494 1501 -1505 -1506 1507 0
-1494 -1501 1505 1506 1507 0
-1494 -1501 1505 -1506 1507 0
-1494 -1501 -1505 1506 1507 0
-1494 -1501 -1505 -1506 1507 0
1507 1508 0
-1507 -1508 0
1508 1509 0
-1508 -1509 0
1509 1510 0
-1509 -1510 0
230 1511 0
-230 -1511 0
1511 1512 0
-1511 -1512 0
1512 1513 0
-1512 -1513 0
1513 1514 0
-1513 -1514 0
222 1515 0
-222 -1515 0
1515 1516 0
-1515 -1516 0
1516 1517 0
-1516 -1517 0
1517 1518 0
-1517 -1518 0
231 1519 0
-231 -1519 0
1519 1520 0
-1519 -1520 0
1520 1521 0
-1520 -1521 0
1521 1522 0
-1521 -1522 0
1514 1518 1522 1523 0
1514 1518 -1522 -1523 0
1514 -1518 1522 -1523 0
1514 -1518 -1522 -1523 0
-1514 1518 1522 -1523 0
-1514 1518 -1522 -1523 0
-1514 -1518 1522 -1523 0
-1514 -1518 -1522 -1523 0
222 1524 0
-222 -1524 0
1524 1525 0
-1524 -1525 0
1525 1526 0
-1525 -1526 0
231 1527 0
-231 -1527 0
1527 1528 0
-1527 -1528 0
1528 1529 0
-1528 -1529 0
1514 1526 1529 1530 0
1514 1526 -1529 -1530 0
1514 -1526 1529 -1530 0
1514 -1526 -1529 -1530 0
-1514 1526 1529 -1530 0
-1514 1526 -1529 -1530 0
-1514 -1526 1529 -1530 0
-1514 -1526 -1529 -1530 0
230 1531 0
-230 -1531 0
1531 1532 0
-1531 -1532 0
1532 1533 0
-1532 -1533 0
1533 1518 1529 1534 0
1533 1518 -1529 -1534 0
1533 -1518 1529 -1534 0
1533 -1518 -1529 -1534 0
-1533 1518 1529 -1534 0
-1533 1518 -1529 -1534 0
-1533 -1518 1529 -1534 0
-1533 -1518 -1529 -1534 0
1533 1526 1522 1535 0
1533 1526 -1522 -1535 0
1533 -1526 1522 -1535 0
1533 -1526 -1522 -1535 0
-1533 1526 1522 -1535 0
-1533 1526 -1522 -1535 0
-1533 -1526 1522 -1535 0
-1533 -1526 -1522 -1535 0
1523 1530 1534 1535 -1536 0
1523 1530 1534 -1535 1536 0
1523 1530 -1534 1535 1536 0
1523 1530 -1534 -1535 1536 0
1523 -1530 1534 1535 1536 0
1523 -1530 1534 -1535 1536 0
1523 -1530 -1534 1535 1536 0
1523 -1530 -1534 -1535 1536 0
-1523 1530 1534 1535 1536 0
-1523 1530 1534 -1535 1536 0
-1523 1530 -1534 1535 1536 0
-1523 1530 -1534 -1535 1536 0
-1523 -1530 1534 1535 1536 0
-1523 -1530 1534 -1535 1536 0
-1523 -1530 -1534 1535 1536 0
-1523 -1530 -1534 -1535 1536 0
1536 1537 0
-1536 -1537 0
1537 1538 0
-1537 -1538 0
257 1539 0
-257 -1539 0
1539 1540 0
-1539 -1540 0
1540 1541 0
-1540 -1541 0
1541 1542 0
-1541 -1542 0
233 1543 0
-233 -1543 0
1543 1544 0
-1543 -1544 0
1544 1545 0
-1544 -1545 0
1545 1546 0
-1545 -1546 0
253 1547 0
-253 -1547 0
1547 1548 0
-1547 -1548 0
1548 1549 0
-1548 -1549 0
1549 1550 0
-1549 -1550 0
1542 1546 1550 1551 0
1542 1546 -1550 -1551 0
1542 -1546 1550 -1551 0
1542 -1546 -1550 -1551 0
-1542 1546 1550 -1551 0
-1542 1546 -1550 -1551 0
-1542 -1546 1550 -1551 0
-1542 -1546 -1550 -1551 0
233 1552 0
-233 -1552 0
1552 1553 0
-1552 -1553 0
1553 1554 0
-1553 -1554 0
253 1555 0
-253 -1555 0
1555 1556 0
-1555 -1556 0
1556 1557 0
-1556 -1557 0
1542 1554 1557 1558 0
1542 1554 -1557 -1558 0
1542 -1554 1557 -1558 0
1542 -1554 -1557 -1558 0
-1542 1554 1557 -1558 0
-1542 1554 -1557 -1558 0
-1542 -1554 1557 -1558 0
-1542 -1554 -1557 -1558 0
257 1559 0
-257 -1559 0
1559 1560 0
-1559 -1560 0
1560 1561 0
-1560 -1561 0
1561 1546 1557 1562 0
1561 1546 -1557 -1562 0
1561 -1546 1557 -1562 0
1561 -1546 -1557 -1562 0
-1561 1546 1557 -1562 0
-1561 1546 -1557 -1562 0
-1561 -1546 1557 -1562 0
-1561 -1546 -1557 -1562 0
1561 1554 1550 1563 0
1561 1554 -1550 -1563 0
1561 -1554 1550 -1563 0
1561 -1554 -1550 -1563 0
-1561 1554 1550 -1563 0
-1561 1554 -1550 -1563 0
-1561 -1554 1550 -1563 0
-1561 -1554 -1550 -1563 0
1551 1558 1562 1563 -1564 0
1551 1558 1562 -1563 1564 0
1551 1558 -1562 1563 1564 0
1551 1558 -1562 -1563 1564 0
1551 -1558 1562 1563 1564 0
1551 -1558 1562 -1563 1564 0
1551 -1558 -1562 1563 1564 0
1551 -1558 -1562 -1563 1564 0
-1551 1558 1562 1563 1564 0
-1551 1558 1562 -1563 1564 0
-1551 1558 -1562 1563 1564 0
-1551 1558 -1562 -1563 1564 0
-1551 -1558 1562 1563 1564 0
-1551 -1558 1562 -1563 1564 0
-1551 -1558 -1562 1563 1564 0
-1551 -1558 -1562 -1563 1564 0
1564 1565 0
-1564 -1565 0
1565 1566 0
-1565 -1566 0
1566 1567 0
-1566 -1567 0
1510 1538 1567 1568 0
1510 1538 -1567 -1568 0
1510 -1538 1567 -1568 0
1510 -1538 -1567 -1568 0
-1510 1538 1567 -1568 0
-1510 1538 -1567 -1568 0
-1510 -1538 1567 -1568 0
-1510 -1538 -1567 -1568 0
1536 1569 0
-1536 -1569 0
1569 1570 0
-1569 -1570 0
1570 1571 0
-1570 -1571 0
1564 1572 0
-1564 -1572 0
1572 1573 0
-1572 -1573 0
1510 1571 1573 1574 0
1510 1571 -1573 -1574 0
1510 -1571 1573 -1574 0
1510 -1571 -1573 -1574 0
-1510 1571 1573 -1574 0
-1510 1571 -1573 -1574 0
-1510 -1571 1573 -1574 0
-1510 -1571 -1573 -1574 0
1507 1575 0
-1507 -1575 0
1575 1576 0
-1575 -1576 0
1576 1538 1573 1577 0
1576 1538 -1573 -1577 0
1576 -1538 1573 -1577 0
1576 -1538 -1573 -1577 0
-1576 1538 1573 -1577 0
-1576 1538 -1573 -1577 0
-1576 -1538 1573 -1577 0
-1576 -1538 -1573 -1577 0
1576 1571 1567 1578 0
1576 1571 -1567 -1578 0
1576 -1571 1567 -1578 0
1576 -1571 -1567 -1578 0
-1576 1571 1567 -1578 0
-1576 1571 -1567 -1578 0
-1576 -1571 1567 -1578 0
-1576 -1571 -1567 -1578 0
1568 1574 1577 1578 -1579 0
1568 1574 1577 -1578 1579 0
1568 1574 -1577 1578 1579 0
1568 1574 -1577 -1578 1579 0
1568 -1574 1577 1578 1579 0
1568 -1574 1577 -1578 1579 0
1568 -1574 -1577 1578 1579 0
1568 -1574 -1577 -1578 1579 0
-1568 1574 1577 1578 1579 0
-1568 1574 1577 -1578 1579 0
-1568 1574 -1577 1578 1579 0
-1568 1574 -1577 -1578 1579 0
-1568 -1574 1577 1578 1579 0
-1568 -1574 1577 -1578 1579 0
-1568 -1574 -1577 1578 1579 0
-1568 -1574 -1577 -1578 1579 0
302 1580 0
-302 -1580 0
1580 1581 0
-1580 -1581 0
1581 1582 0
-1581 -1582 0
1582 1583 0
-1582 -1583 0
394 1584 0
-394 -1584 0
1584 1585 0
-1584 -1585 0
1585 1586 0
-1585 -1586 0
1586 1587 0
-1586 -1587 0
258 1588 0
-258 -1588 0
1588 1589 0
-1588 -1589 0
1589 1590 0
-1589 -1590 0
1590 1591 0
-1590 -1591 0
1583 1587 1591 1592 0
1583 1587 -1591 -1592 0
1583 -1587 1591 -1592 0
1583 -1587 -1591 -1592 0
-1583 1587 1591 -1592 0
-1583 1587 -1591 -1592 0
-1583 -1587 1591 -1592 0
-1583 -1587 -1591 -1592 0
394 1593 0
-394 -1593 0
1593 1594 0
-1593 -1594 0
1594 1595 0
-1594 -1595 0
258 1596 0
-258 -1596 0
1596 1597 0
-1596 -1597 0
1597 1598 0
-1597 -1598 0
1583 1595 1598 1599 0
1583 1595 -1598 -1599 0
1583 -1595 1598 -1599 0
1583 -1595 -1598 -1599 0
-1583 1595 1598 -1599 0
-1583 1595 -1598 -1599 0
-1583 -1595 1598 -1599 0
-1583 -1595 -1598 -1599 0
302 1600 0
-302 -1600 0
1600 1601 0
-1600 -1601 0
1601 1602 0
-1601 -1602 0
1602 1587 1598 1603 0
1602 1587 -1598 -1603 0
1602 -1587 1598 -1603 0
1602 -1587 -1598 -1603 0
-1602 1587 1598 -1603 0
-1602 1587 -1598 -1603 0
-1602 -1587 1598 -1603 0
-1602 -1587 -1598 -1603 0
1602 1595 1591 1604 0
1602 1595 -1591 -1604 0
1602 -1595 1591 -1604 0
1602 -1595 -1591 -1604 0
-1602 1595 1591 -1604 0
-1602 1595 -1591 -1604 0
-1602 -1595 1591 -1604 0
-1602 -1595 -1591 -1604 0
1592 1599 1603 1604 -1605 0
1592 1599 1603 -1604 1605 0
1592 1599 -1603 1604 1605 0
1592 1599 -1603 -1604 1605 0
1592 -1599 1603 1604 1605 0
1592 -1599 1603 -1604 1605 0
1592 -1599 -1603 1604 1605 0
1592 -1599 -1603 -1604 1605 0
-1592 1599 1603 1604 1605 0
-1592 1599 1603 -1604 1605 0
-1592 1599 -1603 1604 1605 0
-1592 1599 -1603 -1604 1605 0
-1592 -1599 1603 1604 1605 0
-1592 -1599 1603 -1604 1605 0
-1592 -1599 -1603 1604 1605 0
-1592 -1599 -1603 -1604 1605 0
1605 1606 0
-1605 -1606 0
1606 1607 0
-1606 -1607 0
1607 1608 0
-1607 -1608 0
230 1609 0
-230 -1609 0
1609 1610 0
-1609 -1610 0
1610 1611 0
-1610 -1611 0
1611 1612 0
-1611 -1612 0
222 1613 0
-222 -1613 0
1613 1614 0
-1613 -1614 0
1614 1615 0
-1614 -1615 0
1615 1616 0
-1615 -1616 0
231 1617 0
-231 -1617 0
1617 1618 0
-1617 -1618 0
1618 1619 0
-1618 -1619 0
1619 1620 0
-1619 -1620 0
1612 1616 1620 1621 0
1612 1616 -1620 -1621 0
1612 -1616 1620 -1621 0
1612 -1616 -1620 -1621 0
-1612 1616 1620 -1621 0
-1612 1616 -1620 -1621 0
-1612 -1616 1620 -1621 0
-1612 -1616 -1620 -1621 0
222 1622 0
-222 -1622 0
1622 1623 0
-1622 -1623 0
1623 1624 0
-1623 -1624 0
231 1625 0
-231 -1625 0
1625 1626 0
-1625 -1626 0
1626 1627 0
-1626 -1627 0
1612 1624 1627 1628 0
1612 1624 -1627 -1628 0
1612 -1624 1627 -1628 0
1612 -1624 -1627 -1628 0
-1612 1624 1627 -1628 0
-1612 1624 -1627 -1628 0
-1612 -1624 1627 -1628 0
-1612 -1624 -1627 -1628 0
230 1629 0
-230 -1629 0
1629 1630 0
-1629 -1630 0
1630 1631 0
-1630 -1631 0
1631 1616 1627 1632 0
1631 1616 -1627 -1632 0
1631 -1616 1627 -1632 0
1631 -1616 -1627 -1632 0
-1631 1616 1627 -1632 0
-1631 1616 -1627 -1632 0
-1631 -1616 1627 -1632 0
-1631 -1616 -1627 -1632 0
1631 1624 1620 1633 0
1631 1624 -1620 -1633 0
1631 -1624 1620 -1633 0
1631 -1624 -1620 -1633 0
-1631 1624 1620 -1633 0
-1631 1624 -1620 -1633 0
-1631 -1624 1620 -1633 0
-1631 -1624 -1620 -1633 0
1621 1628 1632 1633 -1634 0
1621 1628 1632 -1633 1634 0
1621 1628 -1632 1633 1634 0
1621 1628 -1632 -1633 1634 0
1621 -1628 1632 1633 1634 0
1621 -1628 1632 -1633 1634 0
1621 -1628 -1632 1633 1634 0
1621 -1628 -1632 -1633 1634 0
-1621 1628 1632 1633 1634 0
-1621 1628 1632 -1633 1634 0
-1621 1628 -1632 1633 1634 0
-1621 1628 -1632 -1633 1634 0
-1621 -1628 1632 1633 1634 0
-1621 -1628 1632 -1633 1634 0
-1621 -1628 -1632 1633 1634 0
-1621 -1628 -1632 -1633 1634 0
1634 1635 0
-1634 -1635 0
1635 1636 0
-1635 -1636 0
257 1637 0
-257 -1637 0
1637 1638 0
-1637 -1638 0
1638 1639 0
-1638 -1639 0
1639 1640 0
-1639 -1640 0
233 1641 0
-233 -1641 0
1641 1642 0
-1641 -1642 0
1642 1643 0
-1642 -1643 0
1643 1644 0
-1643 -1644 0
253 1645 0
-253 -1645 0
1645 1646 0
-1645 -1646 0
1646 1647 0
-1646 -1647 0
1647 1648 0
-1647 -1648 0
1640 1644 1648 1649 0
1640 1644 -1648 -1649 0
1640 -1644 1648 -1649 0
1640 -1644 -1648 -1649 0
-1640 1644 1648 -1649 0
-1640 1644 -1648 -1649 0
-1640 -1644 1648 -1649 0
-1640 -1644 -1648 -1649 0
233 1650 0
-233 -1650 0
1650 1651 0
-1650 -1651 0
1651 1652 0
-1651 -1652 0
253 1653 0
-253 -1653 0
1653 1654 0
-1653 -1654 0
1654 1655 0
-1654 -1655 0
1640 1652 1655 1656 0
1640 1652 -1655 -1656 0
1640 -1652 1655 -1656 0
1640 -1652 -1655 -1656 0
-1640 1652 1655 -1656 0
-1640 1652 -1655 -1656 0
-1640 -1652 1655 -1656 0
-1640 -1652 -1655 -1656 0
257 1657 0
-257 -1657 0
1657 1658 0
-1657 -1658 0
1658 1659 0
-1658 -1659 0
1659 1644 1655 1660 0
1659 1644 -1655 -1660 0
1659 -1644 1655 -1660 0
1659 -1644 -1655 -1660 0
-1659 1644 1655 -1660 0
-1659 1644 -1655 -1660 0
-1659 -1644 1655 -1660 0
-1659 -1644 -1655 -1660 0
1659 1652 1648 1661 0
1659 1652 -1648 -1661 0
1659 -1652 1648 -1661 0
1659 -1652 -1648 -1661 0
-1659 1652 1648 -1661 0
-1659 1652 -1648 -1661 0
-1659 -1652 1648 -1661 0
-1659 -1652 -1648 -1661 0
1649 1656 1660 1661 -1662 0
1649 1656 1660 -1661 1662 0
1649 1656 -1660 1661 1662 0
1649 1656 -1660 -1661 1662 0
1649 -1656 1660 1661 1662 0
1649 -1656 1660 -1661 1662 0
1649 -1656 -1660 1661 1662 0
1649 -1656 -1660 -1661 1662 0
-1649 1656 1660 1661 1662 0
-1649 1656 1660 -1661 1662 0
-1649 1656 -1660 1661 1662 0
-1649 1656 -1660 -1661 1662 0
-1649 -1656 1660 1661 1662 0
-1649 -1656 1660 -1661 1662 0
-1649 -1656 -1660 1661 1662 0
-1649 -1656 -1660 -1661 1662 0
1662 1663 0
-1662 -1663 0
1663 1664 0
-1663 -1664 0
1664 1665 0
-1664 -1665 0
1608 1636 1665 1666 0
1608 1636 -1665 -1666 0
1608 -1636 1665 -1666 0
1608 -1636 -1665 -1666 0
-1608 1636 1665 -1666 0
-1608 1636 -1665 -1666 0
-1608 -1636 1665 -1666 0
-1608 -1636 -1665 -1666 0
1634 1667 0
-1634 -1667 0
1667 1668 0
-1667 -1668 0
1668 1669 0
-1668 -1669 0
1662 1670 0
-1662 -1670 0
1670 1671 0
-1670 -1671 0
1608 1669 1671 1672 0
1608 1669 -1671 -1672 0
1608 -1669 1671 -1672 0
1608 -1669 -1671 -1672 0
-1608 1669 1671 -1672 0
-1608 1669 -1671 -1672 0
-1608 -1669 1671 -1672 0
-1608 -1669 -1671 -1672 0
1605 1673 0
-1605 -1673 0
1673 1674 0
-1673 -1674 0
1674 1636 1671 1675 0
1674 1636 -1671 -1675 0
1674 -1636 1671 -1675 0
1674 -1636 -1671 -1675 0
-1674 1636 1671 -1675 0
-1674 1636 -1671 -1675 0
-1674 -1636 1671 -1675 0
-1674 -1636 -1671 -1675 0
1674 1669 1665 1676 0
1674 1669 -1665 -1676 0
1674 -1669 1665 -1676 0
1674 -1669 -1665 -1676 0
-1674 1669 1665 -1676 0
-1674 1669 -1665 -1676 0
-1674 -1669 1665 -1676 0
-1674 -1669 -1665 -1676 0
1666 1672 1675 1676 -1677 0
1666 1672 1675 -1676 1677 0
1666 1672 -1675 1676 1677 0
1666 1672 -1675 -1676 1677 0
1666 -1672 1675 1676 1677 0
1666 -1672 1675 -1676 1677 0
1666 -1672 -1675 1676 1677 0
1666 -1672 -1675 -1676 1677 0
-1666 1672 1675 1676 1677 0
-1666 1672 1675 -1676 1677 0
-1666 1672 -1675 1676 1677 0
-1666 1672 -1675 -1676 1677 0
-1666 -1672 1675 1676 1677 0
-1666 -1672 1675 -1676 1677 0
-1666 -1672 -1675 1676 1677 0
-1666 -1672 -1675 -1676 1677 0
1579 1677 -1678 0
1579 -1677 1678 0
-1579 1677 1678 0
-1579 -1677 -1678 0
668 826 1679 0
668 -826 -1679 0
-668 826 -1679 0
-668 -826 -1679 0
1679 1680 0
-1679 -1680 0
823 703 1681 0
823 -703 -1681 0
-823 703 -1681 0
-823 -703 -1681 0
1681 1682 0
-1681 -1682 0
665 1680 1682 1683 0
665 1680 -1682 -1683 0
665 -1680 1682 -1683 0
665 -1680 -1682 -1683 0
-665 1680 1682 -1683 0
-665 1680 -1682 -1683 0
-665 -1680 1682 -1683 0
-665 -1680 -1682 -1683 0
699 702 704 1684 0
699 702 -704 -1684 0
699 -702 704 -1684 0
699 -702 -704 -1684 0
-699 702 704 -1684 0
-699 702 -704 -1684 0
-699 -702 704 -1684 0
-699 -702 -704 -1684 0
1683 1684 1685 0
1683 -1684 -1685 0
-1683 1684 -1685 0
-1683 -1684 -1685 0
1685 1686 0
-1685 -1686 0
376 1687 0
-376 -1687 0
1687 1688 0
-1687 -1688 0
1688 1689 0
-1688 -1689 0
1689 1690 0
-1689 -1690 0
1690 1691 0
-1690 -1691 0
1691 1692 0
-1691 -1692 0
376 1693 0
-376 -1693 0
1693 1694 0
-1693 -1694 0
1694 1695 0
-1694 -1695 0
1695 1696 0
-1695 -1696 0
1696 1697 0
-1696 -1697 0
1692 1697 -1698 0
1692 -1697 1698 0
-1692 1697 1698 0
-1692 -1697 1698 0
1698 1699 0
-1698 -1699 0
1699 1700 0
-1699 -1700 0
1686 1700 -1701 0
1686 -1700 1701 0
-1686 1700 1701 0
-1686 -1700 1701 0
1701 1702 0
-1701 -1702 0
1702 1703 0
-1702 -1703 0
1703 1704 0
-1703 -1704 0
1704 1705 0
-1704 -1705 0
740 880 1706 0
740 -880 -1706 0
-740 880 -1706 0
-740 -880 -1706 0
1706 1707 0
-1706 -1707 0
877 775 1708 0
877 -775 -1708 0
-877 775 -1708 0
-877 -775 -1708 0
1708 1709 0
-1708 -1709 0
737 1707 1709 1710 0
737 1707 -1709 -1710 0
737 -1707 1709 -1710 0
737 -1707 -1709 -1710 0
-737 1707 1709 -1710 0
-737 1707 -1709 -1710 0
-737 -1707 1709 -1710 0
-737 -1707 -1709 -1710 0
771 774 776 1711 0
771 774 -776 -1711 0
771 -774 776 -1711 0
771 -774 -776 -1711 0
-771 774 776 -1711 0
-771 774 -776 -1711 0
-771 -774 776 -1711 0
-771 -774 -776 -1711 0
1710 1711 1712 0
1710 -1711 -1712 0
-1710 1711 -1712 0
-1710 -1711 -1712 0
1712 1713 0
-1712 -1713 0
376 1714 0
-376 -1714 0
1714 1715 0
-1714 -1715 0
1715 1716 0
-1715 -1716 0
1716 1717 0
-1716 -1717 0
1717 1718 0
-1717 -1718 0
1718 1719 0
-1718 -1719 0
376 1720 0
-376 -1720 0
1720 1721 0
-1720 -1721 0
1721 1722 0
-1721 -1722 0
1722 1723 0
-1722 -1723 0
1723 1724 0
-1723 -1724 0
1719 1724 -1725 0
1719 -1724 1725 0
-1719 1724 1725 0
-1719 -1724 1725 0
1725 1726 0
-1725 -1726 0
1726 1727 0
-1726 -1727 0
1713 1727 -1728 0
1713 -1727 1728 0
-1713 1727 1728 0
-1713 -1727 1728 0
1728 1729 0
-1728 -1729 0
1729 1730 0
-1729 -1730 0
1730 1731 0
-1730 -1731 0
1731 1732 0
-1731 -1732 0
1705 1732 -1733 0
1705 -1732 1733 0
-1705 1732 1733 0
-1705 -1732 -1733 0
700 704 701 1734 0
700 704 -701 -1734 0
700 -704 701 -1734 0
700 -704 -701 -1734 0
-700 704 701 -1734 0
-700 704 -701 -1734 0
-700 -704 701 -1734 0
-700 -704 -701 -1734 0
664 1735 0
-664 -1735 0
671 694 1736 0
671 -694 -1736 0
-671 694 -1736 0
-671 -694 -1736 0
1736 1737 0
-1736 -1737 0
1735 1737 1682 1738 0
1735 1737 -1682 -1738 0
1735 -1737 1682 -1738 0
1735 -1737 -1682 -1738 0
-1735 1737 1682 -1738 0
-1735 1737 -1682 -1738 0
-1735 -1737 1682 -1738 0
-1735 -1737 -1682 -1738 0
1734 1738 1739 0
1734 -1738 -1739 0
-1734 1738 -1739 0
-1734 -1738 -1739 0
1739 1740 0
-1739 -1740 0
356 1741 0
-356 -1741 0
1741 1742 0
-1741 -1742 0
1742 1743 0
-1742 -1743 0
1743 1744 0
-1743 -1744 0
1744 1745 0
-1744 -1745 0
1689 1742 1746 0
1689 -1742 -1746 0
-1689 1742 -1746 0
-1689 -1742 -1746 0
356 1747 0
-356 -1747 0
1747 1748 0
-1747 -1748 0
1748 1749 0
-1748 -1749 0
1694 1749 1750 0
1694 -1749 -1750 0
-1694 1749 -1750 0
-1694 -1749 -1750 0
1745 1746 1750 -1751 0
1745 1746 -1750 1751 0
1745 -1746 1750 1751 0
1745 -1746 -1750 1751 0
-1745 1746 1750 1751 0
-1745 1746 -1750 1751 0
-1745 -1746 1750 1751 0
-1745 -1746 -1750 1751 0
1751 1752 0
-1751 -1752 0
1752 1753 0
-1752 -1753 0
1740 1753 -1754 0
1740 -1753 1754 0
-1740 1753 1754 0
-1740 -1753 1754 0
1754 1755 0
-1754 -1755 0
1755 1756 0
-1755 -1756 0
1756 1757 0
-1756 -1757 0
1757 1758 0
-1757 -1758 0
772 776 773 1759 0
772 776 -773 -1759 0
772 -776 773 -1759 0
772 -776 -773 -1759 0
-772 776 773 -1759 0
-772 776 -773 -1759 0
-772 -776 773 -1759 0
-772 -776 -773 -1759 0
736 1760 0
-736 -1760 0
743 766 1761 0
743 -766 -1761 0
-743 766 -1761 0
-743 -766 -1761 0
1761 1762 0
-1761 -1762 0
1760 1762 1709 1763 0
1760 1762 -1709 -1763 0
1760 -1762 1709 -1763 0
1760 -1762 -1709 -1763 0
-1760 1762 1709 -1763 0
-1760 1762 -1709 -1763 0
-1760 -1762 1709 -1763 0
-1760 -1762 -1709 -1763 0
1759 1763 1764 0
1759 -1763 -1764 0
-1759 1763 -1764 0
-1759 -1763 -1764 0
1764 1765 0
-1764 -1765 0
356 1766 0
-356 -1766 0
1766 1767 0
-1766 -1767 0
1767 1768 0
-1767 -1768 0
1768 1769 0
-1768 -1769 0
1769 1770 0
-1769 -1770 0
1716 1767 1771 0
1716 -1767 -1771 0
-1716 1767 -1771 0
-1716 -1767 -1771 0
356 1772 0
-356 -1772 0
1772 1773 0
-1772 -1773 0
1773 1774 0
-1773 -1774 0
1721 1774 1775 0
1721 -1774 -1775 0
-1721 1774 -1775 0
-1721 -1774 -1775 0
1770 1771 1775 -1776 0
1770 1771 -1775 1776 0
1770 -1771 1775 1776 0
1770 -1771 -1775 1776 0
-1770 1771 1775 1776 0
-1770 1771 -1775 1776 0
-1770 -1771 1775 1776 0
-1770 -1771 -1775 1776 0
1776 1777 0
-1776 -1777 0
1777 1778 0
-1777 -1778 0
1765 1778 -1779 0
1765 -1778 1779 0
-1765 1778 1779 0
-1765 -1778 1779 0
1779 1780 0
-1779 -1780 0
1780 1781 0
-1780 -1781 0
1781 1782 0
-1781 -1782 0
1782 1783 0
-1782 -1783 0
1758 1783 -1784 0
1758 -1783 1784 0
-1758 1783 1784 0
-1758 -1783 -1784 0
330 1785 0
-330 -1785 0
1785 1786 0
-1785 -1786 0
1786 1491 1787 0
1786 -1491 -1787 0
-1786 1491 -1787 0
-1786 -1491 -1787 0
367 1788 0
-367 -1788 0
1788 1789 0
-1788 -1789 0
1742 1694 1790 0
1742 -1694 -1790 0
-1742 1694 -1790 0
-1742 -1694 -1790 0
1789 1790 1791 0
1789 -1790 -1791 0
-1789 1790 -1791 0
-1789 -1790 -1791 0
367 1792 0
-367 -1792 0
1792 1793 0
-1792 -1793 0
1793 1794 0
-1793 -1794 0
1790 1795 0
-1790 -1795 0
1794 1795 1796 0
1794 -1795 -1796 0
-1794 1795 -1796 0
-1794 -1795 -1796 0
1791 1796 -1797 0
1791 -1796 1797 0
-1791 1796 1797 0
-1791 -1796 1797 0
1797 1798 0
-1797 -1798 0
1798 1799 0
-1798 -1799 0
1787 1799 -1800 0
1787 -1799 1800 0
-1787 1799 1800 0
-1787 -1799 1800 0
1800 1801 0
-1800 -1801 0
1801 1802 0
-1801 -1802 0
1802 1803 0
-1802 -1803 0
1803 1804 0
-1803 -1804 0
330 1805 0
-330 -1805 0
1805 1806 0
-1805 -1806 0
1806 1589 1807 0
1806 -1589 -1807 0
-1806 1589 -1807 0
-1806 -1589 -1807 0
367 1808 0
-367 -1808 0
1808 1809 0
-1808 -1809 0
1767 1721 1810 0
1767 -1721 -1810 0
-1767 1721 -1810 0
-1767 -1721 -1810 0
1809 1810 1811 0
1809 -1810 -1811 0
-1809 1810 -1811 0
-1809 -1810 -1811 0
367 1812 0
-367 -1812 0
1812 1813 0
-1812 -1813 0
1813 1814 0
-1813 -1814 0
1810 1815 0
-1810 -1815 0
1814 1815 1816 0
1814 -1815 -1816 0
-1814 1815 -1816 0
-1814 -1815 -1816 0
1811 1816 -1817 0
1811 -1816 1817 0
-1811 1816 1817 0
-1811 -1816 1817 0
1817 1818 0
-1817 -1818 0
1818 1819 0
-1818 -1819 0
1807 1819 -1820 0
1807 -1819 1820 0
-1807 1819 1820 0
-1807 -1819 1820 0
1820 1821 0
-1820 -1821 0
1821 1822 0
-1821 -1822 0
1822 1823 0
-1822 -1823 0
1823 1824 0
-1823 -1824 0
1804 1824 -1825 0
1804 -1824 1825 0
-1804 1824 1825 0
-1804 -1824 -1825 0
380 1826 0
-380 -1826 0
387 1827 0
-387 -1827 0
377 1828 0
-377 -1828 0
1826 1827 1828 1829 0
1826 1827 -1828 -1829 0
1826 -1827 1828 -1829 0
1826 -1827 -1828 -1829 0
-1826 1827 1828 -1829 0
-1826 1827 -1828 -1829 0
-1826 -1827 1828 -1829 0
-1826 -1827 -1828 -1829 0
1829 1830 0
-1829 -1830 0
1830 1831 0
-1830 -1831 0
1831 1832 0
-1831 -1832 0
1832 1833 0
-1832 -1833 0
1833 1834 0
-1833 -1834 0
1834 1835 0
-1834 -1835 0
1835 1836 0
-1835 -1836 0
380 1837 0
-380 -1837 0
387 1838 0
-387 -1838 0
377 1839 0
-377 -1839 0
1837 1838 1839 1840 0
1837 1838 -1839 -1840 0
1837 -1838 1839 -1840 0
1837 -1838 -1839 -1840 0
-1837 1838 1839 -1840 0
-1837 1838 -1839 -1840 0
-1837 -1838 1839 -1840 0
-1837 -1838 -1839 -1840 0
1840 1841 0
-1840 -1841 0
1841 1842 0
-1841 -1842 0
1842 1843 0
-1842 -1843 0
1843 1844 0
-1843 -1844 0
1844 1845 0
-1844 -1845 0
1845 1846 0
-1845 -1846 0
1846 1847 0
-1846 -1847 0
1836 1847 -1848 0
1836 -1847 1848 0
-1836 1847 1848 0
-1836 -1847 -1848 0
331 1849 0
-331 -1849 0
1849 1850 0
-1849 -1850 0
1850 1851 0
-1850 -1851 0
1851 1852 0
-1851 -1852 0
1852 1853 0
-1852 -1853 0
1853 1854 0
-1853 -1854 0
1854 1855 0
-1854 -1855 0
331 1856 0
-331 -1856 0
1856 1857 0
-1856 -1857 0
1857 1858 0
-1857 -1858 0
1858 1859 0
-1858 -1859 0
1859 1860 0
-1859 -1860 0
1860 1861 0
-1860 -1861 0
1861 1862 0
-1861 -1862 0
1855 1862 -1863 0
1855 -1862 1863 0
-1855 1862 1863 0
-1855 -1862 -1863 0
332 1864 0
-332 -1864 0
331 1865 0
-331 -1865 0
1865 1866 0
-1865 -1866 0
1866 1867 0
-1866 -1867 0
1864 1867 -1868 0
1864 -1867 1868 0
-1864 1867 1868 0
-1864 -1867 1868 0
1868 1869 0
-1868 -1869 0
1869 1870 0
-1869 -1870 0
1870 1871 0
-1870 -1871 0
1871 1872 0
-1871 -1872 0
332 1873 0
-332 -1873 0
331 1874 0
-331 -1874 0
1874 1875 0
-1874 -1875 0
1875 1876 0
-1875 -1876 0
1873 1876 -1877 0
1873 -1876 1877 0
-1873 1876 1877 0
-1873 -1876 1877 0
1877 1878 0
-1877 -1878 0
1878 1879 0
-1878 -1879 0
1879 1880 0
-1879 -1880 0
1880 1881 0
-1880 -1881 0
1872 1881 -1882 0
1872 -1881 1882 0
-1872 1881 1882 0
-1872 -1881 -1882 0
319 1883 0
-319 -1883 0
386 1884 0
-386 -1884 0
385 1885 0
-385 -1885 0
1883 1884 1885 1886 0
1883 1884 -1885 -1886 0
1883 -1884 1885 -1886 0
1883 -1884 -1885 -1886 0
-1883 1884 1885 -1886 0
-1883 1884 -1885 -1886 0
-1883 -1884 1885 -1886 0
-1883 -1884 -1885 -1886 0
1886 1887 0
-1886 -1887 0
648 1887 1888 0
648 -1887 -1888 0
-648 1887 -1888 0
-648 -1887 -1888 0
361 1889 0
-361 -1889 0
364 1890 0
-364 -1890 0
370 1891 0
-370 -1891 0
353 1892 0
-353 -1892 0
371 1893 0
-371 -1893 0
352 1894 0
-352 -1894 0
1892 1893 1894 -1895 0
1892 1893 -1894 1895 0
1892 -1893 1894 1895 0
1892 -1893 -1894 1895 0
-1892 1893 1894 1895 0
-1892 1893 -1894 1895 0
-1892 -1893 1894 1895 0
-1892 -1893 -1894 1895 0
1889 1890 1891 1895 -1896 0
1889 1890 1891 -1895 1896 0
1889 1890 -1891 1895 1896 0
1889 1890 -1891 -1895 1896 0
1889 -1890 1891 1895 1896 0
1889 -1890 1891 -1895 1896 0
1889 -1890 -1891 1895 1896 0
1889 -1890 -1891 -1895 1896 0
-1889 1890 1891 1895 1896 0
-1889 1890 1891 -1895 1896 0
-1889 1890 -1891 1895 1896 0
-1889 1890 -1891 -1895 1896 0
-1889 -1890 1891 1895 1896 0
-1889 -1890 1891 -1895 1896 0
-1889 -1890 -1891 1895 1896 0
-1889 -1890 -1891 -1895 1896 0
1896 1897 0
-1896 -1897 0
1897 1898 0
-1897 -1898 0
1888 1898 -1899 0
1888 -1898 1899 0
-1888 1898 1899 0
-1888 -1898 1899 0
1899 1900 0
-1899 -1900 0
1900 1901 0
-1900 -1901 0
1901 1902 0
-1901 -1902 0
319 1903 0
-319 -1903 0
386 1904 0
-386 -1904 0
385 1905 0
-385 -1905 0
1903 1904 1905 1906 0
1903 1904 -1905 -1906 0
1903 -1904 1905 -1906 0
1903 -1904 -1905 -1906 0
-1903 1904 1905 -1906 0
-1903 1904 -1905 -1906 0
-1903 -1904 1905 -1906 0
-1903 -1904 -1905 -1906 0
1906 1907 0
-1906 -1907 0
720 1907 1908 0
720 -1907 -1908 0
-720 1907 -1908 0
-720 -1907 -1908 0
361 1909 0
-361 -1909 0
364 1910 0
-364 -1910 0
370 1911 0
-370 -1911 0
353 1912 0
-353 -1912 0
371 1913 0
-371 -1913 0
352 1914 0
-352 -1914 0
1912 1913 1914 -1915 0
1912 1913 -1914 1915 0
1912 -1913 1914 1915 0
1912 -1913 -1914 1915 0
-1912 1913 1914 1915 0
-1912 1913 -1914 1915 0
-1912 -1913 1914 1915 0
-1912 -1913 -1914 1915 0
1909 1910 1911 1915 -1916 0
1909 1910 1911 -1915 1916 0
1909 1910 -1911 1915 1916 0
1909 1910 -1911 -1915 1916 0
1909 -1910 1911 1915 1916 0
1909 -1910 1911 -1915 1916 0
1909 -1910 -1911 1915 1916 0
1909 -1910 -1911 -1915 1916 0
-1909 1910 1911 1915 1916 0
-1909 1910 1911 -1915 1916 0
-1909 1910 -1911 1915 1916 0
-1909 1910 -1911 -1915 1916 0
-1909 -1910 1911 1915 1916 0
-1909 -1910 1911 -1915 1916 0
-1909 -1910 -1911 1915 1916 0
-1909 -1910 -1911 -1915 1916 0
1916 1917 0
-1916 -1917 0
1917 1918 0
-1917 -1918 0
1908 1918 -1919 0
1908 -1918 1919 0
-1908 1918 1919 0
-1908 -1918 1919 0
1919 1920 0
-1919 -1920 0
1920 1921 0
-1920 -1921 0
1921 1922 0
-1921 -1922 0
1902 1922 -1923 0
1902 -1922 1923 0
-1902 1922 1923 0
-1902 -1922 -1923 0
1884 1885 1883 1924 0
1884 1885 -1883 -1924 0
1884 -1885 1883 -1924 0
1884 -1885 -1883 -1924 0
-1884 1885 1883 -1924 0
-1884 1885 -1883 -1924 0
-1884 -1885 1883 -1924 0
-1884 -1885 -1883 -1924 0
1531 1527 1925 0
1531 -1527 -1925 0
-1531 1527 -1925 0
-1531 -1527 -1925 0
1925 1926 0
-1925 -1926 0
1548 1552 1927 0
1548 -1552 -1927 0
-1548 1552 -1927 0
-1548 -1552 -1927 0
1927 1928 0
-1927 -1928 0
1926 1928 1929 0
1926 -1928 -1929 0
-1926 1928 -1929 0
-1926 -1928 -1929 0
1929 1930 0
-1929 -1930 0
1786 1931 0
-1786 -1931 0
1931 1932 0
-1931 -1932 0
1930 1932 1933 0
1930 -1932 -1933 0
-1930 1932 -1933 0
-1930 -1932 -1933 0
1785 1934 0
-1785 -1934 0
1934 1935 0
-1934 -1935 0
1935 1936 0
-1935 -1936 0
1555 1544 1937 0
1555 -1544 -1937 0
-1555 1544 -1937 0
-1555 -1544 -1937 0
1937 1938 0
-1937 -1938 0
1531 1520 1939 0
1531 -1520 -1939 0
-1531 1520 -1939 0
-1531 -1520 -1939 0
1939 1940 0
-1939 -1940 0
1938 1940 1941 0
1938 -1940 -1941 0
-1938 1940 -1941 0
-1938 -1940 -1941 0
1941 1942 0
-1941 -1942 0
1936 1942 1943 0
1936 -1942 -1943 0
-1936 1942 -1943 0
-1936 -1942 -1943 0
1938 1926 1944 0
1938 -1926 -1944 0
-1938 1926 -1944 0
-1938 -1926 -1944 0
1944 1945 0
-1944 -1945 0
1934 1946 0
-1934 -1946 0
1946 1947 0
-1946 -1947 0
1945 1947 1948 0
1945 -1947 -1948 0
-1945 1947 -1948 0
-1945 -1947 -1948 0
1527 1512 1949 0
1527 -1512 -1949 0
-1527 1512 -1949 0
-1527 -1512 -1949 0
1949 1950 0
-1949 -1950 0
1555 1552 1951 0
1555 -1552 -1951 0
-1555 1552 -1951 0
-1555 -1552 -1951 0
1951 1952 0
-1951 -1952 0
1950 1952 1953 0
1950 -1952 -1953 0
-1950 1952 -1953 0
-1950 -1952 -1953 0
1953 1954 0
-1953 -1954 0
1934 1955 0
-1934 -1955 0
1955 1956 0
-1955 -1956 0
1954 1956 1957 0
1954 -1956 -1957 0
-1954 1956 -1957 0
-1954 -1956 -1957 0
1934 1958 0
-1934 -1958 0
1958 1959 0
-1958 -1959 0
1512 1520 1960 0
1512 -1520 -1960 0
-1512 1520 -1960 0
-1512 -1520 -1960 0
1960 1961 0
-1960 -1961 0
1961 1952 1962 0
1961 -1952 -1962 0
-1961 1952 -1962 0
-1961 -1952 -1962 0
1962 1963 0
-1962 -1963 0
1959 1963 1964 0
1959 -1963 -1964 0
-1959 1963 -1964 0
-1959 -1963 -1964 0
1934 1965 0
-1934 -1965 0
1965 1966 0
-1965 -1966 0
1940 1952 1967 0
1940 -1952 -1967 0
-1940 1952 -1967 0
-1940 -1952 -1967 0
1967 1968 0
-1967 -1968 0
1966 1968 1969 0
1966 -1968 -1969 0
-1966 1968 -1969 0
-1966 -1968 -1969 0
1957 1964 1969 -1970 0
1957 1964 -1969 1970 0
1957 -1964 1969 1970 0
1957 -1964 -1969 1970 0
-1957 1964 1969 1970 0
-1957 1964 -1969 1970 0
-1957 -1964 1969 1970 0
-1957 -1964 -1969 1970 0
1933 1943 1948 1970 -1971 0
1933 1943 1948 -1970 1971 0
1933 1943 -1948 1970 1971 0
1933 1943 -1948 -1970 1971 0
1933 -1943 1948 1970 1971 0
1933 -1943 1948 -1970 1971 0
1933 -1943 -1948 1970 1971 0
1933 -1943 -1948 -1970 1971 0
-1933 1943 1948 1970 1971 0
-1933 1943 1948 -1970 1971 0
-1933 1943 -1948 1970 1971 0
-1933 1943 -1948 -1970 1971 0
-1933 -1943 1948 1970 1971 0
-1933 -1943 1948 -1970 1971 0
-1933 -1943 -1948 1970 1971 0
-1933 -1943 -1948 -1970 1971 0
1971 1972 0
-1971 -1972 0
1972 1973 0
-1972 -1973 0
1924 1973 -1974 0
1924 -1973 1974 0
-1924 1973 1974 0
-1924 -1973 1974 0
1974 1975 0
-1974 -1975 0
1975 1976 0
-1975 -1976 0
1976 1977 0
-1976 -1977 0
1904 1905 1903 1978 0
1904 1905 -1903 -1978 0
1904 -1905 1903 -1978 0
1904 -1905 -1903 -1978 0
-1904 1905 1903 -1978 0
-1904 1905 -1903 -1978 0
-1904 -1905 1903 -1978 0
-1904 -1905 -1903 -1978 0
1629 1625 1979 0
1629 -1625 -1979 0
-1629 1625 -1979 0
-1629 -1625 -1979 0
1979 1980 0
-1979 -1980 0
1646 1650 1981 0
1646 -1650 -1981 0
-1646 1650 -1981 0
-1646 -1650 -1981 0
1981 1982 0
-1981 -1982 0
1980 1982 1983 0
1980 -1982 -1983 0
-1980 1982 -1983 0
-1980 -1982 -1983 0
1983 1984 0
-1983 -1984 0
1806 1985 0
-1806 -1985 0
1985 1986 0
-1985 -1986 0
1984 1986 1987 0
1984 -1986 -1987 0
-1984 1986 -1987 0
-1984 -1986 -1987 0
1805 1988 0
-1805 -1988 0
1988 1989 0
-1988 -1989 0
1989 1990 0
-1989 -1990 0
1653 1642 1991 0
1653 -1642 -1991 0
-1653 1642 -1991 0
-1653 -1642 -1991 0
1991 1992 0
-1991 -1992 0
1629 1618 1993 0
1629 -1618 -1993 0
-1629 1618 -1993 0
-1629 -1618 -1993 0
1993 1994 0
-1993 -1994 0
1992 1994 1995 0
1992 -1994 -1995 0
-1992 1994 -1995 0
-1992 -1994 -1995 0
1995 1996 0
-1995 -1996 0
1990 1996 1997 0
1990 -1996 -1997 0
-1990 1996 -1997 0
-1990 -1996 -1997 0
1992 1980 1998 0
1992 -1980 -1998 0
-1992 1980 -1998 0
-1992 -1980 -1998 0
1998 1999 0
-1998 -1999 0
1988 2000 0
-1988 -2000 0
2000 2001 0
-2000 -2001 0
1999 2001 2002 0
1999 -2001 -2002 0
-1999 2001 -2002 0
-1999 -2001 -2002 0
1625 1610 2003 0
1625 -1610 -2003 0
-1625 1610 -2003 0
-1625 -1610 -2003 0
2003 2004 0
-2003 -2004 0
1653 1650 2005 0
1653 -1650 -2005 0
-1653 1650 -2005 0
-1653 -1650 -2005 0
2005 2006 0
-2005 -2006 0
2004 2006 2007 0
2004 -2006 -2007 0
-2004 2006 -2007 0
-2004 -2006 -2007 0
2007 2008 0
-2007 -2008 0
1988 2009 0
-1988 -2009 0
2009 2010 0
-2009 -2010 0
2008 2010 2011 0
2008 -2010 -2011 0
-2008 2010 -2011 0
-2008 -2010 -2011 0
1988 2012 0
-1988 -2012 0
2012 2013 0
-2012 -2013 0
1610 1618 2014 0
1610 -1618 -2014 0
-1610 1618 -2014 0
-1610 -1618 -2014 0
2014 2015 0
-2014 -2015 0
2015 2006 2016 0
2015 -2006 -2016 0
-2015 2006 -2016 0
-2015 -2006 -2016 0
2016 2017 0
-2016 -2017 0
2013 2017 2018 0
2013 -2017 -2018 0
-2013 2017 -2018 0
-2013 -2017 -2018 0
1988 2019 0
-1988 -2019 0
2019 2020 0
-2019 -2020 0
1994 2006 2021 0
1994 -2006 -2021 0
-1994 2006 -2021 0
-1994 -2006 -2021 0
2021 2022 0
-2021 -2022 0
2020 2022 2023 0
2020 -2022 -2023 0
-2020 2022 -2023 0
-2020 -2022 -2023 0
2011 2018 2023 -2024 0
2011 2018 -2023 2024 0
2011 -2018 2023 2024 0
2011 -2018 -2023 2024 0
-2011 2018 2023 2024 0
-2011 2018 -2023 2024 0
-2011 -2018 2023 2024 0
-2011 -2018 -2023 2024 0
1987 1997 2002 2024 -2025 0
1987 1997 2002 -2024 2025 0
1987 1997 -2002 2024 2025 0
1987 1997 -2002 -2024 2025 0
1987 -1997 2002 2024 2025 0
1987 -1997 2002 -2024 2025 0
1987 -1997 -2002 2024 2025 0
1987 -1997 -2002 -2024 2025 0
-1987 1997 2002 2024 2025 0
-1987 1997 2002 -2024 2025 0
-1987 1997 -2002 2024 2025 0
-1987 1997 -2002 -2024 2025 0
-1987 -1997 2002 2024 2025 0
-1987 -1997 2002 -2024 2025 0
-1987 -1997 -2002 2024 2025 0
-1987 -1997 -2002 -2024 2025 0
2025 2026 0
-2025 -2026 0
2026 2027 0
-2026 -2027 0
1978 2027 -2028 0
1978 -2027 2028 0
-1978 2027 2028 0
-1978 -2027 2028 0
2028 2029 0
-2028 -2029 0
2029 2030 0
-2029 -2030 0
2030 2031 0
-2030 -2031 0
1977 2031 -2032 0
1977 -2031 2032 0
-1977 2031 2032 0
-1977 -2031 -2032 0
336 2033 0
-336 -2033 0
2033 2034 0
-2033 -2034 0
2034 2035 0
-2034 -2035 0
340 2036 0
-340 -2036 0
2036 2037 0
-2036 -2037 0
2037 2038 0
-2037 -2038 0
314 2039 0
-314 -2039 0
2039 2040 0
-2039 -2040 0
2040 2041 0
-2040 -2041 0
2035 2038 2041 2042 0
2035 2038 -2041 -2042 0
2035 -2038 2041 -2042 0
2035 -2038 -2041 -2042 0
-2035 2038 2041 -2042 0
-2035 2038 -2041 -2042 0
-2035 -2038 2041 -2042 0
-2035 -2038 -2041 -2042 0
2042 2043 0
-2042 -2043 0
348 2044 0
-348 -2044 0
2044 2045 0
-2044 -2045 0
347 2046 0
-347 -2046 0
2046 2047 0
-2046 -2047 0
2045 2047 2048 0
2045 -2047 -2048 0
-2045 2047 -2048 0
-2045 -2047 -2048 0
2048 2049 0
-2048 -2049 0
2043 2049 2050 0
2043 -2049 -2050 0
-2043 2049 -2050 0
-2043 -2049 -2050 0
2050 2051 0
-2050 -2051 0
239 2052 0
-239 -2052 0
2052 2053 0
-2052 -2053 0
2053 2054 0
-2053 -2054 0
2054 2055 0
-2054 -2055 0
247 2056 0
-247 -2056 0
2056 2057 0
-2056 -2057 0
2057 2058 0
-2057 -2058 0
2058 2059 0
-2058 -2059 0
229 2060 0
-229 -2060 0
2060 2061 0
-2060 -2061 0
2061 2062 0
-2061 -2062 0
2062 2063 0
-2062 -2063 0
2055 2059 2063 2064 0
2055 2059 -2063 -2064 0
2055 -2059 2063 -2064 0
2055 -2059 -2063 -2064 0
-2055 2059 2063 -2064 0
-2055 2059 -2063 -2064 0
-2055 -2059 2063 -2064 0
-2055 -2059 -2063 -2064 0
247 2065 0
-247 -2065 0
2065 2066 0
-2065 -2066 0
2066 2067 0
-2066 -2067 0
229 2068 0
-229 -2068 0
2068 2069 0
-2068 -2069 0
2069 2070 0
-2069 -2070 0
2055 2067 2070 2071 0
2055 2067 -2070 -2071 0
2055 -2067 2070 -2071 0
2055 -2067 -2070 -2071 0
-2055 2067 2070 -2071 0
-2055 2067 -2070 -2071 0
-2055 -2067 2070 -2071 0
-2055 -2067 -2070 -2071 0
239 2072 0
-239 -2072 0
2072 2073 0
-2072 -2073 0
2073 2074 0
-2073 -2074 0
2074 2059 2070 2075 0
2074 2059 -2070 -2075 0
2074 -2059 2070 -2075 0
2074 -2059 -2070 -2075 0
-2074 2059 2070 -2075 0
-2074 2059 -2070 -2075 0
-2074 -2059 2070 -2075 0
-2074 -2059 -2070 -2075 0
2074 2067 2063 2076 0
2074 2067 -2063 -2076 0
2074 -2067 2063 -2076 0
2074 -2067 -2063 -2076 0
-2074 2067 2063 -2076 0
-2074 2067 -2063 -2076 0
-2074 -2067 2063 -2076 0
-2074 -2067 -2063 -2076 0
2064 2071 2075 2076 -2077 0
2064 2071 2075 -2076 2077 0
2064 2071 -2075 2076 2077 0
2064 2071 -2075 -2076 2077 0
2064 -2071 2075 2076 2077 0
2064 -2071 2075 -2076 2077 0
2064 -2071 -2075 2076 2077 0
2064 -2071 -2075 -2076 2077 0
-2064 2071 2075 2076 2077 0
-2064 2071 2075 -2076 2077 0
-2064 2071 -2075 2076 2077 0
-2064 2071 -2075 -2076 2077 0
-2064 -2071 2075 2076 2077 0
-2064 -2071 2075 -2076 2077 0
-2064 -2071 -2075 2076 2077 0
-2064 -2071 -2075 -2076 2077 0
2077 2078 0
-2077 -2078 0
2078 2079 0
-2078 -2079 0
2079 2080 0
-2079 -2080 0
246 2081 0
-246 -2081 0
256 2082 0
-256 -2082 0
2082 2083 0
-2082 -2083 0
2081 2083 2084 0
2081 -2083 -2084 0
-2081 2083 -2084 0
-2081 -2083 -2084 0
246 2085 0
-246 -2085 0
2085 2086 0
-2085 -2086 0
256 2087 0
-256 -2087 0
2086 2087 2088 0
2086 -2087 -2088 0
-2086 2087 -2088 0
-2086 -2087 -2088 0
2084 2088 -2089 0
2084 -2088 2089 0
-2084 2088 2089 0
-2084 -2088 2089 0
2089 2090 0
-2089 -2090 0
2090 2091 0
-2090 -2091 0
261 2092 0
-261 -2092 0
2092 2093 0
-2092 -2093 0
2093 2094 0
-2093 -2094 0
2094 2095 0
-2094 -2095 0
262 2096 0
-262 -2096 0
2096 2097 0
-2096 -2097 0
2097 2098 0
-2097 -2098 0
2098 2099 0
-2098 -2099 0
263 2100 0
-263 -2100 0
2100 2101 0
-2100 -2101 0
2101 2102 0
-2101 -2102 0
2102 2103 0
-2102 -2103 0
2095 2099 2103 2104 0
2095 2099 -2103 -2104 0
2095 -2099 2103 -2104 0
2095 -2099 -2103 -2104 0
-2095 2099 2103 -2104 0
-2095 2099 -2103 -2104 0
-2095 -2099 2103 -2104 0
-2095 -2099 -2103 -2104 0
262 2105 0
-262 -2105 0
2105 2106 0
-2105 -2106 0
2106 2107 0
-2106 -2107 0
263 2108 0
-263 -2108 0
2108 2109 0
-2108 -2109 0
2109 2110 0
-2109 -2110 0
2095 2107 2110 2111 0
2095 2107 -2110 -2111 0
2095 -2107 2110 -2111 0
2095 -2107 -2110 -2111 0
-2095 2107 2110 -2111 0
-2095 2107 -2110 -2111 0
-2095 -2107 2110 -2111 0
-2095 -2107 -2110 -2111 0
261 2112 0
-261 -2112 0
2112 2113 0
-2112 -2113 0
2113 2114 0
-2113 -2114 0
2114 2099 2110 2115 0
2114 2099 -2110 -2115 0
2114 -2099 2110 -2115 0
2114 -2099 -2110 -2115 0
-2114 2099 2110 -2115 0
-2114 2099 -2110 -2115 0
-2114 -2099 2110 -2115 0
-2114 -2099 -2110 -2115 0
2114 2107 2103 2116 0
2114 2107 -2103 -2116 0
2114 -2107 2103 -2116 0
2114 -2107 -2103 -2116 0
-2114 2107 2103 -2116 0
-2114 2107 -2103 -2116 0
-2114 -2107 2103 -2116 0
-2114 -2107 -2103 -2116 0
2104 2111 2115 2116 -2117 0
2104 2111 2115 -2116 2117 0
2104 2111 -2115 2116 2117 0
2104 2111 -2115 -2116 2117 0
2104 -2111 2115 2116 2117 0
2104 -2111 2115 -2116 2117 0
2104 -2111 -2115 2116 2117 0
2104 -2111 -2115 -2116 2117 0
-2104 2111 2115 2116 2117 0
-2104 2111 2115 -2116 2117 0
-2104 2111 -2115 2116 2117 0
-2104 2111 -2115 -2116 2117 0
-2104 -2111 2115 2116 2117 0
-2104 -2111 2115 -2116 2117 0
-2104 -2111 -2115 2116 2117 0
-2104 -2111 -2115 -2116 2117 0
2117 2118 0
-2117 -2118 0
2118 2119 0
-2118 -2119 0
2119 2120 0
-2119 -2120 0
2080 2091 2120 2121 0
2080 2091 -2120 -2121 0
2080 -2091 2120 -2121 0
2080 -2091 -2120 -2121 0
-2080 2091 2120 -2121 0
-2080 2091 -2120 -2121 0
-2080 -2091 2120 -2121 0
-2080 -2091 -2120 -2121 0
2089 2122 0
-2089 -2122 0
2122 2123 0
-2122 -2123 0
2123 2124 0
-2123 -2124 0
2117 2125 0
-2117 -2125 0
2125 2126 0
-2125 -2126 0
2080 2124 2126 2127 0
2080 2124 -2126 -2127 0
2080 -2124 2126 -2127 0
2080 -2124 -2126 -2127 0
-2080 2124 2126 -2127 0
-2080 2124 -2126 -2127 0
-2080 -2124 2126 -2127 0
-2080 -2124 -2126 -2127 0
2077 2128 0
-2077 -2128 0
2128 2129 0
-2128 -2129 0
2129 2091 2126 2130 0
2129 2091 -2126 -2130 0
2129 -2091 2126 -2130 0
2129 -2091 -2126 -2130 0
-2129 2091 2126 -2130 0
-2129 2091 -2126 -2130 0
-2129 -2091 2126 -2130 0
-2129 -2091 -2126 -2130 0
2129 2124 2120 2131 0
2129 2124 -2120 -2131 0
2129 -2124 2120 -2131 0
2129 -2124 -2120 -2131 0
-2129 2124 2120 -2131 0
-2129 2124 -2120 -2131 0
-2129 -2124 2120 -2131 0
-2129 -2124 -2120 -2131 0
2121 2127 2130 2131 -2132 0
2121 2127 2130 -2131 2132 0
2121 2127 -2130 2131 2132 0
2121 2127 -2130 -2131 2132 0
2121 -2127 2130 2131 2132 0
2121 -2127 2130 -2131 2132 0
2121 -2127 -2130 2131 2132 0
2121 -2127 -2130 -2131 2132 0
-2121 2127 2130 2131 2132 0
-2121 2127 2130 -2131 2132 0
-2121 2127 -2130 2131 2132 0
-2121 2127 -2130 -2131 2132 0
-2121 -2127 2130 2131 2132 0
-2121 -2127 2130 -2131 2132 0
-2121 -2127 -2130 2131 2132 0
-2121 -2127 -2130 -2131 2132 0
1964 2133 0
-1964 -2133 0
2132 2133 2134 0
2132 -2133 -2134 0
-2132 2133 -2134 0
-2132 -2133 -2134 0
2132 2135 0
-2132 -2135 0
2135 1964 2136 0
2135 -1964 -2136 0
-2135 1964 -2136 0
-2135 -1964 -2136 0
2134 2136 -2137 0
2134 -2136 2137 0
-2134 2136 2137 0
-2134 -2136 2137 0
2137 2138 0
-2137 -2138 0
2051 2138 2139 0
2051 -2138 -2139 0
-2051 2138 -2139 0
-2051 -2138 -2139 0
348 2140 0
-348 -2140 0
2140 2141 0
-2140 -2141 0
2141 2142 0
-2141 -2142 0
2047 2142 2143 0
2047 -2142 -2143 0
-2047 2142 -2143 0
-2047 -2142 -2143 0
2143 2144 0
-2143 -2144 0
336 2145 0
-336 -2145 0
2145 2146 0
-2145 -2146 0
314 2147 0
-314 -2147 0
2147 2148 0
-2147 -2148 0
340 2149 0
-340 -2149 0
2149 2150 0
-2149 -2150 0
2146 2148 2150 2151 0
2146 2148 -2150 -2151 0
2146 -2148 2150 -2151 0
2146 -2148 -2150 -2151 0
-2146 2148 2150 -2151 0
-2146 2148 -2150 -2151 0
-2146 -2148 2150 -2151 0
-2146 -2148 -2150 -2151 0
2151 2152 0
-2151 -2152 0
2144 2152 2153 0
2144 -2152 -2153 0
-2144 2152 -2153 0
-2144 -2152 -2153 0
2153 2154 0
-2153 -2154 0
2087 2155 0
-2087 -2155 0
2154 2155 2156 0
2154 -2155 -2156 0
-2154 2155 -2156 0
-2154 -2155 -2156 0
2041 2038 2146 2157 0
2041 2038 -2146 -2157 0
2041 -2038 2146 -2157 0
2041 -2038 -2146 -2157 0
-2041 2038 2146 -2157 0
-2041 2038 -2146 -2157 0
-2041 -2038 2146 -2157 0
-2041 -2038 -2146 -2157 0
2157 2158 0
-2157 -2158 0
2144 2158 2159 0
2144 -2158 -2159 0
-2144 2158 -2159 0
-2144 -2158 -2159 0
2159 2160 0
-2159 -2160 0
2108 2161 0
-2108 -2161 0
2160 2161 2162 0
2160 -2161 -2162 0
-2160 2161 -2162 0
-2160 -2161 -2162 0
2105 2163 0
-2105 -2163 0
2148 2038 2146 2164 0
2148 2038 -2146 -2164 0
2148 -2038 2146 -2164 0
2148 -2038 -2146 -2164 0
-2148 2038 2146 -2164 0
-2148 2038 -2146 -2164 0
-2148 -2038 2146 -2164 0
-2148 -2038 -2146 -2164 0
2164 2165 0
-2164 -2165 0
2144 2165 2166 0
2144 -2165 -2166 0
-2144 2165 -2166 0
-2144 -2165 -2166 0
2166 2167 0
-2166 -2167 0
2163 2167 2168 0
2163 -2167 -2168 0
-2163 2167 -2168 0
-2163 -2167 -2168 0
2081 2169 0
-2081 -2169 0
2146 2150 2041 2170 0
2146 2150 -2041 -2170 0
2146 -2150 2041 -2170 0
2146 -2150 -2041 -2170 0
-2146 2150 2041 -2170 0
-2146 2150 -2041 -2170 0
-2146 -2150 2041 -2170 0
-2146 -2150 -2041 -2170 0
2170 2171 0
-2170 -2171 0
2144 2171 2172 0
2144 -2171 -2172 0
-2144 2171 -2172 0
-2144 -2171 -2172 0
2172 2173 0
-2172 -2173 0
2169 2173 2174 0
2169 -2173 -2174 0
-2169 2173 -2174 0
-2169 -2173 -2174 0
2156 2162 2168 2174 -2175 0
2156 2162 2168 -2174 2175 0
2156 2162 -2168 2174 2175 0
2156 2162 -2168 -2174 2175 0
2156 -2162 2168 2174 2175 0
2156 -2162 2168 -2174 2175 0
2156 -2162 -2168 2174 2175 0
2156 -2162 -2168 -2174 2175 0
-2156 2162 2168 2174 2175 0
-2156 2162 2168 -2174 2175 0
-2156 2162 -2168 2174 2175 0
-2156 2162 -2168 -2174 2175 0
-2156 -2162 2168 2174 2175 0
-2156 -2162 2168 -2174 2175 0
-2156 -2162 -2168 2174 2175 0
-2156 -2162 -2168 -2174 2175 0
2144 2043 2176 0
2144 -2043 -2176 0
-2144 2043 -2176 0
-2144 -2043 -2176 0
2176 2177 0
-2176 -2177 0
2072 2178 0
-2072 -2178 0
2177 2178 2179 0
2177 -2178 -2179 0
-2177 2178 -2179 0
-2177 -2178 -2179 0
2112 2180 0
-2112 -2180 0
2035 2148 2150 2181 0
2035 2148 -2150 -2181 0
2035 -2148 2150 -2181 0
2035 -2148 -2150 -2181 0
-2035 2148 2150 -2181 0
-2035 2148 -2150 -2181 0
-2035 -2148 2150 -2181 0
-2035 -2148 -2150 -2181 0
2181 2182 0
-2181 -2182 0
2144 2182 2183 0
2144 -2182 -2183 0
-2144 2182 -2183 0
-2144 -2182 -2183 0
2183 2184 0
-2183 -2184 0
2180 2184 2185 0
2180 -2184 -2185 0
-2180 2184 -2185 0
-2180 -2184 -2185 0
2068 2186 0
-2068 -2186 0
2035 2038 2148 2187 0
2035 2038 -2148 -2187 0
2035 -2038 2148 -2187 0
2035 -2038 -2148 -2187 0
-2035 2038 2148 -2187 0
-2035 2038 -2148 -2187 0
-2035 -2038 2148 -2187 0
-2035 -2038 -2148 -2187 0
2187 2188 0
-2187 -2188 0
2144 2188 2189 0
2144 -2188 -2189 0
-2144 2188 -2189 0
-2144 -2188 -2189 0
2189 2190 0
-2189 -2190 0
2186 2190 2191 0
2186 -2190 -2191 0
-2186 2190 -2191 0
-2186 -2190 -2191 0
2065 2192 0
-2065 -2192 0
2035 2150 2041 2193 0
2035 2150 -2041 -2193 0
2035 -2150 2041 -2193 0
2035 -2150 -2041 -2193 0
-2035 2150 2041 -2193 0
-2035 2150 -2041 -2193 0
-2035 -2150 2041 -2193 0
-2035 -2150 -2041 -2193 0
2193 2194 0
-2193 -2194 0
2194 2144 2195 0
2194 -2144 -2195 0
-2194 2144 -2195 0
-2194 -2144 -2195 0
2195 2196 0
-2195 -2196 0
2192 2196 2197 0
2192 -2196 -2197 0
-2192 2196 -2197 0
-2192 -2196 -2197 0
2179 2185 2191 2197 -2198 0
2179 2185 2191 -2197 2198 0
2179 2185 -2191 2197 2198 0
2179 2185 -2191 -2197 2198 0
2179 -2185 2191 2197 2198 0
2179 -2185 2191 -2197 2198 0
2179 -2185 -2191 2197 2198 0
2179 -2185 -2191 -2197 2198 0
-2179 2185 2191 2197 2198 0
-2179 2185 2191 -2197 2198 0
-2179 2185 -2191 2197 2198 0
-2179 2185 -2191 -2197 2198 0
-2179 -2185 2191 2197 2198 0
-2179 -2185 2191 -2197 2198 0
-2179 -2185 -2191 2197 2198 0
-2179 -2185 -2191 -2197 2198 0
2139 2175 2198 2199 0
2139 2175 -2198 -2199 0
2139 -2175 2198 -2199 0
2139 -2175 -2198 -2199 0
-2139 2175 2198 -2199 0
-2139 2175 -2198 -2199 0
-2139 -2175 2198 -2199 0
-2139 -2175 -2198 -2199 0
1964 1957 2200 0
1964 -1957 -2200 0
-1964 1957 -2200 0
-1964 -1957 -2200 0
2199 2200 2201 0
2199 -2200 -2201 0
-2199 2200 -2201 0
-2199 -2200 -2201 0
347 2202 0
-347 -2202 0
2202 2203 0
-2202 -2203 0
2203 2204 0
-2203 -2204 0
2045 2204 2205 0
2045 -2204 -2205 0
-2045 2204 -2205 0
-2045 -2204 -2205 0
2205 2206 0
-2205 -2206 0
2206 2158 2207 0
2206 -2158 -2207 0
-2206 2158 -2207 0
-2206 -2158 -2207 0
2207 2208 0
-2207 -2208 0
1829 2209 0
-1829 -2209 0
2209 1300 2210 0
2209 -1300 -2210 0
-2209 1300 -2210 0
-2209 -1300 -2210 0
2209 2211 0
-2209 -2211 0
2211 1103 2212 0
2211 -1103 -2212 0
-2211 1103 -2212 0
-2211 -1103 -2212 0
2210 2212 -2213 0
2210 -2212 2213 0
-2210 2212 2213 0
-2210 -2212 2213 0
2213 2214 0
-2213 -2214 0
2208 2214 2215 0
2208 -2214 -2215 0
-2208 2214 -2215 0
-2208 -2214 -2215 0
2209 1304 2216 0
2209 -1304 -2216 0
-2209 1304 -2216 0
-2209 -1304 -2216 0
2211 1107 2217 0
2211 -1107 -2217 0
-2211 1107 -2217 0
-2211 -1107 -2217 0
2216 2217 -2218 0
2216 -2217 2218 0
-2216 2217 2218 0
-2216 -2217 2218 0
2218 2219 0
-2218 -2219 0
2182 2206 2220 0
2182 -2206 -2220 0
-2182 2206 -2220 0
-2182 -2206 -2220 0
2220 2221 0
-2220 -2221 0
2219 2221 2222 0
2219 -2221 -2222 0
-2219 2221 -2222 0
-2219 -2221 -2222 0
2165 2206 2223 0
2165 -2206 -2223 0
-2165 2206 -2223 0
-2165 -2206 -2223 0
2223 2224 0
-2223 -2224 0
2209 1349 2225 0
2209 -1349 -2225 0
-2209 1349 -2225 0
-2209 -1349 -2225 0
1156 2211 2226 0
1156 -2211 -2226 0
-1156 2211 -2226 0
-1156 -2211 -2226 0
2225 2226 -2227 0
2225 -2226 2227 0
-2225 2226 2227 0
-2225 -2226 2227 0
2227 2228 0
-2227 -2228 0
2224 2228 2229 0
2224 -2228 -2229 0
-2224 2228 -2229 0
-2224 -2228 -2229 0
2194 2206 2230 0
2194 -2206 -2230 0
-2194 2206 -2230 0
-2194 -2206 -2230 0
2230 2231 0
-2230 -2231 0
1296 2209 2232 0
1296 -2209 -2232 0
-1296 2209 -2232 0
-1296 -2209 -2232 0
1099 2211 2233 0
1099 -2211 -2233 0
-1099 2211 -2233 0
-1099 -2211 -2233 0
2232 2233 -2234 0
2232 -2233 2234 0
-2232 2233 2234 0
-2232 -2233 2234 0
2234 2235 0
-2234 -2235 0
2231 2235 2236 0
2231 -2235 -2236 0
-2231 2235 -2236 0
-2231 -2235 -2236 0
2215 2222 2229 2236 -2237 0
2215 2222 2229 -2236 2237 0
2215 2222 -2229 2236 2237 0
2215 2222 -2229 -2236 2237 0
2215 -2222 2229 2236 2237 0
2215 -2222 2229 -2236 2237 0
2215 -2222 -2229 2236 2237 0
2215 -2222 -2229 -2236 2237 0
-2215 2222 2229 2236 2237 0
-2215 2222 2229 -2236 2237 0
-2215 2222 -2229 2236 2237 0
-2215 2222 -2229 -2236 2237 0
-2215 -2222 2229 2236 2237 0
-2215 -2222 2229 -2236 2237 0
-2215 -2222 -2229 2236 2237 0
-2215 -2222 -2229 -2236 2237 0
2142 2204 2238 0
2142 -2204 -2238 0
-2142 2204 -2238 0
-2142 -2204 -2238 0
2238 2239 0
-2238 -2239 0
2239 2188 2240 0
2239 -2188 -2240 0
-2239 2188 -2240 0
-2239 -2188 -2240 0
2240 2241 0
-2240 -2241 0
2200 2242 0
-2200 -2242 0
1933 2242 2243 0
1933 -2242 -2243 0
-1933 2242 -2243 0
-1933 -2242 -2243 0
2241 2243 2244 0
2241 -2243 -2244 0
-2241 2243 -2244 0
-2241 -2243 -2244 0
366 2245 0
-366 -2245 0
2245 1933 2246 0
2245 -1933 -2246 0
-2245 1933 -2246 0
-2245 -1933 -2246 0
2043 2239 2247 0
2043 -2239 -2247 0
-2043 2239 -2247 0
-2043 -2239 -2247 0
2247 2248 0
-2247 -2248 0
2246 2248 2249 0
2246 -2248 -2249 0
-2246 2248 -2249 0
-2246 -2248 -2249 0
2244 2249 -2250 0
2244 -2249 2250 0
-2244 2249 2250 0
-2244 -2249 2250 0
1829 2251 0
-1829 -2251 0
2251 916 2252 0
2251 -916 -2252 0
-2251 916 -2252 0
-2251 -916 -2252 0
2251 2253 0
-2251 -2253 0
435 2253 2254 0
435 -2253 -2254 0
-435 2253 -2254 0
-435 -2253 -2254 0
2252 2254 -2255 0
2252 -2254 2255 0
-2252 2254 2255 0
-2252 -2254 2255 0
2255 2256 0
-2255 -2256 0
2239 2158 2257 0
2239 -2158 -2257 0
-2239 2158 -2257 0
-2239 -2158 -2257 0
2257 2258 0
-2257 -2258 0
2256 2258 2259 0
2256 -2258 -2259 0
-2256 2258 -2259 0
-2256 -2258 -2259 0
2253 431 2260 0
2253 -431 -2260 0
-2253 431 -2260 0
-2253 -431 -2260 0
912 2251 2261 0
912 -2251 -2261 0
-912 2251 -2261 0
-912 -2251 -2261 0
2260 2261 -2262 0
2260 -2261 2262 0
-2260 2261 2262 0
-2260 -2261 2262 0
2262 2263 0
-2262 -2263 0
2239 2194 2264 0
2239 -2194 -2264 0
-2239 2194 -2264 0
-2239 -2194 -2264 0
2264 2265 0
-2264 -2265 0
2263 2265 2266 0
2263 -2265 -2266 0
-2263 2265 -2266 0
-2263 -2265 -2266 0
488 2253 2267 0
488 -2253 -2267 0
-488 2253 -2267 0
-488 -2253 -2267 0
966 2251 2268 0
966 -2251 -2268 0
-966 2251 -2268 0
-966 -2251 -2268 0
2267 2268 -2269 0
2267 -2268 2269 0
-2267 2268 2269 0
-2267 -2268 2269 0
2269 2270 0
-2269 -2270 0
2165 2239 2271 0
2165 -2239 -2271 0
-2165 2239 -2271 0
-2165 -2239 -2271 0
2271 2272 0
-2271 -2272 0
2270 2272 2273 0
2270 -2272 -2273 0
-2270 2272 -2273 0
-2270 -2272 -2273 0
2251 920 2274 0
2251 -920 -2274 0
-2251 920 -2274 0
-2251 -920 -2274 0
2253 439 2275 0
2253 -439 -2275 0
-2253 439 -2275 0
-2253 -439 -2275 0
2274 2275 -2276 0
2274 -2275 2276 0
-2274 2275 2276 0
-2274 -2275 2276 0
2276 2277 0
-2276 -2277 0
2182 2239 2278 0
2182 -2239 -2278 0
-2182 2239 -2278 0
-2182 -2239 -2278 0
2278 2279 0
-2278 -2279 0
2277 2279 2280 0
2277 -2279 -2280 0
-2277 2279 -2280 0
-2277 -2279 -2280 0
2259 2266 2273 2280 -2281 0
2259 2266 2273 -2280 2281 0
2259 2266 -2273 2280 2281 0
2259 2266 -2273 -2280 2281 0
2259 -2266 2273 2280 2281 0
2259 -2266 2273 -2280 2281 0
2259 -2266 -2273 2280 2281 0
2259 -2266 -2273 -2280 2281 0
-2259 2266 2273 2280 2281 0
-2259 2266 2273 -2280 2281 0
-2259 2266 -2273 2280 2281 0
-2259 2266 -2273 -2280 2281 0
-2259 -2266 2273 2280 2281 0
-2259 -2266 2273 -2280 2281 0
-2259 -2266 -2273 2280 2281 0
-2259 -2266 -2273 -2280 2281 0
949 2251 2282 0
949 -2251 -2282 0
-949 2251 -2282 0
-949 -2251 -2282 0
468 2253 2283 0
468 -2253 -2283 0
-468 2253 -2283 0
-468 -2253 -2283 0
2282 2283 -2284 0
2282 -2283 2284 0
-2282 2283 2284 0
-2282 -2283 2284 0
2284 2285 0
-2284 -2285 0
2206 2188 2286 0
2206 -2188 -2286 0
-2206 2188 -2286 0
-2206 -2188 -2286 0
2286 2287 0
-2286 -2287 0
2285 2287 2288 0
2285 -2287 -2288 0
-2285 2287 -2288 0
-2285 -2287 -2288 0
2206 2043 2289 0
2206 -2043 -2289 0
-2206 2043 -2289 0
-2206 -2043 -2289 0
2289 2290 0
-2289 -2290 0
2253 460 2291 0
2253 -460 -2291 0
-2253 460 -2291 0
-2253 -460 -2291 0
2251 941 2292 0
2251 -941 -2292 0
-2251 941 -2292 0
-2251 -941 -2292 0
2291 2292 -2293 0
2291 -2292 2293 0
-2291 2292 2293 0
-2291 -2292 2293 0
2293 2294 0
-2293 -2294 0
2290 2294 2295 0
2290 -2294 -2295 0
-2290 2294 -2295 0
-2290 -2294 -2295 0
2239 2152 2296 0
2239 -2152 -2296 0
-2239 2152 -2296 0
-2239 -2152 -2296 0
2296 2297 0
-2296 -2297 0
492 2253 2298 0
492 -2253 -2298 0
-492 2253 -2298 0
-492 -2253 -2298 0
2251 970 2299 0
2251 -970 -2299 0
-2251 970 -2299 0
-2251 -970 -2299 0
2298 2299 -2300 0
2298 -2299 2300 0
-2298 2299 2300 0
-2298 -2299 2300 0
2300 2301 0
-2300 -2301 0
2297 2301 2302 0
2297 -2301 -2302 0
-2297 2301 -2302 0
-2297 -2301 -2302 0
2171 2239 2303 0
2171 -2239 -2303 0
-2171 2239 -2303 0
-2171 -2239 -2303 0
2303 2304 0
-2303 -2304 0
496 2253 2305 0
496 -2253 -2305 0
-496 2253 -2305 0
-496 -2253 -2305 0
974 2251 2306 0
974 -2251 -2306 0
-974 2251 -2306 0
-974 -2251 -2306 0
2305 2306 -2307 0
2305 -2306 2307 0
-2305 2306 2307 0
-2305 -2306 2307 0
2307 2308 0
-2307 -2308 0
2304 2308 2309 0
2304 -2308 -2309 0
-2304 2308 -2309 0
-2304 -2308 -2309 0
2288 2295 2302 2309 -2310 0
2288 2295 2302 -2309 2310 0
2288 2295 -2302 2309 2310 0
2288 2295 -2302 -2309 2310 0
2288 -2295 2302 2309 2310 0
2288 -2295 2302 -2309 2310 0
2288 -2295 -2302 2309 2310 0
2288 -2295 -2302 -2309 2310 0
-2288 2295 2302 2309 2310 0
-2288 2295 2302 -2309 2310 0
-2288 2295 -2302 2309 2310 0
-2288 2295 -2302 -2309 2310 0
-2288 -2295 2302 2309 2310 0
-2288 -2295 2302 -2309 2310 0
-2288 -2295 -2302 2309 2310 0
-2288 -2295 -2302 -2309 2310 0
2237 2250 2281 2310 2311 0
2237 2250 2281 -2310 -2311 0
2237 2250 -2281 2310 -2311 0
2237 2250 -2281 -2310 -2311 0
2237 -2250 2281 2310 -2311 0
2237 -2250 2281 -2310 -2311 0
2237 -2250 -2281 2310 -2311 0
2237 -2250 -2281 -2310 -2311 0
-2237 2250 2281 2310 -2311 0
-2237 2250 2281 -2310 -2311 0
-2237 2250 -2281 2310 -2311 0
-2237 2250 -2281 -2310 -2311 0
-2237 -2250 2281 2310 -2311 0
-2237 -2250 2281 -2310 -2311 0
-2237 -2250 -2281 2310 -2311 0
-2237 -2250 -2281 -2310 -2311 0
407 2312 0
-407 -2312 0
2311 2312 2313 0
2311 -2312 -2313 0
-2311 2312 -2313 0
-2311 -2312 -2313 0
237 2314 0
-237 -2314 0
2314 2315 0
-2314 -2315 0
311 2316 0
-311 -2316 0
2316 2317 0
-2316 -2317 0
648 2315 2317 2318 0
648 2315 -2317 -2318 0
648 -2315 2317 -2318 0
648 -2315 -2317 -2318 0
-648 2315 2317 -2318 0
-648 2315 -2317 -2318 0
-648 -2315 2317 -2318 0
-648 -2315 -2317 -2318 0
400 2319 0
-400 -2319 0
2319 2320 0
-2319 -2320 0
362 2321 0
-362 -2321 0
2321 2322 0
-2321 -2322 0
2322 2323 0
-2322 -2323 0
377 2324 0
-377 -2324 0
2324 2325 0
-2324 -2325 0
388 2326 0
-388 -2326 0
2326 2327 0
-2326 -2327 0
2325 2327 2328 0
2325 -2327 -2328 0
-2325 2327 -2328 0
-2325 -2327 -2328 0
2323 2328 -2329 0
2323 -2328 2329 0
-2323 2328 2329 0
-2323 -2328 2329 0
2329 2330 0
-2329 -2330 0
2330 2253 2331 0
2330 -2253 -2331 0
-2330 2253 -2331 0
-2330 -2253 -2331 0
2331 2332 0
-2331 -2332 0
406 2333 0
-406 -2333 0
2333 2334 0
-2333 -2334 0
2320 2332 2334 2335 0
2320 2332 -2334 -2335 0
2320 -2332 2334 -2335 0
2320 -2332 -2334 -2335 0
-2320 2332 2334 -2335 0
-2320 2332 -2334 -2335 0
-2320 -2332 2334 -2335 0
-2320 -2332 -2334 -2335 0
2329 2336 0
-2329 -2336 0
2336 2337 0
-2336 -2337 0
2337 2253 2338 0
2337 -2253 -2338 0
-2337 2253 -2338 0
-2337 -2253 -2338 0
2338 2339 0
-2338 -2339 0
391 2340 0
-391 -2340 0
2340 2341 0
-2340 -2341 0
2334 2339 2341 2342 0
2334 2339 -2341 -2342 0
2334 -2339 2341 -2342 0
2334 -2339 -2341 -2342 0
-2334 2339 2341 -2342 0
-2334 2339 -2341 -2342 0
-2334 -2339 2341 -2342 0
-2334 -2339 -2341 -2342 0
2318 2335 2342 -2343 0
2318 2335 -2342 2343 0
2318 -2335 2342 2343 0
2318 -2335 -2342 2343 0
-2318 2335 2342 2343 0
-2318 2335 -2342 2343 0
-2318 -2335 2342 2343 0
-2318 -2335 -2342 2343 0
2201 2313 2343 2344 0
2201 2313 -2343 -2344 0
2201 -2313 2343 -2344 0
2201 -2313 -2343 -2344 0
-2201 2313 2343 -2344 0
-2201 2313 -2343 -2344 0
-2201 -2313 2343 -2344 0
-2201 -2313 -2343 -2344 0
2344 2345 0
-2344 -2345 0
2037 2346 0
-2037 -2346 0
2346 2347 0
-2346 -2347 0
305 2348 0
-305 -2348 0
2348 2349 0
-2348 -2349 0
2349 2350 0
-2349 -2350 0
2040 2351 0
-2040 -2351 0
2351 2352 0
-2351 -2352 0
2347 2350 2352 2353 0
2347 2350 -2352 -2353 0
2347 -2350 2352 -2353 0
2347 -2350 -2352 -2353 0
-2347 2350 2352 -2353 0
-2347 2350 -2352 -2353 0
-2347 -2350 2352 -2353 0
-2347 -2350 -2352 -2353 0
305 2354 0
-305 -2354 0
2354 2355 0
-2354 -2355 0
2355 2356 0
-2355 -2356 0
2356 2357 0
-2356 -2357 0
2147 2358 0
-2147 -2358 0
2358 2359 0
-2358 -2359 0
2347 2357 2359 2360 0
2347 2357 -2359 -2360 0
2347 -2357 2359 -2360 0
2347 -2357 -2359 -2360 0
-2347 2357 2359 -2360 0
-2347 2357 -2359 -2360 0
-2347 -2357 2359 -2360 0
-2347 -2357 -2359 -2360 0
2149 2361 0
-2149 -2361 0
2361 2362 0
-2361 -2362 0
2362 2350 2359 2363 0
2362 2350 -2359 -2363 0
2362 -2350 2359 -2363 0
2362 -2350 -2359 -2363 0
-2362 2350 2359 -2363 0
-2362 2350 -2359 -2363 0
-2362 -2350 2359 -2363 0
-2362 -2350 -2359 -2363 0
2362 2357 2352 2364 0
2362 2357 -2352 -2364 0
2362 -2357 2352 -2364 0
2362 -2357 -2352 -2364 0
-2362 2357 2352 -2364 0
-2362 2357 -2352 -2364 0
-2362 -2357 2352 -2364 0
-2362 -2357 -2352 -2364 0
2353 2360 2363 2364 -2365 0
2353 2360 2363 -2364 2365 0
2353 2360 -2363 2364 2365 0
2353 2360 -2363 -2364 2365 0
2353 -2360 2363 2364 2365 0
2353 -2360 2363 -2364 2365 0
2353 -2360 -2363 2364 2365 0
2353 -2360 -2363 -2364 2365 0
-2353 2360 2363 2364 2365 0
-2353 2360 2363 -2364 2365 0
-2353 2360 -2363 2364 2365 0
-2353 2360 -2363 -2364 2365 0
-2353 -2360 2363 2364 2365 0
-2353 -2360 2363 -2364 2365 0
-2353 -2360 -2363 2364 2365 0
-2353 -2360 -2363 -2364 2365 0
2365 2366 0
-2365 -2366 0
2366 2367 0
-2366 -2367 0
2203 2368 0
-2203 -2368 0
2368 2369 0
-2368 -2369 0
2034 2370 0
-2034 -2370 0
2370 2371 0
-2370 -2371 0
2141 2372 0
-2141 -2372 0
2372 2373 0
-2372 -2373 0
2369 2371 2373 2374 0
2369 2371 -2373 -2374 0
2369 -2371 2373 -2374 0
2369 -2371 -2373 -2374 0
-2369 2371 2373 -2374 0
-2369 2371 -2373 -2374 0
-2369 -2371 2373 -2374 0
-2369 -2371 -2373 -2374 0
2145 2375 0
-2145 -2375 0
2375 2376 0
-2375 -2376 0
2044 2377 0
-2044 -2377 0
2377 2378 0
-2377 -2378 0
2369 2376 2378 2379 0
2369 2376 -2378 -2379 0
2369 -2376 2378 -2379 0
2369 -2376 -2378 -2379 0
-2369 2376 2378 -2379 0
-2369 2376 -2378 -2379 0
-2369 -2376 2378 -2379 0
-2369 -2376 -2378 -2379 0
2046 2380 0
-2046 -2380 0
2380 2381 0
-2380 -2381 0
2381 2371 2378 2382 0
2381 2371 -2378 -2382 0
2381 -2371 2378 -2382 0
2381 -2371 -2378 -2382 0
-2381 2371 2378 -2382 0
-2381 2371 -2378 -2382 0
-2381 -2371 2378 -2382 0
-2381 -2371 -2378 -2382 0
2381 2376 2373 2383 0
2381 2376 -2373 -2383 0
2381 -2376 2373 -2383 0
2381 -2376 -2373 -2383 0
-2381 2376 2373 -2383 0
-2381 2376 -2373 -2383 0
-2381 -2376 2373 -2383 0
-2381 -2376 -2373 -2383 0
2374 2379 2382 2383 -2384 0
2374 2379 2382 -2383 2384 0
2374 2379 -2382 2383 2384 0
2374 2379 -2382 -2383 2384 0
2374 -2379 2382 2383 2384 0
2374 -2379 2382 -2383 2384 0
2374 -2379 -2382 2383 2384 0
2374 -2379 -2382 -2383 2384 0
-2374 2379 2382 2383 2384 0
-2374 2379 2382 -2383 2384 0
-2374 2379 -2382 2383 2384 0
-2374 2379 -2382 -2383 2384 0
-2374 -2379 2382 2383 2384 0
-2374 -2379 2382 -2383 2384 0
-2374 -2379 -2382 2383 2384 0
-2374 -2379 -2382 -2383 2384 0
2384 2385 0
-2384 -2385 0
2385 2386 0
-2385 -2386 0
2367 2386 2387 0
2367 -2386 -2387 0
-2367 2386 -2387 0
-2367 -2386 -2387 0
2367 2387 2388 0
2367 -2387 -2388 0
-2367 2387 -2388 0
-2367 -2387 -2388 0
2387 2386 2389 0
2387 -2386 -2389 0
-2387 2386 -2389 0
-2387 -2386 -2389 0
2388 2389 -2390 0
2388 -2389 2390 0
-2388 2389 2390 0
-2388 -2389 2390 0
2390 2391 0
-2390 -2391 0
2345 2391 -2392 0
2345 -2391 2392 0
-2345 2391 2392 0
-2345 -2391 2392 0
2392 2393 0
-2392 -2393 0
2393 2394 0
-2393 -2394 0
2394 2395 0
-2394 -2395 0
2395 2396 0
-2395 -2396 0
239 2397 0
-239 -2397 0
2397 2398 0
-2397 -2398 0
2398 2399 0
-2398 -2399 0
2399 2400 0
-2399 -2400 0
247 2401 0
-247 -2401 0
2401 2402 0
-2401 -2402 0
2402 2403 0
-2402 -2403 0
2403 2404 0
-2403 -2404 0
229 2405 0
-229 -2405 0
2405 2406 0
-2405 -2406 0
2406 2407 0
-2406 -2407 0
2407 2408 0
-2407 -2408 0
2400 2404 2408 2409 0
2400 2404 -2408 -2409 0
2400 -2404 2408 -2409 0
2400 -2404 -2408 -2409 0
-2400 2404 2408 -2409 0
-2400 2404 -2408 -2409 0
-2400 -2404 2408 -2409 0
-2400 -2404 -2408 -2409 0
247 2410 0
-247 -2410 0
2410 2411 0
-2410 -2411 0
2411 2412 0
-2411 -2412 0
229 2413 0
-229 -2413 0
2413 2414 0
-2413 -2414 0
2414 2415 0
-2414 -2415 0
2400 2412 2415 2416 0
2400 2412 -2415 -2416 0
2400 -2412 2415 -2416 0
2400 -2412 -2415 -2416 0
-2400 2412 2415 -2416 0
-2400 2412 -2415 -2416 0
-2400 -2412 2415 -2416 0
-2400 -2412 -2415 -2416 0
239 2417 0
-239 -2417 0
2417 2418 0
-2417 -2418 0
2418 2419 0
-2418 -2419 0
2419 2404 2415 2420 0
2419 2404 -2415 -2420 0
2419 -2404 2415 -2420 0
2419 -2404 -2415 -2420 0
-2419 2404 2415 -2420 0
-2419 2404 -2415 -2420 0
-2419 -2404 2415 -2420 0
-2419 -2404 -2415 -2420 0
2419 2412 2408 2421 0
2419 2412 -2408 -2421 0
2419 -2412 2408 -2421 0
2419 -2412 -2408 -2421 0
-2419 2412 2408 -2421 0
-2419 2412 -2408 -2421 0
-2419 -2412 2408 -2421 0
-2419 -2412 -2408 -2421 0
2409 2416 2420 2421 -2422 0
2409 2416 2420 -2421 2422 0
2409 2416 -2420 2421 2422 0
2409 2416 -2420 -2421 2422 0
2409 -2416 2420 2421 2422 0
2409 -2416 2420 -2421 2422 0
2409 -2416 -2420 2421 2422 0
2409 -2416 -2420 -2421 2422 0
-2409 2416 2420 2421 2422 0
-2409 2416 2420 -2421 2422 0
-2409 2416 -2420 2421 2422 0
-2409 2416 -2420 -2421 2422 0
-2409 -2416 2420 2421 2422 0
-2409 -2416 2420 -2421 2422 0
-2409 -2416 -2420 2421 2422 0
-2409 -2416 -2420 -2421 2422 0
2422 2423 0
-2422 -2423 0
2423 2424 0
-2423 -2424 0
2424 2425 0
-2424 -2425 0
246 2426 0
-246 -2426 0
256 2427 0
-256 -2427 0
2427 2428 0
-2427 -2428 0
2426 2428 2429 0
2426 -2428 -2429 0
-2426 2428 -2429 0
-2426 -2428 -2429 0
246 2430 0
-246 -2430 0
2430 2431 0
-2430 -2431 0
256 2432 0
-256 -2432 0
2431 2432 2433 0
2431 -2432 -2433 0
-2431 2432 -2433 0
-2431 -2432 -2433 0
2429 2433 -2434 0
2429 -2433 2434 0
-2429 2433 2434 0
-2429 -2433 2434 0
2434 2435 0
-2434 -2435 0
2435 2436 0
-2435 -2436 0
261 2437 0
-261 -2437 0
2437 2438 0
-2437 -2438 0
2438 2439 0
-2438 -2439 0
2439 2440 0
-2439 -2440 0
262 2441 0
-262 -2441 0
2441 2442 0
-2441 -2442 0
2442 2443 0
-2442 -2443 0
2443 2444 0
-2443 -2444 0
263 2445 0
-263 -2445 0
2445 2446 0
-2445 -2446 0
2446 2447 0
-2446 -2447 0
2447 2448 0
-2447 -2448 0
2440 2444 2448 2449 0
2440 2444 -2448 -2449 0
2440 -2444 2448 -2449 0
2440 -2444 -2448 -2449 0
-2440 2444 2448 -2449 0
-2440 2444 -2448 -2449 0
-2440 -2444 2448 -2449 0
-2440 -2444 -2448 -2449 0
262 2450 0
-262 -2450 0
2450 2451 0
-2450 -2451 0
2451 2452 0
-2451 -2452 0
263 2453 0
-263 -2453 0
2453 2454 0
-2453 -2454 0
2454 2455 0
-2454 -2455 0
2440 2452 2455 2456 0
2440 2452 -2455 -2456 0
2440 -2452 2455 -2456 0
2440 -2452 -2455 -2456 0
-2440 2452 2455 -2456 0
-2440 2452 -2455 -2456 0
-2440 -2452 2455 -2456 0
-2440 -2452 -2455 -2456 0
261 2457 0
-261 -2457 0
2457 2458 0
-2457 -2458 0
2458 2459 0
-2458 -2459 0
2459 2444 2455 2460 0
2459 2444 -2455 -2460 0
2459 -2444 2455 -2460 0
2459 -2444 -2455 -2460 0
-2459 2444 2455 -2460 0
-2459 2444 -2455 -2460 0
-2459 -2444 2455 -2460 0
-2459 -2444 -2455 -2460 0
2459 2452 2448 2461 0
2459 2452 -2448 -2461 0
2459 -2452 2448 -2461 0
2459 -2452 -2448 -2461 0
-2459 2452 2448 -2461 0
-2459 2452 -2448 -2461 0
-2459 -2452 2448 -2461 0
-2459 -2452 -2448 -2461 0
2449 2456 2460 2461 -2462 0
2449 2456 2460 -2461 2462 0
2449 2456 -2460 2461 2462 0
2449 2456 -2460 -2461 2462 0
2449 -2456 2460 2461 2462 0
2449 -2456 2460 -2461 2462 0
2449 -2456 -2460 2461 2462 0
2449 -2456 -2460 -2461 2462 0
-2449 2456 2460 2461 2462 0
-2449 2456 2460 -2461 2462 0
-2449 2456 -2460 2461 2462 0
-2449 2456 -2460 -2461 2462 0
-2449 -2456 2460 2461 2462 0
-2449 -2456 2460 -2461 2462 0
-2449 -2456 -2460 2461 2462 0
-2449 -2456 -2460 -2461 2462 0
2462 2463 0
-2462 -2463 0
2463 2464 0
-2463 -2464 0
2464 2465 0
-2464 -2465 0
2425 2436 2465 2466 0
2425 2436 -2465 -2466 0
2425 -2436 2465 -2466 0
2425 -2436 -2465 -2466 0
-2425 2436 2465 -2466 0
-2425 2436 -2465 -2466 0
-2425 -2436 2465 -2466 0
-2425 -2436 -2465 -2466 0
2434 2467 0
-2434 -2467 0
2467 2468 0
-2467 -2468 0
2468 2469 0
-2468 -2469 0
2462 2470 0
-2462 -2470 0
2470 2471 0
-2470 -2471 0
2425 2469 2471 2472 0
2425 2469 -2471 -2472 0
2425 -2469 2471 -2472 0
2425 -2469 -2471 -2472 0
-2425 2469 2471 -2472 0
-2425 2469 -2471 -2472 0
-2425 -2469 2471 -2472 0
-2425 -2469 -2471 -2472 0
2422 2473 0
-2422 -2473 0
2473 2474 0
-2473 -2474 0
2474 2436 2471 2475 0
2474 2436 -2471 -2475 0
2474 -2436 2471 -2475 0
2474 -2436 -2471 -2475 0
-2474 2436 2471 -2475 0
-2474 2436 -2471 -2475 0
-2474 -2436 2471 -2475 0
-2474 -2436 -2471 -2475 0
2474 2469 2465 2476 0
2474 2469 -2465 -2476 0
2474 -2469 2465 -2476 0
2474 -2469 -2465 -2476 0
-2474 2469 2465 -2476 0
-2474 2469 -2465 -2476 0
-2474 -2469 2465 -2476 0
-2474 -2469 -2465 -2476 0
2466 2472 2475 2476 -2477 0
2466 2472 2475 -2476 2477 0
2466 2472 -2475 2476 2477 0
2466 2472 -2475 -2476 2477 0
2466 -2472 2475 2476 2477 0
2466 -2472 2475 -2476 2477 0
2466 -2472 -2475 2476 2477 0
2466 -2472 -2475 -2476 2477 0
-2466 2472 2475 2476 2477 0
-2466 2472 2475 -2476 2477 0
-2466 2472 -2475 2476 2477 0
-2466 2472 -2475 -2476 2477 0
-2466 -2472 2475 2476 2477 0
-2466 -2472 2475 -2476 2477 0
-2466 -2472 -2475 2476 2477 0
-2466 -2472 -2475 -2476 2477 0
2018 2478 0
-2018 -2478 0
2477 2478 2479 0
2477 -2478 -2479 0
-2477 2478 -2479 0
-2477 -2478 -2479 0
2477 2480 0
-2477 -2480 0
2480 2018 2481 0
2480 -2018 -2481 0
-2480 2018 -2481 0
-2480 -2018 -2481 0
2479 2481 -2482 0
2479 -2481 2482 0
-2479 2481 2482 0
-2479 -2481 2482 0
2482 2483 0
-2482 -2483 0
-429 2483 2484 0
-429 -2483 -2484 0
429 2483 -2484 0
429 -2483 -2484 0
347 2485 0
-347 -2485 0
2485 2486 0
-2485 -2486 0
348 2487 0
-348 -2487 0
2487 2488 0
-2487 -2488 0
2488 2489 0
-2488 -2489 0
2486 2489 2490 0
2486 -2489 -2490 0
-2486 2489 -2490 0
-2486 -2489 -2490 0
2490 2491 0
-2490 -2491 0
336 2492 0
-336 -2492 0
2492 2493 0
-2492 -2493 0
314 2494 0
-314 -2494 0
2494 2495 0
-2494 -2495 0
340 2496 0
-340 -2496 0
2496 2497 0
-2496 -2497 0
2493 2495 2497 2498 0
2493 2495 -2497 -2498 0
2493 -2495 2497 -2498 0
2493 -2495 -2497 -2498 0
-2493 2495 2497 -2498 0
-2493 2495 -2497 -2498 0
-2493 -2495 2497 -2498 0
-2493 -2495 -2497 -2498 0
2498 2499 0
-2498 -2499 0
2491 2499 2500 0
2491 -2499 -2500 0
-2491 2499 -2500 0
-2491 -2499 -2500 0
2500 2501 0
-2500 -2501 0
2432 2502 0
-2432 -2502 0
2501 2502 2503 0
2501 -2502 -2503 0
-2501 2502 -2503 0
-2501 -2502 -2503 0
314 2504 0
-314 -2504 0
2504 2505 0
-2504 -2505 0
2505 2506 0
-2505 -2506 0
340 2507 0
-340 -2507 0
2507 2508 0
-2507 -2508 0
2508 2509 0
-2508 -2509 0
2506 2509 2493 2510 0
2506 2509 -2493 -2510 0
2506 -2509 2493 -2510 0
2506 -2509 -2493 -2510 0
-2506 2509 2493 -2510 0
-2506 2509 -2493 -2510 0
-2506 -2509 2493 -2510 0
-2506 -2509 -2493 -2510 0
2510 2511 0
-2510 -2511 0
2491 2511 2512 0
2491 -2511 -2512 0
-2491 2511 -2512 0
-2491 -2511 -2512 0
2512 2513 0
-2512 -2513 0
2453 2514 0
-2453 -2514 0
2513 2514 2515 0
2513 -2514 -2515 0
-2513 2514 -2515 0
-2513 -2514 -2515 0
2450 2516 0
-2450 -2516 0
2495 2509 2493 2517 0
2495 2509 -2493 -2517 0
2495 -2509 2493 -2517 0
2495 -2509 -2493 -2517 0
-2495 2509 2493 -2517 0
-2495 2509 -2493 -2517 0
-2495 -2509 2493 -2517 0
-2495 -2509 -2493 -2517 0
2517 2518 0
-2517 -2518 0
2491 2518 2519 0
2491 -2518 -2519 0
-2491 2518 -2519 0
-2491 -2518 -2519 0
2519 2520 0
-2519 -2520 0
2516 2520 2521 0
2516 -2520 -2521 0
-2516 2520 -2521 0
-2516 -2520 -2521 0
2426 2522 0
-2426 -2522 0
2493 2497 2506 2523 0
2493 2497 -2506 -2523 0
2493 -2497 2506 -2523 0
2493 -2497 -2506 -2523 0
-2493 2497 2506 -2523 0
-2493 2497 -2506 -2523 0
-2493 -2497 2506 -2523 0
-2493 -2497 -2506 -2523 0
2523 2524 0
-2523 -2524 0
2491 2524 2525 0
2491 -2524 -2525 0
-2491 2524 -2525 0
-2491 -2524 -2525 0
2525 2526 0
-2525 -2526 0
2522 2526 2527 0
2522 -2526 -2527 0
-2522 2526 -2527 0
-2522 -2526 -2527 0
2503 2515 2521 2527 -2528 0
2503 2515 2521 -2527 2528 0
2503 2515 -2521 2527 2528 0
2503 2515 -2521 -2527 2528 0
2503 -2515 2521 2527 2528 0
2503 -2515 2521 -2527 2528 0
2503 -2515 -2521 2527 2528 0
2503 -2515 -2521 -2527 2528 0
-2503 2515 2521 2527 2528 0
-2503 2515 2521 -2527 2528 0
-2503 2515 -2521 2527 2528 0
-2503 2515 -2521 -2527 2528 0
-2503 -2515 2521 2527 2528 0
-2503 -2515 2521 -2527 2528 0
-2503 -2515 -2521 2527 2528 0
-2503 -2515 -2521 -2527 2528 0
336 2529 0
-336 -2529 0
2529 2530 0
-2529 -2530 0
2530 2531 0
-2530 -2531 0
2531 2509 2506 2532 0
2531 2509 -2506 -2532 0
2531 -2509 2506 -2532 0
2531 -2509 -2506 -2532 0
-2531 2509 2506 -2532 0
-2531 2509 -2506 -2532 0
-2531 -2509 2506 -2532 0
-2531 -2509 -2506 -2532 0
2532 2533 0
-2532 -2533 0
2491 2533 2534 0
2491 -2533 -2534 0
-2491 2533 -2534 0
-2491 -2533 -2534 0
2534 2535 0
-2534 -2535 0
2417 2536 0
-2417 -2536 0
2535 2536 2537 0
2535 -2536 -2537 0
-2535 2536 -2537 0
-2535 -2536 -2537 0
2457 2538 0
-2457 -2538 0
2531 2495 2497 2539 0
2531 2495 -2497 -2539 0
2531 -2495 2497 -2539 0
2531 -2495 -2497 -2539 0
-2531 2495 2497 -2539 0
-2531 2495 -2497 -2539 0
-2531 -2495 2497 -2539 0
-2531 -2495 -2497 -2539 0
2539 2540 0
-2539 -2540 0
2491 2540 2541 0
2491 -2540 -2541 0
-2491 2540 -2541 0
-2491 -2540 -2541 0
2541 2542 0
-2541 -2542 0
2538 2542 2543 0
2538 -2542 -2543 0
-2538 2542 -2543 0
-2538 -2542 -2543 0
2413 2544 0
-2413 -2544 0
2531 2509 2495 2545 0
2531 2509 -2495 -2545 0
2531 -2509 2495 -2545 0
2531 -2509 -2495 -2545 0
-2531 2509 2495 -2545 0
-2531 2509 -2495 -2545 0
-2531 -2509 2495 -2545 0
-2531 -2509 -2495 -2545 0
2545 2546 0
-2545 -2546 0
2491 2546 2547 0
2491 -2546 -2547 0
-2491 2546 -2547 0
-2491 -2546 -2547 0
2547 2548 0
-2547 -2548 0
2544 2548 2549 0
2544 -2548 -2549 0
-2544 2548 -2549 0
-2544 -2548 -2549 0
2410 2550 0
-2410 -2550 0
2531 2497 2506 2551 0
2531 2497 -2506 -2551 0
2531 -2497 2506 -2551 0
2531 -2497 -2506 -2551 0
-2531 2497 2506 -2551 0
-2531 2497 -2506 -2551 0
-2531 -2497 2506 -2551 0
-2531 -2497 -2506 -2551 0
2551 2552 0
-2551 -2552 0
2552 2491 2553 0
2552 -2491 -2553 0
-2552 2491 -2553 0
-2552 -2491 -2553 0
2553 2554 0
-2553 -2554 0
2550 2554 2555 0
2550 -2554 -2555 0
-2550 2554 -2555 0
-2550 -2554 -2555 0
2537 2543 2549 2555 -2556 0
2537 2543 2549 -2555 2556 0
2537 2543 -2549 2555 2556 0
2537 2543 -2549 -2555 2556 0
2537 -2543 2549 2555 2556 0
2537 -2543 2549 -2555 2556 0
2537 -2543 -2549 2555 2556 0
2537 -2543 -2549 -2555 2556 0
-2537 2543 2549 2555 2556 0
-2537 2543 2549 -2555 2556 0
-2537 2543 -2549 2555 2556 0
-2537 2543 -2549 -2555 2556 0
-2537 -2543 2549 2555 2556 0
-2537 -2543 2549 -2555 2556 0
-2537 -2543 -2549 2555 2556 0
-2537 -2543 -2549 -2555 2556 0
2484 2528 2556 2557 0
2484 2528 -2556 -2557 0
2484 -2528 2556 -2557 0
2484 -2528 -2556 -2557 0
-2484 2528 2556 -2557 0
-2484 2528 -2556 -2557 0
-2484 -2528 2556 -2557 0
-2484 -2528 -2556 -2557 0
2018 2011 2558 0
2018 -2011 -2558 0
-2018 2011 -2558 0
-2018 -2011 -2558 0
2557 2558 2559 0
2557 -2558 -2559 0
-2557 2558 -2559 0
-2557 -2558 -2559 0
348 2560 0
-348 -2560 0
2560 2561 0
-2560 -2561 0
347 2562 0
-347 -2562 0
2562 2563 0
-2562 -2563 0
2563 2564 0
-2563 -2564 0
2561 2564 2565 0
2561 -2564 -2565 0
-2561 2564 -2565 0
-2561 -2564 -2565 0
2565 2566 0
-2565 -2566 0
2566 2511 2567 0
2566 -2511 -2567 0
-2566 2511 -2567 0
-2566 -2511 -2567 0
2567 2568 0
-2567 -2568 0
1840 2569 0
-1840 -2569 0
2569 1393 2570 0
2569 -1393 -2570 0
-2569 1393 -2570 0
-2569 -1393 -2570 0
2569 2571 0
-2569 -2571 0
2571 1201 2572 0
2571 -1201 -2572 0
-2571 1201 -2572 0
-2571 -1201 -2572 0
2570 2572 -2573 0
2570 -2572 2573 0
-2570 2572 2573 0
-2570 -2572 2573 0
2573 2574 0
-2573 -2574 0
2568 2574 2575 0
2568 -2574 -2575 0
-2568 2574 -2575 0
-2568 -2574 -2575 0
2569 1397 2576 0
2569 -1397 -2576 0
-2569 1397 -2576 0
-2569 -1397 -2576 0
2571 1205 2577 0
2571 -1205 -2577 0
-2571 1205 -2577 0
-2571 -1205 -2577 0
2576 2577 -2578 0
2576 -2577 2578 0
-2576 2577 2578 0
-2576 -2577 2578 0
2578 2579 0
-2578 -2579 0
2540 2566 2580 0
2540 -2566 -2580 0
-2540 2566 -2580 0
-2540 -2566 -2580 0
2580 2581 0
-2580 -2581 0
2579 2581 2582 0
2579 -2581 -2582 0
-2579 2581 -2582 0
-2579 -2581 -2582 0
2518 2566 2583 0
2518 -2566 -2583 0
-2518 2566 -2583 0
-2518 -2566 -2583 0
2583 2584 0
-2583 -2584 0
2569 1442 2585 0
2569 -1442 -2585 0
-2569 1442 -2585 0
-2569 -1442 -2585 0
1254 2571 2586 0
1254 -2571 -2586 0
-1254 2571 -2586 0
-1254 -2571 -2586 0
2585 2586 -2587 0
2585 -2586 2587 0
-2585 2586 2587 0
-2585 -2586 2587 0
2587 2588 0
-2587 -2588 0
2584 2588 2589 0
2584 -2588 -2589 0
-2584 2588 -2589 0
-2584 -2588 -2589 0
2552 2566 2590 0
2552 -2566 -2590 0
-2552 2566 -2590 0
-2552 -2566 -2590 0
2590 2591 0
-2590 -2591 0
1389 2569 2592 0
1389 -2569 -2592 0
-1389 2569 -2592 0
-1389 -2569 -2592 0
1197 2571 2593 0
1197 -2571 -2593 0
-1197 2571 -2593 0
-1197 -2571 -2593 0
2592 2593 -2594 0
2592 -2593 2594 0
-2592 2593 2594 0
-2592 -2593 2594 0
2594 2595 0
-2594 -2595 0
2591 2595 2596 0
2591 -2595 -2596 0
-2591 2595 -2596 0
-2591 -2595 -2596 0
2575 2582 2589 2596 -2597 0
2575 2582 2589 -2596 2597 0
2575 2582 -2589 2596 2597 0
2575 2582 -2589 -2596 2597 0
2575 -2582 2589 2596 2597 0
2575 -2582 2589 -2596 2597 0
2575 -2582 -2589 2596 2597 0
2575 -2582 -2589 -2596 2597 0
-2575 2582 2589 2596 2597 0
-2575 2582 2589 -2596 2597 0
-2575 2582 -2589 2596 2597 0
-2575 2582 -2589 -2596 2597 0
-2575 -2582 2589 2596 2597 0
-2575 -2582 2589 -2596 2597 0
-2575 -2582 -2589 2596 2597 0
-2575 -2582 -2589 -2596 2597 0
2489 2564 2598 0
2489 -2564 -2598 0
-2489 2564 -2598 0
-2489 -2564 -2598 0
2598 2599 0
-2598 -2599 0
2599 2546 2600 0
2599 -2546 -2600 0
-2599 2546 -2600 0
-2599 -2546 -2600 0
2600 2601 0
-2600 -2601 0
2558 2602 0
-2558 -2602 0
1987 2602 2603 0
1987 -2602 -2603 0
-1987 2602 -2603 0
-1987 -2602 -2603 0
2601 2603 2604 0
2601 -2603 -2604 0
-2601 2603 -2604 0
-2601 -2603 -2604 0
366 2605 0
-366 -2605 0
2605 1987 2606 0
2605 -1987 -2606 0
-2605 1987 -2606 0
-2605 -1987 -2606 0
2533 2599 2607 0
2533 -2599 -2607 0
-2533 2599 -2607 0
-2533 -2599 -2607 0
2607 2608 0
-2607 -2608 0
2606 2608 2609 0
2606 -2608 -2609 0
-2606 2608 -2609 0
-2606 -2608 -2609 0
2604 2609 -2610 0
2604 -2609 2610 0
-2604 2609 2610 0
-2604 -2609 2610 0
1840 2611 0
-1840 -2611 0
2611 1009 2612 0
2611 -1009 -2612 0
-2611 1009 -2612 0
-2611 -1009 -2612 0
2611 2613 0
-2611 -2613 0
533 2613 2614 0
533 -2613 -2614 0
-533 2613 -2614 0
-533 -2613 -2614 0
2612 2614 -2615 0
2612 -2614 2615 0
-2612 2614 2615 0
-2612 -2614 2615 0
2615 2616 0
-2615 -2616 0
2599 2511 2617 0
2599 -2511 -2617 0
-2599 2511 -2617 0
-2599 -2511 -2617 0
2617 2618 0
-2617 -2618 0
2616 2618 2619 0
2616 -2618 -2619 0
-2616 2618 -2619 0
-2616 -2618 -2619 0
2613 529 2620 0
2613 -529 -2620 0
-2613 529 -2620 0
-2613 -529 -2620 0
1005 2611 2621 0
1005 -2611 -2621 0
-1005 2611 -2621 0
-1005 -2611 -2621 0
2620 2621 -2622 0
2620 -2621 2622 0
-2620 2621 2622 0
-2620 -2621 2622 0
2622 2623 0
-2622 -2623 0
2599 2552 2624 0
2599 -2552 -2624 0
-2599 2552 -2624 0
-2599 -2552 -2624 0
2624 2625 0
-2624 -2625 0
2623 2625 2626 0
2623 -2625 -2626 0
-2623 2625 -2626 0
-2623 -2625 -2626 0
586 2613 2627 0
586 -2613 -2627 0
-586 2613 -2627 0
-586 -2613 -2627 0
1059 2611 2628 0
1059 -2611 -2628 0
-1059 2611 -2628 0
-1059 -2611 -2628 0
2627 2628 -2629 0
2627 -2628 2629 0
-2627 2628 2629 0
-2627 -2628 2629 0
2629 2630 0
-2629 -2630 0
2518 2599 2631 0
2518 -2599 -2631 0
-2518 2599 -2631 0
-2518 -2599 -2631 0
2631 2632 0
-2631 -2632 0
2630 2632 2633 0
2630 -2632 -2633 0
-2630 2632 -2633 0
-2630 -2632 -2633 0
2611 1013 2634 0
2611 -1013 -2634 0
-2611 1013 -2634 0
-2611 -1013 -2634 0
2613 537 2635 0
2613 -537 -2635 0
-2613 537 -2635 0
-2613 -537 -2635 0
2634 2635 -2636 0
2634 -2635 2636 0
-2634 2635 2636 0
-2634 -2635 2636 0
2636 2637 0
-2636 -2637 0
2540 2599 2638 0
2540 -2599 -2638 0
-2540 2599 -2638 0
-2540 -2599 -2638 0
2638 2639 0
-2638 -2639 0
2637 2639 2640 0
2637 -2639 -2640 0
-2637 2639 -2640 0
-2637 -2639 -2640 0
2619 2626 2633 2640 -2641 0
2619 2626 2633 -2640 2641 0
2619 2626 -2633 2640 2641 0
2619 2626 -2633 -2640 2641 0
2619 -2626 2633 2640 2641 0
2619 -2626 2633 -2640 2641 0
2619 -2626 -2633 2640 2641 0
2619 -2626 -2633 -2640 2641 0
-2619 2626 2633 2640 2641 0
-2619 2626 2633 -2640 2641 0
-2619 2626 -2633 2640 2641 0
-2619 2626 -2633 -2640 2641 0
-2619 -2626 2633 2640 2641 0
-2619 -2626 2633 -2640 2641 0
-2619 -2626 -2633 2640 2641 0
-2619 -2626 -2633 -2640 2641 0
1042 2611 2642 0
1042 -2611 -2642 0
-1042 2611 -2642 0
-1042 -2611 -2642 0
566 2613 2643 0
566 -2613 -2643 0
-566 2613 -2643 0
-566 -2613 -2643 0
2642 2643 -2644 0
2642 -2643 2644 0
-2642 2643 2644 0
-2642 -2643 2644 0
2644 2645 0
-2644 -2645 0
2566 2546 2646 0
2566 -2546 -2646 0
-2566 2546 -2646 0
-2566 -2546 -2646 0
2646 2647 0
-2646 -2647 0
2645 2647 2648 0
2645 -2647 -2648 0
-2645 2647 -2648 0
-2645 -2647 -2648 0
2566 2533 2649 0
2566 -2533 -2649 0
-2566 2533 -2649 0
-2566 -2533 -2649 0
2649 2650 0
-2649 -2650 0
2613 558 2651 0
2613 -558 -2651 0
-2613 558 -2651 0
-2613 -558 -2651 0
2611 1034 2652 0
2611 -1034 -2652 0
-2611 1034 -2652 0
-2611 -1034 -2652 0
2651 2652 -2653 0
2651 -2652 2653 0
-2651 2652 2653 0
-2651 -2652 2653 0
2653 2654 0
-2653 -2654 0
2650 2654 2655 0
2650 -2654 -2655 0
-2650 2654 -2655 0
-2650 -2654 -2655 0
2599 2499 2656 0
2599 -2499 -2656 0
-2599 2499 -2656 0
-2599 -2499 -2656 0
2656 2657 0
-2656 -2657 0
590 2613 2658 0
590 -2613 -2658 0
-590 2613 -2658 0
-590 -2613 -2658 0
2611 1063 2659 0
2611 -1063 -2659 0
-2611 1063 -2659 0
-2611 -1063 -2659 0
2658 2659 -2660 0
2658 -2659 2660 0
-2658 2659 2660 0
-2658 -2659 2660 0
2660 2661 0
-2660 -2661 0
2657 2661 2662 0
2657 -2661 -2662 0
-2657 2661 -2662 0
-2657 -2661 -2662 0
2524 2599 2663 0
2524 -2599 -2663 0
-2524 2599 -2663 0
-2524 -2599 -2663 0
2663 2664 0
-2663 -2664 0
594 2613 2665 0
594 -2613 -2665 0
-594 2613 -2665 0
-594 -2613 -2665 0
1067 2611 2666 0
1067 -2611 -2666 0
-1067 2611 -2666 0
-1067 -2611 -2666 0
2665 2666 -2667 0
2665 -2666 2667 0
-2665 2666 2667 0
-2665 -2666 2667 0
2667 2668 0
-2667 -2668 0
2664 2668 2669 0
2664 -2668 -2669 0
-2664 2668 -2669 0
-2664 -2668 -2669 0
2648 2655 2662 2669 -2670 0
2648 2655 2662 -2669 2670 0
2648 2655 -2662 2669 2670 0
2648 2655 -2662 -2669 2670 0
2648 -2655 2662 2669 2670 0
2648 -2655 2662 -2669 2670 0
2648 -2655 -2662 2669 2670 0
2648 -2655 -2662 -2669 2670 0
-2648 2655 2662 2669 2670 0
-2648 2655 2662 -2669 2670 0
-2648 2655 -2662 2669 2670 0
-2648 2655 -2662 -2669 2670 0
-2648 -2655 2662 2669 2670 0
-2648 -2655 2662 -2669 2670 0
-2648 -2655 -2662 2669 2670 0
-2648 -2655 -2662 -2669 2670 0
2597 2610 2641 2670 2671 0
2597 2610 2641 -2670 -2671 0
2597 2610 -2641 2670 -2671 0
2597 2610 -2641 -2670 -2671 0
2597 -2610 2641 2670 -2671 0
2597 -2610 2641 -2670 -2671 0
2597 -2610 -2641 2670 -2671 0
2597 -2610 -2641 -2670 -2671 0
-2597 2610 2641 2670 -2671 0
-2597 2610 2641 -2670 -2671 0
-2597 2610 -2641 2670 -2671 0
-2597 2610 -2641 -2670 -2671 0
-2597 -2610 2641 2670 -2671 0
-2597 -2610 2641 -2670 -2671 0
-2597 -2610 -2641 2670 -2671 0
-2597 -2610 -2641 -2670 -2671 0
407 2672 0
-407 -2672 0
2671 2672 2673 0
2671 -2672 -2673 0
-2671 2672 -2673 0
-2671 -2672 -2673 0
237 2674 0
-237 -2674 0
2674 2675 0
-2674 -2675 0
311 2676 0
-311 -2676 0
2676 2677 0
-2676 -2677 0
720 2675 2677 2678 0
720 2675 -2677 -2678 0
720 -2675 2677 -2678 0
720 -2675 -2677 -2678 0
-720 2675 2677 -2678 0
-720 2675 -2677 -2678 0
-720 -2675 2677 -2678 0
-720 -2675 -2677 -2678 0
400 2679 0
-400 -2679 0
2679 2680 0
-2679 -2680 0
362 2681 0
-362 -2681 0
2681 2682 0
-2681 -2682 0
2682 2683 0
-2682 -2683 0
377 2684 0
-377 -2684 0
2684 2685 0
-2684 -2685 0
388 2686 0
-388 -2686 0
2686 2687 0
-2686 -2687 0
2685 2687 2688 0
2685 -2687 -2688 0
-2685 2687 -2688 0
-2685 -2687 -2688 0
2683 2688 -2689 0
2683 -2688 2689 0
-2683 2688 2689 0
-2683 -2688 2689 0
2689 2690 0
-2689 -2690 0
2690 2613 2691 0
2690 -2613 -2691 0
-2690 2613 -2691 0
-2690 -2613 -2691 0
2691 2692 0
-2691 -2692 0
406 2693 0
-406 -2693 0
2693 2694 0
-2693 -2694 0
2680 2692 2694 2695 0
2680 2692 -2694 -2695 0
2680 -2692 2694 -2695 0
2680 -2692 -2694 -2695 0
-2680 2692 2694 -2695 0
-2680 2692 -2694 -2695 0
-2680 -2692 2694 -2695 0
-2680 -2692 -2694 -2695 0
2689 2696 0
-2689 -2696 0
2696 2697 0
-2696 -2697 0
2697 2613 2698 0
2697 -2613 -2698 0
-2697 2613 -2698 0
-2697 -2613 -2698 0
2698 2699 0
-2698 -2699 0
391 2700 0
-391 -2700 0
2700 2701 0
-2700 -2701 0
2694 2699 2701 2702 0
2694 2699 -2701 -2702 0
2694 -2699 2701 -2702 0
2694 -2699 -2701 -2702 0
-2694 2699 2701 -2702 0
-2694 2699 -2701 -2702 0
-2694 -2699 2701 -2702 0
-2694 -2699 -2701 -2702 0
2678 2695 2702 -2703 0
2678 2695 -2702 2703 0
2678 -2695 2702 2703 0
2678 -2695 -2702 2703 0
-2678 2695 2702 2703 0
-2678 2695 -2702 2703 0
-2678 -2695 2702 2703 0
-2678 -2695 -2702 2703 0
2559 2673 2703 2704 0
2559 2673 -2703 -2704 0
2559 -2673 2703 -2704 0
2559 -2673 -2703 -2704 0
-2559 2673 2703 -2704 0
-2559 2673 -2703 -2704 0
-2559 -2673 2703 -2704 0
-2559 -2673 -2703 -2704 0
2704 2705 0
-2704 -2705 0
2508 2706 0
-2508 -2706 0
2706 2707 0
-2706 -2707 0
305 2708 0
-305 -2708 0
2708 2709 0
-2708 -2709 0
2709 2710 0
-2709 -2710 0
2505 2711 0
-2505 -2711 0
2711 2712 0
-2711 -2712 0
2707 2710 2712 2713 0
2707 2710 -2712 -2713 0
2707 -2710 2712 -2713 0
2707 -2710 -2712 -2713 0
-2707 2710 2712 -2713 0
-2707 2710 -2712 -2713 0
-2707 -2710 2712 -2713 0
-2707 -2710 -2712 -2713 0
305 2714 0
-305 -2714 0
2714 2715 0
-2714 -2715 0
2715 2716 0
-2715 -2716 0
2716 2717 0
-2716 -2717 0
2494 2718 0
-2494 -2718 0
2718 2719 0
-2718 -2719 0
2707 2717 2719 2720 0
2707 2717 -2719 -2720 0
2707 -2717 2719 -2720 0
2707 -2717 -2719 -2720 0
-2707 2717 2719 -2720 0
-2707 2717 -2719 -2720 0
-2707 -2717 2719 -2720 0
-2707 -2717 -2719 -2720 0
2496 2721 0
-2496 -2721 0
2721 2722 0
-2721 -2722 0
2722 2710 2719 2723 0
2722 2710 -2719 -2723 0
2722 -2710 2719 -2723 0
2722 -2710 -2719 -2723 0
-2722 2710 2719 -2723 0
-2722 2710 -2719 -2723 0
-2722 -2710 2719 -2723 0
-2722 -2710 -2719 -2723 0
2722 2717 2712 2724 0
2722 2717 -2712 -2724 0
2722 -2717 2712 -2724 0
2722 -2717 -2712 -2724 0
-2722 2717 2712 -2724 0
-2722 2717 -2712 -2724 0
-2722 -2717 2712 -2724 0
-2722 -2717 -2712 -2724 0
2713 2720 2723 2724 -2725 0
2713 2720 2723 -2724 2725 0
2713 2720 -2723 2724 2725 0
2713 2720 -2723 -2724 2725 0
2713 -2720 2723 2724 2725 0
2713 -2720 2723 -2724 2725 0
2713 -2720 -2723 2724 2725 0
2713 -2720 -2723 -2724 2725 0
-2713 2720 2723 2724 2725 0
-2713 2720 2723 -2724 2725 0
-2713 2720 -2723 2724 2725 0
-2713 2720 -2723 -2724 2725 0
-2713 -2720 2723 2724 2725 0
-2713 -2720 2723 -2724 2725 0
-2713 -2720 -2723 2724 2725 0
-2713 -2720 -2723 -2724 2725 0
2725 2726 0
-2725 -2726 0
2726 2727 0
-2726 -2727 0
2563 2728 0
-2563 -2728 0
2728 2729 0
-2728 -2729 0
2530 2730 0
-2530 -2730 0
2730 2731 0
-2730 -2731 0
2488 2732 0
-2488 -2732 0
2732 2733 0
-2732 -2733 0
2729 2731 2733 2734 0
2729 2731 -2733 -2734 0
2729 -2731 2733 -2734 0
2729 -2731 -2733 -2734 0
-2729 2731 2733 -2734 0
-2729 2731 -2733 -2734 0
-2729 -2731 2733 -2734 0
-2729 -2731 -2733 -2734 0
2492 2735 0
-2492 -2735 0
2735 2736 0
-2735 -2736 0
2560 2737 0
-2560 -2737 0
2737 2738 0
-2737 -2738 0
2729 2736 2738 2739 0
2729 2736 -2738 -2739 0
2729 -2736 2738 -2739 0
2729 -2736 -2738 -2739 0
-2729 2736 2738 -2739 0
-2729 2736 -2738 -2739 0
-2729 -2736 2738 -2739 0
-2729 -2736 -2738 -2739 0
2485 2740 0
-2485 -2740 0
2740 2741 0
-2740 -2741 0
2741 2731 2738 2742 0
2741 2731 -2738 -2742 0
2741 -2731 2738 -2742 0
2741 -2731 -2738 -2742 0
-2741 2731 2738 -2742 0
-2741 2731 -2738 -2742 0
-2741 -2731 2738 -2742 0
-2741 -2731 -2738 -2742 0
2741 2736 2733 2743 0
2741 2736 -2733 -2743 0
2741 -2736 2733 -2743 0
2741 -2736 -2733 -2743 0
-2741 2736 2733 -2743 0
-2741 2736 -2733 -2743 0
-2741 -2736 2733 -2743 0
-2741 -2736 -2733 -2743 0
2734 2739 2742 2743 -2744 0
2734 2739 2742 -2743 2744 0
2734 2739 -2742 2743 2744 0
2734 2739 -2742 -2743 2744 0
2734 -2739 2742 2743 2744 0
2734 -2739 2742 -2743 2744 0
2734 -2739 -2742 2743 2744 0
2734 -2739 -2742 -2743 2744 0
-2734 2739 2742 2743 2744 0
-2734 2739 2742 -2743 2744 0
-2734 2739 -2742 2743 2744 0
-2734 2739 -2742 -2743 2744 0
-2734 -2739 2742 2743 2744 0
-2734 -2739 2742 -2743 2744 0
-2734 -2739 -2742 2743 2744 0
-2734 -2739 -2742 -2743 2744 0
2744 2745 0
-2744 -2745 0
2745 2746 0
-2745 -2746 0
2727 2746 2747 0
2727 -2746 -2747 0
-2727 2746 -2747 0
-2727 -2746 -2747 0
2727 2747 2748 0
2727 -2747 -2748 0
-2727 2747 -2748 0
-2727 -2747 -2748 0
2747 2746 2749 0
2747 -2746 -2749 0
-2747 2746 -2749 0
-2747 -2746 -2749 0
2748 2749 -2750 0
2748 -2749 2750 0
-2748 2749 2750 0
-2748 -2749 2750 0
2750 2751 0
-2750 -2751 0
2705 2751 -2752 0
2705 -2751 2752 0
-2705 2751 2752 0
-2705 -2751 2752 0
2752 2753 0
-2752 -2753 0
2753 2754 0
-2753 -2754 0
2754 2755 0
-2754 -2755 0
2755 2756 0
-2755 -2756 0
2396 2756 -2757 0
2396 -2756 2757 0
-2396 2756 2757 0
-2396 -2756 -2757 0
2344 2758 0
-2344 -2758 0
309 2759 0
-309 -2759 0
2759 2760 0
-2759 -2760 0
2760 2761 0
-2760 -2761 0
2761 2762 0
-2761 -2762 0
308 2763 0
-308 -2763 0
2763 2764 0
-2763 -2764 0
2764 2765 0
-2764 -2765 0
2765 2766 0
-2765 -2766 0
2766 2767 0
-2766 -2767 0
324 2768 0
-324 -2768 0
2768 2769 0
-2768 -2769 0
2769 2770 0
-2769 -2770 0
2770 2771 0
-2770 -2771 0
2762 2767 2771 2772 0
2762 2767 -2771 -2772 0
2762 -2767 2771 -2772 0
2762 -2767 -2771 -2772 0
-2762 2767 2771 -2772 0
-2762 2767 -2771 -2772 0
-2762 -2767 2771 -2772 0
-2762 -2767 -2771 -2772 0
308 2773 0
-308 -2773 0
2773 2774 0
-2773 -2774 0
2774 2775 0
-2774 -2775 0
2775 2776 0
-2775 -2776 0
324 2777 0
-324 -2777 0
2777 2778 0
-2777 -2778 0
2778 2779 0
-2778 -2779 0
2779 2780 0
-2779 -2780 0
2780 2781 0
-2780 -2781 0
2762 2776 2781 2782 0
2762 2776 -2781 -2782 0
2762 -2776 2781 -2782 0
2762 -2776 -2781 -2782 0
-2762 2776 2781 -2782 0
-2762 2776 -2781 -2782 0
-2762 -2776 2781 -2782 0
-2762 -2776 -2781 -2782 0
309 2783 0
-309 -2783 0
2783 2784 0
-2783 -2784 0
2784 2785 0
-2784 -2785 0
2785 2786 0
-2785 -2786 0
2786 2787 0
-2786 -2787 0
2787 2767 2781 2788 0
2787 2767 -2781 -2788 0
2787 -2767 2781 -2788 0
2787 -2767 -2781 -2788 0
-2787 2767 2781 -2788 0
-2787 2767 -2781 -2788 0
-2787 -2767 2781 -2788 0
-2787 -2767 -2781 -2788 0
2787 2776 2771 2789 0
2787 2776 -2771 -2789 0
2787 -2776 2771 -2789 0
2787 -2776 -2771 -2789 0
-2787 2776 2771 -2789 0
-2787 2776 -2771 -2789 0
-2787 -2776 2771 -2789 0
-2787 -2776 -2771 -2789 0
2772 2782 2788 2789 -2790 0
2772 2782 2788 -2789 2790 0
2772 2782 -2788 2789 2790 0
2772 2782 -2788 -2789 2790 0
2772 -2782 2788 2789 2790 0
2772 -2782 2788 -2789 2790 0
2772 -2782 -2788 2789 2790 0
2772 -2782 -2788 -2789 2790 0
-2772 2782 2788 2789 2790 0
-2772 2782 2788 -2789 2790 0
-2772 2782 -2788 2789 2790 0
-2772 2782 -2788 -2789 2790 0
-2772 -2782 2788 2789 2790 0
-2772 -2782 2788 -2789 2790 0
-2772 -2782 -2788 2789 2790 0
-2772 -2782 -2788 -2789 2790 0
2790 2791 0
-2790 -2791 0
2791 2792 0
-2791 -2792 0
307 2793 0
-307 -2793 0
2793 2794 0
-2793 -2794 0
2794 2795 0
-2794 -2795 0
2795 2796 0
-2795 -2796 0
306 2797 0
-306 -2797 0
2797 2798 0
-2797 -2798 0
2798 2799 0
-2798 -2799 0
2799 2800 0
-2799 -2800 0
315 2801 0
-315 -2801 0
2801 2802 0
-2801 -2802 0
2802 2803 0
-2802 -2803 0
2803 2804 0
-2803 -2804 0
2796 2800 2804 2805 0
2796 2800 -2804 -2805 0
2796 -2800 2804 -2805 0
2796 -2800 -2804 -2805 0
-2796 2800 2804 -2805 0
-2796 2800 -2804 -2805 0
-2796 -2800 2804 -2805 0
-2796 -2800 -2804 -2805 0
306 2806 0
-306 -2806 0
2806 2807 0
-2806 -2807 0
2807 2808 0
-2807 -2808 0
315 2809 0
-315 -2809 0
2809 2810 0
-2809 -2810 0
2810 2811 0
-2810 -2811 0
2796 2808 2811 2812 0
2796 2808 -2811 -2812 0
2796 -2808 2811 -2812 0
2796 -2808 -2811 -2812 0
-2796 2808 2811 -2812 0
-2796 2808 -2811 -2812 0
-2796 -2808 2811 -2812 0
-2796 -2808 -2811 -2812 0
307 2813 0
-307 -2813 0
2813 2814 0
-2813 -2814 0
2814 2815 0
-2814 -2815 0
2815 2800 2811 2816 0
2815 2800 -2811 -2816 0
2815 -2800 2811 -2816 0
2815 -2800 -2811 -2816 0
-2815 2800 2811 -2816 0
-2815 2800 -2811 -2816 0
-2815 -2800 2811 -2816 0
-2815 -2800 -2811 -2816 0
2815 2808 2804 2817 0
2815 2808 -2804 -2817 0
2815 -2808 2804 -2817 0
2815 -2808 -2804 -2817 0
-2815 2808 2804 -2817 0
-2815 2808 -2804 -2817 0
-2815 -2808 2804 -2817 0
-2815 -2808 -2804 -2817 0
2805 2812 2816 2817 -2818 0
2805 2812 2816 -2817 2818 0
2805 2812 -2816 2817 2818 0
2805 2812 -2816 -2817 2818 0
2805 -2812 2816 2817 2818 0
2805 -2812 2816 -2817 2818 0
2805 -2812 -2816 2817 2818 0
2805 -2812 -2816 -2817 2818 0
-2805 2812 2816 2817 2818 0
-2805 2812 2816 -2817 2818 0
-2805 2812 -2816 2817 2818 0
-2805 2812 -2816 -2817 2818 0
-2805 -2812 2816 2817 2818 0
-2805 -2812 2816 -2817 2818 0
-2805 -2812 -2816 2817 2818 0
-2805 -2812 -2816 -2817 2818 0
2818 2819 0
-2818 -2819 0
2819 2820 0
-2819 -2820 0
2792 2820 2821 0
2792 -2820 -2821 0
-2792 2820 -2821 0
-2792 -2820 -2821 0
2792 2821 2822 0
2792 -2821 -2822 0
-2792 2821 -2822 0
-2792 -2821 -2822 0
2821 2820 2823 0
2821 -2820 -2823 0
-2821 2820 -2823 0
-2821 -2820 -2823 0
2822 2823 -2824 0
2822 -2823 2824 0
-2822 2823 2824 0
-2822 -2823 2824 0
2824 2825 0
-2824 -2825 0
2758 2825 -2826 0
2758 -2825 2826 0
-2758 2825 2826 0
-2758 -2825 2826 0
2826 2827 0
-2826 -2827 0
2827 2828 0
-2827 -2828 0
2828 2829 0
-2828 -2829 0
2829 2830 0
-2829 -2830 0
2704 2831 0
-2704 -2831 0
309 2832 0
-309 -2832 0
2832 2833 0
-2832 -2833 0
2833 2834 0
-2833 -2834 0
2834 2835 0
-2834 -2835 0
308 2836 0
-308 -2836 0
2836 2837 0
-2836 -2837 0
2837 2838 0
-2837 -2838 0
2838 2839 0
-2838 -2839 0
2839 2840 0
-2839 -2840 0
324 2841 0
-324 -2841 0
2841 2842 0
-2841 -2842 0
2842 2843 0
-2842 -2843 0
2843 2844 0
-2843 -2844 0
2835 2840 2844 2845 0
2835 2840 -2844 -2845 0
2835 -2840 2844 -2845 0
2835 -2840 -2844 -2845 0
-2835 2840 2844 -2845 0
-2835 2840 -2844 -2845 0
-2835 -2840 2844 -2845 0
-2835 -2840 -2844 -2845 0
308 2846 0
-308 -2846 0
2846 2847 0
-2846 -2847 0
2847 2848 0
-2847 -2848 0
2848 2849 0
-2848 -2849 0
324 2850 0
-324 -2850 0
2850 2851 0
-2850 -2851 0
2851 2852 0
-2851 -2852 0
2852 2853 0
-2852 -2853 0
2853 2854 0
-2853 -2854 0
2835 2849 2854 2855 0
2835 2849 -2854 -2855 0
2835 -2849 2854 -2855 0
2835 -2849 -2854 -2855 0
-2835 2849 2854 -2855 0
-2835 2849 -2854 -2855 0
-2835 -2849 2854 -2855 0
-2835 -2849 -2854 -2855 0
309 2856 0
-309 -2856 0
2856 2857 0
-2856 -2857 0
2857 2858 0
-2857 -2858 0
2858 2859 0
-2858 -2859 0
2859 2860 0
-2859 -2860 0
2860 2840 2854 2861 0
2860 2840 -2854 -2861 0
2860 -2840 2854 -2861 0
2860 -2840 -2854 -2861 0
-2860 2840 2854 -2861 0
-2860 2840 -2854 -2861 0
-2860 -2840 2854 -2861 0
-2860 -2840 -2854 -2861 0
2860 2849 2844 2862 0
2860 2849 -2844 -2862 0
2860 -2849 2844 -2862 0
2860 -2849 -2844 -2862 0
-2860 2849 2844 -2862 0
-2860 2849 -2844 -2862 0
-2860 -2849 2844 -2862 0
-2860 -2849 -2844 -2862 0
2845 2855 2861 2862 -2863 0
2845 2855 2861 -2862 2863 0
2845 2855 -2861 2862 2863 0
2845 2855 -2861 -2862 2863 0
2845 -2855 2861 2862 2863 0
2845 -2855 2861 -2862 2863 0
2845 -2855 -2861 2862 2863 0
2845 -2855 -2861 -2862 2863 0
-2845 2855 2861 2862 2863 0
-2845 2855 2861 -2862 2863 0
-2845 2855 -2861 2862 2863 0
-2845 2855 -2861 -2862 2863 0
-2845 -2855 2861 2862 2863 0
-2845 -2855 2861 -2862 2863 0
-2845 -2855 -2861 2862 2863 0
-2845 -2855 -2861 -2862 2863 0
2863 2864 0
-2863 -2864 0
2864 2865 0
-2864 -2865 0
307 2866 0
-307 -2866 0
2866 2867 0
-2866 -2867 0
2867 2868 0
-2867 -2868 0
2868 2869 0
-2868 -2869 0
306 2870 0
-306 -2870 0
2870 2871 0
-2870 -2871 0
2871 2872 0
-2871 -2872 0
2872 2873 0
-2872 -2873 0
315 2874 0
-315 -2874 0
2874 2875 0
-2874 -2875 0
2875 2876 0
-2875 -2876 0
2876 2877 0
-2876 -2877 0
2869 2873 2877 2878 0
2869 2873 -2877 -2878 0
2869 -2873 2877 -2878 0
2869 -2873 -2877 -2878 0
-2869 2873 2877 -2878 0
-2869 2873 -2877 -2878 0
-2869 -2873 2877 -2878 0
-2869 -2873 -2877 -2878 0
306 2879 0
-306 -2879 0
2879 2880 0
-2879 -2880 0
2880 2881 0
-2880 -2881 0
315 2882 0
-315 -2882 0
2882 2883 0
-2882 -2883 0
2883 2884 0
-2883 -2884 0
2869 2881 2884 2885 0
2869 2881 -2884 -2885 0
2869 -2881 2884 -2885 0
2869 -2881 -2884 -2885 0
-2869 2881 2884 -2885 0
-2869 2881 -2884 -2885 0
-2869 -2881 2884 -2885 0
-2869 -2881 -2884 -2885 0
307 2886 0
-307 -2886 0
2886 2887 0
-2886 -2887 0
2887 2888 0
-2887 -2888 0
2888 2873 2884 2889 0
2888 2873 -2884 -2889 0
2888 -2873 2884 -2889 0
2888 -2873 -2884 -2889 0
-2888 2873 2884 -2889 0
-2888 2873 -2884 -2889 0
-2888 -2873 2884 -2889 0
-2888 -2873 -2884 -2889 0
2888 2881 2877 2890 0
2888 2881 -2877 -2890 0
2888 -2881 2877 -2890 0
2888 -2881 -2877 -2890 0
-2888 2881 2877 -2890 0
-2888 2881 -2877 -2890 0
-2888 -2881 2877 -2890 0
-2888 -2881 -2877 -2890 0
2878 2885 2889 2890 -2891 0
2878 2885 2889 -2890 2891 0
2878 2885 -2889 2890 2891 0
2878 2885 -2889 -2890 2891 0
2878 -2885 2889 2890 2891 0
2878 -2885 2889 -2890 2891 0
2878 -2885 -2889 2890 2891 0
2878 -2885 -2889 -2890 2891 0
-2878 2885 2889 2890 2891 0
-2878 2885 2889 -2890 2891 0
-2878 2885 -2889 2890 2891 0
-2878 2885 -2889 -2890 2891 0
-2878 -2885 2889 2890 2891 0
-2878 -2885 2889 -2890 2891 0
-2878 -2885 -2889 2890 2891 0
-2878 -2885 -2889 -2890 2891 0
2891 2892 0
-2891 -2892 0
2892 2893 0
-2892 -2893 0
2865 2893 2894 0
2865 -2893 -2894 0
-2865 2893 -2894 0
-2865 -2893 -2894 0
2865 2894 2895 0
2865 -2894 -2895 0
-2865 2894 -2895 0
-2865 -2894 -2895 0
2894 2893 2896 0
2894 -2893 -2896 0
-2894 2893 -2896 0
-2894 -2893 -2896 0
2895 2896 -2897 0
2895 -2896 2897 0
-2895 2896 2897 0
-2895 -2896 2897 0
2897 2898 0
-2897 -2898 0
2831 2898 -2899 0
2831 -2898 2899 0
-2831 2898 2899 0
-2831 -2898 2899 0
2899 2900 0
-2899 -2900 0
2900 2901 0
-2900 -2901 0
2901 2902 0
-2901 -2902 0
2902 2903 0
-2902 -2903 0
2830 2903 -2904 0
2830 -2903 2904 0
-2830 2903 2904 0
-2830 -2903 -2904 0
410 2905 0
-410 -2905 0
1969 1933 1943 1948 2906 0
1969 1933 1943 -1948 -2906 0
1969 1933 -1943 1948 -2906 0
1969 1933 -1943 -1948 -2906 0
1969 -1933 1943 1948 -2906 0
1969 -1933 1943 -1948 -2906 0
1969 -1933 -1943 1948 -2906 0
1969 -1933 -1943 -1948 -2906 0
-1969 1933 1943 1948 -2906 0
-1969 1933 1943 -1948 -2906 0
-1969 1933 -1943 1948 -2906 0
-1969 1933 -1943 -1948 -2906 0
-1969 -1933 1943 1948 -2906 0
-1969 -1933 1943 -1948 -2906 0
-1969 -1933 -1943 1948 -2906 0
-1969 -1933 -1943 -1948 -2906 0
2905 2337 2906 2907 0
2905 2337 -2906 -2907 0
2905 -2337 2906 -2907 0
2905 -2337 -2906 -2907 0
-2905 2337 2906 -2907 0
-2905 2337 -2906 -2907 0
-2905 -2337 2906 -2907 0
-2905 -2337 -2906 -2907 0
2337 2200 2908 0
2337 -2200 -2908 0
-2337 2200 -2908 0
-2337 -2200 -2908 0
2338 2907 2908 2909 0
2338 2907 -2908 -2909 0
2338 -2907 2908 -2909 0
2338 -2907 -2908 -2909 0
-2338 2907 2908 -2909 0
-2338 2907 -2908 -2909 0
-2338 -2907 2908 -2909 0
-2338 -2907 -2908 -2909 0
389 2910 0
-389 -2910 0
2910 2911 0
-2910 -2911 0
2909 2911 2912 0
2909 -2911 -2912 0
-2909 2911 -2912 0
-2909 -2911 -2912 0
392 2913 0
-392 -2913 0
2913 2914 0
-2913 -2914 0
2337 2334 2906 2915 0
2337 2334 -2906 -2915 0
2337 -2334 2906 -2915 0
2337 -2334 -2906 -2915 0
-2337 2334 2906 -2915 0
-2337 2334 -2906 -2915 0
-2337 -2334 2906 -2915 0
-2337 -2334 -2906 -2915 0
2915 2916 0
-2915 -2916 0
2914 2916 2917 0
2914 -2916 -2917 0
-2914 2916 -2917 0
-2914 -2916 -2917 0
384 2918 0
-384 -2918 0
2918 2919 0
-2918 -2919 0
409 2920 0
-409 -2920 0
2919 2920 2330 2921 0
2919 2920 -2330 -2921 0
2919 -2920 2330 -2921 0
2919 -2920 -2330 -2921 0
-2919 2920 2330 -2921 0
-2919 2920 -2330 -2921 0
-2919 -2920 2330 -2921 0
-2919 -2920 -2330 -2921 0
404 2922 0
-404 -2922 0
2922 2923 0
-2922 -2923 0
409 2924 0
-409 -2924 0
2924 2925 0
-2924 -2925 0
2906 2926 0
-2906 -2926 0
2926 2242 2927 0
2926 -2242 -2927 0
-2926 2242 -2927 0
-2926 -2242 -2927 0
2330 2925 2927 2928 0
2330 2925 -2927 -2928 0
2330 -2925 2927 -2928 0
2330 -2925 -2927 -2928 0
-2330 2925 2927 -2928 0
-2330 2925 -2927 -2928 0
-2330 -2925 2927 -2928 0
-2330 -2925 -2927 -2928 0
2928 2331 2929 0
2928 -2331 -2929 0
-2928 2331 -2929 0
-2928 -2331 -2929 0
2923 2929 2930 0
2923 -2929 -2930 0
-2923 2929 -2930 0
-2923 -2929 -2930 0
2912 2917 2921 2930 -2931 0
2912 2917 2921 -2930 2931 0
2912 2917 -2921 2930 2931 0
2912 2917 -2921 -2930 2931 0
2912 -2917 2921 2930 2931 0
2912 -2917 2921 -2930 2931 0
2912 -2917 -2921 2930 2931 0
2912 -2917 -2921 -2930 2931 0
-2912 2917 2921 2930 2931 0
-2912 2917 2921 -2930 2931 0
-2912 2917 -2921 2930 2931 0
-2912 2917 -2921 -2930 2931 0
-2912 -2917 2921 2930 2931 0
-2912 -2917 2921 -2930 2931 0
-2912 -2917 -2921 2930 2931 0
-2912 -2917 -2921 -2930 2931 0
2931 2932 0
-2931 -2932 0
2932 2933 0
-2932 -2933 0
2933 2934 0
-2933 -2934 0
2934 2935 0
-2934 -2935 0
2935 2936 0
-2935 -2936 0
2936 2937 0
-2936 -2937 0
410 2938 0
-410 -2938 0
2023 1987 1997 2002 2939 0
2023 1987 1997 -2002 -2939 0
2023 1987 -1997 2002 -2939 0
2023 1987 -1997 -2002 -2939 0
2023 -1987 1997 2002 -2939 0
2023 -1987 1997 -2002 -2939 0
2023 -1987 -1997 2002 -2939 0
2023 -1987 -1997 -2002 -2939 0
-2023 1987 1997 2002 -2939 0
-2023 1987 1997 -2002 -2939 0
-2023 1987 -1997 2002 -2939 0
-2023 1987 -1997 -2002 -2939 0
-2023 -1987 1997 2002 -2939 0
-2023 -1987 1997 -2002 -2939 0
-2023 -1987 -1997 2002 -2939 0
-2023 -1987 -1997 -2002 -2939 0
2938 2697 2939 2940 0
2938 2697 -2939 -2940 0
2938 -2697 2939 -2940 0
2938 -2697 -2939 -2940 0
-2938 2697 2939 -2940 0
-2938 2697 -2939 -2940 0
-2938 -2697 2939 -2940 0
-2938 -2697 -2939 -2940 0
2697 2558 2941 0
2697 -2558 -2941 0
-2697 2558 -2941 0
-2697 -2558 -2941 0
2698 2940 2941 2942 0
2698 2940 -2941 -2942 0
2698 -2940 2941 -2942 0
2698 -2940 -2941 -2942 0
-2698 2940 2941 -2942 0
-2698 2940 -2941 -2942 0
-2698 -2940 2941 -2942 0
-2698 -2940 -2941 -2942 0
389 2943 0
-389 -2943 0
2943 2944 0
-2943 -2944 0
2942 2944 2945 0
2942 -2944 -2945 0
-2942 2944 -2945 0
-2942 -2944 -2945 0
392 2946 0
-392 -2946 0
2946 2947 0
-2946 -2947 0
2697 2694 2939 2948 0
2697 2694 -2939 -2948 0
2697 -2694 2939 -2948 0
2697 -2694 -2939 -2948 0
-2697 2694 2939 -2948 0
-2697 2694 -2939 -2948 0
-2697 -2694 2939 -2948 0
-2697 -2694 -2939 -2948 0
2948 2949 0
-2948 -2949 0
2947 2949 2950 0
2947 -2949 -2950 0
-2947 2949 -2950 0
-2947 -2949 -2950 0
384 2951 0
-384 -2951 0
2951 2952 0
-2951 -2952 0
409 2953 0
-409 -2953 0
2952 2953 2690 2954 0
2952 2953 -2690 -2954 0
2952 -2953 2690 -2954 0
2952 -2953 -2690 -2954 0
-2952 2953 2690 -2954 0
-2952 2953 -2690 -2954 0
-2952 -2953 2690 -2954 0
-2952 -2953 -2690 -2954 0
404 2955 0
-404 -2955 0
2955 2956 0
-2955 -2956 0
409 2957 0
-409 -2957 0
2957 2958 0
-2957 -2958 0
2939 2959 0
-2939 -2959 0
2959 2602 2960 0
2959 -2602 -2960 0
-2959 2602 -2960 0
-2959 -2602 -2960 0
2690 2958 2960 2961 0
2690 2958 -2960 -2961 0
2690 -2958 2960 -2961 0
2690 -2958 -2960 -2961 0
-2690 2958 2960 -2961 0
-2690 2958 -2960 -2961 0
-2690 -2958 2960 -2961 0
-2690 -2958 -2960 -2961 0
2961 2691 2962 0
2961 -2691 -2962 0
-2961 2691 -2962 0
-2961 -2691 -2962 0
2956 2962 2963 0
2956 -2962 -2963 0
-2956 2962 -2963 0
-2956 -2962 -2963 0
2945 2950 2954 2963 -2964 0
2945 2950 2954 -2963 2964 0
2945 2950 -2954 2963 2964 0
2945 2950 -2954 -2963 2964 0
2945 -2950 2954 2963 2964 0
2945 -2950 2954 -2963 2964 0
2945 -2950 -2954 2963 2964 0
2945 -2950 -2954 -2963 2964 0
-2945 2950 2954 2963 2964 0
-2945 2950 2954 -2963 2964 0
-2945 2950 -2954 2963 2964 0
-2945 2950 -2954 -2963 2964 0
-2945 -2950 2954 2963 2964 0
-2945 -2950 2954 -2963 2964 0
-2945 -2950 -2954 2963 2964 0
-2945 -2950 -2954 -2963 2964 0
2964 2965 0
-2964 -2965 0
2965 2966 0
-2965 -2966 0
2966 2967 0
-2966 -2967 0
2967 2968 0
-2967 -2968 0
2968 2969 0
-2968 -2969 0
2969 2970 0
-2969 -2970 0
2937 2970 -2971 0
2937 -2970 2971 0
-2937 2970 2971 0
-2937 -2970 -2971 0
2931 2972 0
-2931 -2972 0
2972 2973 0
-2972 -2973 0
2973 2974 0
-2973 -2974 0
2974 2975 0
-2974 -2975 0
2975 2976 0
-2975 -2976 0
2976 2977 0
-2976 -2977 0
2964 2978 0
-2964 -2978 0
2978 2979 0
-2978 -2979 0
2979 2980 0
-2979 -2980 0
2980 2981 0
-2980 -2981 0
2981 2982 0
-2981 -2982 0
2982 2983 0
-2982 -2983 0
2977 2983 -2984 0
2977 -2983 2984 0
-2977 2983 2984 0
-2977 -2983 -2984 0
385 2985 0
-385 -2985 0
2985 2986 0
-2985 -2986 0
382 2987 0
-382 -2987 0
374 2988 0
-374 -2988 0
2988 1828 2989 0
2988 -1828 -2989 0
-2988 1828 -2989 0
-2988 -1828 -2989 0
2989 2990 0
-2989 -2990 0
2990 2986 2991 0
2990 -2986 -2991 0
-2990 2986 -2991 0
-2990 -2986 -2991 0
2991 2992 0
-2991 -2992 0
267 2993 0
-267 -2993 0
2993 2994 0
-2993 -2994 0
2994 2995 0
-2994 -2995 0
2992 2995 2996 0
2992 -2995 -2996 0
-2992 2995 -2996 0
-2992 -2995 -2996 0
2987 2996 2997 0
2987 -2996 -2997 0
-2987 2996 -2997 0
-2987 -2996 -2997 0
383 2998 0
-383 -2998 0
2998 2987 2999 0
2998 -2987 -2999 0
-2998 2987 -2999 0
-2998 -2987 -2999 0
2999 3000 0
-2999 -3000 0
381 3001 0
-381 -3001 0
3001 3002 0
-3001 -3002 0
3000 3002 3003 0
3000 -3002 -3003 0
-3000 3002 -3003 0
-3000 -3002 -3003 0
266 3004 0
-266 -3004 0
3004 3005 0
-3004 -3005 0
3005 3006 0
-3005 -3006 0
3006 3007 0
-3006 -3007 0
2997 3003 3007 3008 0
2997 3003 -3007 -3008 0
2997 -3003 3007 -3008 0
2997 -3003 -3007 -3008 0
-2997 3003 3007 -3008 0
-2997 3003 -3007 -3008 0
-2997 -3003 3007 -3008 0
-2997 -3003 -3007 -3008 0
3008 3009 0
-3008 -3009 0
2986 648 3009 3010 0
2986 648 -3009 -3010 0
2986 -648 3009 -3010 0
2986 -648 -3009 -3010 0
-2986 648 3009 -3010 0
-2986 648 -3009 -3010 0
-2986 -648 3009 -3010 0
-2986 -648 -3009 -3010 0
399 3011 0
-399 -3011 0
3011 3012 0
-3011 -3012 0
3012 2916 3013 0
3012 -2916 -3013 0
-3012 2916 -3013 0
-3012 -2916 -3013 0
403 3014 0
-403 -3014 0
2330 3014 3015 0
2330 -3014 -3015 0
-2330 3014 -3015 0
-2330 -3014 -3015 0
395 3016 0
-395 -3016 0
3016 3017 0
-3016 -3017 0
2908 3018 0
-2908 -3018 0
3017 3018 3019 0
3017 -3018 -3019 0
-3017 3018 -3019 0
-3017 -3018 -3019 0
3015 3019 3020 0
3015 -3019 -3020 0
-3015 3019 -3020 0
-3015 -3019 -3020 0
2341 3020 3021 0
2341 -3020 -3021 0
-2341 3020 -3021 0
-2341 -3020 -3021 0
2045 2035 2047 -3022 0
2045 2035 -2047 3022 0
2045 -2035 2047 3022 0
2045 -2035 -2047 3022 0
-2045 2035 2047 3022 0
-2045 2035 -2047 3022 0
-2045 -2035 2047 3022 0
-2045 -2035 -2047 3022 0
2150 2041 3022 -3023 0
2150 2041 -3022 3023 0
2150 -2041 3022 3023 0
2150 -2041 -3022 3023 0
-2150 2041 3022 3023 0
-2150 2041 -3022 3023 0
-2150 -2041 3022 3023 0
-2150 -2041 -3022 3023 0
3023 3024 0
-3023 -3024 0
2928 3025 0
-2928 -3025 0
3024 3025 3026 0
3024 -3025 -3026 0
-3024 3025 -3026 0
-3024 -3025 -3026 0
406 3027 0
-406 -3027 0
403 3028 0
-403 -3028 0
3028 3029 0
-3028 -3029 0
3027 3029 2332 3030 0
3027 3029 -2332 -3030 0
3027 -3029 2332 -3030 0
3027 -3029 -2332 -3030 0
-3027 3029 2332 -3030 0
-3027 3029 -2332 -3030 0
-3027 -3029 2332 -3030 0
-3027 -3029 -2332 -3030 0
3026 3030 -3031 0
3026 -3030 3031 0
-3026 3030 3031 0
-3026 -3030 3031 0
3031 3032 0
-3031 -3032 0
2320 3032 3033 0
2320 -3032 -3033 0
-2320 3032 -3033 0
-2320 -3032 -3033 0
3010 3013 3021 3033 -3034 0
3010 3013 3021 -3033 3034 0
3010 3013 -3021 3033 3034 0
3010 3013 -3021 -3033 3034 0
3010 -3013 3021 3033 3034 0
3010 -3013 3021 -3033 3034 0
3010 -3013 -3021 3033 3034 0
3010 -3013 -3021 -3033 3034 0
-3010 3013 3021 3033 3034 0
-3010 3013 3021 -3033 3034 0
-3010 3013 -3021 3033 3034 0
-3010 3013 -3021 -3033 3034 0
-3010 -3013 3021 3033 3034 0
-3010 -3013 3021 -3033 3034 0
-3010 -3013 -3021 3033 3034 0
-3010 -3013 -3021 -3033 3034 0
395 3035 0
-395 -3035 0
396 3036 0
-396 -3036 0
3036 3037 0
-3036 -3037 0
3035 3037 2329 3038 0
3035 3037 -2329 -3038 0
3035 -3037 2329 -3038 0
3035 -3037 -2329 -3038 0
-3035 3037 2329 -3038 0
-3035 3037 -2329 -3038 0
-3035 -3037 2329 -3038 0
-3035 -3037 -2329 -3038 0
2242 3017 2341 -3039 0
2242 3017 -2341 3039 0
2242 -3017 2341 3039 0
2242 -3017 -2341 3039 0
-2242 3017 2341 3039 0
-2242 3017 -2341 3039 0
-2242 -3017 2341 3039 0
-2242 -3017 -2341 3039 0
3027 2329 3039 -3040 0
3027 2329 -3039 3040 0
3027 -2329 3039 3040 0
3027 -2329 -3039 3040 0
-3027 2329 3039 3040 0
-3027 2329 -3039 3040 0
-3027 -2329 3039 3040 0
-3027 -2329 -3039 3040 0
3040 3041 0
-3040 -3041 0
3034 3038 3041 3042 0
3034 3038 -3041 -3042 0
3034 -3038 3041 -3042 0
3034 -3038 -3041 -3042 0
-3034 3038 3041 -3042 0
-3034 3038 -3041 -3042 0
-3034 -3038 3041 -3042 0
-3034 -3038 -3041 -3042 0
3042 3043 0
-3042 -3043 0
3043 3044 0
-3043 -3044 0
3044 3045 0
-3044 -3045 0
3045 3046 0
-3045 -3046 0
3046 3047 0
-3046 -3047 0
385 3048 0
-385 -3048 0
3048 3049 0
-3048 -3049 0
382 3050 0
-382 -3050 0
374 3051 0
-374 -3051 0
3051 1839 3052 0
3051 -1839 -3052 0
-3051 1839 -3052 0
-3051 -1839 -3052 0
3052 3053 0
-3052 -3053 0
3053 3049 3054 0
3053 -3049 -3054 0
-3053 3049 -3054 0
-3053 -3049 -3054 0
3054 3055 0
-3054 -3055 0
267 3056 0
-267 -3056 0
3056 3057 0
-3056 -3057 0
3057 3058 0
-3057 -3058 0
3055 3058 3059 0
3055 -3058 -3059 0
-3055 3058 -3059 0
-3055 -3058 -3059 0
3050 3059 3060 0
3050 -3059 -3060 0
-3050 3059 -3060 0
-3050 -3059 -3060 0
383 3061 0
-383 -3061 0
3061 3050 3062 0
3061 -3050 -3062 0
-3061 3050 -3062 0
-3061 -3050 -3062 0
3062 3063 0
-3062 -3063 0
381 3064 0
-381 -3064 0
3064 3065 0
-3064 -3065 0
3063 3065 3066 0
3063 -3065 -3066 0
-3063 3065 -3066 0
-3063 -3065 -3066 0
266 3067 0
-266 -3067 0
3067 3068 0
-3067 -3068 0
3068 3069 0
-3068 -3069 0
3069 3070 0
-3069 -3070 0
3060 3066 3070 3071 0
3060 3066 -3070 -3071 0
3060 -3066 3070 -3071 0
3060 -3066 -3070 -3071 0
-3060 3066 3070 -3071 0
-3060 3066 -3070 -3071 0
-3060 -3066 3070 -3071 0
-3060 -3066 -3070 -3071 0
3071 3072 0
-3071 -3072 0
3049 720 3072 3073 0
3049 720 -3072 -3073 0
3049 -720 3072 -3073 0
3049 -720 -3072 -3073 0
-3049 720 3072 -3073 0
-3049 720 -3072 -3073 0
-3049 -720 3072 -3073 0
-3049 -720 -3072 -3073 0
399 3074 0
-399 -3074 0
3074 3075 0
-3074 -3075 0
3075 2949 3076 0
3075 -2949 -3076 0
-3075 2949 -3076 0
-3075 -2949 -3076 0
403 3077 0
-403 -3077 0
2690 3077 3078 0
2690 -3077 -3078 0
-2690 3077 -3078 0
-2690 -3077 -3078 0
395 3079 0
-395 -3079 0
3079 3080 0
-3079 -3080 0
2941 3081 0
-2941 -3081 0
3080 3081 3082 0
3080 -3081 -3082 0
-3080 3081 -3082 0
-3080 -3081 -3082 0
3078 3082 3083 0
3078 -3082 -3083 0
-3078 3082 -3083 0
-3078 -3082 -3083 0
2701 3083 3084 0
2701 -3083 -3084 0
-2701 3083 -3084 0
-2701 -3083 -3084 0
2561 2531 2486 -3085 0
2561 2531 -2486 3085 0
2561 -2531 2486 3085 0
2561 -2531 -2486 3085 0
-2561 2531 2486 3085 0
-2561 2531 -2486 3085 0
-2561 -2531 2486 3085 0
-2561 -2531 -2486 3085 0
2497 2506 3085 -3086 0
2497 2506 -3085 3086 0
2497 -2506 3085 3086 0
2497 -2506 -3085 3086 0
-2497 2506 3085 3086 0
-2497 2506 -3085 3086 0
-2497 -2506 3085 3086 0
-2497 -2506 -3085 3086 0
3086 3087 0
-3086 -3087 0
2961 3088 0
-2961 -3088 0
3087 3088 3089 0
3087 -3088 -3089 0
-3087 3088 -3089 0
-3087 -3088 -3089 0
406 3090 0
-406 -3090 0
403 3091 0
-403 -3091 0
3091 3092 0
-3091 -3092 0
3090 3092 2692 3093 0
3090 3092 -2692 -3093 0
3090 -3092 2692 -3093 0
3090 -3092 -2692 -3093 0
-3090 3092 2692 -3093 0
-3090 3092 -2692 -3093 0
-3090 -3092 2692 -3093 0
-3090 -3092 -2692 -3093 0
3089 3093 -3094 0
3089 -3093 3094 0
-3089 3093 3094 0
-3089 -3093 3094 0
3094 3095 0
-3094 -3095 0
2680 3095 3096 0
2680 -3095 -3096 0
-2680 3095 -3096 0
-2680 -3095 -3096 0
3073 3076 3084 3096 -3097 0
3073 3076 3084 -3096 3097 0
3073 3076 -3084 3096 3097 0
3073 3076 -3084 -3096 3097 0
3073 -3076 3084 3096 3097 0
3073 -3076 3084 -3096 3097 0
3073 -3076 -3084 3096 3097 0
3073 -3076 -3084 -3096 3097 0
-3073 3076 3084 3096 3097 0
-3073 3076 3084 -3096 3097 0
-3073 3076 -3084 3096 3097 0
-3073 3076 -3084 -3096 3097 0
-3073 -3076 3084 3096 3097 0
-3073 -3076 3084 -3096 3097 0
-3073 -3076 -3084 3096 3097 0
-3073 -3076 -3084 -3096 3097 0
395 3098 0
-395 -3098 0
396 3099 0
-396 -3099 0
3099 3100 0
-3099 -3100 0
3098 3100 2689 3101 0
3098 3100 -2689 -3101 0
3098 -3100 2689 -3101 0
3098 -3100 -2689 -3101 0
-3098 3100 2689 -3101 0
-3098 3100 -2689 -3101 0
-3098 -3100 2689 -3101 0
-3098 -3100 -2689 -3101 0
2602 3080 2701 -3102 0
2602 3080 -2701 3102 0
2602 -3080 2701 3102 0
2602 -3080 -2701 3102 0
-2602 3080 2701 3102 0
-2602 3080 -2701 3102 0
-2602 -3080 2701 3102 0
-2602 -3080 -2701 3102 0
3090 2689 3102 -3103 0
3090 2689 -3102 3103 0
3090 -2689 3102 3103 0
3090 -2689 -3102 3103 0
-3090 2689 3102 3103 0
-3090 2689 -3102 3103 0
-3090 -2689 3102 3103 0
-3090 -2689 -3102 3103 0
3103 3104 0
-3103 -3104 0
3097 3101 3104 3105 0
3097 3101 -3104 -3105 0
3097 -3101 3104 -3105 0
3097 -3101 -3104 -3105 0
-3097 3101 3104 -3105 0
-3097 3101 -3104 -3105 0
-3097 -3101 3104 -3105 0
-3097 -3101 -3104 -3105 0
3105 3106 0
-3105 -3106 0
3106 3107 0
-3106 -3107 0
3107 3108 0
-3107 -3108 0
3108 3109 0
-3108 -3109 0
3109 3110 0
-3109 -3110 0
3047 3110 -3111 0
3047 -3110 3111 0
-3047 3110 3111 0
-3047 -3110 -3111 0
3041 3038 3034 3112 0
3041 3038 -3034 -3112 0
3041 -3038 3034 -3112 0
3041 -3038 -3034 -3112 0
-3041 3038 3034 -3112 0
-3041 3038 -3034 -3112 0
-3041 -3038 3034 -3112 0
-3041 -3038 -3034 -3112 0
3112 3113 0
-3112 -3113 0
3113 3114 0
-3113 -3114 0
3114 3115 0
-3114 -3115 0
3115 3116 0
-3115 -3116 0
3116 3117 0
-3116 -3117 0
3104 3101 3097 3118 0
3104 3101 -3097 -3118 0
3104 -3101 3097 -3118 0
3104 -3101 -3097 -3118 0
-3104 3101 3097 -3118 0
-3104 3101 -3097 -3118 0
-3104 -3101 3097 -3118 0
-3104 -3101 -3097 -3118 0
3118 3119 0
-3118 -3119 0
3119 3120 0
-3119 -3120 0
3120 3121 0
-3120 -3121 0
3121 3122 0
-3121 -3122 0
3122 3123 0
-3122 -3123 0
3117 3123 -3124 0
3117 -3123 3124 0
-3117 3123 3124 0
-3117 -3123 -3124 0
2759 2764 2768 3125 0
2759 2764 -2768 -3125 0
2759 -2764 2768 -3125 0
2759 -2764 -2768 -3125 0
-2759 2764 2768 -3125 0
-2759 2764 -2768 -3125 0
-2759 -2764 2768 -3125 0
-2759 -2764 -2768 -3125 0
3125 3126 0
-3125 -3126 0
2802 3127 0
-2802 -3127 0
2794 3128 0
-2794 -3128 0
3126 3127 3128 3129 0
3126 3127 -3128 -3129 0
3126 -3127 3128 -3129 0
3126 -3127 -3128 -3129 0
-3126 3127 3128 -3129 0
-3126 3127 -3128 -3129 0
-3126 -3127 3128 -3129 0
-3126 -3127 -3128 -3129 0
3129 3130 0
-3129 -3130 0
1948 1943 3131 0
1948 -1943 -3131 0
-1948 1943 -3131 0
-1948 -1943 -3131 0
2035 2038 2045 -3132 0
2035 2038 -2045 3132 0
2035 -2038 2045 3132 0
2035 -2038 -2045 3132 0
-2035 2038 2045 3132 0
-2035 2038 -2045 3132 0
-2035 -2038 2045 3132 0
-2035 -2038 -2045 3132 0
2148 2047 3132 -3133 0
2148 2047 -3132 3133 0
2148 -2047 3132 3133 0
2148 -2047 -3132 3133 0
-2148 2047 3132 3133 0
-2148 2047 -3132 3133 0
-2148 -2047 3132 3133 0
-2148 -2047 -3132 3133 0
3133 3134 0
-3133 -3134 0
3134 3135 0
-3134 -3135 0
3130 3131 3135 3136 0
3130 3131 -3135 -3136 0
3130 -3131 3135 -3136 0
3130 -3131 -3135 -3136 0
-3130 3131 3135 -3136 0
-3130 3131 -3135 -3136 0
-3130 -3131 3135 -3136 0
-3130 -3131 -3135 -3136 0
3136 3137 0
-3136 -3137 0
3137 3138 0
-3137 -3138 0
3138 3139 0
-3138 -3139 0
3139 3140 0
-3139 -3140 0
3140 3141 0
-3140 -3141 0
3141 3142 0
-3141 -3142 0
2832 2837 2841 3143 0
2832 2837 -2841 -3143 0
2832 -2837 2841 -3143 0
2832 -2837 -2841 -3143 0
-2832 2837 2841 -3143 0
-2832 2837 -2841 -3143 0
-2832 -2837 2841 -3143 0
-2832 -2837 -2841 -3143 0
3143 3144 0
-3143 -3144 0
2875 3145 0
-2875 -3145 0
2867 3146 0
-2867 -3146 0
3144 3145 3146 3147 0
3144 3145 -3146 -3147 0
3144 -3145 3146 -3147 0
3144 -3145 -3146 -3147 0
-3144 3145 3146 -3147 0
-3144 3145 -3146 -3147 0
-3144 -3145 3146 -3147 0
-3144 -3145 -3146 -3147 0
3147 3148 0
-3147 -3148 0
2002 1997 3149 0
2002 -1997 -3149 0
-2002 1997 -3149 0
-2002 -1997 -3149 0
2531 2509 2561 -3150 0
2531 2509 -2561 3150 0
2531 -2509 2561 3150 0
2531 -2509 -2561 3150 0
-2531 2509 2561 3150 0
-2531 2509 -2561 3150 0
-2531 -2509 2561 3150 0
-2531 -2509 -2561 3150 0
2495 2486 3150 -3151 0
2495 2486 -3150 3151 0
2495 -2486 3150 3151 0
2495 -2486 -3150 3151 0
-2495 2486 3150 3151 0
-2495 2486 -3150 3151 0
-2495 -2486 3150 3151 0
-2495 -2486 -3150 3151 0
3151 3152 0
-3151 -3152 0
3152 3153 0
-3152 -3153 0
3148 3149 3153 3154 0
3148 3149 -3153 -3154 0
3148 -3149 3153 -3154 0
3148 -3149 -3153 -3154 0
-3148 3149 3153 -3154 0
-3148 3149 -3153 -3154 0
-3148 -3149 3153 -3154 0
-3148 -3149 -3153 -3154 0
3154 3155 0
-3154 -3155 0
3155 3156 0
-3155 -3156 0
3156 3157 0
-3156 -3157 0
3157 3158 0
-3157 -3158 0
3158 3159 0
-3158 -3159 0
3159 3160 0
-3159 -3160 0
3142 3160 -3161 0
3142 -3160 3161 0
-3142 3160 3161 0
-3142 -3160 -3161 0
663 703 3162 0
663 -703 -3162 0
-663 703 -3162 0
-663 -703 -3162 0
663 795 3163 0
663 -795 -3163 0
-663 795 -3163 0
-663 -795 -3163 0
790 663 3164 0
790 -663 -3164 0
-790 663 -3164 0
-790 -663 -3164 0
3163 3164 3165 0
3163 -3164 -3165 0
-3163 3164 -3165 0
-3163 -3164 -3165 0
3165 3166 0
-3165 -3166 0
663 645 3167 0
663 -645 -3167 0
-663 645 -3167 0
-663 -645 -3167 0
3167 3168 0
-3167 -3168 0
663 671 3169 0
663 -671 -3169 0
-663 671 -3169 0
-663 -671 -3169 0
3169 3170 0
-3169 -3170 0
663 668 3171 0
663 -668 -3171 0
-663 668 -3171 0
-663 -668 -3171 0
3171 3172 0
-3171 -3172 0
3162 3173 0
-3162 -3173 0
3168 3170 3172 3173 3174 0
3168 3170 3172 -3173 -3174 0
3168 3170 -3172 3173 -3174 0
3168 3170 -3172 -3173 -3174 0
3168 -3170 3172 3173 -3174 0
3168 -3170 3172 -3173 -3174 0
3168 -3170 -3172 3173 -3174 0
3168 -3170 -3172 -3173 -3174 0
-3168 3170 3172 3173 -3174 0
-3168 3170 3172 -3173 -3174 0
-3168 3170 -3172 3173 -3174 0
-3168 3170 -3172 -3173 -3174 0
-3168 -3170 3172 3173 -3174 0
-3168 -3170 3172 -3173 -3174 0
-3168 -3170 -3172 3173 -3174 0
-3168 -3170 -3172 -3173 -3174 0
3169 3171 3175 0
3169 -3171 -3175 0
-3169 3171 -3175 0
-3169 -3171 -3175 0
3166 3174 3175 3176 0
3166 3174 -3175 -3176 0
3166 -3174 3175 -3176 0
3166 -3174 -3175 -3176 0
-3166 3174 3175 -3176 0
-3166 3174 -3175 -3176 0
-3166 -3174 3175 -3176 0
-3166 -3174 -3175 -3176 0
3176 3177 0
-3176 -3177 0
3162 3177 3178 0
3162 -3177 -3178 0
-3162 3177 -3178 0
-3162 -3177 -3178 0
668 690 3179 0
668 -690 -3179 0
-668 690 -3179 0
-668 -690 -3179 0
690 790 3180 0
690 -790 -3180 0
-690 790 -3180 0
-690 -790 -3180 0
795 690 3181 0
795 -690 -3181 0
-795 690 -3181 0
-795 -690 -3181 0
3179 3180 3181 3182 0
3179 3180 -3181 -3182 0
3179 -3180 3181 -3182 0
3179 -3180 -3181 -3182 0
-3179 3180 3181 -3182 0
-3179 3180 -3181 -3182 0
-3179 -3180 3181 -3182 0
-3179 -3180 -3181 -3182 0
3182 3183 0
-3182 -3183 0
671 690 3184 0
671 -690 -3184 0
-671 690 -3184 0
-671 -690 -3184 0
3184 3185 0
-3184 -3185 0
645 690 3186 0
645 -690 -3186 0
-645 690 -3186 0
-645 -690 -3186 0
3186 3187 0
-3186 -3187 0
690 703 3188 0
690 -703 -3188 0
-690 703 -3188 0
-690 -703 -3188 0
3188 3189 0
-3188 -3189 0
3185 3187 3189 3190 0
3185 3187 -3189 -3190 0
3185 -3187 3189 -3190 0
3185 -3187 -3189 -3190 0
-3185 3187 3189 -3190 0
-3185 3187 -3189 -3190 0
-3185 -3187 3189 -3190 0
-3185 -3187 -3189 -3190 0
3190 3191 0
-3190 -3191 0
3183 3191 3192 0
3183 -3191 -3192 0
-3183 3191 -3192 0
-3183 -3191 -3192 0
3178 3192 3193 0
3178 -3192 -3193 0
-3178 3192 -3193 0
-3178 -3192 -3193 0
3171 3184 3194 0
3171 -3184 -3194 0
-3171 3184 -3194 0
-3171 -3184 -3194 0
3194 3195 0
-3194 -3195 0
3167 3188 3196 0
3167 -3188 -3196 0
-3167 3188 -3196 0
-3167 -3188 -3196 0
3169 3186 3197 0
3169 -3186 -3197 0
-3169 3186 -3197 0
-3169 -3186 -3197 0
3195 3196 3197 3198 0
3195 3196 -3197 -3198 0
3195 -3196 3197 -3198 0
3195 -3196 -3197 -3198 0
-3195 3196 3197 -3198 0
-3195 3196 -3197 -3198 0
-3195 -3196 3197 -3198 0
-3195 -3196 -3197 -3198 0
3198 3199 0
-3198 -3199 0
468 3199 3200 0
468 -3199 -3200 0
-468 3199 -3200 0
-468 -3199 -3200 0
3197 3201 0
-3197 -3201 0
3196 3194 3201 3202 0
3196 3194 -3201 -3202 0
3196 -3194 3201 -3202 0
3196 -3194 -3201 -3202 0
-3196 3194 3201 -3202 0
-3196 3194 -3201 -3202 0
-3196 -3194 3201 -3202 0
-3196 -3194 -3201 -3202 0
3202 3203 0
-3202 -3203 0
3203 949 3204 0
3203 -949 -3204 0
-3203 949 -3204 0
-3203 -949 -3204 0
3197 3196 3194 3205 0
3197 3196 -3194 -3205 0
3197 -3196 3194 -3205 0
3197 -3196 -3194 -3205 0
-3197 3196 3194 -3205 0
-3197 3196 -3194 -3205 0
-3197 -3196 3194 -3205 0
-3197 -3196 -3194 -3205 0
3205 3206 0
-3205 -3206 0
1520 3206 3207 0
1520 -3206 -3207 0
-1520 3206 -3207 0
-1520 -3206 -3207 0
3196 3208 0
-3196 -3208 0
3197 3194 3208 3209 0
3197 3194 -3208 -3209 0
3197 -3194 3208 -3209 0
3197 -3194 -3208 -3209 0
-3197 3194 3208 -3209 0
-3197 3194 -3208 -3209 0
-3197 -3194 3208 -3209 0
-3197 -3194 -3208 -3209 0
3209 3210 0
-3209 -3210 0
3210 2155 3211 0
3210 -2155 -3211 0
-3210 2155 -3211 0
-3210 -2155 -3211 0
3200 3204 3207 3211 -3212 0
3200 3204 3207 -3211 3212 0
3200 3204 -3207 3211 3212 0
3200 3204 -3207 -3211 3212 0
3200 -3204 3207 3211 3212 0
3200 -3204 3207 -3211 3212 0
3200 -3204 -3207 3211 3212 0
3200 -3204 -3207 -3211 3212 0
-3200 3204 3207 3211 3212 0
-3200 3204 3207 -3211 3212 0
-3200 3204 -3207 3211 3212 0
-3200 3204 -3207 -3211 3212 0
-3200 -3204 3207 3211 3212 0
-3200 -3204 3207 -3211 3212 0
-3200 -3204 -3207 3211 3212 0
-3200 -3204 -3207 -3211 3212 0
3197 3208 3195 3213 0
3197 3208 -3195 -3213 0
3197 -3208 3195 -3213 0
3197 -3208 -3195 -3213 0
-3197 3208 3195 -3213 0
-3197 3208 -3195 -3213 0
-3197 -3208 3195 -3213 0
-3197 -3208 -3195 -3213 0
3213 3214 0
-3213 -3214 0
2315 3214 3215 0
2315 -3214 -3215 0
-2315 3214 -3215 0
-2315 -3214 -3215 0
3212 3215 3216 0
3212 -3215 -3216 0
-3212 3215 -3216 0
-3212 -3215 -3216 0
3193 3216 3217 0
3193 -3216 -3217 0
-3193 3216 -3217 0
-3193 -3216 -3217 0
3209 3218 0
-3209 -3218 0
418 3219 0
-418 -3219 0
3219 3220 0
-3219 -3220 0
3218 3220 3221 0
3218 -3220 -3221 0
-3218 3220 -3221 0
-3218 -3220 -3221 0
3198 3222 0
-3198 -3222 0
3222 1136 3223 0
3222 -1136 -3223 0
-3222 1136 -3223 0
-3222 -1136 -3223 0
3202 3224 0
-3202 -3224 0
1330 3224 3225 0
1330 -3224 -3225 0
-1330 3224 -3225 0
-1330 -3224 -3225 0
3223 3225 -3226 0
3223 -3225 3226 0
-3223 3225 3226 0
-3223 -3225 3226 0
3221 3226 3227 0
3221 -3226 -3227 0
-3221 3226 -3227 0
-3221 -3226 -3227 0
3173 3177 3228 0
3173 -3177 -3228 0
-3173 3177 -3228 0
-3173 -3177 -3228 0
3186 3184 3229 0
3186 -3184 -3229 0
-3186 3184 -3229 0
-3186 -3184 -3229 0
3183 3229 3230 0
3183 -3229 -3230 0
-3183 3229 -3230 0
-3183 -3229 -3230 0
3228 3230 3231 0
3228 -3230 -3231 0
-3228 3230 -3231 0
-3228 -3230 -3231 0
3227 3231 3232 0
3227 -3231 -3232 0
-3227 3231 -3232 0
-3227 -3231 -3232 0
3217 3232 -3233 0
3217 -3232 3233 0
-3217 3232 3233 0
-3217 -3232 3233 0
3233 3234 0
-3233 -3234 0
3234 3235 0
-3234 -3235 0
3235 3236 0
-3235 -3236 0
3236 3237 0
-3236 -3237 0
3237 3238 0
-3237 -3238 0
3238 3239 0
-3238 -3239 0
735 775 3240 0
735 -775 -3240 0
-735 775 -3240 0
-735 -775 -3240 0
735 849 3241 0
735 -849 -3241 0
-735 849 -3241 0
-735 -849 -3241 0
844 735 3242 0
844 -735 -3242 0
-844 735 -3242 0
-844 -735 -3242 0
3241 3242 3243 0
3241 -3242 -3243 0
-3241 3242 -3243 0
-3241 -3242 -3243 0
3243 3244 0
-3243 -3244 0
735 717 3245 0
735 -717 -3245 0
-735 717 -3245 0
-735 -717 -3245 0
3245 3246 0
-3245 -3246 0
735 743 3247 0
735 -743 -3247 0
-735 743 -3247 0
-735 -743 -3247 0
3247 3248 0
-3247 -3248 0
735 740 3249 0
735 -740 -3249 0
-735 740 -3249 0
-735 -740 -3249 0
3249 3250 0
-3249 -3250 0
3240 3251 0
-3240 -3251 0
3246 3248 3250 3251 3252 0
3246 3248 3250 -3251 -3252 0
3246 3248 -3250 3251 -3252 0
3246 3248 -3250 -3251 -3252 0
3246 -3248 3250 3251 -3252 0
3246 -3248 3250 -3251 -3252 0
3246 -3248 -3250 3251 -3252 0
3246 -3248 -3250 -3251 -3252 0
-3246 3248 3250 3251 -3252 0
-3246 3248 3250 -3251 -3252 0
-3246 3248 -3250 3251 -3252 0
-3246 3248 -3250 -3251 -3252 0
-3246 -3248 3250 3251 -3252 0
-3246 -3248 3250 -3251 -3252 0
-3246 -3248 -3250 3251 -3252 0
-3246 -3248 -3250 -3251 -3252 0
3247 3249 3253 0
3247 -3249 -3253 0
-3247 3249 -3253 0
-3247 -3249 -3253 0
3244 3252 3253 3254 0
3244 3252 -3253 -3254 0
3244 -3252 3253 -3254 0
3244 -3252 -3253 -3254 0
-3244 3252 3253 -3254 0
-3244 3252 -3253 -3254 0
-3244 -3252 3253 -3254 0
-3244 -3252 -3253 -3254 0
3254 3255 0
-3254 -3255 0
3240 3255 3256 0
3240 -3255 -3256 0
-3240 3255 -3256 0
-3240 -3255 -3256 0
740 762 3257 0
740 -762 -3257 0
-740 762 -3257 0
-740 -762 -3257 0
762 844 3258 0
762 -844 -3258 0
-762 844 -3258 0
-762 -844 -3258 0
849 762 3259 0
849 -762 -3259 0
-849 762 -3259 0
-849 -762 -3259 0
3257 3258 3259 3260 0
3257 3258 -3259 -3260 0
3257 -3258 3259 -3260 0
3257 -3258 -3259 -3260 0
-3257 3258 3259 -3260 0
-3257 3258 -3259 -3260 0
-3257 -3258 3259 -3260 0
-3257 -3258 -3259 -3260 0
3260 3261 0
-3260 -3261 0
743 762 3262 0
743 -762 -3262 0
-743 762 -3262 0
-743 -762 -3262 0
3262 3263 0
-3262 -3263 0
717 762 3264 0
717 -762 -3264 0
-717 762 -3264 0
-717 -762 -3264 0
3264 3265 0
-3264 -3265 0
762 775 3266 0
762 -775 -3266 0
-762 775 -3266 0
-762 -775 -3266 0
3266 3267 0
-3266 -3267 0
3263 3265 3267 3268 0
3263 3265 -3267 -3268 0
3263 -3265 3267 -3268 0
3263 -3265 -3267 -3268 0
-3263 3265 3267 -3268 0
-3263 3265 -3267 -3268 0
-3263 -3265 3267 -3268 0
-3263 -3265 -3267 -3268 0
3268 3269 0
-3268 -3269 0
3261 3269 3270 0
3261 -3269 -3270 0
-3261 3269 -3270 0
-3261 -3269 -3270 0
3256 3270 3271 0
3256 -3270 -3271 0
-3256 3270 -3271 0
-3256 -3270 -3271 0
3249 3262 3272 0
3249 -3262 -3272 0
-3249 3262 -3272 0
-3249 -3262 -3272 0
3272 3273 0
-3272 -3273 0
3245 3266 3274 0
3245 -3266 -3274 0
-3245 3266 -3274 0
-3245 -3266 -3274 0
3247 3264 3275 0
3247 -3264 -3275 0
-3247 3264 -3275 0
-3247 -3264 -3275 0
3273 3274 3275 3276 0
3273 3274 -3275 -3276 0
3273 -3274 3275 -3276 0
3273 -3274 -3275 -3276 0
-3273 3274 3275 -3276 0
-3273 3274 -3275 -3276 0
-3273 -3274 3275 -3276 0
-3273 -3274 -3275 -3276 0
3276 3277 0
-3276 -3277 0
566 3277 3278 0
566 -3277 -3278 0
-566 3277 -3278 0
-566 -3277 -3278 0
3275 3279 0
-3275 -3279 0
3274 3272 3279 3280 0
3274 3272 -3279 -3280 0
3274 -3272 3279 -3280 0
3274 -3272 -3279 -3280 0
-3274 3272 3279 -3280 0
-3274 3272 -3279 -3280 0
-3274 -3272 3279 -3280 0
-3274 -3272 -3279 -3280 0
3280 3281 0
-3280 -3281 0
3281 1042 3282 0
3281 -1042 -3282 0
-3281 1042 -3282 0
-3281 -1042 -3282 0
3275 3274 3272 3283 0
3275 3274 -3272 -3283 0
3275 -3274 3272 -3283 0
3275 -3274 -3272 -3283 0
-3275 3274 3272 -3283 0
-3275 3274 -3272 -3283 0
-3275 -3274 3272 -3283 0
-3275 -3274 -3272 -3283 0
3283 3284 0
-3283 -3284 0
1618 3284 3285 0
1618 -3284 -3285 0
-1618 3284 -3285 0
-1618 -3284 -3285 0
3274 3286 0
-3274 -3286 0
3275 3272 3286 3287 0
3275 3272 -3286 -3287 0
3275 -3272 3286 -3287 0
3275 -3272 -3286 -3287 0
-3275 3272 3286 -3287 0
-3275 3272 -3286 -3287 0
-3275 -3272 3286 -3287 0
-3275 -3272 -3286 -3287 0
3287 3288 0
-3287 -3288 0
3288 2502 3289 0
3288 -2502 -3289 0
-3288 2502 -3289 0
-3288 -2502 -3289 0
3278 3282 3285 3289 -3290 0
3278 3282 3285 -3289 3290 0
3278 3282 -3285 3289 3290 0
3278 3282 -3285 -3289 3290 0
3278 -3282 3285 3289 3290 0
3278 -3282 3285 -3289 3290 0
3278 -3282 -3285 3289 3290 0
3278 -3282 -3285 -3289 3290 0
-3278 3282 3285 3289 3290 0
-3278 3282 3285 -3289 3290 0
-3278 3282 -3285 3289 3290 0
-3278 3282 -3285 -3289 3290 0
-3278 -3282 3285 3289 3290 0
-3278 -3282 3285 -3289 3290 0
-3278 -3282 -3285 3289 3290 0
-3278 -3282 -3285 -3289 3290 0
3275 3286 3273 3291 0
3275 3286 -3273 -3291 0
3275 -3286 3273 -3291 0
3275 -3286 -3273 -3291 0
-3275 3286 3273 -3291 0
-3275 3286 -3273 -3291 0
-3275 -3286 3273 -3291 0
-3275 -3286 -3273 -3291 0
3291 3292 0
-3291 -3292 0
2675 3292 3293 0
2675 -3292 -3293 0
-2675 3292 -3293 0
-2675 -3292 -3293 0
3290 3293 3294 0
3290 -3293 -3294 0
-3290 3293 -3294 0
-3290 -3293 -3294 0
3271 3294 3295 0
3271 -3294 -3295 0
-3271 3294 -3295 0
-3271 -3294 -3295 0
3287 3296 0
-3287 -3296 0
418 3297 0
-418 -3297 0
3297 3298 0
-3297 -3298 0
3296 3298 3299 0
3296 -3298 -3299 0
-3296 3298 -3299 0
-3296 -3298 -3299 0
3276 3300 0
-3276 -3300 0
3300 1234 3301 0
3300 -1234 -3301 0
-3300 1234 -3301 0
-3300 -1234 -3301 0
3280 3302 0
-3280 -3302 0
1423 3302 3303 0
1423 -3302 -3303 0
-1423 3302 -3303 0
-1423 -3302 -3303 0
3301 3303 -3304 0
3301 -3303 3304 0
-3301 3303 3304 0
-3301 -3303 3304 0
3299 3304 3305 0
3299 -3304 -3305 0
-3299 3304 -3305 0
-3299 -3304 -3305 0
3251 3255 3306 0
3251 -3255 -3306 0
-3251 3255 -3306 0
-3251 -3255 -3306 0
3264 3262 3307 0
3264 -3262 -3307 0
-3264 3262 -3307 0
-3264 -3262 -3307 0
3261 3307 3308 0
3261 -3307 -3308 0
-3261 3307 -3308 0
-3261 -3307 -3308 0
3306 3308 3309 0
3306 -3308 -3309 0
-3306 3308 -3309 0
-3306 -3308 -3309 0
3305 3309 3310 0
3305 -3309 -3310 0
-3305 3309 -3310 0
-3305 -3309 -3310 0
3295 3310 -3311 0
3295 -3310 3311 0
-3295 3310 3311 0
-3295 -3310 3311 0
3311 3312 0
-3311 -3312 0
3312 3313 0
-3312 -3313 0
3313 3314 0
-3313 -3314 0
3314 3315 0
-3314 -3315 0
3315 3316 0
-3315 -3316 0
3316 3317 0
-3316 -3317 0
3239 3317 -3318 0
3239 -3317 3318 0
-3239 3317 3318 0
-3239 -3317 -3318 0
3199 460 3319 0
3199 -460 -3319 0
-3199 460 -3319 0
-3199 -460 -3319 0
1512 3206 3320 0
1512 -3206 -3320 0
-1512 3206 -3320 0
-1512 -3206 -3320 0
941 3203 3321 0
941 -3203 -3321 0
-941 3203 -3321 0
-941 -3203 -3321 0
2169 3210 3322 0
2169 -3210 -3322 0
-2169 3210 -3322 0
-2169 -3210 -3322 0
3319 3320 3321 3322 -3323 0
3319 3320 3321 -3322 3323 0
3319 3320 -3321 3322 3323 0
3319 3320 -3321 -3322 3323 0
3319 -3320 3321 3322 3323 0
3319 -3320 3321 -3322 3323 0
3319 -3320 -3321 3322 3323 0
3319 -3320 -3321 -3322 3323 0
-3319 3320 3321 3322 3323 0
-3319 3320 3321 -3322 3323 0
-3319 3320 -3321 3322 3323 0
-3319 3320 -3321 -3322 3323 0
-3319 -3320 3321 3322 3323 0
-3319 -3320 3321 -3322 3323 0
-3319 -3320 -3321 3322 3323 0
-3319 -3320 -3321 -3322 3323 0
3323 3324 0
-3323 -3324 0
3193 3324 3325 0
3193 -3324 -3325 0
-3193 3324 -3325 0
-3193 -3324 -3325 0
1322 3224 3326 0
1322 -3224 -3326 0
-1322 3224 -3326 0
-1322 -3224 -3326 0
1128 3222 3327 0
1128 -3222 -3327 0
-1128 3222 -3327 0
-1128 -3222 -3327 0
3326 3327 -3328 0
3326 -3327 3328 0
-3326 3327 3328 0
-3326 -3327 3328 0
416 3329 0
-416 -3329 0
3329 3330 0
-3329 -3330 0
3330 3218 3331 0
3330 -3218 -3331 0
-3330 3218 -3331 0
-3330 -3218 -3331 0
3328 3331 3332 0
3328 -3331 -3332 0
-3328 3331 -3332 0
-3328 -3331 -3332 0
3231 3332 3333 0
3231 -3332 -3333 0
-3231 3332 -3333 0
-3231 -3332 -3333 0
3325 3333 -3334 0
3325 -3333 3334 0
-3325 3333 3334 0
-3325 -3333 3334 0
3334 3335 0
-3334 -3335 0
3335 3336 0
-3335 -3336 0
3336 3337 0
-3336 -3337 0
3337 3338 0
-3337 -3338 0
3338 3339 0
-3338 -3339 0
3339 3340 0
-3339 -3340 0
3277 558 3341 0
3277 -558 -3341 0
-3277 558 -3341 0
-3277 -558 -3341 0
1610 3284 3342 0
1610 -3284 -3342 0
-1610 3284 -3342 0
-1610 -3284 -3342 0
1034 3281 3343 0
1034 -3281 -3343 0
-1034 3281 -3343 0
-1034 -3281 -3343 0
2522 3288 3344 0
2522 -3288 -3344 0
-2522 3288 -3344 0
-2522 -3288 -3344 0
3341 3342 3343 3344 -3345 0
3341 3342 3343 -3344 3345 0
3341 3342 -3343 3344 3345 0
3341 3342 -3343 -3344 3345 0
3341 -3342 3343 3344 3345 0
3341 -3342 3343 -3344 3345 0
3341 -3342 -3343 3344 3345 0
3341 -3342 -3343 -3344 3345 0
-3341 3342 3343 3344 3345 0
-3341 3342 3343 -3344 3345 0
-3341 3342 -3343 3344 3345 0
-3341 3342 -3343 -3344 3345 0
-3341 -3342 3343 3344 3345 0
-3341 -3342 3343 -3344 3345 0
-3341 -3342 -3343 3344 3345 0
-3341 -3342 -3343 -3344 3345 0
3345 3346 0
-3345 -3346 0
3271 3346 3347 0
3271 -3346 -3347 0
-3271 3346 -3347 0
-3271 -3346 -3347 0
1415 3302 3348 0
1415 -3302 -3348 0
-1415 3302 -3348 0
-1415 -3302 -3348 0
1226 3300 3349 0
1226 -3300 -3349 0
-1226 3300 -3349 0
-1226 -3300 -3349 0
3348 3349 -3350 0
3348 -3349 3350 0
-3348 3349 3350 0
-3348 -3349 3350 0
416 3351 0
-416 -3351 0
3351 3352 0
-3351 -3352 0
3352 3296 3353 0
3352 -3296 -3353 0
-3352 3296 -3353 0
-3352 -3296 -3353 0
3350 3353 3354 0
3350 -3353 -3354 0
-3350 3353 -3354 0
-3350 -3353 -3354 0
3309 3354 3355 0
3309 -3354 -3355 0
-3309 3354 -3355 0
-3309 -3354 -3355 0
3347 3355 -3356 0
3347 -3355 3356 0
-3347 3355 3356 0
-3347 -3355 3356 0
3356 3357 0
-3356 -3357 0
3357 3358 0
-3357 -3358 0
3358 3359 0
-3358 -3359 0
3359 3360 0
-3359 -3360 0
3360 3361 0
-3360 -3361 0
3361 3362 0
-3361 -3362 0
3340 3362 -3363 0
3340 -3362 3363 0
-3340 3362 3363 0
-3340 -3362 -3363 0
421 3364 0
-421 -3364 0
3364 3365 0
-3364 -3365 0
3218 3365 3366 0
3218 -3365 -3366 0
-3218 3365 -3366 0
-3218 -3365 -3366 0
3222 1160 3367 0
3222 -1160 -3367 0
-3222 1160 -3367 0
-3222 -1160 -3367 0
3224 1353 3368 0
3224 -1353 -3368 0
-3224 1353 -3368 0
-3224 -1353 -3368 0
3367 3368 -3369 0
3367 -3368 3369 0
-3367 3368 3369 0
-3367 -3368 3369 0
3366 3369 3370 0
3366 -3369 -3370 0
-3366 3369 -3370 0
-3366 -3369 -3370 0
3231 3370 3371 0
3231 -3370 -3371 0
-3231 3370 -3371 0
-3231 -3370 -3371 0
3210 2163 3372 0
3210 -2163 -3372 0
-3210 2163 -3372 0
-3210 -2163 -3372 0
3206 1544 3373 0
3206 -1544 -3373 0
-3206 1544 -3373 0
-3206 -1544 -3373 0
3199 492 3374 0
3199 -492 -3374 0
-3199 492 -3374 0
-3199 -492 -3374 0
970 3203 3375 0
970 -3203 -3375 0
-970 3203 -3375 0
-970 -3203 -3375 0
3372 3373 3374 3375 -3376 0
3372 3373 3374 -3375 3376 0
3372 3373 -3374 3375 3376 0
3372 3373 -3374 -3375 3376 0
3372 -3373 3374 3375 3376 0
3372 -3373 3374 -3375 3376 0
3372 -3373 -3374 3375 3376 0
3372 -3373 -3374 -3375 3376 0
-3372 3373 3374 3375 3376 0
-3372 3373 3374 -3375 3376 0
-3372 3373 -3374 3375 3376 0
-3372 3373 -3374 -3375 3376 0
-3372 -3373 3374 3375 3376 0
-3372 -3373 3374 -3375 3376 0
-3372 -3373 -3374 3375 3376 0
-3372 -3373 -3374 -3375 3376 0
3376 3377 0
-3376 -3377 0
3193 3377 3378 0
3193 -3377 -3378 0
-3193 3377 -3378 0
-3193 -3377 -3378 0
3371 3378 -3379 0
3371 -3378 3379 0
-3371 3378 3379 0
-3371 -3378 3379 0
3379 3380 0
-3379 -3380 0
3380 3381 0
-3380 -3381 0
3381 3382 0
-3381 -3382 0
3382 3383 0
-3382 -3383 0
3383 3384 0
-3383 -3384 0
3384 3385 0
-3384 -3385 0
421 3386 0
-421 -3386 0
3386 3387 0
-3386 -3387 0
3296 3387 3388 0
3296 -3387 -3388 0
-3296 3387 -3388 0
-3296 -3387 -3388 0
3300 1258 3389 0
3300 -1258 -3389 0
-3300 1258 -3389 0
-3300 -1258 -3389 0
3302 1446 3390 0
3302 -1446 -3390 0
-3302 1446 -3390 0
-3302 -1446 -3390 0
3389 3390 -3391 0
3389 -3390 3391 0
-3389 3390 3391 0
-3389 -3390 3391 0
3388 3391 3392 0
3388 -3391 -3392 0
-3388 3391 -3392 0
-3388 -3391 -3392 0
3309 3392 3393 0
3309 -3392 -3393 0
-3309 3392 -3393 0
-3309 -3392 -3393 0
3288 2516 3394 0
3288 -2516 -3394 0
-3288 2516 -3394 0
-3288 -2516 -3394 0
3284 1642 3395 0
3284 -1642 -3395 0
-3284 1642 -3395 0
-3284 -1642 -3395 0
3277 590 3396 0
3277 -590 -3396 0
-3277 590 -3396 0
-3277 -590 -3396 0
1063 3281 3397 0
1063 -3281 -3397 0
-1063 3281 -3397 0
-1063 -3281 -3397 0
3394 3395 3396 3397 -3398 0
3394 3395 3396 -3397 3398 0
3394 3395 -3396 3397 3398 0
3394 3395 -3396 -3397 3398 0
3394 -3395 3396 3397 3398 0
3394 -3395 3396 -3397 3398 0
3394 -3395 -3396 3397 3398 0
3394 -3395 -3396 -3397 3398 0
-3394 3395 3396 3397 3398 0
-3394 3395 3396 -3397 3398 0
-3394 3395 -3396 3397 3398 0
-3394 3395 -3396 -3397 3398 0
-3394 -3395 3396 3397 3398 0
-3394 -3395 3396 -3397 3398 0
-3394 -3395 -3396 3397 3398 0
-3394 -3395 -3396 -3397 3398 0
3398 3399 0
-3398 -3399 0
3271 3399 3400 0
3271 -3399 -3400 0
-3271 3399 -3400 0
-3271 -3399 -3400 0
3393 3400 -3401 0
3393 -3400 3401 0
-3393 3400 3401 0
-3393 -3400 3401 0
3401 3402 0
-3401 -3402 0
3402 3403 0
-3402 -3403 0
3403 3404 0
-3403 -3404 0
3404 3405 0
-3404 -3405 0
3405 3406 0
-3405 -3406 0
3406 3407 0
-3406 -3407 0
3385 3407 -3408 0
3385 -3407 3408 0
-3385 3407 3408 0
-3385 -3407 -3408 0
3224 1357 3409 0
3224 -1357 -3409 0
-3224 1357 -3409 0
-3224 -1357 -3409 0
3222 1164 3410 0
3222 -1164 -3410 0
-3222 1164 -3410 0
-3222 -1164 -3410 0
3409 3410 -3411 0
3409 -3410 3411 0
-3409 3410 3411 0
-3409 -3410 3411 0
426 3412 0
-426 -3412 0
3412 3413 0
-3412 -3413 0
3218 3413 3414 0
3218 -3413 -3414 0
-3218 3413 -3414 0
-3218 -3413 -3414 0
3411 3414 3415 0
3411 -3414 -3415 0
-3411 3414 -3415 0
-3411 -3414 -3415 0
3231 3415 3416 0
3231 -3415 -3416 0
-3231 3415 -3416 0
-3231 -3415 -3416 0
3210 2161 3417 0
3210 -2161 -3417 0
-3210 2161 -3417 0
-3210 -2161 -3417 0
496 3199 3418 0
496 -3199 -3418 0
-496 3199 -3418 0
-496 -3199 -3418 0
3206 1548 3419 0
3206 -1548 -3419 0
-3206 1548 -3419 0
-3206 -1548 -3419 0
3203 974 3420 0
3203 -974 -3420 0
-3203 974 -3420 0
-3203 -974 -3420 0
3417 3418 3419 3420 -3421 0
3417 3418 3419 -3420 3421 0
3417 3418 -3419 3420 3421 0
3417 3418 -3419 -3420 3421 0
3417 -3418 3419 3420 3421 0
3417 -3418 3419 -3420 3421 0
3417 -3418 -3419 3420 3421 0
3417 -3418 -3419 -3420 3421 0
-3417 3418 3419 3420 3421 0
-3417 3418 3419 -3420 3421 0
-3417 3418 -3419 3420 3421 0
-3417 3418 -3419 -3420 3421 0
-3417 -3418 3419 3420 3421 0
-3417 -3418 3419 -3420 3421 0
-3417 -3418 -3419 3420 3421 0
-3417 -3418 -3419 -3420 3421 0
3421 3422 0
-3421 -3422 0
3193 3422 3423 0
3193 -3422 -3423 0
-3193 3422 -3423 0
-3193 -3422 -3423 0
3416 3423 -3424 0
3416 -3423 3424 0
-3416 3423 3424 0
-3416 -3423 3424 0
3424 3425 0
-3424 -3425 0
3425 3426 0
-3425 -3426 0
3426 3427 0
-3426 -3427 0
3427 3428 0
-3427 -3428 0
3428 3429 0
-3428 -3429 0
3429 3430 0
-3429 -3430 0
3302 1450 3431 0
3302 -1450 -3431 0
-3302 1450 -3431 0
-3302 -1450 -3431 0
3300 1262 3432 0
3300 -1262 -3432 0
-3300 1262 -3432 0
-3300 -1262 -3432 0
3431 3432 -3433 0
3431 -3432 3433 0
-3431 3432 3433 0
-3431 -3432 3433 0
426 3434 0
-426 -3434 0
3434 3435 0
-3434 -3435 0
3296 3435 3436 0
3296 -3435 -3436 0
-3296 3435 -3436 0
-3296 -3435 -3436 0
3433 3436 3437 0
3433 -3436 -3437 0
-3433 3436 -3437 0
-3433 -3436 -3437 0
3309 3437 3438 0
3309 -3437 -3438 0
-3309 3437 -3438 0
-3309 -3437 -3438 0
3288 2514 3439 0
3288 -2514 -3439 0
-3288 2514 -3439 0
-3288 -2514 -3439 0
594 3277 3440 0
594 -3277 -3440 0
-594 3277 -3440 0
-594 -3277 -3440 0
3284 1646 3441 0
3284 -1646 -3441 0
-3284 1646 -3441 0
-3284 -1646 -3441 0
3281 1067 3442 0
3281 -1067 -3442 0
-3281 1067 -3442 0
-3281 -1067 -3442 0
3439 3440 3441 3442 -3443 0
3439 3440 3441 -3442 3443 0
3439 3440 -3441 3442 3443 0
3439 3440 -3441 -3442 3443 0
3439 -3440 3441 3442 3443 0
3439 -3440 3441 -3442 3443 0
3439 -3440 -3441 3442 3443 0
3439 -3440 -3441 -3442 3443 0
-3439 3440 3441 3442 3443 0
-3439 3440 3441 -3442 3443 0
-3439 3440 -3441 3442 3443 0
-3439 3440 -3441 -3442 3443 0
-3439 -3440 3441 3442 3443 0
-3439 -3440 3441 -3442 3443 0
-3439 -3440 -3441 3442 3443 0
-3439 -3440 -3441 -3442 3443 0
3443 3444 0
-3443 -3444 0
3271 3444 3445 0
3271 -3444 -3445 0
-3271 3444 -3445 0
-3271 -3444 -3445 0
3438 3445 -3446 0
3438 -3445 3446 0
-3438 3445 3446 0
-3438 -3445 3446 0
3446 3447 0
-3446 -3447 0
3447 3448 0
-3447 -3448 0
3448 3449 0
-3448 -3449 0
3449 3450 0
-3449 -3450 0
3450 3451 0
-3450 -3451 0
3451 3452 0
-3451 -3452 0
3430 3452 -3453 0
3430 -3452 3453 0
-3430 3452 3453 0
-3430 -3452 -3453 0
3203 966 3454 0
3203 -966 -3454 0
-3203 966 -3454 0
-3203 -966 -3454 0
3199 488 3455 0
3199 -488 -3455 0
-3199 488 -3455 0
-3199 -488 -3455 0
1540 3206 3456 0
1540 -3206 -3456 0
-1540 3206 -3456 0
-1540 -3206 -3456 0
3210 2180 3457 0
3210 -2180 -3457 0
-3210 2180 -3457 0
-3210 -2180 -3457 0
3454 3455 3456 3457 -3458 0
3454 3455 3456 -3457 3458 0
3454 3455 -3456 3457 3458 0
3454 3455 -3456 -3457 3458 0
3454 -3455 3456 3457 3458 0
3454 -3455 3456 -3457 3458 0
3454 -3455 -3456 3457 3458 0
3454 -3455 -3456 -3457 3458 0
-3454 3455 3456 3457 3458 0
-3454 3455 3456 -3457 3458 0
-3454 3455 -3456 3457 3458 0
-3454 3455 -3456 -3457 3458 0
-3454 -3455 3456 3457 3458 0
-3454 -3455 3456 -3457 3458 0
-3454 -3455 -3456 3457 3458 0
-3454 -3455 -3456 -3457 3458 0
3458 3459 0
-3458 -3459 0
3193 3459 3460 0
3193 -3459 -3460 0
-3193 3459 -3460 0
-3193 -3459 -3460 0
1349 3224 3461 0
1349 -3224 -3461 0
-1349 3224 -3461 0
-1349 -3224 -3461 0
3222 1156 3462 0
3222 -1156 -3462 0
-3222 1156 -3462 0
-3222 -1156 -3462 0
3461 3462 -3463 0
3461 -3462 3463 0
-3461 3462 3463 0
-3461 -3462 3463 0
216 3464 0
-216 -3464 0
3464 3465 0
-3464 -3465 0
3465 3218 3466 0
3465 -3218 -3466 0
-3465 3218 -3466 0
-3465 -3218 -3466 0
3463 3466 3467 0
3463 -3466 -3467 0
-3463 3466 -3467 0
-3463 -3466 -3467 0
3231 3467 3468 0
3231 -3467 -3468 0
-3231 3467 -3468 0
-3231 -3467 -3468 0
3460 3468 -3469 0
3460 -3468 3469 0
-3460 3468 3469 0
-3460 -3468 3469 0
3469 3470 0
-3469 -3470 0
3470 3471 0
-3470 -3471 0
3471 3472 0
-3471 -3472 0
3472 3473 0
-3472 -3473 0
3473 3474 0
-3473 -3474 0
3474 3475 0
-3474 -3475 0
3281 1059 3476 0
3281 -1059 -3476 0
-3281 1059 -3476 0
-3281 -1059 -3476 0
3277 586 3477 0
3277 -586 -3477 0
-3277 586 -3477 0
-3277 -586 -3477 0
1638 3284 3478 0
1638 -3284 -3478 0
-1638 3284 -3478 0
-1638 -3284 -3478 0
3288 2538 3479 0
3288 -2538 -3479 0
-3288 2538 -3479 0
-3288 -2538 -3479 0
3476 3477 3478 3479 -3480 0
3476 3477 3478 -3479 3480 0
3476 3477 -3478 3479 3480 0
3476 3477 -3478 -3479 3480 0
3476 -3477 3478 3479 3480 0
3476 -3477 3478 -3479 3480 0
3476 -3477 -3478 3479 3480 0
3476 -3477 -3478 -3479 3480 0
-3476 3477 3478 3479 3480 0
-3476 3477 3478 -3479 3480 0
-3476 3477 -3478 3479 3480 0
-3476 3477 -3478 -3479 3480 0
-3476 -3477 3478 3479 3480 0
-3476 -3477 3478 -3479 3480 0
-3476 -3477 -3478 3479 3480 0
-3476 -3477 -3478 -3479 3480 0
3480 3481 0
-3480 -3481 0
3271 3481 3482 0
3271 -3481 -3482 0
-3271 3481 -3482 0
-3271 -3481 -3482 0
1442 3302 3483 0
1442 -3302 -3483 0
-1442 3302 -3483 0
-1442 -3302 -3483 0
3300 1254 3484 0
3300 -1254 -3484 0
-3300 1254 -3484 0
-3300 -1254 -3484 0
3483 3484 -3485 0
3483 -3484 3485 0
-3483 3484 3485 0
-3483 -3484 3485 0
216 3486 0
-216 -3486 0
3486 3487 0
-3486 -3487 0
3487 3296 3488 0
3487 -3296 -3488 0
-3487 3296 -3488 0
-3487 -3296 -3488 0
3485 3488 3489 0
3485 -3488 -3489 0
-3485 3488 -3489 0
-3485 -3488 -3489 0
3309 3489 3490 0
3309 -3489 -3490 0
-3309 3489 -3490 0
-3309 -3489 -3490 0
3482 3490 -3491 0
3482 -3490 3491 0
-3482 3490 3491 0
-3482 -3490 3491 0
3491 3492 0
-3491 -3492 0
3492 3493 0
-3492 -3493 0
3493 3494 0
-3493 -3494 0
3494 3495 0
-3494 -3495 0
3495 3496 0
-3495 -3496 0
3496 3497 0
-3496 -3497 0
3475 3497 -3498 0
3475 -3497 3498 0
-3475 3497 3498 0
-3475 -3497 -3498 0
3224 1300 3499 0
3224 -1300 -3499 0
-3224 1300 -3499 0
-3224 -1300 -3499 0
1103 3222 3500 0
1103 -3222 -3500 0
-1103 3222 -3500 0
-1103 -3222 -3500 0
3499 3500 -3501 0
3499 -3500 3501 0
-3499 3500 3501 0
-3499 -3500 3501 0
422 3502 0
-422 -3502 0
3502 3503 0
-3502 -3503 0
3503 3218 3504 0
3503 -3218 -3504 0
-3503 3218 -3504 0
-3503 -3218 -3504 0
3501 3504 3505 0
3501 -3504 -3505 0
-3501 3504 -3505 0
-3501 -3504 -3505 0
3231 3505 3506 0
3231 -3505 -3506 0
-3231 3505 -3506 0
-3231 -3505 -3506 0
3199 435 3507 0
3199 -435 -3507 0
-3199 435 -3507 0
-3199 -435 -3507 0
2192 3210 3508 0
2192 -3210 -3508 0
-2192 3210 -3508 0
-2192 -3210 -3508 0
916 3203 3509 0
916 -3203 -3509 0
-916 3203 -3509 0
-916 -3203 -3509 0
3206 1487 3510 0
3206 -1487 -3510 0
-3206 1487 -3510 0
-3206 -1487 -3510 0
3507 3508 3509 3510 -3511 0
3507 3508 3509 -3510 3511 0
3507 3508 -3509 3510 3511 0
3507 3508 -3509 -3510 3511 0
3507 -3508 3509 3510 3511 0
3507 -3508 3509 -3510 3511 0
3507 -3508 -3509 3510 3511 0
3507 -3508 -3509 -3510 3511 0
-3507 3508 3509 3510 3511 0
-3507 3508 3509 -3510 3511 0
-3507 3508 -3509 3510 3511 0
-3507 3508 -3509 -3510 3511 0
-3507 -3508 3509 3510 3511 0
-3507 -3508 3509 -3510 3511 0
-3507 -3508 -3509 3510 3511 0
-3507 -3508 -3509 -3510 3511 0
3511 3512 0
-3511 -3512 0
3512 3193 3513 0
3512 -3193 -3513 0
-3512 3193 -3513 0
-3512 -3193 -3513 0
3506 3513 -3514 0
3506 -3513 3514 0
-3506 3513 3514 0
-3506 -3513 3514 0
3514 3515 0
-3514 -3515 0
3515 3516 0
-3515 -3516 0
3516 3517 0
-3516 -3517 0
3517 3518 0
-3517 -3518 0
3518 3519 0
-3518 -3519 0
3519 3520 0
-3519 -3520 0
3302 1393 3521 0
3302 -1393 -3521 0
-3302 1393 -3521 0
-3302 -1393 -3521 0
1201 3300 3522 0
1201 -3300 -3522 0
-1201 3300 -3522 0
-1201 -3300 -3522 0
3521 3522 -3523 0
3521 -3522 3523 0
-3521 3522 3523 0
-3521 -3522 3523 0
422 3524 0
-422 -3524 0
3524 3525 0
-3524 -3525 0
3525 3296 3526 0
3525 -3296 -3526 0
-3525 3296 -3526 0
-3525 -3296 -3526 0
3523 3526 3527 0
3523 -3526 -3527 0
-3523 3526 -3527 0
-3523 -3526 -3527 0
3309 3527 3528 0
3309 -3527 -3528 0
-3309 3527 -3528 0
-3309 -3527 -3528 0
3277 533 3529 0
3277 -533 -3529 0
-3277 533 -3529 0
-3277 -533 -3529 0
2550 3288 3530 0
2550 -3288 -3530 0
-2550 3288 -3530 0
-2550 -3288 -3530 0
1009 3281 3531 0
1009 -3281 -3531 0
-1009 3281 -3531 0
-1009 -3281 -3531 0
3284 1585 3532 0
3284 -1585 -3532 0
-3284 1585 -3532 0
-3284 -1585 -3532 0
3529 3530 3531 3532 -3533 0
3529 3530 3531 -3532 3533 0
3529 3530 -3531 3532 3533 0
3529 3530 -3531 -3532 3533 0
3529 -3530 3531 3532 3533 0
3529 -3530 3531 -3532 3533 0
3529 -3530 -3531 3532 3533 0
3529 -3530 -3531 -3532 3533 0
-3529 3530 3531 3532 3533 0
-3529 3530 3531 -3532 3533 0
-3529 3530 -3531 3532 3533 0
-3529 3530 -3531 -3532 3533 0
-3529 -3530 3531 3532 3533 0
-3529 -3530 3531 -3532 3533 0
-3529 -3530 -3531 3532 3533 0
-3529 -3530 -3531 -3532 3533 0
3533 3534 0
-3533 -3534 0
3534 3271 3535 0
3534 -3271 -3535 0
-3534 3271 -3535 0
-3534 -3271 -3535 0
3528 3535 -3536 0
3528 -3535 3536 0
-3528 3535 3536 0
-3528 -3535 3536 0
3536 3537 0
-3536 -3537 0
3537 3538 0
-3537 -3538 0
3538 3539 0
-3538 -3539 0
3539 3540 0
-3539 -3540 0
3540 3541 0
-3540 -3541 0
3541 3542 0
-3541 -3542 0
3520 3542 -3543 0
3520 -3542 3543 0
-3520 3542 3543 0
-3520 -3542 -3543 0
1304 3224 3544 0
1304 -3224 -3544 0
-1304 3224 -3544 0
-1304 -3224 -3544 0
3222 1107 3545 0
3222 -1107 -3545 0
-3222 1107 -3545 0
-3222 -1107 -3545 0
3544 3545 -3546 0
3544 -3545 3546 0
-3544 3545 3546 0
-3544 -3545 3546 0
424 3547 0
-424 -3547 0
3547 3548 0
-3547 -3548 0
3218 3548 3549 0
3218 -3548 -3549 0
-3218 3548 -3549 0
-3218 -3548 -3549 0
3546 3549 3550 0
3546 -3549 -3550 0
-3546 3549 -3550 0
-3546 -3549 -3550 0
3231 3550 3551 0
3231 -3550 -3551 0
-3231 3550 -3551 0
-3231 -3550 -3551 0
1491 3206 3552 0
1491 -3206 -3552 0
-1491 3206 -3552 0
-1491 -3206 -3552 0
3199 439 3553 0
3199 -439 -3553 0
-3199 439 -3553 0
-3199 -439 -3553 0
2186 3210 3554 0
2186 -3210 -3554 0
-2186 3210 -3554 0
-2186 -3210 -3554 0
920 3203 3555 0
920 -3203 -3555 0
-920 3203 -3555 0
-920 -3203 -3555 0
3552 3553 3554 3555 -3556 0
3552 3553 3554 -3555 3556 0
3552 3553 -3554 3555 3556 0
3552 3553 -3554 -3555 3556 0
3552 -3553 3554 3555 3556 0
3552 -3553 3554 -3555 3556 0
3552 -3553 -3554 3555 3556 0
3552 -3553 -3554 -3555 3556 0
-3552 3553 3554 3555 3556 0
-3552 3553 3554 -3555 3556 0
-3552 3553 -3554 3555 3556 0
-3552 3553 -3554 -3555 3556 0
-3552 -3553 3554 3555 3556 0
-3552 -3553 3554 -3555 3556 0
-3552 -3553 -3554 3555 3556 0
-3552 -3553 -3554 -3555 3556 0
3556 3557 0
-3556 -3557 0
3557 3193 3558 0
3557 -3193 -3558 0
-3557 3193 -3558 0
-3557 -3193 -3558 0
3551 3558 -3559 0
3551 -3558 3559 0
-3551 3558 3559 0
-3551 -3558 3559 0
3559 3560 0
-3559 -3560 0
3560 3561 0
-3560 -3561 0
3561 3562 0
-3561 -3562 0
3562 3563 0
-3562 -3563 0
3563 3564 0
-3563 -3564 0
3564 3565 0
-3564 -3565 0
1397 3302 3566 0
1397 -3302 -3566 0
-1397 3302 -3566 0
-1397 -3302 -3566 0
3300 1205 3567 0
3300 -1205 -3567 0
-3300 1205 -3567 0
-3300 -1205 -3567 0
3566 3567 -3568 0
3566 -3567 3568 0
-3566 3567 3568 0
-3566 -3567 3568 0
424 3569 0
-424 -3569 0
3569 3570 0
-3569 -3570 0
3296 3570 3571 0
3296 -3570 -3571 0
-3296 3570 -3571 0
-3296 -3570 -3571 0
3568 3571 3572 0
3568 -3571 -3572 0
-3568 3571 -3572 0
-3568 -3571 -3572 0
3309 3572 3573 0
3309 -3572 -3573 0
-3309 3572 -3573 0
-3309 -3572 -3573 0
1589 3284 3574 0
1589 -3284 -3574 0
-1589 3284 -3574 0
-1589 -3284 -3574 0
3277 537 3575 0
3277 -537 -3575 0
-3277 537 -3575 0
-3277 -537 -3575 0
2544 3288 3576 0
2544 -3288 -3576 0
-2544 3288 -3576 0
-2544 -3288 -3576 0
1013 3281 3577 0
1013 -3281 -3577 0
-1013 3281 -3577 0
-1013 -3281 -3577 0
3574 3575 3576 3577 -3578 0
3574 3575 3576 -3577 3578 0
3574 3575 -3576 3577 3578 0
3574 3575 -3576 -3577 3578 0
3574 -3575 3576 3577 3578 0
3574 -3575 3576 -3577 3578 0
3574 -3575 -3576 3577 3578 0
3574 -3575 -3576 -3577 3578 0
-3574 3575 3576 3577 3578 0
-3574 3575 3576 -3577 3578 0
-3574 3575 -3576 3577 3578 0
-3574 3575 -3576 -3577 3578 0
-3574 -3575 3576 3577 3578 0
-3574 -3575 3576 -3577 3578 0
-3574 -3575 -3576 3577 3578 0
-3574 -3575 -3576 -3577 3578 0
3578 3579 0
-3578 -3579 0
3579 3271 3580 0
3579 -3271 -3580 0
-3579 3271 -3580 0
-3579 -3271 -3580 0
3573 3580 -3581 0
3573 -3580 3581 0
-3573 3580 3581 0
-3573 -3580 3581 0
3581 3582 0
-3581 -3582 0
3582 3583 0
-3582 -3583 0
3583 3584 0
-3583 -3584 0
3584 3585 0
-3584 -3585 0
3585 3586 0
-3585 -3586 0
3586 3587 0
-3586 -3587 0
3565 3587 -3588 0
3565 -3587 3588 0
-3565 3587 3588 0
-3565 -3587 -3588 0
1483 3206 3589 0
1483 -3206 -3589 0
-1483 3206 -3589 0
-1483 -3206 -3589 0
431 3199 3590 0
431 -3199 -3590 0
-431 3199 -3590 0
-431 -3199 -3590 0
3210 2178 3591 0
3210 -2178 -3591 0
-3210 2178 -3591 0
-3210 -2178 -3591 0
3203 912 3592 0
3203 -912 -3592 0
-3203 912 -3592 0
-3203 -912 -3592 0
3589 3590 3591 3592 -3593 0
3589 3590 3591 -3592 3593 0
3589 3590 -3591 3592 3593 0
3589 3590 -3591 -3592 3593 0
3589 -3590 3591 3592 3593 0
3589 -3590 3591 -3592 3593 0
3589 -3590 -3591 3592 3593 0
3589 -3590 -3591 -3592 3593 0
-3589 3590 3591 3592 3593 0
-3589 3590 3591 -3592 3593 0
-3589 3590 -3591 3592 3593 0
-3589 3590 -3591 -3592 3593 0
-3589 -3590 3591 3592 3593 0
-3589 -3590 3591 -3592 3593 0
-3589 -3590 -3591 3592 3593 0
-3589 -3590 -3591 -3592 3593 0
3593 3594 0
-3593 -3594 0
3594 3193 3595 0
3594 -3193 -3595 0
-3594 3193 -3595 0
-3594 -3193 -3595 0
427 3596 0
-427 -3596 0
3596 3597 0
-3596 -3597 0
3218 3597 3598 0
3218 -3597 -3598 0
-3218 3597 -3598 0
-3218 -3597 -3598 0
3222 1099 3599 0
3222 -1099 -3599 0
-3222 1099 -3599 0
-3222 -1099 -3599 0
1296 3224 3600 0
1296 -3224 -3600 0
-1296 3224 -3600 0
-1296 -3224 -3600 0
3599 3600 -3601 0
3599 -3600 3601 0
-3599 3600 3601 0
-3599 -3600 3601 0
3598 3601 3602 0
3598 -3601 -3602 0
-3598 3601 -3602 0
-3598 -3601 -3602 0
3602 3231 3603 0
3602 -3231 -3603 0
-3602 3231 -3603 0
-3602 -3231 -3603 0
3595 3603 -3604 0
3595 -3603 3604 0
-3595 3603 3604 0
-3595 -3603 3604 0
3604 3605 0
-3604 -3605 0
3605 3606 0
-3605 -3606 0
3606 3607 0
-3606 -3607 0
3607 3608 0
-3607 -3608 0
3608 3609 0
-3608 -3609 0
3609 3610 0
-3609 -3610 0
1581 3284 3611 0
1581 -3284 -3611 0
-1581 3284 -3611 0
-1581 -3284 -3611 0
529 3277 3612 0
529 -3277 -3612 0
-529 3277 -3612 0
-529 -3277 -3612 0
3288 2536 3613 0
3288 -2536 -3613 0
-3288 2536 -3613 0
-3288 -2536 -3613 0
3281 1005 3614 0
3281 -1005 -3614 0
-3281 1005 -3614 0
-3281 -1005 -3614 0
3611 3612 3613 3614 -3615 0
3611 3612 3613 -3614 3615 0
3611 3612 -3613 3614 3615 0
3611 3612 -3613 -3614 3615 0
3611 -3612 3613 3614 3615 0
3611 -3612 3613 -3614 3615 0
3611 -3612 -3613 3614 3615 0
3611 -3612 -3613 -3614 3615 0
-3611 3612 3613 3614 3615 0
-3611 3612 3613 -3614 3615 0
-3611 3612 -3613 3614 3615 0
-3611 3612 -3613 -3614 3615 0
-3611 -3612 3613 3614 3615 0
-3611 -3612 3613 -3614 3615 0
-3611 -3612 -3613 3614 3615 0
-3611 -3612 -3613 -3614 3615 0
3615 3616 0
-3615 -3616 0
3616 3271 3617 0
3616 -3271 -3617 0
-3616 3271 -3617 0
-3616 -3271 -3617 0
427 3618 0
-427 -3618 0
3618 3619 0
-3618 -3619 0
3296 3619 3620 0
3296 -3619 -3620 0
-3296 3619 -3620 0
-3296 -3619 -3620 0
3300 1197 3621 0
3300 -1197 -3621 0
-3300 1197 -3621 0
-3300 -1197 -3621 0
1389 3302 3622 0
1389 -3302 -3622 0
-1389 3302 -3622 0
-1389 -3302 -3622 0
3621 3622 -3623 0
3621 -3622 3623 0
-3621 3622 3623 0
-3621 -3622 3623 0
3620 3623 3624 0
3620 -3623 -3624 0
-3620 3623 -3624 0
-3620 -3623 -3624 0
3624 3309 3625 0
3624 -3309 -3625 0
-3624 3309 -3625 0
-3624 -3309 -3625 0
3617 3625 -3626 0
3617 -3625 3626 0
-3617 3625 3626 0
-3617 -3625 3626 0
3626 3627 0
-3626 -3627 0
3627 3628 0
-3627 -3628 0
3628 3629 0
-3628 -3629 0
3629 3630 0
-3629 -3630 0
3630 3631 0
-3630 -3631 0
3631 3632 0
-3631 -3632 0
3610 3632 -3633 0
3610 -3632 3633 0
-3610 3632 3633 0
-3610 -3632 -3633 0
237 3634 0
-237 -3634 0
3214 3634 3635 0
3214 -3634 -3635 0
-3214 3634 -3635 0
-3214 -3634 -3635 0
3194 3208 3201 3636 0
3194 3208 -3201 -3636 0
3194 -3208 3201 -3636 0
3194 -3208 -3201 -3636 0
-3194 3208 3201 -3636 0
-3194 3208 -3201 -3636 0
-3194 -3208 3201 -3636 0
-3194 -3208 -3201 -3636 0
3636 3637 0
-3636 -3637 0
3637 3638 0
-3637 -3638 0
3635 3638 -3639 0
3635 -3638 3639 0
-3635 3638 3639 0
-3635 -3638 3639 0
945 3203 3640 0
945 -3203 -3640 0
-945 3203 -3640 0
-945 -3203 -3640 0
464 3199 3641 0
464 -3199 -3641 0
-464 3199 -3641 0
-464 -3199 -3641 0
1516 3206 3642 0
1516 -3206 -3642 0
-1516 3206 -3642 0
-1516 -3206 -3642 0
2135 3210 3643 0
2135 -3210 -3643 0
-2135 3210 -3643 0
-2135 -3210 -3643 0
3640 3641 3642 3643 -3644 0
3640 3641 3642 -3643 3644 0
3640 3641 -3642 3643 3644 0
3640 3641 -3642 -3643 3644 0
3640 -3641 3642 3643 3644 0
3640 -3641 3642 -3643 3644 0
3640 -3641 -3642 3643 3644 0
3640 -3641 -3642 -3643 3644 0
-3640 3641 3642 3643 3644 0
-3640 3641 3642 -3643 3644 0
-3640 3641 -3642 3643 3644 0
-3640 3641 -3642 -3643 3644 0
-3640 -3641 3642 3643 3644 0
-3640 -3641 3642 -3643 3644 0
-3640 -3641 -3642 3643 3644 0
-3640 -3641 -3642 -3643 3644 0
3639 3644 3645 0
3639 -3644 -3645 0
-3639 3644 -3645 0
-3639 -3644 -3645 0
3645 3193 3646 0
3645 -3193 -3646 0
-3645 3193 -3646 0
-3645 -3193 -3646 0
3597 3647 0
-3597 -3647 0
3647 3648 0
-3647 -3648 0
3503 3649 0
-3503 -3649 0
3649 3650 0
-3649 -3650 0
3548 3651 0
-3548 -3651 0
3651 3652 0
-3651 -3652 0
3648 3650 3652 3653 0
3648 3650 -3652 -3653 0
3648 -3650 3652 -3653 0
3648 -3650 -3652 -3653 0
-3648 3650 3652 -3653 0
-3648 3650 -3652 -3653 0
-3648 -3650 3652 -3653 0
-3648 -3650 -3652 -3653 0
422 3654 0
-422 -3654 0
3654 3655 0
-3654 -3655 0
3655 3656 0
-3655 -3656 0
424 3657 0
-424 -3657 0
3657 3658 0
-3657 -3658 0
3658 3659 0
-3658 -3659 0
3648 3656 3659 3660 0
3648 3656 -3659 -3660 0
3648 -3656 3659 -3660 0
3648 -3656 -3659 -3660 0
-3648 3656 3659 -3660 0
-3648 3656 -3659 -3660 0
-3648 -3656 3659 -3660 0
-3648 -3656 -3659 -3660 0
427 3661 0
-427 -3661 0
3661 3662 0
-3661 -3662 0
3662 3663 0
-3662 -3663 0
3663 3650 3659 3664 0
3663 3650 -3659 -3664 0
3663 -3650 3659 -3664 0
3663 -3650 -3659 -3664 0
-3663 3650 3659 -3664 0
-3663 3650 -3659 -3664 0
-3663 -3650 3659 -3664 0
-3663 -3650 -3659 -3664 0
3663 3656 3652 3665 0
3663 3656 -3652 -3665 0
3663 -3656 3652 -3665 0
3663 -3656 -3652 -3665 0
-3663 3656 3652 -3665 0
-3663 3656 -3652 -3665 0
-3663 -3656 3652 -3665 0
-3663 -3656 -3652 -3665 0
3653 3660 3664 3665 -3666 0
3653 3660 3664 -3665 3666 0
3653 3660 -3664 3665 3666 0
3653 3660 -3664 -3665 3666 0
3653 -3660 3664 3665 3666 0
3653 -3660 3664 -3665 3666 0
3653 -3660 -3664 3665 3666 0
3653 -3660 -3664 -3665 3666 0
-3653 3660 3664 3665 3666 0
-3653 3660 3664 -3665 3666 0
-3653 3660 -3664 3665 3666 0
-3653 3660 -3664 -3665 3666 0
-3653 -3660 3664 3665 3666 0
-3653 -3660 3664 -3665 3666 0
-3653 -3660 -3664 3665 3666 0
-3653 -3660 -3664 -3665 3666 0
3666 3667 0
-3666 -3667 0
3667 3668 0
-3667 -3668 0
3668 3669 0
-3668 -3669 0
416 3670 0
-416 -3670 0
3670 3220 3671 0
3670 -3220 -3671 0
-3670 3220 -3671 0
-3670 -3220 -3671 0
418 3672 0
-418 -3672 0
3330 3672 3673 0
3330 -3672 -3673 0
-3330 3672 -3673 0
-3330 -3672 -3673 0
3671 3673 -3674 0
3671 -3673 3674 0
-3671 3673 3674 0
-3671 -3673 3674 0
3674 3675 0
-3674 -3675 0
3675 3676 0
-3675 -3676 0
3465 3677 0
-3465 -3677 0
3677 3678 0
-3677 -3678 0
3365 3679 0
-3365 -3679 0
3679 3680 0
-3679 -3680 0
3413 3681 0
-3413 -3681 0
3681 3682 0
-3681 -3682 0
3678 3680 3682 3683 0
3678 3680 -3682 -3683 0
3678 -3680 3682 -3683 0
3678 -3680 -3682 -3683 0
-3678 3680 3682 -3683 0
-3678 3680 -3682 -3683 0
-3678 -3680 3682 -3683 0
-3678 -3680 -3682 -3683 0
421 3684 0
-421 -3684 0
3684 3685 0
-3684 -3685 0
3685 3686 0
-3685 -3686 0
426 3687 0
-426 -3687 0
3687 3688 0
-3687 -3688 0
3688 3689 0
-3688 -3689 0
3678 3686 3689 3690 0
3678 3686 -3689 -3690 0
3678 -3686 3689 -3690 0
3678 -3686 -3689 -3690 0
-3678 3686 3689 -3690 0
-3678 3686 -3689 -3690 0
-3678 -3686 3689 -3690 0
-3678 -3686 -3689 -3690 0
216 3691 0
-216 -3691 0
3691 3692 0
-3691 -3692 0
3692 3693 0
-3692 -3693 0
3693 3680 3689 3694 0
3693 3680 -3689 -3694 0
3693 -3680 3689 -3694 0
3693 -3680 -3689 -3694 0
-3693 3680 3689 -3694 0
-3693 3680 -3689 -3694 0
-3693 -3680 3689 -3694 0
-3693 -3680 -3689 -3694 0
3693 3686 3682 3695 0
3693 3686 -3682 -3695 0
3693 -3686 3682 -3695 0
3693 -3686 -3682 -3695 0
-3693 3686 3682 -3695 0
-3693 3686 -3682 -3695 0
-3693 -3686 3682 -3695 0
-3693 -3686 -3682 -3695 0
3683 3690 3694 3695 -3696 0
3683 3690 3694 -3695 3696 0
3683 3690 -3694 3695 3696 0
3683 3690 -3694 -3695 3696 0
3683 -3690 3694 3695 3696 0
3683 -3690 3694 -3695 3696 0
3683 -3690 -3694 3695 3696 0
3683 -3690 -3694 -3695 3696 0
-3683 3690 3694 3695 3696 0
-3683 3690 3694 -3695 3696 0
-3683 3690 -3694 3695 3696 0
-3683 3690 -3694 -3695 3696 0
-3683 -3690 3694 3695 3696 0
-3683 -3690 3694 -3695 3696 0
-3683 -3690 -3694 3695 3696 0
-3683 -3690 -3694 -3695 3696 0
3696 3697 0
-3696 -3697 0
3697 3698 0
-3697 -3698 0
3698 3699 0
-3698 -3699 0
3669 3676 3699 3700 0
3669 3676 -3699 -3700 0
3669 -3676 3699 -3700 0
3669 -3676 -3699 -3700 0
-3669 3676 3699 -3700 0
-3669 3676 -3699 -3700 0
-3669 -3676 3699 -3700 0
-3669 -3676 -3699 -3700 0
3674 3701 0
-3674 -3701 0
3701 3702 0
-3701 -3702 0
3702 3703 0
-3702 -3703 0
3696 3704 0
-3696 -3704 0
3704 3705 0
-3704 -3705 0
3669 3703 3705 3706 0
3669 3703 -3705 -3706 0
3669 -3703 3705 -3706 0
3669 -3703 -3705 -3706 0
-3669 3703 3705 -3706 0
-3669 3703 -3705 -3706 0
-3669 -3703 3705 -3706 0
-3669 -3703 -3705 -3706 0
3666 3707 0
-3666 -3707 0
3707 3708 0
-3707 -3708 0
3708 3676 3705 3709 0
3708 3676 -3705 -3709 0
3708 -3676 3705 -3709 0
3708 -3676 -3705 -3709 0
-3708 3676 3705 -3709 0
-3708 3676 -3705 -3709 0
-3708 -3676 3705 -3709 0
-3708 -3676 -3705 -3709 0
3708 3703 3699 3710 0
3708 3703 -3699 -3710 0
3708 -3703 3699 -3710 0
3708 -3703 -3699 -3710 0
-3708 3703 3699 -3710 0
-3708 3703 -3699 -3710 0
-3708 -3703 3699 -3710 0
-3708 -3703 -3699 -3710 0
3700 3706 3709 3710 -3711 0
3700 3706 3709 -3710 3711 0
3700 3706 -3709 3710 3711 0
3700 3706 -3709 -3710 3711 0
3700 -3706 3709 3710 3711 0
3700 -3706 3709 -3710 3711 0
3700 -3706 -3709 3710 3711 0
3700 -3706 -3709 -3710 3711 0
-3700 3706 3709 3710 3711 0
-3700 3706 3709 -3710 3711 0
-3700 3706 -3709 3710 3711 0
-3700 3706 -3709 -3710 3711 0
-3700 -3706 3709 3710 3711 0
-3700 -3706 3709 -3710 3711 0
-3700 -3706 -3709 3710 3711 0
-3700 -3706 -3709 -3710 3711 0
3711 3712 0
-3711 -3712 0
3218 3712 3713 0
3218 -3712 -3713 0
-3218 3712 -3713 0
-3218 -3712 -3713 0
1326 3224 3714 0
1326 -3224 -3714 0
-1326 3224 -3714 0
-1326 -3224 -3714 0
3222 1132 3715 0
3222 -1132 -3715 0
-3222 1132 -3715 0
-3222 -1132 -3715 0
3714 3715 -3716 0
3714 -3715 3716 0
-3714 3715 3716 0
-3714 -3715 3716 0
3713 3716 3717 0
3713 -3716 -3717 0
-3713 3716 -3717 0
-3713 -3716 -3717 0
3231 3717 3718 0
3231 -3717 -3718 0
-3231 3717 -3718 0
-3231 -3717 -3718 0
3646 3718 -3719 0
3646 -3718 3719 0
-3646 3718 3719 0
-3646 -3718 3719 0
3719 3720 0
-3719 -3720 0
3720 3721 0
-3720 -3721 0
3721 3722 0
-3721 -3722 0
3722 3723 0
-3722 -3723 0
3723 3724 0
-3723 -3724 0
3724 3725 0
-3724 -3725 0
237 3726 0
-237 -3726 0
3292 3726 3727 0
3292 -3726 -3727 0
-3292 3726 -3727 0
-3292 -3726 -3727 0
3272 3286 3279 3728 0
3272 3286 -3279 -3728 0
3272 -3286 3279 -3728 0
3272 -3286 -3279 -3728 0
-3272 3286 3279 -3728 0
-3272 3286 -3279 -3728 0
-3272 -3286 3279 -3728 0
-3272 -3286 -3279 -3728 0
3728 3729 0
-3728 -3729 0
3729 3730 0
-3729 -3730 0
3727 3730 -3731 0
3727 -3730 3731 0
-3727 3730 3731 0
-3727 -3730 3731 0
1038 3281 3732 0
1038 -3281 -3732 0
-1038 3281 -3732 0
-1038 -3281 -3732 0
562 3277 3733 0
562 -3277 -3733 0
-562 3277 -3733 0
-562 -3277 -3733 0
1614 3284 3734 0
1614 -3284 -3734 0
-1614 3284 -3734 0
-1614 -3284 -3734 0
2480 3288 3735 0
2480 -3288 -3735 0
-2480 3288 -3735 0
-2480 -3288 -3735 0
3732 3733 3734 3735 -3736 0
3732 3733 3734 -3735 3736 0
3732 3733 -3734 3735 3736 0
3732 3733 -3734 -3735 3736 0
3732 -3733 3734 3735 3736 0
3732 -3733 3734 -3735 3736 0
3732 -3733 -3734 3735 3736 0
3732 -3733 -3734 -3735 3736 0
-3732 3733 3734 3735 3736 0
-3732 3733 3734 -3735 3736 0
-3732 3733 -3734 3735 3736 0
-3732 3733 -3734 -3735 3736 0
-3732 -3733 3734 3735 3736 0
-3732 -3733 3734 -3735 3736 0
-3732 -3733 -3734 3735 3736 0
-3732 -3733 -3734 -3735 3736 0
3731 3736 3737 0
3731 -3736 -3737 0
-3731 3736 -3737 0
-3731 -3736 -3737 0
3737 3271 3738 0
3737 -3271 -3738 0
-3737 3271 -3738 0
-3737 -3271 -3738 0
3619 3739 0
-3619 -3739 0
3739 3740 0
-3739 -3740 0
3525 3741 0
-3525 -3741 0
3741 3742 0
-3741 -3742 0
3570 3743 0
-3570 -3743 0
3743 3744 0
-3743 -3744 0
3740 3742 3744 3745 0
3740 3742 -3744 -3745 0
3740 -3742 3744 -3745 0
3740 -3742 -3744 -3745 0
-3740 3742 3744 -3745 0
-3740 3742 -3744 -3745 0
-3740 -3742 3744 -3745 0
-3740 -3742 -3744 -3745 0
422 3746 0
-422 -3746 0
3746 3747 0
-3746 -3747 0
3747 3748 0
-3747 -3748 0
424 3749 0
-424 -3749 0
3749 3750 0
-3749 -3750 0
3750 3751 0
-3750 -3751 0
3740 3748 3751 3752 0
3740 3748 -3751 -3752 0
3740 -3748 3751 -3752 0
3740 -3748 -3751 -3752 0
-3740 3748 3751 -3752 0
-3740 3748 -3751 -3752 0
-3740 -3748 3751 -3752 0
-3740 -3748 -3751 -3752 0
427 3753 0
-427 -3753 0
3753 3754 0
-3753 -3754 0
3754 3755 0
-3754 -3755 0
3755 3742 3751 3756 0
3755 3742 -3751 -3756 0
3755 -3742 3751 -3756 0
3755 -3742 -3751 -3756 0
-3755 3742 3751 -3756 0
-3755 3742 -3751 -3756 0
-3755 -3742 3751 -3756 0
-3755 -3742 -3751 -3756 0
3755 3748 3744 3757 0
3755 3748 -3744 -3757 0
3755 -3748 3744 -3757 0
3755 -3748 -3744 -3757 0
-3755 3748 3744 -3757 0
-3755 3748 -3744 -3757 0
-3755 -3748 3744 -3757 0
-3755 -3748 -3744 -3757 0
3745 3752 3756 3757 -3758 0
3745 3752 3756 -3757 3758 0
3745 3752 -3756 3757 3758 0
3745 3752 -3756 -3757 3758 0
3745 -3752 3756 3757 3758 0
3745 -3752 3756 -3757 3758 0
3745 -3752 -3756 3757 3758 0
3745 -3752 -3756 -3757 3758 0
-3745 3752 3756 3757 3758 0
-3745 3752 3756 -3757 3758 0
-3745 3752 -3756 3757 3758 0
-3745 3752 -3756 -3757 3758 0
-3745 -3752 3756 3757 3758 0
-3745 -3752 3756 -3757 3758 0
-3745 -3752 -3756 3757 3758 0
-3745 -3752 -3756 -3757 3758 0
3758 3759 0
-3758 -3759 0
3759 3760 0
-3759 -3760 0
3760 3761 0
-3760 -3761 0
416 3762 0
-416 -3762 0
3762 3298 3763 0
3762 -3298 -3763 0
-3762 3298 -3763 0
-3762 -3298 -3763 0
418 3764 0
-418 -3764 0
3352 3764 3765 0
3352 -3764 -3765 0
-3352 3764 -3765 0
-3352 -3764 -3765 0
3763 3765 -3766 0
3763 -3765 3766 0
-3763 3765 3766 0
-3763 -3765 3766 0
3766 3767 0
-3766 -3767 0
3767 3768 0
-3767 -3768 0
3487 3769 0
-3487 -3769 0
3769 3770 0
-3769 -3770 0
3387 3771 0
-3387 -3771 0
3771 3772 0
-3771 -3772 0
3435 3773 0
-3435 -3773 0
3773 3774 0
-3773 -3774 0
3770 3772 3774 3775 0
3770 3772 -3774 -3775 0
3770 -3772 3774 -3775 0
3770 -3772 -3774 -3775 0
-3770 3772 3774 -3775 0
-3770 3772 -3774 -3775 0
-3770 -3772 3774 -3775 0
-3770 -3772 -3774 -3775 0
421 3776 0
-421 -3776 0
3776 3777 0
-3776 -3777 0
3777 3778 0
-3777 -3778 0
426 3779 0
-426 -3779 0
3779 3780 0
-3779 -3780 0
3780 3781 0
-3780 -3781 0
3770 3778 3781 3782 0
3770 3778 -3781 -3782 0
3770 -3778 3781 -3782 0
3770 -3778 -3781 -3782 0
-3770 3778 3781 -3782 0
-3770 3778 -3781 -3782 0
-3770 -3778 3781 -3782 0
-3770 -3778 -3781 -3782 0
216 3783 0
-216 -3783 0
3783 3784 0
-3783 -3784 0
3784 3785 0
-3784 -3785 0
3785 3772 3781 3786 0
3785 3772 -3781 -3786 0
3785 -3772 3781 -3786 0
3785 -3772 -3781 -3786 0
-3785 3772 3781 -3786 0
-3785 3772 -3781 -3786 0
-3785 -3772 3781 -3786 0
-3785 -3772 -3781 -3786 0
3785 3778 3774 3787 0
3785 3778 -3774 -3787 0
3785 -3778 3774 -3787 0
3785 -3778 -3774 -3787 0
-3785 3778 3774 -3787 0
-3785 3778 -3774 -3787 0
-3785 -3778 3774 -3787 0
-3785 -3778 -3774 -3787 0
3775 3782 3786 3787 -3788 0
3775 3782 3786 -3787 3788 0
3775 3782 -3786 3787 3788 0
3775 3782 -3786 -3787 3788 0
3775 -3782 3786 3787 3788 0
3775 -3782 3786 -3787 3788 0
3775 -3782 -3786 3787 3788 0
3775 -3782 -3786 -3787 3788 0
-3775 3782 3786 3787 3788 0
-3775 3782 3786 -3787 3788 0
-3775 3782 -3786 3787 3788 0
-3775 3782 -3786 -3787 3788 0
-3775 -3782 3786 3787 3788 0
-3775 -3782 3786 -3787 3788 0
-3775 -3782 -3786 3787 3788 0
-3775 -3782 -3786 -3787 3788 0
3788 3789 0
-3788 -3789 0
3789 3790 0
-3789 -3790 0
3790 3791 0
-3790 -3791 0
3761 3768 3791 3792 0
3761 3768 -3791 -3792 0
3761 -3768 3791 -3792 0
3761 -3768 -3791 -3792 0
-3761 3768 3791 -3792 0
-3761 3768 -3791 -3792 0
-3761 -3768 3791 -3792 0
-3761 -3768 -3791 -3792 0
3766 3793 0
-3766 -3793 0
3793 3794 0
-3793 -3794 0
3794 3795 0
-3794 -3795 0
3788 3796 0
-3788 -3796 0
3796 3797 0
-3796 -3797 0
3761 3795 3797 3798 0
3761 3795 -3797 -3798 0
3761 -3795 3797 -3798 0
3761 -3795 -3797 -3798 0
-3761 3795 3797 -3798 0
-3761 3795 -3797 -3798 0
-3761 -3795 3797 -3798 0
-3761 -3795 -3797 -3798 0
3758 3799 0
-3758 -3799 0
3799 3800 0
-3799 -3800 0
3800 3768 3797 3801 0
3800 3768 -3797 -3801 0
3800 -3768 3797 -3801 0
3800 -3768 -3797 -3801 0
-3800 3768 3797 -3801 0
-3800 3768 -3797 -3801 0
-3800 -3768 3797 -3801 0
-3800 -3768 -3797 -3801 0
3800 3795 3791 3802 0
3800 3795 -3791 -3802 0
3800 -3795 3791 -3802 0
3800 -3795 -3791 -3802 0
-3800 3795 3791 -3802 0
-3800 3795 -3791 -3802 0
-3800 -3795 3791 -3802 0
-3800 -3795 -3791 -3802 0
3792 3798 3801 3802 -3803 0
3792 3798 3801 -3802 3803 0
3792 3798 -3801 3802 3803 0
3792 3798 -3801 -3802 3803 0
3792 -3798 3801 3802 3803 0
3792 -3798 3801 -3802 3803 0
3792 -3798 -3801 3802 3803 0
3792 -3798 -3801 -3802 3803 0
-3792 3798 3801 3802 3803 0
-3792 3798 3801 -3802 3803 0
-3792 3798 -3801 3802 3803 0
-3792 3798 -3801 -3802 3803 0
-3792 -3798 3801 3802 3803 0
-3792 -3798 3801 -3802 3803 0
-3792 -3798 -3801 3802 3803 0
-3792 -3798 -3801 -3802 3803 0
3803 3804 0
-3803 -3804 0
3296 3804 3805 0
3296 -3804 -3805 0
-3296 3804 -3805 0
-3296 -3804 -3805 0
1419 3302 3806 0
1419 -3302 -3806 0
-1419 3302 -3806 0
-1419 -3302 -3806 0
3300 1230 3807 0
3300 -1230 -3807 0
-3300 1230 -3807 0
-3300 -1230 -3807 0
3806 3807 -3808 0
3806 -3807 3808 0
-3806 3807 3808 0
-3806 -3807 3808 0
3805 3808 3809 0
3805 -3808 -3809 0
-3805 3808 -3809 0
-3805 -3808 -3809 0
3309 3809 3810 0
3309 -3809 -3810 0
-3309 3809 -3810 0
-3309 -3809 -3810 0
3738 3810 -3811 0
3738 -3810 3811 0
-3738 3810 3811 0
-3738 -3810 3811 0
3811 3812 0
-3811 -3812 0
3812 3813 0
-3812 -3813 0
3813 3814 0
-3813 -3814 0
3814 3815 0
-3814 -3815 0
3815 3816 0
-3815 -3816 0
3816 3817 0
-3816 -3817 0
3725 3817 -3818 0
3725 -3817 3818 0
-3725 3817 3818 0
-3725 -3817 -3818 0
338 3819 0
-338 -3819 0
3819 3820 0
-3819 -3820 0
3820 3821 0
-3820 -3821 0
3821 3822 0
-3821 -3822 0
3822 3823 0
-3822 -3823 0
3823 3824 0
-3823 -3824 0
3824 3825 0
-3824 -3825 0
3825 3826 0
-3825 -3826 0
3826 3827 0
-3826 -3827 0
338 3828 0
-338 -3828 0
3828 3829 0
-3828 -3829 0
3829 3830 0
-3829 -3830 0
3830 3831 0
-3830 -3831 0
3831 3832 0
-3831 -3832 0
3832 3833 0
-3832 -3833 0
3833 3834 0
-3833 -3834 0
3834 3835 0
-3834 -3835 0
3835 3836 0
-3835 -3836 0
3827 3836 -3837 0
3827 -3836 3837 0
-3827 3836 3837 0
-3827 -3836 -3837 0
344 3838 0
-344 -3838 0
3838 3839 0
-3838 -3839 0
3839 3840 0
-3839 -3840 0
3840 3841 0
-3840 -3841 0
3841 3842 0
-3841 -3842 0
3842 3843 0
-3842 -3843 0
3843 3844 0
-3843 -3844 0
3844 3845 0
-3844 -3845 0
3845 3846 0
-3845 -3846 0
344 3847 0
-344 -3847 0
3847 3848 0
-3847 -3848 0
3848 3849 0
-3848 -3849 0
3849 3850 0
-3849 -3850 0
3850 3851 0
-3850 -3851 0
3851 3852 0
-3851 -3852 0
3852 3853 0
-3852 -3853 0
3853 3854 0
-3853 -3854 0
3854 3855 0
-3854 -3855 0
3846 3855 -3856 0
3846 -3855 3856 0
-3846 3855 3856 0
-3846 -3855 -3856 0
341 3857 0
-341 -3857 0
3857 3858 0
-3857 -3858 0
3858 3859 0
-3858 -3859 0
3859 3860 0
-3859 -3860 0
3860 3861 0
-3860 -3861 0
3861 3862 0
-3861 -3862 0
3862 3863 0
-3862 -3863 0
3863 3864 0
-3863 -3864 0
3864 3865 0
-3864 -3865 0
341 3866 0
-341 -3866 0
3866 3867 0
-3866 -3867 0
3867 3868 0
-3867 -3868 0
3868 3869 0
-3868 -3869 0
3869 3870 0
-3869 -3870 0
3870 3871 0
-3870 -3871 0
3871 3872 0
-3871 -3872 0
3872 3873 0
-3872 -3873 0
3873 3874 0
-3873 -3874 0
3865 3874 -3875 0
3865 -3874 3875 0
-3865 3874 3875 0
-3865 -3874 -3875 0
3230 3876 0
-3230 -3876 0
3645 3876 3877 0
3645 -3876 -3877 0
-3645 3876 -3877 0
-3645 -3876 -3877 0
323 3878 0
-323 -3878 0
338 3879 0
-338 -3879 0
3878 3879 3880 0
3878 -3879 -3880 0
-3878 3879 -3880 0
-3878 -3879 -3880 0
323 3881 0
-323 -3881 0
3881 3882 0
-3881 -3882 0
3820 3882 3883 0
3820 -3882 -3883 0
-3820 3882 -3883 0
-3820 -3882 -3883 0
3880 3883 -3884 0
3880 -3883 3884 0
-3880 3883 3884 0
-3880 -3883 3884 0
3884 3885 0
-3884 -3885 0
3885 3886 0
-3885 -3886 0
344 3887 0
-344 -3887 0
3887 3858 3888 0
3887 -3858 -3888 0
-3887 3858 -3888 0
-3887 -3858 -3888 0
341 3889 0
-341 -3889 0
3889 3839 3890 0
3889 -3839 -3890 0
-3889 3839 -3890 0
-3889 -3839 -3890 0
3888 3890 -3891 0
3888 -3890 3891 0
-3888 3890 3891 0
-3888 -3890 3891 0
3891 3892 0
-3891 -3892 0
3892 3893 0
-3892 -3893 0
3886 3893 3894 0
3886 -3893 -3894 0
-3886 3893 -3894 0
-3886 -3893 -3894 0
3886 3894 3895 0
3886 -3894 -3895 0
-3886 3894 -3895 0
-3886 -3894 -3895 0
3894 3893 3896 0
3894 -3893 -3896 0
-3894 3893 -3896 0
-3894 -3893 -3896 0
3895 3896 -3897 0
3895 -3896 3897 0
-3895 3896 3897 0
-3895 -3896 3897 0
3897 3898 0
-3897 -3898 0
3877 3898 -3899 0
3877 -3898 3899 0
-3877 3898 3899 0
-3877 -3898 3899 0
3899 3900 0
-3899 -3900 0
3900 3901 0
-3900 -3901 0
3901 3902 0
-3901 -3902 0
3902 3903 0
-3902 -3903 0
3308 3904 0
-3308 -3904 0
3737 3904 3905 0
3737 -3904 -3905 0
-3737 3904 -3905 0
-3737 -3904 -3905 0
323 3906 0
-323 -3906 0
338 3907 0
-338 -3907 0
3906 3907 3908 0
3906 -3907 -3908 0
-3906 3907 -3908 0
-3906 -3907 -3908 0
323 3909 0
-323 -3909 0
3909 3910 0
-3909 -3910 0
3829 3910 3911 0
3829 -3910 -3911 0
-3829 3910 -3911 0
-3829 -3910 -3911 0
3908 3911 -3912 0
3908 -3911 3912 0
-3908 3911 3912 0
-3908 -3911 3912 0
3912 3913 0
-3912 -3913 0
3913 3914 0
-3913 -3914 0
344 3915 0
-344 -3915 0
3915 3867 3916 0
3915 -3867 -3916 0
-3915 3867 -3916 0
-3915 -3867 -3916 0
341 3917 0
-341 -3917 0
3917 3848 3918 0
3917 -3848 -3918 0
-3917 3848 -3918 0
-3917 -3848 -3918 0
3916 3918 -3919 0
3916 -3918 3919 0
-3916 3918 3919 0
-3916 -3918 3919 0
3919 3920 0
-3919 -3920 0
3920 3921 0
-3920 -3921 0
3914 3921 3922 0
3914 -3921 -3922 0
-3914 3921 -3922 0
-3914 -3921 -3922 0
3914 3922 3923 0
3914 -3922 -3923 0
-3914 3922 -3923 0
-3914 -3922 -3923 0
3922 3921 3924 0
3922 -3921 -3924 0
-3922 3921 -3924 0
-3922 -3921 -3924 0
3923 3924 -3925 0
3923 -3924 3925 0
-3923 3924 3925 0
-3923 -3924 3925 0
3925 3926 0
-3925 -3926 0
3905 3926 -3927 0
3905 -3926 3927 0
-3905 3926 3927 0
-3905 -3926 3927 0
3927 3928 0
-3927 -3928 0
3928 3929 0
-3928 -3929 0
3929 3930 0
-3929 -3930 0
3930 3931 0
-3930 -3931 0
3903 3931 -3932 0
3903 -3931 3932 0
-3903 3931 3932 0
-3903 -3931 -3932 0
3876 3216 3933 0
3876 -3216 -3933 0
-3876 3216 -3933 0
-3876 -3216 -3933 0
419 3934 0
-419 -3934 0
3712 3934 3935 0
3712 -3934 -3935 0
-3712 3934 -3935 0
-3712 -3934 -3935 0
419 3936 0
-419 -3936 0
3936 3937 0
-3936 -3937 0
3937 3711 3938 0
3937 -3711 -3938 0
-3937 3711 -3938 0
-3937 -3711 -3938 0
3935 3938 -3939 0
3935 -3938 3939 0
-3935 3938 3939 0
-3935 -3938 3939 0
3939 3940 0
-3939 -3940 0
3933 3940 -3941 0
3933 -3940 3941 0
-3933 3940 3941 0
-3933 -3940 3941 0
3941 3942 0
-3941 -3942 0
3942 3943 0
-3942 -3943 0
3943 3944 0
-3943 -3944 0
3944 3945 0
-3944 -3945 0
3904 3294 3946 0
3904 -3294 -3946 0
-3904 3294 -3946 0
-3904 -3294 -3946 0
419 3947 0
-419 -3947 0
3804 3947 3948 0
3804 -3947 -3948 0
-3804 3947 -3948 0
-3804 -3947 -3948 0
419 3949 0
-419 -3949 0
3949 3950 0
-3949 -3950 0
3950 3803 3951 0
3950 -3803 -3951 0
-3950 3803 -3951 0
-3950 -3803 -3951 0
3948 3951 -3952 0
3948 -3951 3952 0
-3948 3951 3952 0
-3948 -3951 3952 0
3952 3953 0
-3952 -3953 0
3946 3953 -3954 0
3946 -3953 3954 0
-3946 3953 3954 0
-3946 -3953 3954 0
3954 3955 0
-3954 -3955 0
3955 3956 0
-3955 -3956 0
3956 3957 0
-3956 -3957 0
3957 3958 0
-3957 -3958 0
3945 3958 -3959 0
3945 -3958 3959 0
-3945 3958 3959 0
-3945 -3958 -3959 0
3324 3876 3960 0
3324 -3876 -3960 0
-3324 3876 -3960 0
-3324 -3876 -3960 0
238 3961 0
-238 -3961 0
3961 3962 0
-3961 -3962 0
3962 2132 3963 0
3962 -2132 -3963 0
-3962 2132 -3963 0
-3962 -2132 -3963 0
238 3964 0
-238 -3964 0
3964 2135 3965 0
3964 -2135 -3965 0
-3964 2135 -3965 0
-3964 -2135 -3965 0
3963 3965 -3966 0
3963 -3965 3966 0
-3963 3965 3966 0
-3963 -3965 3966 0
3966 3967 0
-3966 -3967 0
3960 3967 -3968 0
3960 -3967 3968 0
-3960 3967 3968 0
-3960 -3967 3968 0
3968 3969 0
-3968 -3969 0
3969 3970 0
-3969 -3970 0
3970 3971 0
-3970 -3971 0
3971 3972 0
-3971 -3972 0
3346 3904 3973 0
3346 -3904 -3973 0
-3346 3904 -3973 0
-3346 -3904 -3973 0
238 3974 0
-238 -3974 0
3974 3975 0
-3974 -3975 0
3975 2477 3976 0
3975 -2477 -3976 0
-3975 2477 -3976 0
-3975 -2477 -3976 0
238 3977 0
-238 -3977 0
3977 2480 3978 0
3977 -2480 -3978 0
-3977 2480 -3978 0
-3977 -2480 -3978 0
3976 3978 -3979 0
3976 -3978 3979 0
-3976 3978 3979 0
-3976 -3978 3979 0
3979 3980 0
-3979 -3980 0
3973 3980 -3981 0
3973 -3980 3981 0
-3973 3980 3981 0
-3973 -3980 3981 0
3981 3982 0
-3981 -3982 0
3982 3983 0
-3982 -3983 0
3983 3984 0
-3983 -3984 0
3984 3985 0
-3984 -3985 0
3972 3985 -3986 0
3972 -3985 3986 0
-3972 3985 3986 0
-3972 -3985 -3986 0
3876 3377 3987 0
3876 -3377 -3987 0
-3876 3377 -3987 0
-3876 -3377 -3987 0
1387 3988 0
-1387 -3988 0
3987 3988 -3989 0
3987 -3988 3989 0
-3987 3988 3989 0
-3987 -3988 3989 0
3989 3990 0
-3989 -3990 0
3990 3991 0
-3990 -3991 0
3991 3992 0
-3991 -3992 0
3992 3993 0
-3992 -3993 0
3904 3399 3994 0
3904 -3399 -3994 0
-3904 3399 -3994 0
-3904 -3399 -3994 0
1480 3995 0
-1480 -3995 0
3994 3995 -3996 0
3994 -3995 3996 0
-3994 3995 3996 0
-3994 -3995 3996 0
3996 3997 0
-3996 -3997 0
3997 3998 0
-3997 -3998 0
3998 3999 0
-3998 -3999 0
3999 4000 0
-3999 -4000 0
3993 4000 -4001 0
3993 -4000 4001 0
-3993 4000 4001 0
-3993 -4000 -4001 0
3876 3422 4002 0
3876 -3422 -4002 0
-3876 3422 -4002 0
-3876 -3422 -4002 0
1003 4003 0
-1003 -4003 0
4002 4003 -4004 0
4002 -4003 4004 0
-4002 4003 4004 0
-4002 -4003 4004 0
4004 4005 0
-4004 -4005 0
4005 4006 0
-4005 -4006 0
4006 4007 0
-4006 -4007 0
4007 4008 0
-4007 -4008 0
3904 3444 4009 0
3904 -3444 -4009 0
-3904 3444 -4009 0
-3904 -3444 -4009 0
1096 4010 0
-1096 -4010 0
4009 4010 -4011 0
4009 -4010 4011 0
-4009 4010 4011 0
-4009 -4010 4011 0
4011 4012 0
-4011 -4012 0
4012 4013 0
-4012 -4013 0
4013 4014 0
-4013 -4014 0
4014 4015 0
-4014 -4015 0
4008 4015 -4016 0
4008 -4015 4016 0
-4008 4015 4016 0
-4008 -4015 -4016 0
3876 3459 4017 0
3876 -3459 -4017 0
-3876 3459 -4017 0
-3876 -3459 -4017 0
1195 4018 0
-1195 -4018 0
4017 4018 -4019 0
4017 -4018 4019 0
-4017 4018 4019 0
-4017 -4018 4019 0
4019 4020 0
-4019 -4020 0
4020 4021 0
-4020 -4021 0
4021 4022 0
-4021 -4022 0
4022 4023 0
-4022 -4023 0
3904 3481 4024 0
3904 -3481 -4024 0
-3904 3481 -4024 0
-3904 -3481 -4024 0
1293 4025 0
-1293 -4025 0
4024 4025 -4026 0
4024 -4025 4026 0
-4024 4025 4026 0
-4024 -4025 4026 0
4026 4027 0
-4026 -4027 0
4027 4028 0
-4027 -4028 0
4028 4029 0
-4028 -4029 0
4029 4030 0
-4029 -4030 0
4023 4030 -4031 0
4023 -4030 4031 0
-4023 4030 4031 0
-4023 -4030 -4031 0
3512 3876 4032 0
3512 -3876 -4032 0
-3512 3876 -4032 0
-3512 -3876 -4032 0
527 4033 0
-527 -4033 0
4032 4033 -4034 0
4032 -4033 4034 0
-4032 4033 4034 0
-4032 -4033 4034 0
4034 4035 0
-4034 -4035 0
4035 4036 0
-4035 -4036 0
4036 4037 0
-4036 -4037 0
4037 4038 0
-4037 -4038 0
3534 3904 4039 0
3534 -3904 -4039 0
-3534 3904 -4039 0
-3534 -3904 -4039 0
625 4040 0
-625 -4040 0
4039 4040 -4041 0
4039 -4040 4041 0
-4039 4040 4041 0
-4039 -4040 4041 0
4041 4042 0
-4041 -4042 0
4042 4043 0
-4042 -4043 0
4043 4044 0
-4043 -4044 0
4044 4045 0
-4044 -4045 0
4038 4045 -4046 0
4038 -4045 4046 0
-4038 4045 4046 0
-4038 -4045 -4046 0
3557 3876 4047 0
3557 -3876 -4047 0
-3557 3876 -4047 0
-3557 -3876 -4047 0
1579 4048 0
-1579 -4048 0
4047 4048 -4049 0
4047 -4048 4049 0
-4047 4048 4049 0
-4047 -4048 4049 0
4049 4050 0
-4049 -4050 0
4050 4051 0
-4050 -4051 0
4051 4052 0
-4051 -4052 0
4052 4053 0
-4052 -4053 0
3579 3904 4054 0
3579 -3904 -4054 0
-3579 3904 -4054 0
-3579 -3904 -4054 0
1677 4055 0
-1677 -4055 0
4054 4055 -4056 0
4054 -4055 4056 0
-4054 4055 4056 0
-4054 -4055 4056 0
4056 4057 0
-4056 -4057 0
4057 4058 0
-4057 -4058 0
4058 4059 0
-4058 -4059 0
4059 4060 0
-4059 -4060 0
4053 4060 -4061 0
4053 -4060 4061 0
-4053 4060 4061 0
-4053 -4060 -4061 0
3594 3876 4062 0
3594 -3876 -4062 0
-3594 3876 -4062 0
-3594 -3876 -4062 0
843 4063 0
-843 -4063 0
4062 4063 -4064 0
4062 -4063 4064 0
-4062 4063 4064 0
-4062 -4063 4064 0
4064 4065 0
-4064 -4065 0
4065 4066 0
-4065 -4066 0
4066 4067 0
-4066 -4067 0
4067 4068 0
-4067 -4068 0
3616 3904 4069 0
3616 -3904 -4069 0
-3616 3904 -4069 0
-3616 -3904 -4069 0
897 4070 0
-897 -4070 0
4069 4070 -4071 0
4069 -4070 4071 0
-4069 4070 4071 0
-4069 -4070 4071 0
4071 4072 0
-4071 -4072 0
4072 4073 0
-4072 -4073 0
4073 4074 0
-4073 -4074 0
4074 4075 0
-4074 -4075 0
4068 4075 -4076 0
4068 -4075 4076 0
-4068 4075 4076 0
-4068 -4075 -4076 0
3711 4077 0
-3711 -4077 0
4077 4078 0
-4077 -4078 0
4078 4079 0
-4078 -4079 0
4079 4080 0
-4079 -4080 0
4080 4081 0
-4080 -4081 0
4081 4082 0
-4081 -4082 0
3803 4083 0
-3803 -4083 0
4083 4084 0
-4083 -4084 0
4084 4085 0
-4084 -4085 0
4085 4086 0
-4085 -4086 0
4086 4087 0
-4086 -4087 0
4087 4088 0
-4087 -4088 0
4082 4088 -4089 0
4082 -4088 4089 0
-4082 4088 4089 0
-4082 -4088 -4089 0
3672 4090 0
-3672 -4090 0
4090 4091 0
-4090 -4091 0
346 4092 0
-346 -4092 0
4092 4093 0
-4092 -4093 0
4093 4094 0
-4093 -4094 0
4094 4095 0
-4094 -4095 0
4095 4096 0
-4095 -4096 0
346 4097 0
-346 -4097 0
4097 4098 0
-4097 -4098 0
4098 4099 0
-4098 -4099 0
4099 4100 0
-4099 -4100 0
4096 4100 -4101 0
4096 -4100 4101 0
-4096 4100 4101 0
-4096 -4100 4101 0
4101 4102 0
-4101 -4102 0
4102 4103 0
-4102 -4103 0
4091 4103 -4104 0
4091 -4103 4104 0
-4091 4103 4104 0
-4091 -4103 4104 0
4104 4105 0
-4104 -4105 0
4105 4106 0
-4105 -4106 0
4106 4107 0
-4106 -4107 0
4107 4108 0
-4107 -4108 0
3764 4109 0
-3764 -4109 0
4109 4110 0
-4109 -4110 0
346 4111 0
-346 -4111 0
4111 4112 0
-4111 -4112 0
4112 4113 0
-4112 -4113 0
4113 4114 0
-4113 -4114 0
4114 4115 0
-4114 -4115 0
346 4116 0
-346 -4116 0
4116 4117 0
-4116 -4117 0
4117 4118 0
-4117 -4118 0
4118 4119 0
-4118 -4119 0
4115 4119 -4120 0
4115 -4119 4120 0
-4115 4119 4120 0
-4115 -4119 4120 0
4120 4121 0
-4120 -4121 0
4121 4122 0
-4121 -4122 0
4110 4122 -4123 0
4110 -4122 4123 0
-4110 4122 4123 0
-4110 -4122 4123 0
4123 4124 0
-4123 -4124 0
4124 4125 0
-4124 -4125 0
4125 4126 0
-4125 -4126 0
4126 4127 0
-4126 -4127 0
4108 4127 -4128 0
4108 -4127 4128 0
-4108 4127 4128 0
-4108 -4127 -4128 0
3670 4129 0
-3670 -4129 0
4129 4130 0
-4129 -4130 0
349 4131 0
-349 -4131 0
4131 4132 0
-4131 -4132 0
4097 4132 4133 0
4097 -4132 -4133 0
-4097 4132 -4133 0
-4097 -4132 -4133 0
4132 4134 0
-4132 -4134 0
349 4135 0
-349 -4135 0
4093 4135 4136 0
4093 -4135 -4136 0
-4093 4135 -4136 0
-4093 -4135 -4136 0
4133 4134 4136 -4137 0
4133 4134 -4136 4137 0
4133 -4134 4136 4137 0
4133 -4134 -4136 4137 0
-4133 4134 4136 4137 0
-4133 4134 -4136 4137 0
-4133 -4134 4136 4137 0
-4133 -4134 -4136 4137 0
4137 4138 0
-4137 -4138 0
4138 4139 0
-4138 -4139 0
4130 4139 -4140 0
4130 -4139 4140 0
-4130 4139 4140 0
-4130 -4139 4140 0
4140 4141 0
-4140 -4141 0
4141 4142 0
-4141 -4142 0
4142 4143 0
-4142 -4143 0
4143 4144 0
-4143 -4144 0
3762 4145 0
-3762 -4145 0
4145 4146 0
-4145 -4146 0
349 4147 0
-349 -4147 0
4147 4148 0
-4147 -4148 0
4116 4148 4149 0
4116 -4148 -4149 0
-4116 4148 -4149 0
-4116 -4148 -4149 0
4148 4150 0
-4148 -4150 0
349 4151 0
-349 -4151 0
4112 4151 4152 0
4112 -4151 -4152 0
-4112 4151 -4152 0
-4112 -4151 -4152 0
4149 4150 4152 -4153 0
4149 4150 -4152 4153 0
4149 -4150 4152 4153 0
4149 -4150 -4152 4153 0
-4149 4150 4152 4153 0
-4149 4150 -4152 4153 0
-4149 -4150 4152 4153 0
-4149 -4150 -4152 4153 0
4153 4154 0
-4153 -4154 0
4154 4155 0
-4154 -4155 0
4146 4155 -4156 0
4146 -4155 4156 0
-4146 4155 4156 0
-4146 -4155 4156 0
4156 4157 0
-4156 -4157 0
4157 4158 0
-4157 -4158 0
4158 4159 0
-4158 -4159 0
4159 4160 0
-4159 -4160 0
4144 4160 -4161 0
4144 -4160 4161 0
-4144 4160 4161 0
-4144 -4160 -4161 0
3684 4162 0
-3684 -4162 0
4162 4163 0
-4162 -4163 0
357 4164 0
-357 -4164 0
4093 4132 4165 0
4093 -4132 -4165 0
-4093 4132 -4165 0
-4093 -4132 -4165 0
4165 4166 0
-4165 -4166 0
4164 4166 4167 0
4164 -4166 -4167 0
-4164 4166 -4167 0
-4164 -4166 -4167 0
357 4168 0
-357 -4168 0
4168 4169 0
-4168 -4169 0
4169 4165 4170 0
4169 -4165 -4170 0
-4169 4165 -4170 0
-4169 -4165 -4170 0
4167 4170 -4171 0
4167 -4170 4171 0
-4167 4170 4171 0
-4167 -4170 4171 0
4171 4172 0
-4171 -4172 0
4172 4173 0
-4172 -4173 0
4163 4173 -4174 0
4163 -4173 4174 0
-4163 4173 4174 0
-4163 -4173 4174 0
4174 4175 0
-4174 -4175 0
4175 4176 0
-4175 -4176 0
4176 4177 0
-4176 -4177 0
4177 4178 0
-4177 -4178 0
3776 4179 0
-3776 -4179 0
4179 4180 0
-4179 -4180 0
357 4181 0
-357 -4181 0
4112 4148 4182 0
4112 -4148 -4182 0
-4112 4148 -4182 0
-4112 -4148 -4182 0
4182 4183 0
-4182 -4183 0
4181 4183 4184 0
4181 -4183 -4184 0
-4181 4183 -4184 0
-4181 -4183 -4184 0
357 4185 0
-357 -4185 0
4185 4186 0
-4185 -4186 0
4186 4182 4187 0
4186 -4182 -4187 0
-4186 4182 -4187 0
-4186 -4182 -4187 0
4184 4187 -4188 0
4184 -4187 4188 0
-4184 4187 4188 0
-4184 -4187 4188 0
4188 4189 0
-4188 -4189 0
4189 4190 0
-4189 -4190 0
4180 4190 -4191 0
4180 -4190 4191 0
-4180 4190 4191 0
-4180 -4190 4191 0
4191 4192 0
-4191 -4192 0
4192 4193 0
-4192 -4193 0
4193 4194 0
-4193 -4194 0
4194 4195 0
-4194 -4195 0
4178 4195 -4196 0
4178 -4195 4196 0
-4178 4195 4196 0
-4178 -4195 -4196 0
3687 4197 0
-3687 -4197 0
4197 4198 0
-4197 -4198 0
333 4199 0
-333 -4199 0
4199 4200 0
-4199 -4200 0
4200 4201 0
-4200 -4201 0
4201 4202 0
-4201 -4202 0
333 4203 0
-333 -4203 0
4203 4204 0
-4203 -4204 0
4204 4205 0
-4204 -4205 0
4205 4206 0
-4205 -4206 0
4206 4207 0
-4206 -4207 0
4202 4207 -4208 0
4202 -4207 4208 0
-4202 4207 4208 0
-4202 -4207 4208 0
4208 4209 0
-4208 -4209 0
4209 4210 0
-4209 -4210 0
4198 4210 -4211 0
4198 -4210 4211 0
-4198 4210 4211 0
-4198 -4210 4211 0
4211 4212 0
-4211 -4212 0
4212 4213 0
-4212 -4213 0
4213 4214 0
-4213 -4214 0
4214 4215 0
-4214 -4215 0
3779 4216 0
-3779 -4216 0
4216 4217 0
-4216 -4217 0
333 4218 0
-333 -4218 0
4218 4219 0
-4218 -4219 0
4219 4220 0
-4219 -4220 0
4220 4221 0
-4220 -4221 0
333 4222 0
-333 -4222 0
4222 4223 0
-4222 -4223 0
4223 4224 0
-4223 -4224 0
4224 4225 0
-4224 -4225 0
4225 4226 0
-4225 -4226 0
4221 4226 -4227 0
4221 -4226 4227 0
-4221 4226 4227 0
-4221 -4226 4227 0
4227 4228 0
-4227 -4228 0
4228 4229 0
-4228 -4229 0
4217 4229 -4230 0
4217 -4229 4230 0
-4217 4229 4230 0
-4217 -4229 4230 0
4230 4231 0
-4230 -4231 0
4231 4232 0
-4231 -4232 0
4232 4233 0
-4232 -4233 0
4233 4234 0
-4233 -4234 0
4215 4234 -4235 0
4215 -4234 4235 0
-4215 4234 4235 0
-4215 -4234 -4235 0
3691 4236 0
-3691 -4236 0
4236 4237 0
-4236 -4237 0
337 4238 0
-337 -4238 0
4238 4239 0
-4238 -4239 0
4239 4199 4240 0
4239 -4199 -4240 0
-4239 4199 -4240 0
-4239 -4199 -4240 0
4239 4241 0
-4239 -4241 0
337 4242 0
-337 -4242 0
4242 4204 4243 0
4242 -4204 -4243 0
-4242 4204 -4243 0
-4242 -4204 -4243 0
4240 4241 4243 -4244 0
4240 4241 -4243 4244 0
4240 -4241 4243 4244 0
4240 -4241 -4243 4244 0
-4240 4241 4243 4244 0
-4240 4241 -4243 4244 0
-4240 -4241 4243 4244 0
-4240 -4241 -4243 4244 0
4244 4245 0
-4244 -4245 0
4245 4246 0
-4245 -4246 0
4237 4246 -4247 0
4237 -4246 4247 0
-4237 4246 4247 0
-4237 -4246 4247 0
4247 4248 0
-4247 -4248 0
4248 4249 0
-4248 -4249 0
4249 4250 0
-4249 -4250 0
4250 4251 0
-4250 -4251 0
3783 4252 0
-3783 -4252 0
4252 4253 0
-4252 -4253 0
337 4254 0
-337 -4254 0
4254 4255 0
-4254 -4255 0
4255 4218 4256 0
4255 -4218 -4256 0
-4255 4218 -4256 0
-4255 -4218 -4256 0
4255 4257 0
-4255 -4257 0
337 4258 0
-337 -4258 0
4258 4223 4259 0
4258 -4223 -4259 0
-4258 4223 -4259 0
-4258 -4223 -4259 0
4256 4257 4259 -4260 0
4256 4257 -4259 4260 0
4256 -4257 4259 4260 0
4256 -4257 -4259 4260 0
-4256 4257 4259 4260 0
-4256 4257 -4259 4260 0
-4256 -4257 4259 4260 0
-4256 -4257 -4259 4260 0
4260 4261 0
-4260 -4261 0
4261 4262 0
-4261 -4262 0
4253 4262 -4263 0
4253 -4262 4263 0
-4253 4262 4263 0
-4253 -4262 4263 0
4263 4264 0
-4263 -4264 0
4264 4265 0
-4264 -4265 0
4265 4266 0
-4265 -4266 0
4266 4267 0
-4266 -4267 0
4251 4267 -4268 0
4251 -4267 4268 0
-4251 4267 4268 0
-4251 -4267 -4268 0
3654 4269 0
-3654 -4269 0
4269 4270 0
-4269 -4270 0
4239 4204 4271 0
4239 -4204 -4271 0
-4239 4204 -4271 0
-4239 -4204 -4271 0
335 4272 0
-335 -4272 0
4272 4273 0
-4272 -4273 0
4271 4273 4274 0
4271 -4273 -4274 0
-4271 4273 -4274 0
-4271 -4273 -4274 0
335 4275 0
-335 -4275 0
4271 4276 0
-4271 -4276 0
4275 4276 4277 0
4275 -4276 -4277 0
-4275 4276 -4277 0
-4275 -4276 -4277 0
4274 4277 -4278 0
4274 -4277 4278 0
-4274 4277 4278 0
-4274 -4277 4278 0
4278 4279 0
-4278 -4279 0
4279 4280 0
-4279 -4280 0
4270 4280 -4281 0
4270 -4280 4281 0
-4270 4280 4281 0
-4270 -4280 4281 0
4281 4282 0
-4281 -4282 0
4282 4283 0
-4282 -4283 0
4283 4284 0
-4283 -4284 0
4284 4285 0
-4284 -4285 0
3746 4286 0
-3746 -4286 0
4286 4287 0
-4286 -4287 0
4255 4223 4288 0
4255 -4223 -4288 0
-4255 4223 -4288 0
-4255 -4223 -4288 0
335 4289 0
-335 -4289 0
4289 4290 0
-4289 -4290 0
4288 4290 4291 0
4288 -4290 -4291 0
-4288 4290 -4291 0
-4288 -4290 -4291 0
335 4292 0
-335 -4292 0
4288 4293 0
-4288 -4293 0
4292 4293 4294 0
4292 -4293 -4294 0
-4292 4293 -4294 0
-4292 -4293 -4294 0
4291 4294 -4295 0
4291 -4294 4295 0
-4291 4294 4295 0
-4291 -4294 4295 0
4295 4296 0
-4295 -4296 0
4296 4297 0
-4296 -4297 0
4287 4297 -4298 0
4287 -4297 4298 0
-4287 4297 4298 0
-4287 -4297 4298 0
4298 4299 0
-4298 -4299 0
4299 4300 0
-4299 -4300 0
4300 4301 0
-4300 -4301 0
4301 4302 0
-4301 -4302 0
4285 4302 -4303 0
4285 -4302 4303 0
-4285 4302 4303 0
-4285 -4302 -4303 0
3657 4304 0
-3657 -4304 0
4304 4305 0
-4304 -4305 0
339 4306 0
-339 -4306 0
4273 4276 4306 4307 0
4273 4276 -4306 -4307 0
4273 -4276 4306 -4307 0
4273 -4276 -4306 -4307 0
-4273 4276 4306 -4307 0
-4273 4276 -4306 -4307 0
-4273 -4276 4306 -4307 0
-4273 -4276 -4306 -4307 0
339 4308 0
-339 -4308 0
4308 4309 0
-4308 -4309 0
4275 4309 4310 0
4275 -4309 -4310 0
-4275 4309 -4310 0
-4275 -4309 -4310 0
4271 4309 4311 0
4271 -4309 -4311 0
-4271 4309 -4311 0
-4271 -4309 -4311 0
4307 4310 4311 -4312 0
4307 4310 -4311 4312 0
4307 -4310 4311 4312 0
4307 -4310 -4311 4312 0
-4307 4310 4311 4312 0
-4307 4310 -4311 4312 0
-4307 -4310 4311 4312 0
-4307 -4310 -4311 4312 0
4312 4313 0
-4312 -4313 0
4313 4314 0
-4313 -4314 0
4305 4314 -4315 0
4305 -4314 4315 0
-4305 4314 4315 0
-4305 -4314 4315 0
4315 4316 0
-4315 -4316 0
4316 4317 0
-4316 -4317 0
4317 4318 0
-4317 -4318 0
4318 4319 0
-4318 -4319 0
3749 4320 0
-3749 -4320 0
4320 4321 0
-4320 -4321 0
339 4322 0
-339 -4322 0
4290 4293 4322 4323 0
4290 4293 -4322 -4323 0
4290 -4293 4322 -4323 0
4290 -4293 -4322 -4323 0
-4290 4293 4322 -4323 0
-4290 4293 -4322 -4323 0
-4290 -4293 4322 -4323 0
-4290 -4293 -4322 -4323 0
339 4324 0
-339 -4324 0
4324 4325 0
-4324 -4325 0
4292 4325 4326 0
4292 -4325 -4326 0
-4292 4325 -4326 0
-4292 -4325 -4326 0
4288 4325 4327 0
4288 -4325 -4327 0
-4288 4325 -4327 0
-4288 -4325 -4327 0
4323 4326 4327 -4328 0
4323 4326 -4327 4328 0
4323 -4326 4327 4328 0
4323 -4326 -4327 4328 0
-4323 4326 4327 4328 0
-4323 4326 -4327 4328 0
-4323 -4326 4327 4328 0
-4323 -4326 -4327 4328 0
4328 4329 0
-4328 -4329 0
4329 4330 0
-4329 -4330 0
4321 4330 -4331 0
4321 -4330 4331 0
-4321 4330 4331 0
-4321 -4330 4331 0
4331 4332 0
-4331 -4332 0
4332 4333 0
-4332 -4333 0
4333 4334 0
-4333 -4334 0
4334 4335 0
-4334 -4335 0
4319 4335 -4336 0
4319 -4335 4336 0
-4319 4335 4336 0
-4319 -4335 -4336 0
3661 4337 0
-3661 -4337 0
4337 4338 0
-4337 -4338 0
334 4339 0
-334 -4339 0
4309 4276 4273 4340 0
4309 4276 -4273 -4340 0
4309 -4276 4273 -4340 0
4309 -4276 -4273 -4340 0
-4309 4276 4273 -4340 0
-4309 4276 -4273 -4340 0
-4309 -4276 4273 -4340 0
-4309 -4276 -4273 -4340 0
4340 4341 0
-4340 -4341 0
4339 4341 4342 0
4339 -4341 -4342 0
-4339 4341 -4342 0
-4339 -4341 -4342 0
334 4343 0
-334 -4343 0
4343 4344 0
-4343 -4344 0
4344 4340 4345 0
4344 -4340 -4345 0
-4344 4340 -4345 0
-4344 -4340 -4345 0
4342 4345 -4346 0
4342 -4345 4346 0
-4342 4345 4346 0
-4342 -4345 4346 0
4346 4347 0
-4346 -4347 0
4347 4348 0
-4347 -4348 0
4338 4348 -4349 0
4338 -4348 4349 0
-4338 4348 4349 0
-4338 -4348 4349 0
4349 4350 0
-4349 -4350 0
4350 4351 0
-4350 -4351 0
4351 4352 0
-4351 -4352 0
4352 4353 0
-4352 -4353 0
3753 4354 0
-3753 -4354 0
4354 4355 0
-4354 -4355 0
334 4356 0
-334 -4356 0
4325 4293 4290 4357 0
4325 4293 -4290 -4357 0
4325 -4293 4290 -4357 0
4325 -4293 -4290 -4357 0
-4325 4293 4290 -4357 0
-4325 4293 -4290 -4357 0
-4325 -4293 4290 -4357 0
-4325 -4293 -4290 -4357 0
4357 4358 0
-4357 -4358 0
4356 4358 4359 0
4356 -4358 -4359 0
-4356 4358 -4359 0
-4356 -4358 -4359 0
334 4360 0
-334 -4360 0
4360 4361 0
-4360 -4361 0
4361 4357 4362 0
4361 -4357 -4362 0
-4361 4357 -4362 0
-4361 -4357 -4362 0
4359 4362 -4363 0
4359 -4362 4363 0
-4359 4362 4363 0
-4359 -4362 4363 0
4363 4364 0
-4363 -4364 0
4364 4365 0
-4364 -4365 0
4355 4365 -4366 0
4355 -4365 4366 0
-4355 4365 4366 0
-4355 -4365 4366 0
4366 4367 0
-4366 -4367 0
4367 4368 0
-4367 -4368 0
4368 4369 0
-4368 -4369 0
4369 4370 0
-4369 -4370 0
4353 4370 -4371 0
4353 -4370 4371 0
-4353 4370 4371 0
-4353 -4370 -4371 0
1885 1884 4372 0
1885 -1884 -4372 0
-1885 1884 -4372 0
-1885 -1884 -4372 0
648 4372 4373 0
648 -4372 -4373 0
-648 4372 -4373 0
-648 -4372 -4373 0
4373 4374 0
-4373 -4374 0
4374 4375 0
-4374 -4375 0
4375 4376 0
-4375 -4376 0
4376 4377 0
-4376 -4377 0
4377 4378 0
-4377 -4378 0
4378 4379 0
-4378 -4379 0
1905 1904 4380 0
1905 -1904 -4380 0
-1905 1904 -4380 0
-1905 -1904 -4380 0
720 4380 4381 0
720 -4380 -4381 0
-720 4380 -4381 0
-720 -4380 -4381 0
4381 4382 0
-4381 -4382 0
4382 4383 0
-4382 -4383 0
4383 4384 0
-4383 -4384 0
4384 4385 0
-4384 -4385 0
4385 4386 0
-4385 -4386 0
4386 4387 0
-4386 -4387 0
4379 4387 -4388 0
4379 -4387 4388 0
-4379 4387 4388 0
-4379 -4387 -4388 0
378 4389 0
-378 -4389 0
4389 4390 0
-4389 -4390 0
4390 4391 0
-4390 -4391 0
4391 4392 0
-4391 -4392 0
4392 4393 0
-4392 -4393 0
4393 4394 0
-4393 -4394 0
4394 4395 0
-4394 -4395 0
4395 4396 0
-4395 -4396 0
4396 4397 0
-4396 -4397 0
378 4398 0
-378 -4398 0
4398 4399 0
-4398 -4399 0
4399 4400 0
-4399 -4400 0
4400 4401 0
-4400 -4401 0
4401 4402 0
-4401 -4402 0
4402 4403 0
-4402 -4403 0
4403 4404 0
-4403 -4404 0
4404 4405 0
-4404 -4405 0
4405 4406 0
-4405 -4406 0
4397 4406 -4407 0
4397 -4406 4407 0
-4397 4406 4407 0
-4397 -4406 -4407 0
1683 4408 0
-1683 -4408 0
676 4409 0
-676 -4409 0
4408 4409 4410 0
4408 -4409 -4410 0
-4408 4409 -4410 0
-4408 -4409 -4410 0
1684 4411 0
-1684 -4411 0
682 4412 0
-682 -4412 0
4411 4412 4413 0
4411 -4412 -4413 0
-4411 4412 -4413 0
-4411 -4412 -4413 0
355 4414 0
-355 -4414 0
4414 4415 0
-4414 -4415 0
4415 4416 0
-4415 -4416 0
1795 1789 4416 4417 0
1795 1789 -4416 -4417 0
1795 -1789 4416 -4417 0
1795 -1789 -4416 -4417 0
-1795 1789 4416 -4417 0
-1795 1789 -4416 -4417 0
-1795 -1789 4416 -4417 0
-1795 -1789 -4416 -4417 0
355 4418 0
-355 -4418 0
4418 4419 0
-4418 -4419 0
1790 4419 4420 0
1790 -4419 -4420 0
-1790 4419 -4420 0
-1790 -4419 -4420 0
4419 1794 4421 0
4419 -1794 -4421 0
-4419 1794 -4421 0
-4419 -1794 -4421 0
4417 4420 4421 -4422 0
4417 4420 -4421 4422 0
4417 -4420 4421 4422 0
4417 -4420 -4421 4422 0
-4417 4420 4421 4422 0
-4417 4420 -4421 4422 0
-4417 -4420 4421 4422 0
-4417 -4420 -4421 4422 0
4422 4423 0
-4422 -4423 0
4423 4424 0
-4423 -4424 0
4410 4413 4424 -4425 0
4410 4413 -4424 4425 0
4410 -4413 4424 4425 0
4410 -4413 -4424 4425 0
-4410 4413 4424 4425 0
-4410 4413 -4424 4425 0
-4410 -4413 4424 4425 0
-4410 -4413 -4424 4425 0
4425 4426 0
-4425 -4426 0
4426 4427 0
-4426 -4427 0
4427 4428 0
-4427 -4428 0
4428 4429 0
-4428 -4429 0
1710 4430 0
-1710 -4430 0
748 4431 0
-748 -4431 0
4430 4431 4432 0
4430 -4431 -4432 0
-4430 4431 -4432 0
-4430 -4431 -4432 0
1711 4433 0
-1711 -4433 0
754 4434 0
-754 -4434 0
4433 4434 4435 0
4433 -4434 -4435 0
-4433 4434 -4435 0
-4433 -4434 -4435 0
355 4436 0
-355 -4436 0
4436 4437 0
-4436 -4437 0
4437 4438 0
-4437 -4438 0
1815 1809 4438 4439 0
1815 1809 -4438 -4439 0
1815 -1809 4438 -4439 0
1815 -1809 -4438 -4439 0
-1815 1809 4438 -4439 0
-1815 1809 -4438 -4439 0
-1815 -1809 4438 -4439 0
-1815 -1809 -4438 -4439 0
355 4440 0
-355 -4440 0
4440 4441 0
-4440 -4441 0
1810 4441 4442 0
1810 -4441 -4442 0
-1810 4441 -4442 0
-1810 -4441 -4442 0
4441 1814 4443 0
4441 -1814 -4443 0
-4441 1814 -4443 0
-4441 -1814 -4443 0
4439 4442 4443 -4444 0
4439 4442 -4443 4444 0
4439 -4442 4443 4444 0
4439 -4442 -4443 4444 0
-4439 4442 4443 4444 0
-4439 4442 -4443 4444 0
-4439 -4442 4443 4444 0
-4439 -4442 -4443 4444 0
4444 4445 0
-4444 -4445 0
4445 4446 0
-4445 -4446 0
4432 4435 4446 -4447 0
4432 4435 -4446 4447 0
4432 -4435 4446 4447 0
4432 -4435 -4446 4447 0
-4432 4435 4446 4447 0
-4432 4435 -4446 4447 0
-4432 -4435 4446 4447 0
-4432 -4435 -4446 4447 0
4447 4448 0
-4447 -4448 0
4448 4449 0
-4448 -4449 0
4449 4450 0
-4449 -4450 0
4450 4451 0
-4450 -4451 0
4429 4451 -4452 0
4429 -4451 4452 0
-4429 4451 4452 0
-4429 -4451 -4452 0
1738 4453 0
-1738 -4453 0
4453 4409 4454 0
4453 -4409 -4454 0
-4453 4409 -4454 0
-4453 -4409 -4454 0
1734 4455 0
-1734 -4455 0
4412 4455 4456 0
4412 -4455 -4456 0
-4412 4455 -4456 0
-4412 -4455 -4456 0
379 4457 0
-379 -4457 0
4457 4458 0
-4457 -4458 0
4458 4459 0
-4458 -4459 0
4419 1789 1795 4460 0
4419 1789 -1795 -4460 0
4419 -1789 1795 -4460 0
4419 -1789 -1795 -4460 0
-4419 1789 1795 -4460 0
-4419 1789 -1795 -4460 0
-4419 -1789 1795 -4460 0
-4419 -1789 -1795 -4460 0
4460 4461 0
-4460 -4461 0
4459 4461 4462 0
4459 -4461 -4462 0
-4459 4461 -4462 0
-4459 -4461 -4462 0
379 4463 0
-379 -4463 0
4463 4464 0
-4463 -4464 0
4460 4464 4465 0
4460 -4464 -4465 0
-4460 4464 -4465 0
-4460 -4464 -4465 0
4462 4465 -4466 0
4462 -4465 4466 0
-4462 4465 4466 0
-4462 -4465 4466 0
4466 4467 0
-4466 -4467 0
4467 4468 0
-4467 -4468 0
4454 4456 4468 -4469 0
4454 4456 -4468 4469 0
4454 -4456 4468 4469 0
4454 -4456 -4468 4469 0
-4454 4456 4468 4469 0
-4454 4456 -4468 4469 0
-4454 -4456 4468 4469 0
-4454 -4456 -4468 4469 0
4469 4470 0
-4469 -4470 0
4470 4471 0
-4470 -4471 0
4471 4472 0
-4471 -4472 0
4472 4473 0
-4472 -4473 0
1763 4474 0
-1763 -4474 0
4474 4431 4475 0
4474 -4431 -4475 0
-4474 4431 -4475 0
-4474 -4431 -4475 0
1759 4476 0
-1759 -4476 0
4434 4476 4477 0
4434 -4476 -4477 0
-4434 4476 -4477 0
-4434 -4476 -4477 0
379 4478 0
-379 -4478 0
4478 4479 0
-4478 -4479 0
4479 4480 0
-4479 -4480 0
4441 1809 1815 4481 0
4441 1809 -1815 -4481 0
4441 -1809 1815 -4481 0
4441 -1809 -1815 -4481 0
-4441 1809 1815 -4481 0
-4441 1809 -1815 -4481 0
-4441 -1809 1815 -4481 0
-4441 -1809 -1815 -4481 0
4481 4482 0
-4481 -4482 0
4480 4482 4483 0
4480 -4482 -4483 0
-4480 4482 -4483 0
-4480 -4482 -4483 0
379 4484 0
-379 -4484 0
4484 4485 0
-4484 -4485 0
4481 4485 4486 0
4481 -4485 -4486 0
-4481 4485 -4486 0
-4481 -4485 -4486 0
4483 4486 -4487 0
4483 -4486 4487 0
-4483 4486 4487 0
-4483 -4486 4487 0
4487 4488 0
-4487 -4488 0
4488 4489 0
-4488 -4489 0
4475 4477 4489 -4490 0
4475 4477 -4489 4490 0
4475 -4477 4489 4490 0
4475 -4477 -4489 4490 0
-4475 4477 4489 4490 0
-4475 4477 -4489 4490 0
-4475 -4477 4489 4490 0
-4475 -4477 -4489 4490 0
4490 4491 0
-4490 -4491 0
4491 4492 0
-4491 -4492 0
4492 4493 0
-4492 -4493 0
4493 4494 0
-4493 -4494 0
4473 4494 -4495 0
4473 -4494 4495 0
-4473 4494 4495 0
-4473 -4494 -4495 0
699 705 702 4496 0
699 705 -702 -4496 0
699 -705 702 -4496 0
699 -705 -702 -4496 0
-699 705 702 -4496 0
-699 705 -702 -4496 0
-699 -705 702 -4496 0
-699 -705 -702 -4496 0
4496 4497 0
-4496 -4497 0
4497 4412 4498 0
4497 -4412 -4498 0
-4497 4412 -4498 0
-4497 -4412 -4498 0
703 645 4499 0
703 -645 -4499 0
-703 645 -4499 0
-703 -645 -4499 0
4499 4500 0
-4499 -4500 0
4500 665 1680 4501 0
4500 665 -1680 -4501 0
4500 -665 1680 -4501 0
4500 -665 -1680 -4501 0
-4500 665 1680 -4501 0
-4500 665 -1680 -4501 0
-4500 -665 1680 -4501 0
-4500 -665 -1680 -4501 0
4501 4502 0
-4501 -4502 0
4502 4409 4503 0
4502 -4409 -4503 0
-4502 4409 -4503 0
-4502 -4409 -4503 0
4498 4503 4504 0
4498 -4503 -4504 0
-4498 4503 -4504 0
-4498 -4503 -4504 0
4504 4505 0
-4504 -4505 0
313 4506 0
-313 -4506 0
4506 4507 0
-4506 -4507 0
402 4508 0
-402 -4508 0
398 4509 0
-398 -4509 0
4509 4510 0
-4509 -4510 0
1943 4511 0
-1943 -4511 0
397 4512 0
-397 -4512 0
4512 4513 0
-4512 -4513 0
4510 4511 4513 4514 0
4510 4511 -4513 -4514 0
4510 -4511 4513 -4514 0
4510 -4511 -4513 -4514 0
-4510 4511 4513 -4514 0
-4510 4511 -4513 -4514 0
-4510 -4511 4513 -4514 0
-4510 -4511 -4513 -4514 0
4514 4515 0
-4514 -4515 0
4507 4508 4515 4516 0
4507 4508 -4515 -4516 0
4507 -4508 4515 -4516 0
4507 -4508 -4515 -4516 0
-4507 4508 4515 -4516 0
-4507 4508 -4515 -4516 0
-4507 -4508 4515 -4516 0
-4507 -4508 -4515 -4516 0
402 4517 0
-402 -4517 0
4517 4518 0
-4517 -4518 0
313 4519 0
-313 -4519 0
4518 4519 4520 0
4518 -4519 -4520 0
-4518 4519 -4520 0
-4518 -4519 -4520 0
4514 4518 4521 0
4514 -4518 -4521 0
-4514 4518 -4521 0
-4514 -4518 -4521 0
4516 4520 4521 -4522 0
4516 4520 -4521 4522 0
4516 -4520 4521 4522 0
4516 -4520 -4521 4522 0
-4516 4520 4521 4522 0
-4516 4520 -4521 4522 0
-4516 -4520 4521 4522 0
-4516 -4520 -4521 4522 0
4522 4523 0
-4522 -4523 0
4505 4523 4524 0
4505 -4523 -4524 0
-4505 4523 -4524 0
-4505 -4523 -4524 0
298 4525 0
-298 -4525 0
4525 4526 0
-4525 -4526 0
4526 4527 0
-4526 -4527 0
4527 4504 4528 0
4527 -4504 -4528 0
-4527 4504 -4528 0
-4527 -4504 -4528 0
4524 4528 -4529 0
4524 -4528 4529 0
-4524 4528 4529 0
-4524 -4528 4529 0
4529 4530 0
-4529 -4530 0
4530 4531 0
-4530 -4531 0
771 777 774 4532 0
771 777 -774 -4532 0
771 -777 774 -4532 0
771 -777 -774 -4532 0
-771 777 774 -4532 0
-771 777 -774 -4532 0
-771 -777 774 -4532 0
-771 -777 -774 -4532 0
4532 4533 0
-4532 -4533 0
4533 4434 4534 0
4533 -4434 -4534 0
-4533 4434 -4534 0
-4533 -4434 -4534 0
775 717 4535 0
775 -717 -4535 0
-775 717 -4535 0
-775 -717 -4535 0
4535 4536 0
-4535 -4536 0
4536 737 1707 4537 0
4536 737 -1707 -4537 0
4536 -737 1707 -4537 0
4536 -737 -1707 -4537 0
-4536 737 1707 -4537 0
-4536 737 -1707 -4537 0
-4536 -737 1707 -4537 0
-4536 -737 -1707 -4537 0
4537 4538 0
-4537 -4538 0
4538 4431 4539 0
4538 -4431 -4539 0
-4538 4431 -4539 0
-4538 -4431 -4539 0
4534 4539 4540 0
4534 -4539 -4540 0
-4534 4539 -4540 0
-4534 -4539 -4540 0
4540 4541 0
-4540 -4541 0
313 4542 0
-313 -4542 0
4542 4543 0
-4542 -4543 0
402 4544 0
-402 -4544 0
398 4545 0
-398 -4545 0
4545 4546 0
-4545 -4546 0
1997 4547 0
-1997 -4547 0
397 4548 0
-397 -4548 0
4548 4549 0
-4548 -4549 0
4546 4547 4549 4550 0
4546 4547 -4549 -4550 0
4546 -4547 4549 -4550 0
4546 -4547 -4549 -4550 0
-4546 4547 4549 -4550 0
-4546 4547 -4549 -4550 0
-4546 -4547 4549 -4550 0
-4546 -4547 -4549 -4550 0
4550 4551 0
-4550 -4551 0
4543 4544 4551 4552 0
4543 4544 -4551 -4552 0
4543 -4544 4551 -4552 0
4543 -4544 -4551 -4552 0
-4543 4544 4551 -4552 0
-4543 4544 -4551 -4552 0
-4543 -4544 4551 -4552 0
-4543 -4544 -4551 -4552 0
402 4553 0
-402 -4553 0
4553 4554 0
-4553 -4554 0
313 4555 0
-313 -4555 0
4554 4555 4556 0
4554 -4555 -4556 0
-4554 4555 -4556 0
-4554 -4555 -4556 0
4550 4554 4557 0
4550 -4554 -4557 0
-4550 4554 -4557 0
-4550 -4554 -4557 0
4552 4556 4557 -4558 0
4552 4556 -4557 4558 0
4552 -4556 4557 4558 0
4552 -4556 -4557 4558 0
-4552 4556 4557 4558 0
-4552 4556 -4557 4558 0
-4552 -4556 4557 4558 0
-4552 -4556 -4557 4558 0
4558 4559 0
-4558 -4559 0
4541 4559 4560 0
4541 -4559 -4560 0
-4541 4559 -4560 0
-4541 -4559 -4560 0
298 4561 0
-298 -4561 0
4561 4562 0
-4561 -4562 0
4562 4563 0
-4562 -4563 0
4563 4540 4564 0
4563 -4540 -4564 0
-4563 4540 -4564 0
-4563 -4540 -4564 0
4560 4564 -4565 0
4560 -4564 4565 0
-4560 4564 4565 0
-4560 -4564 4565 0
4565 4566 0
-4565 -4566 0
4566 4567 0
-4566 -4567 0
4531 4567 -4568 0
4531 -4567 4568 0
-4531 4567 4568 0
-4531 -4567 -4568 0
4519 4515 4569 0
4519 -4515 -4569 0
-4519 4515 -4569 0
-4519 -4515 -4569 0
4507 4514 4570 0
4507 -4514 -4570 0
-4507 4514 -4570 0
-4507 -4514 -4570 0
4569 4570 -4571 0
4569 -4570 4571 0
-4569 4570 4571 0
-4569 -4570 4571 0
4571 4572 0
-4571 -4572 0
4572 4505 4573 0
4572 -4505 -4573 0
-4572 4505 -4573 0
-4572 -4505 -4573 0
297 4574 0
-297 -4574 0
4574 4575 0
-4574 -4575 0
4575 4576 0
-4575 -4576 0
4504 4576 4577 0
4504 -4576 -4577 0
-4504 4576 -4577 0
-4504 -4576 -4577 0
4573 4577 -4578 0
4573 -4577 4578 0
-4573 4577 4578 0
-4573 -4577 4578 0
4578 4579 0
-4578 -4579 0
4579 4580 0
-4579 -4580 0
4555 4551 4581 0
4555 -4551 -4581 0
-4555 4551 -4581 0
-4555 -4551 -4581 0
4543 4550 4582 0
4543 -4550 -4582 0
-4543 4550 -4582 0
-4543 -4550 -4582 0
4581 4582 -4583 0
4581 -4582 4583 0
-4581 4582 4583 0
-4581 -4582 4583 0
4583 4584 0
-4583 -4584 0
4584 4541 4585 0
4584 -4541 -4585 0
-4584 4541 -4585 0
-4584 -4541 -4585 0
297 4586 0
-297 -4586 0
4586 4587 0
-4586 -4587 0
4587 4588 0
-4587 -4588 0
4540 4588 4589 0
4540 -4588 -4589 0
-4540 4588 -4589 0
-4540 -4588 -4589 0
4585 4589 -4590 0
4585 -4589 4590 0
-4585 4589 4590 0
-4585 -4589 4590 0
4590 4591 0
-4590 -4591 0
4591 4592 0
-4591 -4592 0
4580 4592 -4593 0
4580 -4592 4593 0
-4580 4592 4593 0
-4580 -4592 -4593 0
4511 4510 4519 4594 0
4511 4510 -4519 -4594 0
4511 -4510 4519 -4594 0
4511 -4510 -4519 -4594 0
-4511 4510 4519 -4594 0
-4511 4510 -4519 -4594 0
-4511 -4510 4519 -4594 0
-4511 -4510 -4519 -4594 0
397 4595 0
-397 -4595 0
4511 4595 4596 0
4511 -4595 -4596 0
-4511 4595 -4596 0
-4511 -4595 -4596 0
4594 4596 -4597 0
4594 -4596 4597 0
-4594 4596 4597 0
-4594 -4596 4597 0
4597 4598 0
-4597 -4598 0
249 4599 0
-249 -4599 0
4598 4599 4600 0
4598 -4599 -4600 0
-4598 4599 -4600 0
-4598 -4599 -4600 0
249 4601 0
-249 -4601 0
4601 4602 0
-4601 -4602 0
4602 4597 4603 0
4602 -4597 -4603 0
-4602 4597 -4603 0
-4602 -4597 -4603 0
4600 4603 -4604 0
4600 -4603 4604 0
-4600 4603 4604 0
-4600 -4603 4604 0
4604 4605 0
-4604 -4605 0
4605 4505 4606 0
4605 -4505 -4606 0
-4605 4505 -4606 0
-4605 -4505 -4606 0
290 4607 0
-290 -4607 0
4607 4608 0
-4607 -4608 0
4608 4609 0
-4608 -4609 0
4504 4609 4610 0
4504 -4609 -4610 0
-4504 4609 -4610 0
-4504 -4609 -4610 0
4606 4610 -4611 0
4606 -4610 4611 0
-4606 4610 4611 0
-4606 -4610 4611 0
4611 4612 0
-4611 -4612 0
4612 4613 0
-4612 -4613 0
4547 4546 4555 4614 0
4547 4546 -4555 -4614 0
4547 -4546 4555 -4614 0
4547 -4546 -4555 -4614 0
-4547 4546 4555 -4614 0
-4547 4546 -4555 -4614 0
-4547 -4546 4555 -4614 0
-4547 -4546 -4555 -4614 0
397 4615 0
-397 -4615 0
4547 4615 4616 0
4547 -4615 -4616 0
-4547 4615 -4616 0
-4547 -4615 -4616 0
4614 4616 -4617 0
4614 -4616 4617 0
-4614 4616 4617 0
-4614 -4616 4617 0
4617 4618 0
-4617 -4618 0
249 4619 0
-249 -4619 0
4618 4619 4620 0
4618 -4619 -4620 0
-4618 4619 -4620 0
-4618 -4619 -4620 0
249 4621 0
-249 -4621 0
4621 4622 0
-4621 -4622 0
4622 4617 4623 0
4622 -4617 -4623 0
-4622 4617 -4623 0
-4622 -4617 -4623 0
4620 4623 -4624 0
4620 -4623 4624 0
-4620 4623 4624 0
-4620 -4623 4624 0
4624 4625 0
-4624 -4625 0
4625 4541 4626 0
4625 -4541 -4626 0
-4625 4541 -4626 0
-4625 -4541 -4626 0
290 4627 0
-290 -4627 0
4627 4628 0
-4627 -4628 0
4628 4629 0
-4628 -4629 0
4540 4629 4630 0
4540 -4629 -4630 0
-4540 4629 -4630 0
-4540 -4629 -4630 0
4626 4630 -4631 0
4626 -4630 4631 0
-4626 4630 4631 0
-4626 -4630 4631 0
4631 4632 0
-4631 -4632 0
4632 4633 0
-4632 -4633 0
4613 4633 -4634 0
4613 -4633 4634 0
-4613 4633 4634 0
-4613 -4633 -4634 0
4498 4635 0
-4498 -4635 0
285 4636 0
-285 -4636 0
4636 4637 0
-4636 -4637 0
4637 4638 0
-4637 -4638 0
4635 4638 4639 0
4635 -4638 -4639 0
-4635 4638 -4639 0
-4635 -4638 -4639 0
255 4640 0
-255 -4640 0
260 4641 0
-260 -4641 0
4641 4642 0
-4641 -4642 0
1948 4643 0
-1948 -4643 0
254 4644 0
-254 -4644 0
4644 4645 0
-4644 -4645 0
259 4646 0
-259 -4646 0
4646 4647 0
-4646 -4647 0
4643 4645 4647 4648 0
4643 4645 -4647 -4648 0
4643 -4645 4647 -4648 0
4643 -4645 -4647 -4648 0
-4643 4645 4647 -4648 0
-4643 4645 -4647 -4648 0
-4643 -4645 4647 -4648 0
-4643 -4645 -4647 -4648 0
4648 4649 0
-4648 -4649 0
4640 4642 4649 4650 0
4640 4642 -4649 -4650 0
4640 -4642 4649 -4650 0
4640 -4642 -4649 -4650 0
-4640 4642 4649 -4650 0
-4640 4642 -4649 -4650 0
-4640 -4642 4649 -4650 0
-4640 -4642 -4649 -4650 0
260 4651 0
-260 -4651 0
255 4652 0
-255 -4652 0
4652 4653 0
-4652 -4653 0
4651 4653 4654 0
4651 -4653 -4654 0
-4651 4653 -4654 0
-4651 -4653 -4654 0
4653 4648 4655 0
4653 -4648 -4655 0
-4653 4648 -4655 0
-4653 -4648 -4655 0
4650 4654 4655 -4656 0
4650 4654 -4655 4656 0
4650 -4654 4655 4656 0
4650 -4654 -4655 4656 0
-4650 4654 4655 4656 0
-4650 4654 -4655 4656 0
-4650 -4654 4655 4656 0
-4650 -4654 -4655 4656 0
4656 4657 0
-4656 -4657 0
647 1680 665 4658 0
647 1680 -665 -4658 0
647 -1680 665 -4658 0
647 -1680 -665 -4658 0
-647 1680 665 -4658 0
-647 1680 -665 -4658 0
-647 -1680 665 -4658 0
-647 -1680 -665 -4658 0
4658 4659 0
-4658 -4659 0
4409 4659 4660 0
4409 -4659 -4660 0
-4409 4659 -4660 0
-4409 -4659 -4660 0
4498 4660 4661 0
4498 -4660 -4661 0
-4498 4660 -4661 0
-4498 -4660 -4661 0
4661 4662 0
-4661 -4662 0
4657 4662 4663 0
4657 -4662 -4663 0
-4657 4662 -4663 0
-4657 -4662 -4663 0
4660 4664 0
-4660 -4664 0
294 4665 0
-294 -4665 0
4665 4666 0
-4665 -4666 0
4666 4667 0
-4666 -4667 0
4664 4667 4668 0
4664 -4667 -4668 0
-4664 4667 -4668 0
-4664 -4667 -4668 0
4639 4663 4668 -4669 0
4639 4663 -4668 4669 0
4639 -4663 4668 4669 0
4639 -4663 -4668 4669 0
-4639 4663 4668 4669 0
-4639 4663 -4668 4669 0
-4639 -4663 4668 4669 0
-4639 -4663 -4668 4669 0
4669 4670 0
-4669 -4670 0
4670 4671 0
-4670 -4671 0
4534 4672 0
-4534 -4672 0
285 4673 0
-285 -4673 0
4673 4674 0
-4673 -4674 0
4674 4675 0
-4674 -4675 0
4672 4675 4676 0
4672 -4675 -4676 0
-4672 4675 -4676 0
-4672 -4675 -4676 0
255 4677 0
-255 -4677 0
260 4678 0
-260 -4678 0
4678 4679 0
-4678 -4679 0
2002 4680 0
-2002 -4680 0
254 4681 0
-254 -4681 0
4681 4682 0
-4681 -4682 0
259 4683 0
-259 -4683 0
4683 4684 0
-4683 -4684 0
4680 4682 4684 4685 0
4680 4682 -4684 -4685 0
4680 -4682 4684 -4685 0
4680 -4682 -4684 -4685 0
-4680 4682 4684 -4685 0
-4680 4682 -4684 -4685 0
-4680 -4682 4684 -4685 0
-4680 -4682 -4684 -4685 0
4685 4686 0
-4685 -4686 0
4677 4679 4686 4687 0
4677 4679 -4686 -4687 0
4677 -4679 4686 -4687 0
4677 -4679 -4686 -4687 0
-4677 4679 4686 -4687 0
-4677 4679 -4686 -4687 0
-4677 -4679 4686 -4687 0
-4677 -4679 -4686 -4687 0
260 4688 0
-260 -4688 0
255 4689 0
-255 -4689 0
4689 4690 0
-4689 -4690 0
4688 4690 4691 0
4688 -4690 -4691 0
-4688 4690 -4691 0
-4688 -4690 -4691 0
4690 4685 4692 0
4690 -4685 -4692 0
-4690 4685 -4692 0
-4690 -4685 -4692 0
4687 4691 4692 -4693 0
4687 4691 -4692 4693 0
4687 -4691 4692 4693 0
4687 -4691 -4692 4693 0
-4687 4691 4692 4693 0
-4687 4691 -4692 4693 0
-4687 -4691 4692 4693 0
-4687 -4691 -4692 4693 0
4693 4694 0
-4693 -4694 0
719 1707 737 4695 0
719 1707 -737 -4695 0
719 -1707 737 -4695 0
719 -1707 -737 -4695 0
-719 1707 737 -4695 0
-719 1707 -737 -4695 0
-719 -1707 737 -4695 0
-719 -1707 -737 -4695 0
4695 4696 0
-4695 -4696 0
4431 4696 4697 0
4431 -4696 -4697 0
-4431 4696 -4697 0
-4431 -4696 -4697 0
4534 4697 4698 0
4534 -4697 -4698 0
-4534 4697 -4698 0
-4534 -4697 -4698 0
4698 4699 0
-4698 -4699 0
4694 4699 4700 0
4694 -4699 -4700 0
-4694 4699 -4700 0
-4694 -4699 -4700 0
4697 4701 0
-4697 -4701 0
294 4702 0
-294 -4702 0
4702 4703 0
-4702 -4703 0
4703 4704 0
-4703 -4704 0
4701 4704 4705 0
4701 -4704 -4705 0
-4701 4704 -4705 0
-4701 -4704 -4705 0
4676 4700 4705 -4706 0
4676 4700 -4705 4706 0
4676 -4700 4705 4706 0
4676 -4700 -4705 4706 0
-4676 4700 4705 4706 0
-4676 4700 -4705 4706 0
-4676 -4700 4705 4706 0
-4676 -4700 -4705 4706 0
4706 4707 0
-4706 -4707 0
4707 4708 0
-4707 -4708 0
4671 4708 -4709 0
4671 -4708 4709 0
-4671 4708 4709 0
-4671 -4708 -4709 0
284 4710 0
-284 -4710 0
4710 4711 0
-4710 -4711 0
4711 4712 0
-4711 -4712 0
4635 4712 4713 0
4635 -4712 -4713 0
-4635 4712 -4713 0
-4635 -4712 -4713 0
4649 4651 4714 0
4649 -4651 -4714 0
-4649 4651 -4714 0
-4649 -4651 -4714 0
4642 4648 4715 0
4642 -4648 -4715 0
-4642 4648 -4715 0
-4642 -4648 -4715 0
4714 4715 -4716 0
4714 -4715 4716 0
-4714 4715 4716 0
-4714 -4715 4716 0
4716 4717 0
-4716 -4717 0
4662 4717 4718 0
4662 -4717 -4718 0
-4662 4717 -4718 0
-4662 -4717 -4718 0
293 4719 0
-293 -4719 0
4719 4720 0
-4719 -4720 0
4720 4721 0
-4720 -4721 0
4721 4664 4722 0
4721 -4664 -4722 0
-4721 4664 -4722 0
-4721 -4664 -4722 0
4713 4718 4722 -4723 0
4713 4718 -4722 4723 0
4713 -4718 4722 4723 0
4713 -4718 -4722 4723 0
-4713 4718 4722 4723 0
-4713 4718 -4722 4723 0
-4713 -4718 4722 4723 0
-4713 -4718 -4722 4723 0
4723 4724 0
-4723 -4724 0
4724 4725 0
-4724 -4725 0
284 4726 0
-284 -4726 0
4726 4727 0
-4726 -4727 0
4727 4728 0
-4727 -4728 0
4672 4728 4729 0
4672 -4728 -4729 0
-4672 4728 -4729 0
-4672 -4728 -4729 0
4686 4688 4730 0
4686 -4688 -4730 0
-4686 4688 -4730 0
-4686 -4688 -4730 0
4679 4685 4731 0
4679 -4685 -4731 0
-4679 4685 -4731 0
-4679 -4685 -4731 0
4730 4731 -4732 0
4730 -4731 4732 0
-4730 4731 4732 0
-4730 -4731 4732 0
4732 4733 0
-4732 -4733 0
4699 4733 4734 0
4699 -4733 -4734 0
-4699 4733 -4734 0
-4699 -4733 -4734 0
293 4735 0
-293 -4735 0
4735 4736 0
-4735 -4736 0
4736 4737 0
-4736 -4737 0
4737 4701 4738 0
4737 -4701 -4738 0
-4737 4701 -4738 0
-4737 -4701 -4738 0
4729 4734 4738 -4739 0
4729 4734 -4738 4739 0
4729 -4734 4738 4739 0
4729 -4734 -4738 4739 0
-4729 4734 4738 4739 0
-4729 4734 -4738 4739 0
-4729 -4734 4738 4739 0
-4729 -4734 -4738 4739 0
4739 4740 0
-4739 -4740 0
4740 4741 0
-4740 -4741 0
4725 4741 -4742 0
4725 -4741 4742 0
-4725 4741 4742 0
-4725 -4741 -4742 0
281 4743 0
-281 -4743 0
4743 4744 0
-4743 -4744 0
4744 4745 0
-4744 -4745 0
4635 4745 4746 0
4635 -4745 -4746 0
-4635 4745 -4746 0
-4635 -4745 -4746 0
250 4747 0
-250 -4747 0
4747 4748 0
-4747 -4748 0
4647 4651 4643 4749 0
4647 4651 -4643 -4749 0
4647 -4651 4643 -4749 0
4647 -4651 -4643 -4749 0
-4647 4651 4643 -4749 0
-4647 4651 -4643 -4749 0
-4647 -4651 4643 -4749 0
-4647 -4651 -4643 -4749 0
254 4750 0
-254 -4750 0
4750 4643 4751 0
4750 -4643 -4751 0
-4750 4643 -4751 0
-4750 -4643 -4751 0
4749 4751 -4752 0
4749 -4751 4752 0
-4749 4751 4752 0
-4749 -4751 4752 0
4748 4752 4753 0
4748 -4752 -4753 0
-4748 4752 -4753 0
-4748 -4752 -4753 0
4752 4754 0
-4752 -4754 0
250 4755 0
-250 -4755 0
4754 4755 4756 0
4754 -4755 -4756 0
-4754 4755 -4756 0
-4754 -4755 -4756 0
4753 4756 -4757 0
4753 -4756 4757 0
-4753 4756 4757 0
-4753 -4756 4757 0
4757 4758 0
-4757 -4758 0
4662 4758 4759 0
4662 -4758 -4759 0
-4662 4758 -4759 0
-4662 -4758 -4759 0
4664 4609 4760 0
4664 -4609 -4760 0
-4664 4609 -4760 0
-4664 -4609 -4760 0
4746 4759 4760 -4761 0
4746 4759 -4760 4761 0
4746 -4759 4760 4761 0
4746 -4759 -4760 4761 0
-4746 4759 4760 4761 0
-4746 4759 -4760 4761 0
-4746 -4759 4760 4761 0
-4746 -4759 -4760 4761 0
4761 4762 0
-4761 -4762 0
4762 4763 0
-4762 -4763 0
281 4764 0
-281 -4764 0
4764 4765 0
-4764 -4765 0
4765 4766 0
-4765 -4766 0
4672 4766 4767 0
4672 -4766 -4767 0
-4672 4766 -4767 0
-4672 -4766 -4767 0
250 4768 0
-250 -4768 0
4768 4769 0
-4768 -4769 0
4684 4688 4680 4770 0
4684 4688 -4680 -4770 0
4684 -4688 4680 -4770 0
4684 -4688 -4680 -4770 0
-4684 4688 4680 -4770 0
-4684 4688 -4680 -4770 0
-4684 -4688 4680 -4770 0
-4684 -4688 -4680 -4770 0
254 4771 0
-254 -4771 0
4771 4680 4772 0
4771 -4680 -4772 0
-4771 4680 -4772 0
-4771 -4680 -4772 0
4770 4772 -4773 0
4770 -4772 4773 0
-4770 4772 4773 0
-4770 -4772 4773 0
4769 4773 4774 0
4769 -4773 -4774 0
-4769 4773 -4774 0
-4769 -4773 -4774 0
4773 4775 0
-4773 -4775 0
250 4776 0
-250 -4776 0
4775 4776 4777 0
4775 -4776 -4777 0
-4775 4776 -4777 0
-4775 -4776 -4777 0
4774 4777 -4778 0
4774 -4777 4778 0
-4774 4777 4778 0
-4774 -4777 4778 0
4778 4779 0
-4778 -4779 0
4699 4779 4780 0
4699 -4779 -4780 0
-4699 4779 -4780 0
-4699 -4779 -4780 0
4701 4629 4781 0
4701 -4629 -4781 0
-4701 4629 -4781 0
-4701 -4629 -4781 0
4767 4780 4781 -4782 0
4767 4780 -4781 4782 0
4767 -4780 4781 4782 0
4767 -4780 -4781 4782 0
-4767 4780 4781 4782 0
-4767 4780 -4781 4782 0
-4767 -4780 4781 4782 0
-4767 -4780 -4781 4782 0
4782 4783 0
-4782 -4783 0
4783 4784 0
-4783 -4784 0
4763 4784 -4785 0
4763 -4784 4785 0
-4763 4784 4785 0
-4763 -4784 -4785 0
282 4786 0
-282 -4786 0
4786 4787 0
-4786 -4787 0
4787 4788 0
-4787 -4788 0
4788 4635 4789 0
4788 -4635 -4789 0
-4788 4635 -4789 0
-4788 -4635 -4789 0
1948 4790 0
-1948 -4790 0
4790 4791 0
-4790 -4791 0
4791 4645 4792 0
4791 -4645 -4792 0
-4791 4645 -4792 0
-4791 -4645 -4792 0
4643 4750 4793 0
4643 -4750 -4793 0
-4643 4750 -4793 0
-4643 -4750 -4793 0
4792 4793 -4794 0
4792 -4793 4794 0
-4792 4793 4794 0
-4792 -4793 4794 0
4794 4795 0
-4794 -4795 0
4662 4795 4796 0
4662 -4795 -4796 0
-4662 4795 -4796 0
-4662 -4795 -4796 0
291 4797 0
-291 -4797 0
4797 4798 0
-4797 -4798 0
4798 4799 0
-4798 -4799 0
4799 4664 4800 0
4799 -4664 -4800 0
-4799 4664 -4800 0
-4799 -4664 -4800 0
4789 4796 4800 -4801 0
4789 4796 -4800 4801 0
4789 -4796 4800 4801 0
4789 -4796 -4800 4801 0
-4789 4796 4800 4801 0
-4789 4796 -4800 4801 0
-4789 -4796 4800 4801 0
-4789 -4796 -4800 4801 0
4801 4802 0
-4801 -4802 0
4802 4803 0
-4802 -4803 0
282 4804 0
-282 -4804 0
4804 4805 0
-4804 -4805 0
4805 4806 0
-4805 -4806 0
4806 4672 4807 0
4806 -4672 -4807 0
-4806 4672 -4807 0
-4806 -4672 -4807 0
2002 4808 0
-2002 -4808 0
4808 4809 0
-4808 -4809 0
4809 4682 4810 0
4809 -4682 -4810 0
-4809 4682 -4810 0
-4809 -4682 -4810 0
4680 4771 4811 0
4680 -4771 -4811 0
-4680 4771 -4811 0
-4680 -4771 -4811 0
4810 4811 -4812 0
4810 -4811 4812 0
-4810 4811 4812 0
-4810 -4811 4812 0
4812 4813 0
-4812 -4813 0
4699 4813 4814 0
4699 -4813 -4814 0
-4699 4813 -4814 0
-4699 -4813 -4814 0
291 4815 0
-291 -4815 0
4815 4816 0
-4815 -4816 0
4816 4817 0
-4816 -4817 0
4817 4701 4818 0
4817 -4701 -4818 0
-4817 4701 -4818 0
-4817 -4701 -4818 0
4807 4814 4818 -4819 0
4807 4814 -4818 4819 0
4807 -4814 4818 4819 0
4807 -4814 -4818 4819 0
-4807 4814 4818 4819 0
-4807 4814 -4818 4819 0
-4807 -4814 4818 4819 0
-4807 -4814 -4818 4819 0
4819 4820 0
-4819 -4820 0
4820 4821 0
-4820 -4821 0
4803 4821 -4822 0
4803 -4821 4822 0
-4803 4821 4822 0
-4803 -4821 -4822 0
292 4823 0
-292 -4823 0
4823 4824 0
-4823 -4824 0
4824 4825 0
-4824 -4825 0
4664 4825 4826 0
4664 -4825 -4826 0
-4664 4825 -4826 0
-4664 -4825 -4826 0
259 4827 0
-259 -4827 0
4827 4645 4643 4828 0
4827 4645 -4643 -4828 0
4827 -4645 4643 -4828 0
4827 -4645 -4643 -4828 0
-4827 4645 4643 -4828 0
-4827 4645 -4643 -4828 0
-4827 -4645 4643 -4828 0
-4827 -4645 -4643 -4828 0
4750 4647 4829 0
4750 -4647 -4829 0
-4750 4647 -4829 0
-4750 -4647 -4829 0
4647 4791 4830 0
4647 -4791 -4830 0
-4647 4791 -4830 0
-4647 -4791 -4830 0
4828 4829 4830 -4831 0
4828 4829 -4830 4831 0
4828 -4829 4830 4831 0
4828 -4829 -4830 4831 0
-4828 4829 4830 4831 0
-4828 4829 -4830 4831 0
-4828 -4829 4830 4831 0
-4828 -4829 -4830 4831 0
4831 4832 0
-4831 -4832 0
4662 4832 4833 0
4662 -4832 -4833 0
-4662 4832 -4833 0
-4662 -4832 -4833 0
283 4834 0
-283 -4834 0
4834 4835 0
-4834 -4835 0
4835 4836 0
-4835 -4836 0
4635 4836 4837 0
4635 -4836 -4837 0
-4635 4836 -4837 0
-4635 -4836 -4837 0
4826 4833 4837 -4838 0
4826 4833 -4837 4838 0
4826 -4833 4837 4838 0
4826 -4833 -4837 4838 0
-4826 4833 4837 4838 0
-4826 4833 -4837 4838 0
-4826 -4833 4837 4838 0
-4826 -4833 -4837 4838 0
4838 4839 0
-4838 -4839 0
4839 4840 0
-4839 -4840 0
292 4841 0
-292 -4841 0
4841 4842 0
-4841 -4842 0
4842 4843 0
-4842 -4843 0
4701 4843 4844 0
4701 -4843 -4844 0
-4701 4843 -4844 0
-4701 -4843 -4844 0
259 4845 0
-259 -4845 0
4845 4682 4680 4846 0
4845 4682 -4680 -4846 0
4845 -4682 4680 -4846 0
4845 -4682 -4680 -4846 0
-4845 4682 4680 -4846 0
-4845 4682 -4680 -4846 0
-4845 -4682 4680 -4846 0
-4845 -4682 -4680 -4846 0
4771 4684 4847 0
4771 -4684 -4847 0
-4771 4684 -4847 0
-4771 -4684 -4847 0
4684 4809 4848 0
4684 -4809 -4848 0
-4684 4809 -4848 0
-4684 -4809 -4848 0
4846 4847 4848 -4849 0
4846 4847 -4848 4849 0
4846 -4847 4848 4849 0
4846 -4847 -4848 4849 0
-4846 4847 4848 4849 0
-4846 4847 -4848 4849 0
-4846 -4847 4848 4849 0
-4846 -4847 -4848 4849 0
4849 4850 0
-4849 -4850 0
4699 4850 4851 0
4699 -4850 -4851 0
-4699 4850 -4851 0
-4699 -4850 -4851 0
283 4852 0
-283 -4852 0
4852 4853 0
-4852 -4853 0
4853 4854 0
-4853 -4854 0
4672 4854 4855 0
4672 -4854 -4855 0
-4672 4854 -4855 0
-4672 -4854 -4855 0
4844 4851 4855 -4856 0
4844 4851 -4855 4856 0
4844 -4851 4855 4856 0
4844 -4851 -4855 4856 0
-4844 4851 4855 4856 0
-4844 4851 -4855 4856 0
-4844 -4851 4855 4856 0
-4844 -4851 -4855 4856 0
4856 4857 0
-4856 -4857 0
4857 4858 0
-4857 -4858 0
4840 4858 -4859 0
4840 -4858 4859 0
-4840 4858 4859 0
-4840 -4858 -4859 0
1943 4860 0
-1943 -4860 0
4860 4861 0
-4860 -4861 0
4513 4861 4862 0
4513 -4861 -4862 0
-4513 4861 -4862 0
-4513 -4861 -4862 0
4595 4511 4863 0
4595 -4511 -4863 0
-4595 4511 -4863 0
-4595 -4511 -4863 0
4862 4863 -4864 0
4862 -4863 4864 0
-4862 4863 4864 0
-4862 -4863 4864 0
4864 4865 0
-4864 -4865 0
4505 4865 4866 0
4505 -4865 -4866 0
-4505 4865 -4866 0
-4505 -4865 -4866 0
295 4867 0
-295 -4867 0
4867 4868 0
-4867 -4868 0
4868 4869 0
-4868 -4869 0
4504 4869 4870 0
4504 -4869 -4870 0
-4504 4869 -4870 0
-4504 -4869 -4870 0
4866 4870 -4871 0
4866 -4870 4871 0
-4866 4870 4871 0
-4866 -4870 4871 0
4871 4872 0
-4871 -4872 0
4872 4873 0
-4872 -4873 0
1997 4874 0
-1997 -4874 0
4874 4875 0
-4874 -4875 0
4549 4875 4876 0
4549 -4875 -4876 0
-4549 4875 -4876 0
-4549 -4875 -4876 0
4615 4547 4877 0
4615 -4547 -4877 0
-4615 4547 -4877 0
-4615 -4547 -4877 0
4876 4877 -4878 0
4876 -4877 4878 0
-4876 4877 4878 0
-4876 -4877 4878 0
4878 4879 0
-4878 -4879 0
4541 4879 4880 0
4541 -4879 -4880 0
-4541 4879 -4880 0
-4541 -4879 -4880 0
295 4881 0
-295 -4881 0
4881 4882 0
-4881 -4882 0
4882 4883 0
-4882 -4883 0
4540 4883 4884 0
4540 -4883 -4884 0
-4540 4883 -4884 0
-4540 -4883 -4884 0
4880 4884 -4885 0
4880 -4884 4885 0
-4880 4884 4885 0
-4880 -4884 4885 0
4885 4886 0
-4885 -4886 0
4886 4887 0
-4886 -4887 0
4873 4887 -4888 0
4873 -4887 4888 0
-4873 4887 4888 0
-4873 -4887 -4888 0
296 4889 0
-296 -4889 0
4889 4890 0
-4889 -4890 0
4890 4891 0
-4890 -4891 0
4891 4504 4892 0
4891 -4504 -4892 0
-4891 4504 -4892 0
-4891 -4504 -4892 0
398 4893 0
-398 -4893 0
4513 4511 4893 4894 0
4513 4511 -4893 -4894 0
4513 -4511 4893 -4894 0
4513 -4511 -4893 -4894 0
-4513 4511 4893 -4894 0
-4513 4511 -4893 -4894 0
-4513 -4511 4893 -4894 0
-4513 -4511 -4893 -4894 0
4510 4861 4895 0
4510 -4861 -4895 0
-4510 4861 -4895 0
-4510 -4861 -4895 0
4510 4595 4896 0
4510 -4595 -4896 0
-4510 4595 -4896 0
-4510 -4595 -4896 0
4894 4895 4896 -4897 0
4894 4895 -4896 4897 0
4894 -4895 4896 4897 0
4894 -4895 -4896 4897 0
-4894 4895 4896 4897 0
-4894 4895 -4896 4897 0
-4894 -4895 4896 4897 0
-4894 -4895 -4896 4897 0
4897 4898 0
-4897 -4898 0
4505 4898 4899 0
4505 -4898 -4899 0
-4505 4898 -4899 0
-4505 -4898 -4899 0
4892 4899 -4900 0
4892 -4899 4900 0
-4892 4899 4900 0
-4892 -4899 4900 0
4900 4901 0
-4900 -4901 0
4901 4902 0
-4901 -4902 0
296 4903 0
-296 -4903 0
4903 4904 0
-4903 -4904 0
4904 4905 0
-4904 -4905 0
4905 4540 4906 0
4905 -4540 -4906 0
-4905 4540 -4906 0
-4905 -4540 -4906 0
398 4907 0
-398 -4907 0
4549 4547 4907 4908 0
4549 4547 -4907 -4908 0
4549 -4547 4907 -4908 0
4549 -4547 -4907 -4908 0
-4549 4547 4907 -4908 0
-4549 4547 -4907 -4908 0
-4549 -4547 4907 -4908 0
-4549 -4547 -4907 -4908 0
4546 4875 4909 0
4546 -4875 -4909 0
-4546 4875 -4909 0
-4546 -4875 -4909 0
4546 4615 4910 0
4546 -4615 -4910 0
-4546 4615 -4910 0
-4546 -4615 -4910 0
4908 4909 4910 -4911 0
4908 4909 -4910 4911 0
4908 -4909 4910 4911 0
4908 -4909 -4910 4911 0
-4908 4909 4910 4911 0
-4908 4909 -4910 4911 0
-4908 -4909 4910 4911 0
-4908 -4909 -4910 4911 0
4911 4912 0
-4911 -4912 0
4541 4912 4913 0
4541 -4912 -4913 0
-4541 4912 -4913 0
-4541 -4912 -4913 0
4906 4913 -4914 0
4906 -4913 4914 0
-4906 4913 4914 0
-4906 -4913 4914 0
4914 4915 0
-4914 -4915 0
4915 4916 0
-4915 -4916 0
4902 4916 -4917 0
4902 -4916 4917 0
-4902 4916 4917 0
-4902 -4916 -4917 0
304 4918 0
-304 -4918 0
4918 4919 0
-4918 -4919 0
4199 4920 0
-4199 -4920 0
4239 4275 4921 0
4239 -4275 -4921 0
-4239 4275 -4921 0
-4239 -4275 -4921 0
4920 4921 -4922 0
4920 -4921 4922 0
-4920 4921 4922 0
-4920 -4921 4922 0
4922 4340 4923 0
4922 -4340 -4923 0
-4922 4340 -4923 0
-4922 -4340 -4923 0
4923 4924 0
-4923 -4924 0
4919 4924 4925 0
4919 -4924 -4925 0
-4919 4924 -4925 0
-4919 -4924 -4925 0
304 4926 0
-304 -4926 0
4923 4926 4927 0
4923 -4926 -4927 0
-4923 4926 -4927 0
-4923 -4926 -4927 0
4925 4927 -4928 0
4925 -4927 4928 0
-4925 4927 4928 0
-4925 -4927 4928 0
4339 4929 0
-4339 -4929 0
4306 4930 0
-4306 -4930 0
4242 4931 0
-4242 -4931 0
4204 4932 0
-4204 -4932 0
4273 4933 0
-4273 -4933 0
4931 4932 4933 4934 0
4931 4932 -4933 -4934 0
4931 -4932 4933 -4934 0
4931 -4932 -4933 -4934 0
-4931 4932 4933 -4934 0
-4931 4932 -4933 -4934 0
-4931 -4932 4933 -4934 0
-4931 -4932 -4933 -4934 0
4934 4935 0
-4934 -4935 0
4929 4930 4935 4936 0
4929 4930 -4935 -4936 0
4929 -4930 4935 -4936 0
4929 -4930 -4935 -4936 0
-4929 4930 4935 -4936 0
-4929 4930 -4935 -4936 0
-4929 -4930 4935 -4936 0
-4929 -4930 -4935 -4936 0
4936 4937 0
-4936 -4937 0
2336 4937 4938 0
2336 -4937 -4938 0
-2336 4937 -4938 0
-2336 -4937 -4938 0
4199 4939 0
-4199 -4939 0
4239 4940 0
-4239 -4940 0
4939 4940 4933 4941 0
4939 4940 -4933 -4941 0
4939 -4940 4933 -4941 0
4939 -4940 -4933 -4941 0
-4939 4940 4933 -4941 0
-4939 4940 -4933 -4941 0
-4939 -4940 4933 -4941 0
-4939 -4940 -4933 -4941 0
4941 4942 0
-4941 -4942 0
4942 4929 4930 4943 0
4942 4929 -4930 -4943 0
4942 -4929 4930 -4943 0
4942 -4929 -4930 -4943 0
-4942 4929 4930 -4943 0
-4942 4929 -4930 -4943 0
-4942 -4929 4930 -4943 0
-4942 -4929 -4930 -4943 0
4943 4944 0
-4943 -4944 0
2337 4944 4945 0
2337 -4944 -4945 0
-2337 4944 -4945 0
-2337 -4944 -4945 0
4938 4945 -4946 0
4938 -4945 4946 0
-4938 4945 4946 0
-4938 -4945 4946 0
363 4947 0
-363 -4947 0
2989 4947 4948 0
2989 -4947 -4948 0
-2989 4947 -4948 0
-2989 -4947 -4948 0
264 4949 0
-264 -4949 0
4949 4950 0
-4949 -4950 0
4950 4951 0
-4950 -4951 0
4951 4952 0
-4951 -4952 0
312 4953 0
-312 -4953 0
320 4954 0
-320 -4954 0
303 4955 0
-303 -4955 0
322 4956 0
-322 -4956 0
321 4957 0
-321 -4957 0
4954 4955 4956 4957 4958 0
4954 4955 4956 -4957 -4958 0
4954 4955 -4956 4957 -4958 0
4954 4955 -4956 -4957 -4958 0
4954 -4955 4956 4957 -4958 0
4954 -4955 4956 -4957 -4958 0
4954 -4955 -4956 4957 -4958 0
4954 -4955 -4956 -4957 -4958 0
-4954 4955 4956 4957 -4958 0
-4954 4955 4956 -4957 -4958 0
-4954 4955 -4956 4957 -4958 0
-4954 4955 -4956 -4957 -4958 0
-4954 -4955 4956 4957 -4958 0
-4954 -4955 4956 -4957 -4958 0
-4954 -4955 -4956 4957 -4958 0
-4954 -4955 -4956 -4957 -4958 0
4958 4959 0
-4958 -4959 0
343 4960 0
-343 -4960 0
4953 4959 4960 4961 0
4953 4959 -4960 -4961 0
4953 -4959 4960 -4961 0
4953 -4959 -4960 -4961 0
-4953 4959 4960 -4961 0
-4953 4959 -4960 -4961 0
-4953 -4959 4960 -4961 0
-4953 -4959 -4960 -4961 0
4961 4962 0
-4961 -4962 0
4962 4963 0
-4962 -4963 0
4952 4963 4964 0
4952 -4963 -4964 0
-4952 4963 -4964 0
-4952 -4963 -4964 0
1891 1890 4948 4964 4965 0
1891 1890 4948 -4964 -4965 0
1891 1890 -4948 4964 -4965 0
1891 1890 -4948 -4964 -4965 0
1891 -1890 4948 4964 -4965 0
1891 -1890 4948 -4964 -4965 0
1891 -1890 -4948 4964 -4965 0
1891 -1890 -4948 -4964 -4965 0
-1891 1890 4948 4964 -4965 0
-1891 1890 4948 -4964 -4965 0
-1891 1890 -4948 4964 -4965 0
-1891 1890 -4948 -4964 -4965 0
-1891 -1890 4948 4964 -4965 0
-1891 -1890 4948 -4964 -4965 0
-1891 -1890 -4948 4964 -4965 0
-1891 -1890 -4948 -4964 -4965 0
4965 4966 0
-4965 -4966 0
4946 4966 4967 0
4946 -4966 -4967 0
-4946 4966 -4967 0
-4946 -4966 -4967 0
4967 4968 0
-4967 -4968 0
4928 4968 4969 0
4928 -4968 -4969 0
-4928 4968 -4969 0
-4928 -4968 -4969 0
4969 4970 0
-4969 -4970 0
4970 4971 0
-4970 -4971 0
4971 4972 0
-4971 -4972 0
304 4973 0
-304 -4973 0
4973 4974 0
-4973 -4974 0
4218 4975 0
-4218 -4975 0
4255 4292 4976 0
4255 -4292 -4976 0
-4255 4292 -4976 0
-4255 -4292 -4976 0
4975 4976 -4977 0
4975 -4976 4977 0
-4975 4976 4977 0
-4975 -4976 4977 0
4977 4357 4978 0
4977 -4357 -4978 0
-4977 4357 -4978 0
-4977 -4357 -4978 0
4978 4979 0
-4978 -4979 0
4974 4979 4980 0
4974 -4979 -4980 0
-4974 4979 -4980 0
-4974 -4979 -4980 0
304 4981 0
-304 -4981 0
4978 4981 4982 0
4978 -4981 -4982 0
-4978 4981 -4982 0
-4978 -4981 -4982 0
4980 4982 -4983 0
4980 -4982 4983 0
-4980 4982 4983 0
-4980 -4982 4983 0
4356 4984 0
-4356 -4984 0
4322 4985 0
-4322 -4985 0
4258 4986 0
-4258 -4986 0
4223 4987 0
-4223 -4987 0
4290 4988 0
-4290 -4988 0
4986 4987 4988 4989 0
4986 4987 -4988 -4989 0
4986 -4987 4988 -4989 0
4986 -4987 -4988 -4989 0
-4986 4987 4988 -4989 0
-4986 4987 -4988 -4989 0
-4986 -4987 4988 -4989 0
-4986 -4987 -4988 -4989 0
4989 4990 0
-4989 -4990 0
4984 4985 4990 4991 0
4984 4985 -4990 -4991 0
4984 -4985 4990 -4991 0
4984 -4985 -4990 -4991 0
-4984 4985 4990 -4991 0
-4984 4985 -4990 -4991 0
-4984 -4985 4990 -4991 0
-4984 -4985 -4990 -4991 0
4991 4992 0
-4991 -4992 0
2696 4992 4993 0
2696 -4992 -4993 0
-2696 4992 -4993 0
-2696 -4992 -4993 0
4218 4994 0
-4218 -4994 0
4255 4995 0
-4255 -4995 0
4994 4995 4988 4996 0
4994 4995 -4988 -4996 0
4994 -4995 4988 -4996 0
4994 -4995 -4988 -4996 0
-4994 4995 4988 -4996 0
-4994 4995 -4988 -4996 0
-4994 -4995 4988 -4996 0
-4994 -4995 -4988 -4996 0
4996 4997 0
-4996 -4997 0
4997 4984 4985 4998 0
4997 4984 -4985 -4998 0
4997 -4984 4985 -4998 0
4997 -4984 -4985 -4998 0
-4997 4984 4985 -4998 0
-4997 4984 -4985 -4998 0
-4997 -4984 4985 -4998 0
-4997 -4984 -4985 -4998 0
4998 4999 0
-4998 -4999 0
2697 4999 5000 0
2697 -4999 -5000 0
-2697 4999 -5000 0
-2697 -4999 -5000 0
4993 5000 -5001 0
4993 -5000 5001 0
-4993 5000 5001 0
-4993 -5000 5001 0
363 5002 0
-363 -5002 0
3052 5002 5003 0
3052 -5002 -5003 0
-3052 5002 -5003 0
-3052 -5002 -5003 0
264 5004 0
-264 -5004 0
5004 5005 0
-5004 -5005 0
5005 5006 0
-5005 -5006 0
5006 5007 0
-5006 -5007 0
312 5008 0
-312 -5008 0
320 5009 0
-320 -5009 0
303 5010 0
-303 -5010 0
322 5011 0
-322 -5011 0
321 5012 0
-321 -5012 0
5009 5010 5011 5012 5013 0
5009 5010 5011 -5012 -5013 0
5009 5010 -5011 5012 -5013 0
5009 5010 -5011 -5012 -5013 0
5009 -5010 5011 5012 -5013 0
5009 -5010 5011 -5012 -5013 0
5009 -5010 -5011 5012 -5013 0
5009 -5010 -5011 -5012 -5013 0
-5009 5010 5011 5012 -5013 0
-5009 5010 5011 -5012 -5013 0
-5009 5010 -5011 5012 -5013 0
-5009 5010 -5011 -5012 -5013 0
-5009 -5010 5011 5012 -5013 0
-5009 -5010 5011 -5012 -5013 0
-5009 -5010 -5011 5012 -5013 0
-5009 -5010 -5011 -5012 -5013 0
5013 5014 0
-5013 -5014 0
343 5015 0
-343 -5015 0
5008 5014 5015 5016 0
5008 5014 -5015 -5016 0
5008 -5014 5015 -5016 0
5008 -5014 -5015 -5016 0
-5008 5014 5015 -5016 0
-5008 5014 -5015 -5016 0
-5008 -5014 5015 -5016 0
-5008 -5014 -5015 -5016 0
5016 5017 0
-5016 -5017 0
5017 5018 0
-5017 -5018 0
5007 5018 5019 0
5007 -5018 -5019 0
-5007 5018 -5019 0
-5007 -5018 -5019 0
1911 1910 5003 5019 5020 0
1911 1910 5003 -5019 -5020 0
1911 1910 -5003 5019 -5020 0
1911 1910 -5003 -5019 -5020 0
1911 -1910 5003 5019 -5020 0
1911 -1910 5003 -5019 -5020 0
1911 -1910 -5003 5019 -5020 0
1911 -1910 -5003 -5019 -5020 0
-1911 1910 5003 5019 -5020 0
-1911 1910 5003 -5019 -5020 0
-1911 1910 -5003 5019 -5020 0
-1911 1910 -5003 -5019 -5020 0
-1911 -1910 5003 5019 -5020 0
-1911 -1910 5003 -5019 -5020 0
-1911 -1910 -5003 5019 -5020 0
-1911 -1910 -5003 -5019 -5020 0
5020 5021 0
-5020 -5021 0
5001 5021 5022 0
5001 -5021 -5022 0
-5001 5021 -5022 0
-5001 -5021 -5022 0
5022 5023 0
-5022 -5023 0
4983 5023 5024 0
4983 -5023 -5024 0
-4983 5023 -5024 0
-4983 -5023 -5024 0
5024 5025 0
-5024 -5025 0
5025 5026 0
-5025 -5026 0
5026 5027 0
-5026 -5027 0
4972 5027 -5028 0
4972 -5027 5028 0
-4972 5027 5028 0
-4972 -5027 -5028 0
375 5029 0
-375 -5029 0
5029 5030 0
-5029 -5030 0
1742 1794 5031 0
1742 -1794 -5031 0
-1742 1794 -5031 0
-1742 -1794 -5031 0
1689 5032 0
-1689 -5032 0
5031 5032 -5033 0
5031 -5032 5033 0
-5031 5032 5033 0
-5031 -5032 5033 0
5033 4460 5034 0
5033 -4460 -5034 0
-5033 4460 -5034 0
-5033 -4460 -5034 0
5034 5035 0
-5034 -5035 0
5030 5035 5036 0
5030 -5035 -5036 0
-5030 5035 -5036 0
-5030 -5035 -5036 0
375 5037 0
-375 -5037 0
5034 5037 5038 0
5034 -5037 -5038 0
-5034 5037 -5038 0
-5034 -5037 -5038 0
5036 5038 -5039 0
5036 -5038 5039 0
-5036 5038 5039 0
-5036 -5038 5039 0
401 5040 0
-401 -5040 0
5040 5041 0
-5040 -5041 0
365 5042 0
-365 -5042 0
5042 5043 0
-5042 -5043 0
2337 5041 5043 5044 0
2337 5041 -5043 -5044 0
2337 -5041 5043 -5044 0
2337 -5041 -5043 -5044 0
-2337 5041 5043 -5044 0
-2337 5041 -5043 -5044 0
-2337 -5041 5043 -5044 0
-2337 -5041 -5043 -5044 0
390 5045 0
-390 -5045 0
5045 2336 5046 0
5045 -2336 -5046 0
-5045 2336 -5046 0
-5045 -2336 -5046 0
390 5047 0
-390 -5047 0
5047 5048 0
-5047 -5048 0
5048 2336 5049 0
5048 -2336 -5049 0
-5048 2336 -5049 0
-5048 -2336 -5049 0
5044 5046 5049 5050 0
5044 5046 -5049 -5050 0
5044 -5046 5049 -5050 0
5044 -5046 -5049 -5050 0
-5044 5046 5049 -5050 0
-5044 5046 -5049 -5050 0
-5044 -5046 5049 -5050 0
-5044 -5046 -5049 -5050 0
5050 5051 0
-5050 -5051 0
1788 5052 0
-1788 -5052 0
4458 5053 0
-4458 -5053 0
4415 5054 0
-4415 -5054 0
1693 5055 0
-1693 -5055 0
1741 5056 0
-1741 -5056 0
5054 5055 5056 -5057 0
5054 5055 -5056 5057 0
5054 -5055 5056 5057 0
5054 -5055 -5056 5057 0
-5054 5055 5056 5057 0
-5054 5055 -5056 5057 0
-5054 -5055 5056 5057 0
-5054 -5055 -5056 5057 0
5052 5053 5057 -5058 0
5052 5053 -5057 5058 0
5052 -5053 5057 5058 0
5052 -5053 -5057 5058 0
-5052 5053 5057 5058 0
-5052 5053 -5057 5058 0
-5052 -5053 5057 5058 0
-5052 -5053 -5057 5058 0
5058 5059 0
-5058 -5059 0
5059 5060 0
-5059 -5060 0
5051 5060 5061 0
5051 -5060 -5061 0
-5051 5060 -5061 0
-5051 -5060 -5061 0
5046 5062 0
-5046 -5062 0
4418 5063 0
-4418 -5063 0
5053 5052 5056 -5064 0
5053 5052 -5056 5064 0
5053 -5052 5056 5064 0
5053 -5052 -5056 5064 0
-5053 5052 5056 5064 0
-5053 5052 -5056 5064 0
-5053 -5052 5056 5064 0
-5053 -5052 -5056 5064 0
5055 5063 5064 -5065 0
5055 5063 -5064 5065 0
5055 -5063 5064 5065 0
5055 -5063 -5064 5065 0
-5055 5063 5064 5065 0
-5055 5063 -5064 5065 0
-5055 -5063 5064 5065 0
-5055 -5063 -5064 5065 0
5065 5066 0
-5065 -5066 0
5066 5067 0
-5066 -5067 0
5062 5067 5068 0
5062 -5067 -5068 0
-5062 5067 -5068 0
-5062 -5067 -5068 0
4463 5069 0
-4463 -5069 0
1793 5070 0
-1793 -5070 0
1748 5071 0
-1748 -5071 0
5054 5070 5071 -5072 0
5054 5070 -5071 5072 0
5054 -5070 5071 5072 0
5054 -5070 -5071 5072 0
-5054 5070 5071 5072 0
-5054 5070 -5071 5072 0
-5054 -5070 5071 5072 0
-5054 -5070 -5071 5072 0
5055 5069 5072 -5073 0
5055 5069 -5072 5073 0
5055 -5069 5072 5073 0
5055 -5069 -5072 5073 0
-5055 5069 5072 5073 0
-5055 5069 -5072 5073 0
-5055 -5069 5072 5073 0
-5055 -5069 -5072 5073 0
5073 5074 0
-5073 -5074 0
5074 5075 0
-5074 -5075 0
5049 5076 0
-5049 -5076 0
5075 5076 5077 0
5075 -5076 -5077 0
-5075 5076 -5077 0
-5075 -5076 -5077 0
5053 5071 5054 -5078 0
5053 5071 -5054 5078 0
5053 -5071 5054 5078 0
5053 -5071 -5054 5078 0
-5053 5071 5054 5078 0
-5053 5071 -5054 5078 0
-5053 -5071 5054 5078 0
-5053 -5071 -5054 5078 0
5052 5055 5078 -5079 0
5052 5055 -5078 5079 0
5052 -5055 5078 5079 0
5052 -5055 -5078 5079 0
-5052 5055 5078 5079 0
-5052 5055 -5078 5079 0
-5052 -5055 5078 5079 0
-5052 -5055 -5078 5079 0
5079 5080 0
-5079 -5080 0
5080 5081 0
-5080 -5081 0
5044 5082 0
-5044 -5082 0
5081 5082 5083 0
5081 -5082 -5083 0
-5081 5082 -5083 0
-5081 -5082 -5083 0
5061 5068 5077 5083 5084 0
5061 5068 5077 -5083 -5084 0
5061 5068 -5077 5083 -5084 0
5061 5068 -5077 -5083 -5084 0
5061 -5068 5077 5083 -5084 0
5061 -5068 5077 -5083 -5084 0
5061 -5068 -5077 5083 -5084 0
5061 -5068 -5077 -5083 -5084 0
-5061 5068 5077 5083 -5084 0
-5061 5068 5077 -5083 -5084 0
-5061 5068 -5077 5083 -5084 0
-5061 5068 -5077 -5083 -5084 0
-5061 -5068 5077 5083 -5084 0
-5061 -5068 5077 -5083 -5084 0
-5061 -5068 -5077 5083 -5084 0
-5061 -5068 -5077 -5083 -5084 0
5084 5085 0
-5084 -5085 0
5085 4966 5086 0
5085 -4966 -5086 0
-5085 4966 -5086 0
-5085 -4966 -5086 0
5086 5087 0
-5086 -5087 0
5039 5087 5088 0
5039 -5087 -5088 0
-5039 5087 -5088 0
-5039 -5087 -5088 0
5088 5089 0
-5088 -5089 0
5089 5090 0
-5089 -5090 0
5090 5091 0
-5090 -5091 0
375 5092 0
-375 -5092 0
5092 5093 0
-5092 -5093 0
1767 1814 5094 0
1767 -1814 -5094 0
-1767 1814 -5094 0
-1767 -1814 -5094 0
1716 5095 0
-1716 -5095 0
5094 5095 -5096 0
5094 -5095 5096 0
-5094 5095 5096 0
-5094 -5095 5096 0
5096 4481 5097 0
5096 -4481 -5097 0
-5096 4481 -5097 0
-5096 -4481 -5097 0
5097 5098 0
-5097 -5098 0
5093 5098 5099 0
5093 -5098 -5099 0
-5093 5098 -5099 0
-5093 -5098 -5099 0
375 5100 0
-375 -5100 0
5097 5100 5101 0
5097 -5100 -5101 0
-5097 5100 -5101 0
-5097 -5100 -5101 0
5099 5101 -5102 0
5099 -5101 5102 0
-5099 5101 5102 0
-5099 -5101 5102 0
401 5103 0
-401 -5103 0
5103 5104 0
-5103 -5104 0
365 5105 0
-365 -5105 0
5105 5106 0
-5105 -5106 0
2697 5104 5106 5107 0
2697 5104 -5106 -5107 0
2697 -5104 5106 -5107 0
2697 -5104 -5106 -5107 0
-2697 5104 5106 -5107 0
-2697 5104 -5106 -5107 0
-2697 -5104 5106 -5107 0
-2697 -5104 -5106 -5107 0
390 5108 0
-390 -5108 0
5108 2696 5109 0
5108 -2696 -5109 0
-5108 2696 -5109 0
-5108 -2696 -5109 0
390 5110 0
-390 -5110 0
5110 5111 0
-5110 -5111 0
5111 2696 5112 0
5111 -2696 -5112 0
-5111 2696 -5112 0
-5111 -2696 -5112 0
5107 5109 5112 5113 0
5107 5109 -5112 -5113 0
5107 -5109 5112 -5113 0
5107 -5109 -5112 -5113 0
-5107 5109 5112 -5113 0
-5107 5109 -5112 -5113 0
-5107 -5109 5112 -5113 0
-5107 -5109 -5112 -5113 0
5113 5114 0
-5113 -5114 0
1808 5115 0
-1808 -5115 0
4479 5116 0
-4479 -5116 0
4437 5117 0
-4437 -5117 0
1720 5118 0
-1720 -5118 0
1766 5119 0
-1766 -5119 0
5117 5118 5119 -5120 0
5117 5118 -5119 5120 0
5117 -5118 5119 5120 0
5117 -5118 -5119 5120 0
-5117 5118 5119 5120 0
-5117 5118 -5119 5120 0
-5117 -5118 5119 5120 0
-5117 -5118 -5119 5120 0
5115 5116 5120 -5121 0
5115 5116 -5120 5121 0
5115 -5116 5120 5121 0
5115 -5116 -5120 5121 0
-5115 5116 5120 5121 0
-5115 5116 -5120 5121 0
-5115 -5116 5120 5121 0
-5115 -5116 -5120 5121 0
5121 5122 0
-5121 -5122 0
5122 5123 0
-5122 -5123 0
5114 5123 5124 0
5114 -5123 -5124 0
-5114 5123 -5124 0
-5114 -5123 -5124 0
5109 5125 0
-5109 -5125 0
4440 5126 0
-4440 -5126 0
5116 5115 5119 -5127 0
5116 5115 -5119 5127 0
5116 -5115 5119 5127 0
5116 -5115 -5119 5127 0
-5116 5115 5119 5127 0
-5116 5115 -5119 5127 0
-5116 -5115 5119 5127 0
-5116 -5115 -5119 5127 0
5118 5126 5127 -5128 0
5118 5126 -5127 5128 0
5118 -5126 5127 5128 0
5118 -5126 -5127 5128 0
-5118 5126 5127 5128 0
-5118 5126 -5127 5128 0
-5118 -5126 5127 5128 0
-5118 -5126 -5127 5128 0
5128 5129 0
-5128 -5129 0
5129 5130 0
-5129 -5130 0
5125 5130 5131 0
5125 -5130 -5131 0
-5125 5130 -5131 0
-5125 -5130 -5131 0
4484 5132 0
-4484 -5132 0
1813 5133 0
-1813 -5133 0
1773 5134 0
-1773 -5134 0
5117 5133 5134 -5135 0
5117 5133 -5134 5135 0
5117 -5133 5134 5135 0
5117 -5133 -5134 5135 0
-5117 5133 5134 5135 0
-5117 5133 -5134 5135 0
-5117 -5133 5134 5135 0
-5117 -5133 -5134 5135 0
5118 5132 5135 -5136 0
5118 5132 -5135 5136 0
5118 -5132 5135 5136 0
5118 -5132 -5135 5136 0
-5118 5132 5135 5136 0
-5118 5132 -5135 5136 0
-5118 -5132 5135 5136 0
-5118 -5132 -5135 5136 0
5136 5137 0
-5136 -5137 0
5137 5138 0
-5137 -5138 0
5112 5139 0
-5112 -5139 0
5138 5139 5140 0
5138 -5139 -5140 0
-5138 5139 -5140 0
-5138 -5139 -5140 0
5116 5134 5117 -5141 0
5116 5134 -5117 5141 0
5116 -5134 5117 5141 0
5116 -5134 -5117 5141 0
-5116 5134 5117 5141 0
-5116 5134 -5117 5141 0
-5116 -5134 5117 5141 0
-5116 -5134 -5117 5141 0
5115 5118 5141 -5142 0
5115 5118 -5141 5142 0
5115 -5118 5141 5142 0
5115 -5118 -5141 5142 0
-5115 5118 5141 5142 0
-5115 5118 -5141 5142 0
-5115 -5118 5141 5142 0
-5115 -5118 -5141 5142 0
5142 5143 0
-5142 -5143 0
5143 5144 0
-5143 -5144 0
5107 5145 0
-5107 -5145 0
5144 5145 5146 0
5144 -5145 -5146 0
-5144 5145 -5146 0
-5144 -5145 -5146 0
5124 5131 5140 5146 5147 0
5124 5131 5140 -5146 -5147 0
5124 5131 -5140 5146 -5147 0
5124 5131 -5140 -5146 -5147 0
5124 -5131 5140 5146 -5147 0
5124 -5131 5140 -5146 -5147 0
5124 -5131 -5140 5146 -5147 0
5124 -5131 -5140 -5146 -5147 0
-5124 5131 5140 5146 -5147 0
-5124 5131 5140 -5146 -5147 0
-5124 5131 -5140 5146 -5147 0
-5124 5131 -5140 -5146 -5147 0
-5124 -5131 5140 5146 -5147 0
-5124 -5131 5140 -5146 -5147 0
-5124 -5131 -5140 5146 -5147 0
-5124 -5131 -5140 -5146 -5147 0
5147 5148 0
-5147 -5148 0
5148 5021 5149 0
5148 -5021 -5149 0
-5148 5021 -5149 0
-5148 -5021 -5149 0
5149 5150 0
-5149 -5150 0
5102 5150 5151 0
5102 -5150 -5151 0
-5102 5150 -5151 0
-5102 -5150 -5151 0
5151 5152 0
-5151 -5152 0
5152 5153 0
-5152 -5153 0
5153 5154 0
-5153 -5154 0
5091 5154 -5155 0
5091 -5154 5155 0
-5091 5154 5155 0
-5091 -5154 -5155 0
358 5156 0
-358 -5156 0
5156 5157 0
-5156 -5157 0
360 5158 0
-360 -5158 0
1849 1864 5159 0
1849 -1864 -5159 0
-1849 1864 -5159 0
-1849 -1864 -5159 0
5159 5160 0
-5159 -5160 0
5160 5161 0
-5160 -5161 0
4952 5161 5162 0
4952 -5161 -5162 0
-4952 5161 -5162 0
-4952 -5161 -5162 0
5157 5158 5162 5163 0
5157 5158 -5162 -5163 0
5157 -5158 5162 -5163 0
5157 -5158 -5162 -5163 0
-5157 5158 5162 -5163 0
-5157 5158 -5162 -5163 0
-5157 -5158 5162 -5163 0
-5157 -5158 -5162 -5163 0
5163 5164 0
-5163 -5164 0
5164 5165 0
-5164 -5165 0
358 5166 0
-358 -5166 0
5166 5167 0
-5166 -5167 0
360 5168 0
-360 -5168 0
1856 1873 5169 0
1856 -1873 -5169 0
-1856 1873 -5169 0
-1856 -1873 -5169 0
5169 5170 0
-5169 -5170 0
5170 5171 0
-5170 -5171 0
5007 5171 5172 0
5007 -5171 -5172 0
-5007 5171 -5172 0
-5007 -5171 -5172 0
5167 5168 5172 5173 0
5167 5168 -5172 -5173 0
5167 -5168 5172 -5173 0
5167 -5168 -5172 -5173 0
-5167 5168 5172 -5173 0
-5167 5168 -5172 -5173 0
-5167 -5168 5172 -5173 0
-5167 -5168 -5172 -5173 0
5173 5174 0
-5173 -5174 0
5174 5175 0
-5174 -5175 0
5165 5175 -5176 0
5165 -5175 5176 0
-5165 5175 5176 0
-5165 -5175 -5176 0
4968 4313 5177 0
4968 -4313 -5177 0
-4968 4313 -5177 0
-4968 -4313 -5177 0
5177 5178 0
-5177 -5178 0
5178 5179 0
-5178 -5179 0
5023 4329 5180 0
5023 -4329 -5180 0
-5023 4329 -5180 0
-5023 -4329 -5180 0
5180 5181 0
-5180 -5181 0
5181 5182 0
-5181 -5182 0
5179 5182 -5183 0
5179 -5182 5183 0
-5179 5182 5183 0
-5179 -5182 -5183 0
4968 4347 5184 0
4968 -4347 -5184 0
-4968 4347 -5184 0
-4968 -4347 -5184 0
5184 5185 0
-5184 -5185 0
5185 5186 0
-5185 -5186 0
5023 4364 5187 0
5023 -4364 -5187 0
-5023 4364 -5187 0
-5023 -4364 -5187 0
5187 5188 0
-5187 -5188 0
5188 5189 0
-5188 -5189 0
5186 5189 -5190 0
5186 -5189 5190 0
-5186 5189 5190 0
-5186 -5189 -5190 0
4968 4245 5191 0
4968 -4245 -5191 0
-4968 4245 -5191 0
-4968 -4245 -5191 0
5191 5192 0
-5191 -5192 0
5192 5193 0
-5192 -5193 0
5023 4261 5194 0
5023 -4261 -5194 0
-5023 4261 -5194 0
-5023 -4261 -5194 0
5194 5195 0
-5194 -5195 0
5195 5196 0
-5195 -5196 0
5193 5196 -5197 0
5193 -5196 5197 0
-5193 5196 5197 0
-5193 -5196 -5197 0
4968 4279 5198 0
4968 -4279 -5198 0
-4968 4279 -5198 0
-4968 -4279 -5198 0
5198 5199 0
-5198 -5199 0
5199 5200 0
-5199 -5200 0
5023 4296 5201 0
5023 -4296 -5201 0
-5023 4296 -5201 0
-5023 -4296 -5201 0
5201 5202 0
-5201 -5202 0
5202 5203 0
-5202 -5203 0
5200 5203 -5204 0
5200 -5203 5204 0
-5200 5203 5204 0
-5200 -5203 -5204 0
4968 4209 5205 0
4968 -4209 -5205 0
-4968 4209 -5205 0
-4968 -4209 -5205 0
5205 5206 0
-5205 -5206 0
5206 5207 0
-5206 -5207 0
5023 4228 5208 0
5023 -4228 -5208 0
-5023 4228 -5208 0
-5023 -4228 -5208 0
5208 5209 0
-5208 -5209 0
5209 5210 0
-5209 -5210 0
5207 5210 -5211 0
5207 -5210 5211 0
-5207 5210 5211 0
-5207 -5210 -5211 0
5087 1752 5212 0
5087 -1752 -5212 0
-5087 1752 -5212 0
-5087 -1752 -5212 0
5212 5213 0
-5212 -5213 0
5213 5214 0
-5213 -5214 0
5150 1777 5215 0
5150 -1777 -5215 0
-5150 1777 -5215 0
-5150 -1777 -5215 0
5215 5216 0
-5215 -5216 0
5216 5217 0
-5216 -5217 0
5214 5217 -5218 0
5214 -5217 5218 0
-5214 5217 5218 0
-5214 -5217 -5218 0
1798 5087 5219 0
1798 -5087 -5219 0
-1798 5087 -5219 0
-1798 -5087 -5219 0
5219 5220 0
-5219 -5220 0
5220 5221 0
-5220 -5221 0
1818 5150 5222 0
1818 -5150 -5222 0
-1818 5150 -5222 0
-1818 -5150 -5222 0
5222 5223 0
-5222 -5223 0
5223 5224 0
-5223 -5224 0
5221 5224 -5225 0
5221 -5224 5225 0
-5221 5224 5225 0
-5221 -5224 -5225 0
5087 4423 5226 0
5087 -4423 -5226 0
-5087 4423 -5226 0
-5087 -4423 -5226 0
5226 5227 0
-5226 -5227 0
5227 5228 0
-5227 -5228 0
5150 4445 5229 0
5150 -4445 -5229 0
-5150 4445 -5229 0
-5150 -4445 -5229 0
5229 5230 0
-5229 -5230 0
5230 5231 0
-5230 -5231 0
5228 5231 -5232 0
5228 -5231 5232 0
-5228 5231 5232 0
-5228 -5231 -5232 0
1699 5087 5233 0
1699 -5087 -5233 0
-1699 5087 -5233 0
-1699 -5087 -5233 0
5233 5234 0
-5233 -5234 0
5234 5235 0
-5234 -5235 0
1726 5150 5236 0
1726 -5150 -5236 0
-1726 5150 -5236 0
-1726 -5150 -5236 0
5236 5237 0
-5236 -5237 0
5237 5238 0
-5237 -5238 0
5235 5238 -5239 0
5235 -5238 5239 0
-5235 5238 5239 0
-5235 -5238 -5239 0
4467 5087 5240 0
4467 -5087 -5240 0
-4467 5087 -5240 0
-4467 -5087 -5240 0
5240 5241 0
-5240 -5241 0
5241 5242 0
-5241 -5242 0
4488 5150 5243 0
4488 -5150 -5243 0
-4488 5150 -5243 0
-4488 -5150 -5243 0
5243 5244 0
-5243 -5244 0
5244 5245 0
-5244 -5245 0
5242 5245 -5246 0
5242 -5245 5246 0
-5242 5245 5246 0
-5242 -5245 -5246 0
4132 5247 0
-4132 -5247 0
4097 5248 0
-4097 -5248 0
5247 5248 -5249 0
5247 -5248 5249 0
-5247 5248 5249 0
-5247 -5248 5249 0
5249 5250 0
-5249 -5250 0
345 5251 0
-345 -5251 0
5250 5251 5252 0
5250 -5251 -5252 0
-5250 5251 -5252 0
-5250 -5251 -5252 0
345 5253 0
-345 -5253 0
5253 5254 0
-5253 -5254 0
5254 5249 5255 0
5254 -5249 -5255 0
-5254 5249 -5255 0
-5254 -5249 -5255 0
5252 5255 -5256 0
5252 -5255 5256 0
-5252 5255 5256 0
-5252 -5255 5256 0
4966 5256 5257 0
4966 -5256 -5257 0
-4966 5256 -5257 0
-4966 -5256 -5257 0
5257 5258 0
-5257 -5258 0
5258 5259 0
-5258 -5259 0
5259 5260 0
-5259 -5260 0
4148 5261 0
-4148 -5261 0
4116 5262 0
-4116 -5262 0
5261 5262 -5263 0
5261 -5262 5263 0
-5261 5262 5263 0
-5261 -5262 5263 0
5263 5264 0
-5263 -5264 0
345 5265 0
-345 -5265 0
5264 5265 5266 0
5264 -5265 -5266 0
-5264 5265 -5266 0
-5264 -5265 -5266 0
345 5267 0
-345 -5267 0
5267 5268 0
-5267 -5268 0
5268 5263 5269 0
5268 -5263 -5269 0
-5268 5263 -5269 0
-5268 -5263 -5269 0
5266 5269 -5270 0
5266 -5269 5270 0
-5266 5269 5270 0
-5266 -5269 5270 0
5021 5270 5271 0
5021 -5270 -5271 0
-5021 5270 -5271 0
-5021 -5270 -5271 0
5271 5272 0
-5271 -5272 0
5272 5273 0
-5272 -5273 0
5273 5274 0
-5273 -5274 0
5260 5274 -5275 0
5260 -5274 5275 0
-5260 5274 5275 0
-5260 -5274 -5275 0
4172 4966 5276 0
4172 -4966 -5276 0
-4172 4966 -5276 0
-4172 -4966 -5276 0
5276 5277 0
-5276 -5277 0
5277 5278 0
-5277 -5278 0
4189 5021 5279 0
4189 -5021 -5279 0
-4189 5021 -5279 0
-4189 -5021 -5279 0
5279 5280 0
-5279 -5280 0
5280 5281 0
-5280 -5281 0
5278 5281 -5282 0
5278 -5281 5282 0
-5278 5281 5282 0
-5278 -5281 -5282 0
4102 4966 5283 0
4102 -4966 -5283 0
-4102 4966 -5283 0
-4102 -4966 -5283 0
5283 5284 0
-5283 -5284 0
5284 5285 0
-5284 -5285 0
4121 5021 5286 0
4121 -5021 -5286 0
-4121 5021 -5286 0
-4121 -5021 -5286 0
5286 5287 0
-5286 -5287 0
5287 5288 0
-5287 -5288 0
5285 5288 -5289 0
5285 -5288 5289 0
-5285 5288 5289 0
-5285 -5288 -5289 0
4138 4966 5290 0
4138 -4966 -5290 0
-4138 4966 -5290 0
-4138 -4966 -5290 0
5290 5291 0
-5290 -5291 0
5291 5292 0
-5291 -5292 0
4154 5021 5293 0
4154 -5021 -5293 0
-4154 5021 -5293 0
-4154 -5021 -5293 0
5293 5294 0
-5293 -5294 0
5294 5295 0
-5294 -5295 0
5292 5295 -5296 0
5292 -5295 5296 0
-5292 5295 5296 0
-5292 -5295 -5296 0
327 5297 0
-327 -5297 0
328 5298 0
-328 -5298 0
325 5299 0
-325 -5299 0
316 5300 0
-316 -5300 0
273 5301 0
-273 -5301 0
5301 5302 0
-5301 -5302 0
5302 5303 0
-5302 -5303 0
5303 5304 0
-5303 -5304 0
5299 5300 5304 -5305 0
5299 5300 -5304 5305 0
5299 -5300 5304 5305 0
5299 -5300 -5304 5305 0
-5299 5300 5304 5305 0
-5299 5300 -5304 5305 0
-5299 -5300 5304 5305 0
-5299 -5300 -5304 5305 0
5297 5298 5305 -5306 0
5297 5298 -5305 5306 0
5297 -5298 5305 5306 0
5297 -5298 -5305 5306 0
-5297 5298 5305 5306 0
-5297 5298 -5305 5306 0
-5297 -5298 5305 5306 0
-5297 -5298 -5305 5306 0
5306 5307 0
-5306 -5307 0
5307 5308 0
-5307 -5308 0
318 5309 0
-318 -5309 0
5309 5310 0
-5309 -5310 0
5310 5311 0
-5310 -5311 0
317 5312 0
-317 -5312 0
310 5313 0
-310 -5313 0
5311 5312 5313 5314 0
5311 5312 -5313 -5314 0
5311 -5312 5313 -5314 0
5311 -5312 -5313 -5314 0
-5311 5312 5313 -5314 0
-5311 5312 -5313 -5314 0
-5311 -5312 5313 -5314 0
-5311 -5312 -5313 -5314 0
5314 5315 0
-5314 -5315 0
5308 5315 -5316 0
5308 -5315 5316 0
-5308 5315 5316 0
-5308 -5315 5316 0
327 5317 0
-327 -5317 0
328 5318 0
-328 -5318 0
325 5319 0
-325 -5319 0
316 5320 0
-316 -5320 0
273 5321 0
-273 -5321 0
5321 5322 0
-5321 -5322 0
5322 5323 0
-5322 -5323 0
5323 5324 0
-5323 -5324 0
5319 5320 5324 -5325 0
5319 5320 -5324 5325 0
5319 -5320 5324 5325 0
5319 -5320 -5324 5325 0
-5319 5320 5324 5325 0
-5319 5320 -5324 5325 0
-5319 -5320 5324 5325 0
-5319 -5320 -5324 5325 0
5317 5318 5325 -5326 0
5317 5318 -5325 5326 0
5317 -5318 5325 5326 0
5317 -5318 -5325 5326 0
-5317 5318 5325 5326 0
-5317 5318 -5325 5326 0
-5317 -5318 5325 5326 0
-5317 -5318 -5325 5326 0
5326 5327 0
-5326 -5327 0
5327 5328 0
-5327 -5328 0
318 5329 0
-318 -5329 0
5329 5330 0
-5329 -5330 0
5330 5331 0
-5330 -5331 0
317 5332 0
-317 -5332 0
310 5333 0
-310 -5333 0
5331 5332 5333 5334 0
5331 5332 -5333 -5334 0
5331 -5332 5333 -5334 0
5331 -5332 -5333 -5334 0
-5331 5332 5333 -5334 0
-5331 5332 -5333 -5334 0
-5331 -5332 5333 -5334 0
-5331 -5332 -5333 -5334 0
5334 5335 0
-5334 -5335 0
5328 5335 -5336 0
5328 -5335 5336 0
-5328 5335 5336 0
-5328 -5335 5336 0
5316 5336 -5337 0
5316 -5336 5337 0
-5316 5336 5337 0
-5316 -5336 -5337 0
3966 3979 -5338 0
3966 -3979 5338 0
-3966 3979 5338 0
-3966 -3979 -5338 0
2344 5339 0
-2344 -5339 0
2344 5340 0
-2344 -5340 0
5340 5341 0
-5340 -5341 0
5339 5341 -5342 0
5339 -5341 5342 0
-5339 5341 5342 0
-5339 -5341 5342 0
2704 5343 0
-2704 -5343 0
2704 5344 0
-2704 -5344 0
5344 5345 0
-5344 -5345 0
5343 5345 -5346 0
5343 -5345 5346 0
-5343 5345 5346 0
-5343 -5345 5346 0
5342 5346 -5347 0
5342 -5346 5347 0
-5342 5346 5347 0
-5342 -5346 -5347 0
351 5348 0
-351 -5348 0
5348 5349 0
-5348 -5349 0
4946 5350 0
-4946 -5350 0
4132 4169 4093 5351 0
4132 4169 -4093 -5351 0
4132 -4169 4093 -5351 0
4132 -4169 -4093 -5351 0
-4132 4169 4093 -5351 0
-4132 4169 -4093 -5351 0
-4132 -4169 4093 -5351 0
-4132 -4169 -4093 -5351 0
5351 5352 0
-5351 -5352 0
5084 5349 5350 5352 5353 0
5084 5349 5350 -5352 -5353 0
5084 5349 -5350 5352 -5353 0
5084 5349 -5350 -5352 -5353 0
5084 -5349 5350 5352 -5353 0
5084 -5349 5350 -5352 -5353 0
5084 -5349 -5350 5352 -5353 0
5084 -5349 -5350 -5352 -5353 0
-5084 5349 5350 5352 -5353 0
-5084 5349 5350 -5352 -5353 0
-5084 5349 -5350 5352 -5353 0
-5084 5349 -5350 -5352 -5353 0
-5084 -5349 5350 5352 -5353 0
-5084 -5349 5350 -5352 -5353 0
-5084 -5349 -5350 5352 -5353 0
-5084 -5349 -5350 -5352 -5353 0
350 5354 0
-350 -5354 0
5354 5355 0
-5354 -5355 0
5084 5350 5355 5356 0
5084 5350 -5355 -5356 0
5084 -5350 5355 -5356 0
5084 -5350 -5355 -5356 0
-5084 5350 5355 -5356 0
-5084 5350 -5355 -5356 0
-5084 -5350 5355 -5356 0
-5084 -5350 -5355 -5356 0
5353 5356 -5357 0
5353 -5356 5357 0
-5353 5356 5357 0
-5353 -5356 5357 0
351 5358 0
-351 -5358 0
5358 5359 0
-5358 -5359 0
5001 5360 0
-5001 -5360 0
4148 4186 4112 5361 0
4148 4186 -4112 -5361 0
4148 -4186 4112 -5361 0
4148 -4186 -4112 -5361 0
-4148 4186 4112 -5361 0
-4148 4186 -4112 -5361 0
-4148 -4186 4112 -5361 0
-4148 -4186 -4112 -5361 0
5361 5362 0
-5361 -5362 0
5147 5359 5360 5362 5363 0
5147 5359 5360 -5362 -5363 0
5147 5359 -5360 5362 -5363 0
5147 5359 -5360 -5362 -5363 0
5147 -5359 5360 5362 -5363 0
5147 -5359 5360 -5362 -5363 0
5147 -5359 -5360 5362 -5363 0
5147 -5359 -5360 -5362 -5363 0
-5147 5359 5360 5362 -5363 0
-5147 5359 5360 -5362 -5363 0
-5147 5359 -5360 5362 -5363 0
-5147 5359 -5360 -5362 -5363 0
-5147 -5359 5360 5362 -5363 0
-5147 -5359 5360 -5362 -5363 0
-5147 -5359 -5360 5362 -5363 0
-5147 -5359 -5360 -5362 -5363 0
350 5364 0
-350 -5364 0
5364 5365 0
-5364 -5365 0
5147 5360 5365 5366 0
5147 5360 -5365 -5366 0
5147 -5360 5365 -5366 0
5147 -5360 -5365 -5366 0
-5147 5360 5365 -5366 0
-5147 5360 -5365 -5366 0
-5147 -5360 5365 -5366 0
-5147 -5360 -5365 -5366 0
5363 5366 -5367 0
5363 -5366 5367 0
-5363 5366 5367 0
-5363 -5366 5367 0
5357 5367 -5368 0
5357 -5367 5368 0
-5357 5367 5368 0
-5357 -5367 -5368 0
3939 3952 -5369 0
3939 -3952 5369 0
-3939 3952 5369 0
-3939 -3952 -5369 0
700 704 702 5370 0
700 704 -702 -5370 0
700 -704 702 -5370 0
700 -704 -702 -5370 0
-700 704 702 -5370 0
-700 704 -702 -5370 0
-700 -704 702 -5370 0
-700 -704 -702 -5370 0
5370 5371 0
-5370 -5371 0
5371 685 5372 0
5371 -685 -5372 0
-5371 685 -5372 0
-5371 -685 -5372 0
1682 665 673 5373 0
1682 665 -673 -5373 0
1682 -665 673 -5373 0
1682 -665 -673 -5373 0
-1682 665 673 -5373 0
-1682 665 -673 -5373 0
-1682 -665 673 -5373 0
-1682 -665 -673 -5373 0
5373 5374 0
-5373 -5374 0
679 5374 5375 0
679 -5374 -5375 0
-679 5374 -5375 0
-679 -5374 -5375 0
5372 5375 5376 0
5372 -5375 -5376 0
-5372 5375 -5376 0
-5372 -5375 -5376 0
5376 4891 5377 0
5376 -4891 -5377 0
-5376 4891 -5377 0
-5376 -4891 -5377 0
2773 2778 2784 5378 0
2773 2778 -2784 -5378 0
2773 -2778 2784 -5378 0
2773 -2778 -2784 -5378 0
-2773 2778 2784 -5378 0
-2773 2778 -2784 -5378 0
-2773 -2778 2784 -5378 0
-2773 -2778 -2784 -5378 0
5378 5379 0
-5378 -5379 0
2809 5380 0
-2809 -5380 0
5379 3128 5380 5381 0
5379 3128 -5380 -5381 0
5379 -3128 5380 -5381 0
5379 -3128 -5380 -5381 0
-5379 3128 5380 -5381 0
-5379 3128 -5380 -5381 0
-5379 -3128 5380 -5381 0
-5379 -3128 -5380 -5381 0
5381 5382 0
-5381 -5382 0
354 5383 0
-354 -5383 0
5383 5384 0
-5383 -5384 0
5382 5384 5385 0
5382 -5384 -5385 0
-5382 5384 -5385 0
-5382 -5384 -5385 0
2768 2764 2784 5386 0
2768 2764 -2784 -5386 0
2768 -2764 2784 -5386 0
2768 -2764 -2784 -5386 0
-2768 2764 2784 -5386 0
-2768 2764 -2784 -5386 0
-2768 -2764 2784 -5386 0
-2768 -2764 -2784 -5386 0
5386 5387 0
-5386 -5387 0
5387 3127 3128 5388 0
5387 3127 -3128 -5388 0
5387 -3127 3128 -5388 0
5387 -3127 -3128 -5388 0
-5387 3127 3128 -5388 0
-5387 3127 -3128 -5388 0
-5387 -3127 3128 -5388 0
-5387 -3127 -3128 -5388 0
5388 5389 0
-5388 -5389 0
354 5390 0
-354 -5390 0
5389 5390 5391 0
5389 -5390 -5391 0
-5389 5390 -5391 0
-5389 -5390 -5391 0
5385 5391 5392 0
5385 -5391 -5392 0
-5385 5391 -5392 0
-5385 -5391 -5392 0
3134 5392 3024 -5393 0
3134 5392 -3024 5393 0
3134 -5392 3024 5393 0
3134 -5392 -3024 5393 0
-3134 5392 3024 5393 0
-3134 5392 -3024 5393 0
-3134 -5392 3024 5393 0
-3134 -5392 -3024 5393 0
2906 2047 5393 -5394 0
2906 2047 -5393 5394 0
2906 -2047 5393 5394 0
2906 -2047 -5393 5394 0
-2906 2047 5393 5394 0
-2906 2047 -5393 5394 0
-2906 -2047 5393 5394 0
-2906 -2047 -5393 5394 0
5394 5395 0
-5394 -5395 0
5395 5396 0
-5395 -5396 0
5396 5397 0
-5396 -5397 0
5377 5397 -5398 0
5377 -5397 5398 0
-5377 5397 5398 0
-5377 -5397 5398 0
772 776 774 5399 0
772 776 -774 -5399 0
772 -776 774 -5399 0
772 -776 -774 -5399 0
-772 776 774 -5399 0
-772 776 -774 -5399 0
-772 -776 774 -5399 0
-772 -776 -774 -5399 0
5399 5400 0
-5399 -5400 0
5400 757 5401 0
5400 -757 -5401 0
-5400 757 -5401 0
-5400 -757 -5401 0
1709 737 745 5402 0
1709 737 -745 -5402 0
1709 -737 745 -5402 0
1709 -737 -745 -5402 0
-1709 737 745 -5402 0
-1709 737 -745 -5402 0
-1709 -737 745 -5402 0
-1709 -737 -745 -5402 0
5402 5403 0
-5402 -5403 0
751 5403 5404 0
751 -5403 -5404 0
-751 5403 -5404 0
-751 -5403 -5404 0
5401 5404 5405 0
5401 -5404 -5405 0
-5401 5404 -5405 0
-5401 -5404 -5405 0
5405 4905 5406 0
5405 -4905 -5406 0
-5405 4905 -5406 0
-5405 -4905 -5406 0
2846 2851 2857 5407 0
2846 2851 -2857 -5407 0
2846 -2851 2857 -5407 0
2846 -2851 -2857 -5407 0
-2846 2851 2857 -5407 0
-2846 2851 -2857 -5407 0
-2846 -2851 2857 -5407 0
-2846 -2851 -2857 -5407 0
5407 5408 0
-5407 -5408 0
2882 5409 0
-2882 -5409 0
5408 3146 5409 5410 0
5408 3146 -5409 -5410 0
5408 -3146 5409 -5410 0
5408 -3146 -5409 -5410 0
-5408 3146 5409 -5410 0
-5408 3146 -5409 -5410 0
-5408 -3146 5409 -5410 0
-5408 -3146 -5409 -5410 0
5410 5411 0
-5410 -5411 0
354 5412 0
-354 -5412 0
5412 5413 0
-5412 -5413 0
5411 5413 5414 0
5411 -5413 -5414 0
-5411 5413 -5414 0
-5411 -5413 -5414 0
2841 2837 2857 5415 0
2841 2837 -2857 -5415 0
2841 -2837 2857 -5415 0
2841 -2837 -2857 -5415 0
-2841 2837 2857 -5415 0
-2841 2837 -2857 -5415 0
-2841 -2837 2857 -5415 0
-2841 -2837 -2857 -5415 0
5415 5416 0
-5415 -5416 0
5416 3145 3146 5417 0
5416 3145 -3146 -5417 0
5416 -3145 3146 -5417 0
5416 -3145 -3146 -5417 0
-5416 3145 3146 -5417 0
-5416 3145 -3146 -5417 0
-5416 -3145 3146 -5417 0
-5416 -3145 -3146 -5417 0
5417 5418 0
-5417 -5418 0
354 5419 0
-354 -5419 0
5418 5419 5420 0
5418 -5419 -5420 0
-5418 5419 -5420 0
-5418 -5419 -5420 0
5414 5420 5421 0
5414 -5420 -5421 0
-5414 5420 -5421 0
-5414 -5420 -5421 0
3152 5421 3087 -5422 0
3152 5421 -3087 5422 0
3152 -5421 3087 5422 0
3152 -5421 -3087 5422 0
-3152 5421 3087 5422 0
-3152 5421 -3087 5422 0
-3152 -5421 3087 5422 0
-3152 -5421 -3087 5422 0
2939 2486 5422 -5423 0
2939 2486 -5422 5423 0
2939 -2486 5422 5423 0
2939 -2486 -5422 5423 0
-2939 2486 5422 5423 0
-2939 2486 -5422 5423 0
-2939 -2486 5422 5423 0
-2939 -2486 -5422 5423 0
5423 5424 0
-5423 -5424 0
5424 5425 0
-5424 -5425 0
5425 5426 0
-5425 -5426 0
5406 5426 -5427 0
5406 -5426 5427 0
-5406 5426 5427 0
-5406 -5426 5427 0
5398 5427 -5428 0
5398 -5427 5428 0
-5398 5427 5428 0
-5398 -5427 -5428 0
689 5429 0
-689 -5429 0
287 5430 0
-287 -5430 0
5430 5431 0
-5430 -5431 0
5431 5432 0
-5431 -5432 0
5429 5432 5433 0
5429 -5432 -5433 0
-5429 5432 -5433 0
-5429 -5432 -5433 0
662 5434 0
-662 -5434 0
4891 5434 5435 0
4891 -5434 -5435 0
-4891 5434 -5435 0
-4891 -5434 -5435 0
5433 5435 -5436 0
5433 -5435 5436 0
-5433 5435 5436 0
-5433 -5435 5436 0
761 5437 0
-761 -5437 0
287 5438 0
-287 -5438 0
5438 5439 0
-5438 -5439 0
5439 5440 0
-5439 -5440 0
5437 5440 5441 0
5437 -5440 -5441 0
-5437 5440 -5441 0
-5437 -5440 -5441 0
734 5442 0
-734 -5442 0
4905 5442 5443 0
4905 -5442 -5443 0
-4905 5442 -5443 0
-4905 -5442 -5443 0
5441 5443 -5444 0
5441 -5443 5444 0
-5441 5443 5444 0
-5441 -5443 5444 0
5436 5444 -5445 0
5436 -5444 5445 0
-5436 5444 5445 0
-5436 -5444 -5445 0
288 5446 0
-288 -5446 0
5446 5447 0
-5446 -5447 0
5447 5448 0
-5447 -5448 0
5429 5448 5449 0
5429 -5448 -5449 0
-5429 5448 -5449 0
-5429 -5448 -5449 0
5434 4576 5450 0
5434 -4576 -5450 0
-5434 4576 -5450 0
-5434 -4576 -5450 0
5449 5450 -5451 0
5449 -5450 5451 0
-5449 5450 5451 0
-5449 -5450 5451 0
288 5452 0
-288 -5452 0
5452 5453 0
-5452 -5453 0
5453 5454 0
-5453 -5454 0
5437 5454 5455 0
5437 -5454 -5455 0
-5437 5454 -5455 0
-5437 -5454 -5455 0
5442 4588 5456 0
5442 -4588 -5456 0
-5442 4588 -5456 0
-5442 -4588 -5456 0
5455 5456 -5457 0
5455 -5456 5457 0
-5455 5456 5457 0
-5455 -5456 5457 0
5451 5457 -5458 0
5451 -5457 5458 0
-5451 5457 5458 0
-5451 -5457 -5458 0
5434 4609 5459 0
5434 -4609 -5459 0
-5434 4609 -5459 0
-5434 -4609 -5459 0
4745 5429 5460 0
4745 -5429 -5460 0
-4745 5429 -5460 0
-4745 -5429 -5460 0
5459 5460 -5461 0
5459 -5460 5461 0
-5459 5460 5461 0
-5459 -5460 5461 0
5442 4629 5462 0
5442 -4629 -5462 0
-5442 4629 -5462 0
-5442 -4629 -5462 0
4766 5437 5463 0
4766 -5437 -5463 0
-4766 5437 -5463 0
-4766 -5437 -5463 0
5462 5463 -5464 0
5462 -5463 5464 0
-5462 5463 5464 0
-5462 -5463 5464 0
5461 5464 -5465 0
5461 -5464 5465 0
-5461 5464 5465 0
-5461 -5464 -5465 0
4721 5434 5466 0
4721 -5434 -5466 0
-4721 5434 -5466 0
-4721 -5434 -5466 0
5429 4712 5467 0
5429 -4712 -5467 0
-5429 4712 -5467 0
-5429 -4712 -5467 0
5466 5467 -5468 0
5466 -5467 5468 0
-5466 5467 5468 0
-5466 -5467 5468 0
4737 5442 5469 0
4737 -5442 -5469 0
-4737 5442 -5469 0
-4737 -5442 -5469 0
5437 4728 5470 0
5437 -4728 -5470 0
-5437 4728 -5470 0
-5437 -4728 -5470 0
5469 5470 -5471 0
5469 -5470 5471 0
-5469 5470 5471 0
-5469 -5470 5471 0
5468 5471 -5472 0
5468 -5471 5472 0
-5468 5471 5472 0
-5468 -5471 -5472 0
4664 4891 5473 0
4664 -4891 -5473 0
-4664 4891 -5473 0
-4664 -4891 -5473 0
5432 4635 5474 0
5432 -4635 -5474 0
-5432 4635 -5474 0
-5432 -4635 -5474 0
5473 5474 -5475 0
5473 -5474 5475 0
-5473 5474 5475 0
-5473 -5474 5475 0
4701 4905 5476 0
4701 -4905 -5476 0
-4701 4905 -5476 0
-4701 -4905 -5476 0
5440 4672 5477 0
5440 -4672 -5477 0
-5440 4672 -5477 0
-5440 -4672 -5477 0
5476 5477 -5478 0
5476 -5477 5478 0
-5476 5477 5478 0
-5476 -5477 5478 0
5475 5478 -5479 0
5475 -5478 5479 0
-5475 5478 5479 0
-5475 -5478 -5479 0
5376 4576 5480 0
5376 -4576 -5480 0
-5376 4576 -5480 0
-5376 -4576 -5480 0
5396 5481 0
-5396 -5481 0
5480 5481 -5482 0
5480 -5481 5482 0
-5480 5481 5482 0
-5480 -5481 5482 0
5405 4588 5483 0
5405 -4588 -5483 0
-5405 4588 -5483 0
-5405 -4588 -5483 0
5425 5484 0
-5425 -5484 0
5483 5484 -5485 0
5483 -5484 5485 0
-5483 5484 5485 0
-5483 -5484 5485 0
5482 5485 -5486 0
5482 -5485 5486 0
-5482 5485 5486 0
-5482 -5485 -5486 0
5376 4527 5487 0
5376 -4527 -5487 0
-5376 4527 -5487 0
-5376 -4527 -5487 0
5396 5488 0
-5396 -5488 0
5487 5488 -5489 0
5487 -5488 5489 0
-5487 5488 5489 0
-5487 -5488 5489 0
5405 4563 5490 0
5405 -4563 -5490 0
-5405 4563 -5490 0
-5405 -4563 -5490 0
5425 5491 0
-5425 -5491 0
5490 5491 -5492 0
5490 -5491 5492 0
-5490 5491 5492 0
-5490 -5491 5492 0
5489 5492 -5493 0
5489 -5492 5493 0
-5489 5492 5493 0
-5489 -5492 -5493 0
690 5395 5494 0
690 -5395 -5494 0
-690 5395 -5494 0
-690 -5395 -5494 0
5494 5495 0
-5494 -5495 0
5448 5495 5496 0
5448 -5495 -5496 0
-5448 5495 -5496 0
-5448 -5495 -5496 0
5395 663 5497 0
5395 -663 -5497 0
-5395 663 -5497 0
-5395 -663 -5497 0
5497 5498 0
-5497 -5498 0
4576 5498 5499 0
4576 -5498 -5499 0
-4576 5498 -5499 0
-4576 -5498 -5499 0
5395 5500 0
-5395 -5500 0
5500 5501 0
-5500 -5501 0
5496 5499 5501 -5502 0
5496 5499 -5501 5502 0
5496 -5499 5501 5502 0
5496 -5499 -5501 5502 0
-5496 5499 5501 5502 0
-5496 5499 -5501 5502 0
-5496 -5499 5501 5502 0
-5496 -5499 -5501 5502 0
762 5424 5503 0
762 -5424 -5503 0
-762 5424 -5503 0
-762 -5424 -5503 0
5503 5504 0
-5503 -5504 0
5454 5504 5505 0
5454 -5504 -5505 0
-5454 5504 -5505 0
-5454 -5504 -5505 0
5424 735 5506 0
5424 -735 -5506 0
-5424 735 -5506 0
-5424 -735 -5506 0
5506 5507 0
-5506 -5507 0
4588 5507 5508 0
4588 -5507 -5508 0
-4588 5507 -5508 0
-4588 -5507 -5508 0
5424 5509 0
-5424 -5509 0
5509 5510 0
-5509 -5510 0
5505 5508 5510 -5511 0
5505 5508 -5510 5511 0
5505 -5508 5510 5511 0
5505 -5508 -5510 5511 0
-5505 5508 5510 5511 0
-5505 5508 -5510 5511 0
-5505 -5508 5510 5511 0
-5505 -5508 -5510 5511 0
5502 5511 -5512 0
5502 -5511 5512 0
-5502 5511 5512 0
-5502 -5511 -5512 0
5434 4527 5513 0
5434 -4527 -5513 0
-5434 4527 -5513 0
-5434 -4527 -5513 0
289 5514 0
-289 -5514 0
5514 5515 0
-5514 -5515 0
5515 5516 0
-5515 -5516 0
5429 5516 5517 0
5429 -5516 -5517 0
-5429 5516 -5517 0
-5429 -5516 -5517 0
5513 5517 -5518 0
5513 -5517 5518 0
-5513 5517 5518 0
-5513 -5517 5518 0
5442 4563 5519 0
5442 -4563 -5519 0
-5442 4563 -5519 0
-5442 -4563 -5519 0
289 5520 0
-289 -5520 0
5520 5521 0
-5520 -5521 0
5521 5522 0
-5521 -5522 0
5437 5522 5523 0
5437 -5522 -5523 0
-5437 5522 -5523 0
-5437 -5522 -5523 0
5519 5523 -5524 0
5519 -5523 5524 0
-5519 5523 5524 0
-5519 -5523 5524 0
5518 5524 -5525 0
5518 -5524 5525 0
-5518 5524 5525 0
-5518 -5524 -5525 0
4664 4527 5526 0
4664 -4527 -5526 0
-4664 4527 -5526 0
-4664 -4527 -5526 0
5516 4635 5527 0
5516 -4635 -5527 0
-5516 4635 -5527 0
-5516 -4635 -5527 0
5526 5527 -5528 0
5526 -5527 5528 0
-5526 5527 5528 0
-5526 -5527 5528 0
4701 4563 5529 0
4701 -4563 -5529 0
-4701 4563 -5529 0
-4701 -4563 -5529 0
5522 4672 5530 0
5522 -4672 -5530 0
-5522 4672 -5530 0
-5522 -4672 -5530 0
5529 5530 -5531 0
5529 -5530 5531 0
-5529 5530 5531 0
-5529 -5530 5531 0
5528 5531 -5532 0
5528 -5531 5532 0
-5528 5531 5532 0
-5528 -5531 -5532 0
5396 5533 0
-5396 -5533 0
4721 5376 5534 0
4721 -5376 -5534 0
-4721 5376 -5534 0
-4721 -5376 -5534 0
5533 5534 -5535 0
5533 -5534 5535 0
-5533 5534 5535 0
-5533 -5534 5535 0
5425 5536 0
-5425 -5536 0
4737 5405 5537 0
4737 -5405 -5537 0
-4737 5405 -5537 0
-4737 -5405 -5537 0
5536 5537 -5538 0
5536 -5537 5538 0
-5536 5537 5538 0
-5536 -5537 5538 0
5535 5538 -5539 0
5535 -5538 5539 0
-5535 5538 5539 0
-5535 -5538 -5539 0
5396 5540 0
-5396 -5540 0
5376 4869 5541 0
5376 -4869 -5541 0
-5376 4869 -5541 0
-5376 -4869 -5541 0
5540 5541 -5542 0
5540 -5541 5542 0
-5540 5541 5542 0
-5540 -5541 5542 0
5425 5543 0
-5425 -5543 0
5405 4883 5544 0
5405 -4883 -5544 0
-5405 4883 -5544 0
-5405 -4883 -5544 0
5543 5544 -5545 0
5543 -5544 5545 0
-5543 5544 5545 0
-5543 -5544 5545 0
5542 5545 -5546 0
5542 -5545 5546 0
-5542 5545 5546 0
-5542 -5545 -5546 0
4825 5376 5547 0
4825 -5376 -5547 0
-4825 5376 -5547 0
-4825 -5376 -5547 0
5396 5548 0
-5396 -5548 0
5547 5548 -5549 0
5547 -5548 5549 0
-5547 5548 5549 0
-5547 -5548 5549 0
4843 5405 5550 0
4843 -5405 -5550 0
-4843 5405 -5550 0
-4843 -5405 -5550 0
5425 5551 0
-5425 -5551 0
5550 5551 -5552 0
5550 -5551 5552 0
-5550 5551 5552 0
-5550 -5551 5552 0
5549 5552 -5553 0
5549 -5552 5553 0
-5549 5552 5553 0
-5549 -5552 -5553 0
4667 5376 5554 0
4667 -5376 -5554 0
-4667 5376 -5554 0
-4667 -5376 -5554 0
5396 5555 0
-5396 -5555 0
5554 5555 -5556 0
5554 -5555 5556 0
-5554 5555 5556 0
-5554 -5555 5556 0
4704 5405 5557 0
4704 -5405 -5557 0
-4704 5405 -5557 0
-4704 -5405 -5557 0
5425 5558 0
-5425 -5558 0
5557 5558 -5559 0
5557 -5558 5559 0
-5557 5558 5559 0
-5557 -5558 5559 0
5556 5559 -5560 0
5556 -5559 5560 0
-5556 5559 5560 0
-5556 -5559 -5560 0
4609 5376 5561 0
4609 -5376 -5561 0
-4609 5376 -5561 0
-4609 -5376 -5561 0
5396 5562 0
-5396 -5562 0
5561 5562 -5563 0
5561 -5562 5563 0
-5561 5562 5563 0
-5561 -5562 5563 0
4629 5405 5564 0
4629 -5405 -5564 0
-4629 5405 -5564 0
-4629 -5405 -5564 0
5425 5565 0
-5425 -5565 0
5564 5565 -5566 0
5564 -5565 5566 0
-5564 5565 5566 0
-5564 -5565 5566 0
5563 5566 -5567 0
5563 -5566 5567 0
-5563 5566 5567 0
-5563 -5566 -5567 0
5376 4799 5568 0
5376 -4799 -5568 0
-5376 4799 -5568 0
-5376 -4799 -5568 0
5396 5569 0
-5396 -5569 0
5568 5569 -5570 0
5568 -5569 5570 0
-5568 5569 5570 0
-5568 -5569 5570 0
5405 4817 5571 0
5405 -4817 -5571 0
-5405 4817 -5571 0
-5405 -4817 -5571 0
5425 5572 0
-5425 -5572 0
5571 5572 -5573 0
5571 -5572 5573 0
-5571 5572 5573 0
-5571 -5572 5573 0
5570 5573 -5574 0
5570 -5573 5574 0
-5570 5573 5574 0
-5570 -5573 -5574 0
4635 5448 5575 0
4635 -5448 -5575 0
-4635 5448 -5575 0
-4635 -5448 -5575 0
4664 4576 5576 0
4664 -4576 -5576 0
-4664 4576 -5576 0
-4664 -4576 -5576 0
5575 5576 -5577 0
5575 -5576 5577 0
-5575 5576 5577 0
-5575 -5576 5577 0
4672 5454 5578 0
4672 -5454 -5578 0
-4672 5454 -5578 0
-4672 -5454 -5578 0
4701 4588 5579 0
4701 -4588 -5579 0
-4701 4588 -5579 0
-4701 -4588 -5579 0
5578 5579 -5580 0
5578 -5579 5580 0
-5578 5579 5580 0
-5578 -5579 5580 0
5577 5580 -5581 0
5577 -5580 5581 0
-5577 5580 5581 0
-5577 -5580 -5581 0
4745 5495 5582 0
4745 -5495 -5582 0
-4745 5495 -5582 0
-4745 -5495 -5582 0
5500 5583 0
-5500 -5583 0
4609 5498 5584 0
4609 -5498 -5584 0
-4609 5498 -5584 0
-4609 -5498 -5584 0
5582 5583 5584 -5585 0
5582 5583 -5584 5585 0
5582 -5583 5584 5585 0
5582 -5583 -5584 5585 0
-5582 5583 5584 5585 0
-5582 5583 -5584 5585 0
-5582 -5583 5584 5585 0
-5582 -5583 -5584 5585 0
4766 5504 5586 0
4766 -5504 -5586 0
-4766 5504 -5586 0
-4766 -5504 -5586 0
5509 5587 0
-5509 -5587 0
4629 5507 5588 0
4629 -5507 -5588 0
-4629 5507 -5588 0
-4629 -5507 -5588 0
5586 5587 5588 -5589 0
5586 5587 -5588 5589 0
5586 -5587 5588 5589 0
5586 -5587 -5588 5589 0
-5586 5587 5588 5589 0
-5586 5587 -5588 5589 0
-5586 -5587 5588 5589 0
-5586 -5587 -5588 5589 0
5585 5589 -5590 0
5585 -5589 5590 0
-5585 5589 5590 0
-5585 -5589 -5590 0
5498 4891 5591 0
5498 -4891 -5591 0
-5498 4891 -5591 0
-5498 -4891 -5591 0
5495 5432 5592 0
5495 -5432 -5592 0
-5495 5432 -5592 0
-5495 -5432 -5592 0
5500 5593 0
-5500 -5593 0
5591 5592 5593 -5594 0
5591 5592 -5593 5594 0
5591 -5592 5593 5594 0
5591 -5592 -5593 5594 0
-5591 5592 5593 5594 0
-5591 5592 -5593 5594 0
-5591 -5592 5593 5594 0
-5591 -5592 -5593 5594 0
5507 4905 5595 0
5507 -4905 -5595 0
-5507 4905 -5595 0
-5507 -4905 -5595 0
5504 5440 5596 0
5504 -5440 -5596 0
-5504 5440 -5596 0
-5504 -5440 -5596 0
5509 5597 0
-5509 -5597 0
5595 5596 5597 -5598 0
5595 5596 -5597 5598 0
5595 -5596 5597 5598 0
5595 -5596 -5597 5598 0
-5595 5596 5597 5598 0
-5595 5596 -5597 5598 0
-5595 -5596 5597 5598 0
-5595 -5596 -5597 5598 0
5594 5598 -5599 0
5594 -5598 5599 0
-5594 5598 5599 0
-5594 -5598 -5599 0
5500 5600 0
-5500 -5600 0
5498 4825 5601 0
5498 -4825 -5601 0
-5498 4825 -5601 0
-5498 -4825 -5601 0
5495 4836 5602 0
5495 -4836 -5602 0
-5495 4836 -5602 0
-5495 -4836 -5602 0
5600 5601 5602 -5603 0
5600 5601 -5602 5603 0
5600 -5601 5602 5603 0
5600 -5601 -5602 5603 0
-5600 5601 5602 5603 0
-5600 5601 -5602 5603 0
-5600 -5601 5602 5603 0
-5600 -5601 -5602 5603 0
5509 5604 0
-5509 -5604 0
5507 4843 5605 0
5507 -4843 -5605 0
-5507 4843 -5605 0
-5507 -4843 -5605 0
5504 4854 5606 0
5504 -4854 -5606 0
-5504 4854 -5606 0
-5504 -4854 -5606 0
5604 5605 5606 -5607 0
5604 5605 -5606 5607 0
5604 -5605 5606 5607 0
5604 -5605 -5606 5607 0
-5604 5605 5606 5607 0
-5604 5605 -5606 5607 0
-5604 -5605 5606 5607 0
-5604 -5605 -5606 5607 0
5603 5607 -5608 0
5603 -5607 5608 0
-5603 5607 5608 0
-5603 -5607 -5608 0
286 5609 0
-286 -5609 0
5609 5610 0
-5609 -5610 0
5610 5611 0
-5610 -5611 0
5611 4635 5612 0
5611 -4635 -5612 0
-5611 4635 -5612 0
-5611 -4635 -5612 0
4869 4664 5613 0
4869 -4664 -5613 0
-4869 4664 -5613 0
-4869 -4664 -5613 0
5612 5613 -5614 0
5612 -5613 5614 0
-5612 5613 5614 0
-5612 -5613 5614 0
286 5615 0
-286 -5615 0
5615 5616 0
-5615 -5616 0
5616 5617 0
-5616 -5617 0
5617 4672 5618 0
5617 -4672 -5618 0
-5617 4672 -5618 0
-5617 -4672 -5618 0
4883 4701 5619 0
4883 -4701 -5619 0
-4883 4701 -5619 0
-4883 -4701 -5619 0
5618 5619 -5620 0
5618 -5619 5620 0
-5618 5619 5620 0
-5618 -5619 5620 0
5614 5620 -5621 0
5614 -5620 5621 0
-5614 5620 5621 0
-5614 -5620 -5621 0
5434 4799 5622 0
5434 -4799 -5622 0
-5434 4799 -5622 0
-5434 -4799 -5622 0
4788 5429 5623 0
4788 -5429 -5623 0
-4788 5429 -5623 0
-4788 -5429 -5623 0
5622 5623 -5624 0
5622 -5623 5624 0
-5622 5623 5624 0
-5622 -5623 5624 0
5442 4817 5625 0
5442 -4817 -5625 0
-5442 4817 -5625 0
-5442 -4817 -5625 0
4806 5437 5626 0
4806 -5437 -5626 0
-4806 5437 -5626 0
-4806 -5437 -5626 0
5625 5626 -5627 0
5625 -5626 5627 0
-5625 5626 5627 0
-5625 -5626 5627 0
5624 5627 -5628 0
5624 -5627 5628 0
-5624 5627 5628 0
-5624 -5627 -5628 0
4825 5434 5629 0
4825 -5434 -5629 0
-4825 5434 -5629 0
-4825 -5434 -5629 0
5429 4836 5630 0
5429 -4836 -5630 0
-5429 4836 -5630 0
-5429 -4836 -5630 0
5629 5630 -5631 0
5629 -5630 5631 0
-5629 5630 5631 0
-5629 -5630 5631 0
4843 5442 5632 0
4843 -5442 -5632 0
-4843 5442 -5632 0
-4843 -5442 -5632 0
5437 4854 5633 0
5437 -4854 -5633 0
-5437 4854 -5633 0
-5437 -4854 -5633 0
5632 5633 -5634 0
5632 -5633 5634 0
-5632 5633 5634 0
-5632 -5633 5634 0
5631 5634 -5635 0
5631 -5634 5635 0
-5631 5634 5635 0
-5631 -5634 -5635 0
5434 4667 5636 0
5434 -4667 -5636 0
-5434 4667 -5636 0
-5434 -4667 -5636 0
5429 4638 5637 0
5429 -4638 -5637 0
-5429 4638 -5637 0
-5429 -4638 -5637 0
5636 5637 -5638 0
5636 -5637 5638 0
-5636 5637 5638 0
-5636 -5637 5638 0
5442 4704 5639 0
5442 -4704 -5639 0
-5442 4704 -5639 0
-5442 -4704 -5639 0
5437 4675 5640 0
5437 -4675 -5640 0
-5437 4675 -5640 0
-5437 -4675 -5640 0
5639 5640 -5641 0
5639 -5640 5641 0
-5639 5640 5641 0
-5639 -5640 5641 0
5638 5641 -5642 0
5638 -5641 5642 0
-5638 5641 5642 0
-5638 -5641 -5642 0
4869 5434 5643 0
4869 -5434 -5643 0
-4869 5434 -5643 0
-4869 -5434 -5643 0
5429 5611 5644 0
5429 -5611 -5644 0
-5429 5611 -5644 0
-5429 -5611 -5644 0
5643 5644 -5645 0
5643 -5644 5645 0
-5643 5644 5645 0
-5643 -5644 5645 0
4883 5442 5646 0
4883 -5442 -5646 0
-4883 5442 -5646 0
-4883 -5442 -5646 0
5437 5617 5647 0
5437 -5617 -5647 0
-5437 5617 -5647 0
-5437 -5617 -5647 0
5646 5647 -5648 0
5646 -5647 5648 0
-5646 5647 5648 0
-5646 -5647 5648 0
5645 5648 -5649 0
5645 -5648 5649 0
-5645 5648 5649 0
-5645 -5648 -5649 0
4527 5498 5650 0
4527 -5498 -5650 0
-4527 5498 -5650 0
-4527 -5498 -5650 0
5495 5516 5651 0
5495 -5516 -5651 0
-5495 5516 -5651 0
-5495 -5516 -5651 0
5500 5652 0
-5500 -5652 0
5650 5651 5652 -5653 0
5650 5651 -5652 5653 0
5650 -5651 5652 5653 0
5650 -5651 -5652 5653 0
-5650 5651 5652 5653 0
-5650 5651 -5652 5653 0
-5650 -5651 5652 5653 0
-5650 -5651 -5652 5653 0
4563 5507 5654 0
4563 -5507 -5654 0
-4563 5507 -5654 0
-4563 -5507 -5654 0
5504 5522 5655 0
5504 -5522 -5655 0
-5504 5522 -5655 0
-5504 -5522 -5655 0
5509 5656 0
-5509 -5656 0
5654 5655 5656 -5657 0
5654 5655 -5656 5657 0
5654 -5655 5656 5657 0
5654 -5655 -5656 5657 0
-5654 5655 5656 5657 0
-5654 5655 -5656 5657 0
-5654 -5655 5656 5657 0
-5654 -5655 -5656 5657 0
5653 5657 -5658 0
5653 -5657 5658 0
-5653 5657 5658 0
-5653 -5657 -5658 0
5495 4788 5659 0
5495 -4788 -5659 0
-5495 4788 -5659 0
-5495 -4788 -5659 0
4799 5498 5660 0
4799 -5498 -5660 0
-4799 5498 -5660 0
-4799 -5498 -5660 0
5500 5661 0
-5500 -5661 0
5659 5660 5661 -5662 0
5659 5660 -5661 5662 0
5659 -5660 5661 5662 0
5659 -5660 -5661 5662 0
-5659 5660 5661 5662 0
-5659 5660 -5661 5662 0
-5659 -5660 5661 5662 0
-5659 -5660 -5661 5662 0
5504 4806 5663 0
5504 -4806 -5663 0
-5504 4806 -5663 0
-5504 -4806 -5663 0
4817 5507 5664 0
4817 -5507 -5664 0
-4817 5507 -5664 0
-4817 -5507 -5664 0
5509 5665 0
-5509 -5665 0
5663 5664 5665 -5666 0
5663 5664 -5665 5666 0
5663 -5664 5665 5666 0
5663 -5664 -5665 5666 0
-5663 5664 5665 5666 0
-5663 5664 -5665 5666 0
-5663 -5664 5665 5666 0
-5663 -5664 -5665 5666 0
5662 5666 -5667 0
5662 -5666 5667 0
-5662 5666 5667 0
-5662 -5666 -5667 0
5500 5668 0
-5500 -5668 0
4869 5498 5669 0
4869 -5498 -5669 0
-4869 5498 -5669 0
-4869 -5498 -5669 0
5611 5495 5670 0
5611 -5495 -5670 0
-5611 5495 -5670 0
-5611 -5495 -5670 0
5668 5669 5670 -5671 0
5668 5669 -5670 5671 0
5668 -5669 5670 5671 0
5668 -5669 -5670 5671 0
-5668 5669 5670 5671 0
-5668 5669 -5670 5671 0
-5668 -5669 5670 5671 0
-5668 -5669 -5670 5671 0
5509 5672 0
-5509 -5672 0
4883 5507 5673 0
4883 -5507 -5673 0
-4883 5507 -5673 0
-4883 -5507 -5673 0
5617 5504 5674 0
5617 -5504 -5674 0
-5617 5504 -5674 0
-5617 -5504 -5674 0
5672 5673 5674 -5675 0
5672 5673 -5674 5675 0
5672 -5673 5674 5675 0
5672 -5673 -5674 5675 0
-5672 5673 5674 5675 0
-5672 5673 -5674 5675 0
-5672 -5673 5674 5675 0
-5672 -5673 -5674 5675 0
5671 5675 -5676 0
5671 -5675 5676 0
-5671 5675 5676 0
-5671 -5675 -5676 0
5495 4712 5677 0
5495 -4712 -5677 0
-5495 4712 -5677 0
-5495 -4712 -5677 0
5498 4721 5678 0
5498 -4721 -5678 0
-5498 4721 -5678 0
-5498 -4721 -5678 0
5500 5679 0
-5500 -5679 0
5677 5678 5679 -5680 0
5677 5678 -5679 5680 0
5677 -5678 5679 5680 0
5677 -5678 -5679 5680 0
-5677 5678 5679 5680 0
-5677 5678 -5679 5680 0
-5677 -5678 5679 5680 0
-5677 -5678 -5679 5680 0
5504 4728 5681 0
5504 -4728 -5681 0
-5504 4728 -5681 0
-5504 -4728 -5681 0
5507 4737 5682 0
5507 -4737 -5682 0
-5507 4737 -5682 0
-5507 -4737 -5682 0
5509 5683 0
-5509 -5683 0
5681 5682 5683 -5684 0
5681 5682 -5683 5684 0
5681 -5682 5683 5684 0
5681 -5682 -5683 5684 0
-5681 5682 5683 5684 0
-5681 5682 -5683 5684 0
-5681 -5682 5683 5684 0
-5681 -5682 -5683 5684 0
5680 5684 -5685 0
5680 -5684 5685 0
-5680 5684 5685 0
-5680 -5684 -5685 0
4638 5495 5686 0
4638 -5495 -5686 0
-4638 5495 -5686 0
-4638 -5495 -5686 0
5498 4667 5687 0
5498 -4667 -5687 0
-5498 4667 -5687 0
-5498 -4667 -5687 0
5500 5688 0
-5500 -5688 0
5686 5687 5688 -5689 0
5686 5687 -5688 5689 0
5686 -5687 5688 5689 0
5686 -5687 -5688 5689 0
-5686 5687 5688 5689 0
-5686 5687 -5688 5689 0
-5686 -5687 5688 5689 0
-5686 -5687 -5688 5689 0
4675 5504 5690 0
4675 -5504 -5690 0
-4675 5504 -5690 0
-4675 -5504 -5690 0
5507 4704 5691 0
5507 -4704 -5691 0
-5507 4704 -5691 0
-5507 -4704 -5691 0
5509 5692 0
-5509 -5692 0
5690 5691 5692 -5693 0
5690 5691 -5692 5693 0
5690 -5691 5692 5693 0
5690 -5691 -5692 5693 0
-5690 5691 5692 5693 0
-5690 5691 -5692 5693 0
-5690 -5691 5692 5693 0
-5690 -5691 -5692 5693 0
5689 5693 -5694 0
5689 -5693 5694 0
-5689 5693 5694 0
-5689 -5693 -5694 0
4824 5695 0
-4824 -5695 0
5695 5696 0
-5695 -5696 0
4842 5697 0
-4842 -5697 0
5697 5698 0
-5697 -5698 0
5696 5698 -5699 0
5696 -5698 5699 0
-5696 5698 5699 0
-5696 -5698 -5699 0
4720 5700 0
-4720 -5700 0
5700 5701 0
-5700 -5701 0
4736 5702 0
-4736 -5702 0
5702 5703 0
-5702 -5703 0
5701 5703 -5704 0
5701 -5703 5704 0
-5701 5703 5704 0
-5701 -5703 -5704 0
4666 5705 0
-4666 -5705 0
5705 5706 0
-5705 -5706 0
4703 5707 0
-4703 -5707 0
5707 5708 0
-5707 -5708 0
5706 5708 -5709 0
5706 -5708 5709 0
-5706 5708 5709 0
-5706 -5708 -5709 0
4868 5710 0
-4868 -5710 0
5710 5711 0
-5710 -5711 0
4882 5712 0
-4882 -5712 0
5712 5713 0
-5712 -5713 0
5711 5713 -5714 0
5711 -5713 5714 0
-5711 5713 5714 0
-5711 -5713 -5714 0
4890 5715 0
-4890 -5715 0
5715 5716 0
-5715 -5716 0
4904 5717 0
-4904 -5717 0
5717 5718 0
-5717 -5718 0
5716 5718 -5719 0
5716 -5718 5719 0
-5716 5718 5719 0
-5716 -5718 -5719 0
4575 5720 0
-4575 -5720 0
5720 5721 0
-5720 -5721 0
4587 5722 0
-4587 -5722 0
5722 5723 0
-5722 -5723 0
5721 5723 -5724 0
5721 -5723 5724 0
-5721 5723 5724 0
-5721 -5723 -5724 0
4526 5725 0
-4526 -5725 0
5725 5726 0
-5725 -5726 0
4562 5727 0
-4562 -5727 0
5727 5728 0
-5727 -5728 0
5726 5728 -5729 0
5726 -5728 5729 0
-5726 5728 5729 0
-5726 -5728 -5729 0
4608 5730 0
-4608 -5730 0
5730 5731 0
-5730 -5731 0
4628 5732 0
-4628 -5732 0
5732 5733 0
-5732 -5733 0
5731 5733 -5734 0
5731 -5733 5734 0
-5731 5733 5734 0
-5731 -5733 -5734 0
4798 5735 0
-4798 -5735 0
5735 5736 0
-5735 -5736 0
4816 5737 0
-4816 -5737 0
5737 5738 0
-5737 -5738 0
5736 5738 -5739 0
5736 -5738 5739 0
-5736 5738 5739 0
-5736 -5738 -5739 0
4959 4953 5740 0
4959 -4953 -5740 0
-4959 4953 -5740 0
-4959 -4953 -5740 0
5740 5741 0
-5740 -5741 0
5014 5008 5742 0
5014 -5008 -5742 0
-5014 5008 -5742 0
-5014 -5008 -5742 0
5742 5743 0
-5742 -5743 0
5741 5743 -5744 0
5741 -5743 5744 0
-5741 5743 5744 0
-5741 -5743 -5744 0
3897 3925 -5745 0
3897 -3925 5745 0
-3897 3925 5745 0
-3897 -3925 -5745 0
2348 2708 -5746 0
2348 -2708 5746 0
-2348 2708 5746 0
-2348 -2708 -5746 0
2806 2879 -5747 0
2806 -2879 5747 0
-2806 2879 5747 0
-2806 -2879 -5747 0
2813 2886 -5748 0
2813 -2886 5748 0
-2813 2886 5748 0
-2813 -2886 -5748 0
2824 2897 -5749 0
2824 -2897 5749 0
-2824 2897 5749 0
-2824 -2897 -5749 0
311 5750 0
-311 -5750 0
311 5751 0
-311 -5751 0
5750 5751 -5752 0
5750 -5751 5752 0
-5750 5751 5752 0
-5750 -5751 -5752 0
2390 2750 -5753 0
2390 -2750 5753 0
-2390 2750 5753 0
-2390 -2750 -5753 0
2147 2494 -5754 0
2147 -2494 5754 0
-2147 2494 5754 0
-2147 -2494 -5754 0
2785 2858 -5755 0
2785 -2858 5755 0
-2785 2858 5755 0
-2785 -2858 -5755 0
2809 2882 -5756 0
2809 -2882 5756 0
-2809 2882 5756 0
-2809 -2882 -5756 0
2765 2838 -5757 0
2765 -2838 5757 0
-2765 2838 5757 0
-2765 -2838 -5757 0
3878 3906 -5758 0
3878 -3906 5758 0
-3878 3906 5758 0
-3878 -3906 -5758 0
2779 2852 -5759 0
2779 -2852 5759 0
-2779 2852 5759 0
-2779 -2852 -5759 0
326 5760 0
-326 -5760 0
326 5761 0
-326 -5761 0
5760 5761 -5762 0
5760 -5761 5762 0
-5760 5761 5762 0
-5760 -5761 -5762 0
329 5763 0
-329 -5763 0
329 5764 0
-329 -5764 0
5763 5764 -5765 0
5763 -5764 5765 0
-5763 5764 5765 0
-5763 -5764 -5765 0
2145 2492 -5766 0
2145 -2492 5766 0
-2145 2492 5766 0
-2145 -2492 -5766 0
3879 3907 -5767 0
3879 -3907 5767 0
-3879 3907 5767 0
-3879 -3907 -5767 0
2149 2496 -5768 0
2149 -2496 5768 0
-2149 2496 5768 0
-2149 -2496 -5768 0
3889 3917 -5769 0
3889 -3917 5769 0
-3889 3917 5769 0
-3889 -3917 -5769 0
4960 5015 -5770 0
4960 -5015 5770 0
-4960 5015 5770 0
-4960 -5015 -5770 0
3887 3915 -5771 0
3887 -3915 5771 0
-3887 3915 5771 0
-3887 -3915 -5771 0
2046 2485 -5772 0
2046 -2485 5772 0
-2046 2485 5772 0
-2046 -2485 -5772 0
2044 2560 -5773 0
2044 -2560 5773 0
-2044 2560 5773 0
-2044 -2560 -5773 0
1894 1914 -5774 0
1894 -1914 5774 0
-1894 1914 5774 0
-1894 -1914 -5774 0
5075 2336 2211 5775 0
5075 2336 -2211 -5775 0
5075 -2336 2211 -5775 0
5075 -2336 -2211 -5775 0
-5075 2336 2211 -5775 0
-5075 2336 -2211 -5775 0
-5075 -2336 2211 -5775 0
-5075 -2336 -2211 -5775 0
2211 2337 5060 5776 0
2211 2337 -5060 -5776 0
2211 -2337 5060 -5776 0
2211 -2337 -5060 -5776 0
-2211 2337 5060 -5776 0
-2211 2337 -5060 -5776 0
-2211 -2337 5060 -5776 0
-2211 -2337 -5060 -5776 0
5775 5776 -5777 0
5775 -5776 5777 0
-5775 5776 5777 0
-5775 -5776 5777 0
5777 5778 0
-5777 -5778 0
1171 1128 5779 0
1171 -1128 -5779 0
-1171 1128 -5779 0
-1171 -1128 -5779 0
1136 1171 5780 0
1136 -1171 -5780 0
-1136 1171 -5780 0
-1136 -1171 -5780 0
5780 5781 0
-5780 -5781 0
1171 1160 5782 0
1171 -1160 -5782 0
-1171 1160 -5782 0
-1171 -1160 -5782 0
5779 5781 5782 5783 0
5779 5781 -5782 -5783 0
5779 -5781 5782 -5783 0
5779 -5781 -5782 -5783 0
-5779 5781 5782 -5783 0
-5779 5781 -5782 -5783 0
-5779 -5781 5782 -5783 0
-5779 -5781 -5782 -5783 0
5783 5784 0
-5783 -5784 0
4939 4940 5785 0
4939 -4940 -5785 0
-4939 4940 -5785 0
-4939 -4940 -5785 0
5785 5786 0
-5785 -5786 0
4309 5787 0
-4309 -5787 0
4933 5787 5788 0
4933 -5787 -5788 0
-4933 5787 -5788 0
-4933 -5787 -5788 0
5788 5789 0
-5788 -5789 0
4344 5790 0
-4344 -5790 0
5790 5791 0
-5790 -5791 0
5786 5789 5791 5792 0
5786 5789 -5791 -5792 0
5786 -5789 5791 -5792 0
5786 -5789 -5791 -5792 0
-5786 5789 5791 -5792 0
-5786 5789 -5791 -5792 0
-5786 -5789 5791 -5792 0
-5786 -5789 -5791 -5792 0
5792 5793 0
-5792 -5793 0
5778 5784 5793 5794 0
5778 5784 -5793 -5794 0
5778 -5784 5793 -5794 0
5778 -5784 -5793 -5794 0
-5778 5784 5793 -5794 0
-5778 5784 -5793 -5794 0
-5778 -5784 5793 -5794 0
-5778 -5784 -5793 -5794 0
4932 4931 5795 0
4932 -4931 -5795 0
-4932 4931 -5795 0
-4932 -4931 -5795 0
5795 5796 0
-5795 -5796 0
5789 5796 5791 5797 0
5789 5796 -5791 -5797 0
5789 -5796 5791 -5797 0
5789 -5796 -5791 -5797 0
-5789 5796 5791 -5797 0
-5789 5796 -5791 -5797 0
-5789 -5796 5791 -5797 0
-5789 -5796 -5791 -5797 0
5797 5798 0
-5797 -5798 0
5779 5799 0
-5779 -5799 0
5780 5799 5782 5800 0
5780 5799 -5782 -5800 0
5780 -5799 5782 -5800 0
5780 -5799 -5782 -5800 0
-5780 5799 5782 -5800 0
-5780 5799 -5782 -5800 0
-5780 -5799 5782 -5800 0
-5780 -5799 -5782 -5800 0
5800 5801 0
-5800 -5801 0
5798 5778 5801 5802 0
5798 5778 -5801 -5802 0
5798 -5778 5801 -5802 0
5798 -5778 -5801 -5802 0
-5798 5778 5801 -5802 0
-5798 5778 -5801 -5802 0
-5798 -5778 5801 -5802 0
-5798 -5778 -5801 -5802 0
4940 4932 5803 0
4940 -4932 -5803 0
-4940 4932 -5803 0
-4940 -4932 -5803 0
5803 5804 0
-5803 -5804 0
5789 5791 5804 5805 0
5789 5791 -5804 -5805 0
5789 -5791 5804 -5805 0
5789 -5791 -5804 -5805 0
-5789 5791 5804 -5805 0
-5789 5791 -5804 -5805 0
-5789 -5791 5804 -5805 0
-5789 -5791 -5804 -5805 0
5805 5806 0
-5805 -5806 0
5779 5780 5782 1171 5807 0
5779 5780 5782 -1171 -5807 0
5779 5780 -5782 1171 -5807 0
5779 5780 -5782 -1171 -5807 0
5779 -5780 5782 1171 -5807 0
5779 -5780 5782 -1171 -5807 0
5779 -5780 -5782 1171 -5807 0
5779 -5780 -5782 -1171 -5807 0
-5779 5780 5782 1171 -5807 0
-5779 5780 5782 -1171 -5807 0
-5779 5780 -5782 1171 -5807 0
-5779 5780 -5782 -1171 -5807 0
-5779 -5780 5782 1171 -5807 0
-5779 -5780 5782 -1171 -5807 0
-5779 -5780 -5782 1171 -5807 0
-5779 -5780 -5782 -1171 -5807 0
5807 5808 0
-5807 -5808 0
5806 5778 5808 5809 0
5806 5778 -5808 -5809 0
5806 -5778 5808 -5809 0
5806 -5778 -5808 -5809 0
-5806 5778 5808 -5809 0
-5806 5778 -5808 -5809 0
-5806 -5778 5808 -5809 0
-5806 -5778 -5808 -5809 0
5794 5802 5809 -5810 0
5794 5802 -5809 5810 0
5794 -5802 5809 5810 0
5794 -5802 -5809 5810 0
-5794 5802 5809 5810 0
-5794 5802 -5809 5810 0
-5794 -5802 5809 5810 0
-5794 -5802 -5809 5810 0
4931 4939 5811 0
4931 -4939 -5811 0
-4931 4939 -5811 0
-4931 -4939 -5811 0
5811 5812 0
-5811 -5812 0
5812 5789 5791 5813 0
5812 5789 -5791 -5813 0
5812 -5789 5791 -5813 0
5812 -5789 -5791 -5813 0
-5812 5789 5791 -5813 0
-5812 5789 -5791 -5813 0
-5812 -5789 5791 -5813 0
-5812 -5789 -5791 -5813 0
5813 5814 0
-5813 -5814 0
5782 5799 5781 5815 0
5782 5799 -5781 -5815 0
5782 -5799 5781 -5815 0
5782 -5799 -5781 -5815 0
-5782 5799 5781 -5815 0
-5782 5799 -5781 -5815 0
-5782 -5799 5781 -5815 0
-5782 -5799 -5781 -5815 0
5815 5816 0
-5815 -5816 0
5814 5778 5816 5817 0
5814 5778 -5816 -5817 0
5814 -5778 5816 -5817 0
5814 -5778 -5816 -5817 0
-5814 5778 5816 -5817 0
-5814 5778 -5816 -5817 0
-5814 -5778 5816 -5817 0
-5814 -5778 -5816 -5817 0
5782 5818 0
-5782 -5818 0
5781 5818 5779 5819 0
5781 5818 -5779 -5819 0
5781 -5818 5779 -5819 0
5781 -5818 -5779 -5819 0
-5781 5818 5779 -5819 0
-5781 5818 -5779 -5819 0
-5781 -5818 5779 -5819 0
-5781 -5818 -5779 -5819 0
5819 5820 0
-5819 -5820 0
4275 5821 0
-4275 -5821 0
5787 5821 5822 0
5787 -5821 -5822 0
-5787 5821 -5822 0
-5787 -5821 -5822 0
5822 5823 0
-5822 -5823 0
5791 5786 5823 5824 0
5791 5786 -5823 -5824 0
5791 -5786 5823 -5824 0
5791 -5786 -5823 -5824 0
-5791 5786 5823 -5824 0
-5791 5786 -5823 -5824 0
-5791 -5786 5823 -5824 0
-5791 -5786 -5823 -5824 0
5824 5825 0
-5824 -5825 0
5820 5778 5825 5826 0
5820 5778 -5825 -5826 0
5820 -5778 5825 -5826 0
5820 -5778 -5825 -5826 0
-5820 5778 5825 -5826 0
-5820 5778 -5825 -5826 0
-5820 -5778 5825 -5826 0
-5820 -5778 -5825 -5826 0
5804 5791 5823 5827 0
5804 5791 -5823 -5827 0
5804 -5791 5823 -5827 0
5804 -5791 -5823 -5827 0
-5804 5791 5823 -5827 0
-5804 5791 -5823 -5827 0
-5804 -5791 5823 -5827 0
-5804 -5791 -5823 -5827 0
5827 5828 0
-5827 -5828 0
5779 5818 5780 5829 0
5779 5818 -5780 -5829 0
5779 -5818 5780 -5829 0
5779 -5818 -5780 -5829 0
-5779 5818 5780 -5829 0
-5779 5818 -5780 -5829 0
-5779 -5818 5780 -5829 0
-5779 -5818 -5780 -5829 0
5829 5830 0
-5829 -5830 0
5828 5830 5778 5831 0
5828 5830 -5778 -5831 0
5828 -5830 5778 -5831 0
5828 -5830 -5778 -5831 0
-5828 5830 5778 -5831 0
-5828 5830 -5778 -5831 0
-5828 -5830 5778 -5831 0
-5828 -5830 -5778 -5831 0
5817 5826 5831 -5832 0
5817 5826 -5831 5832 0
5817 -5826 5831 5832 0
5817 -5826 -5831 5832 0
-5817 5826 5831 5832 0
-5817 5826 -5831 5832 0
-5817 -5826 5831 5832 0
-5817 -5826 -5831 5832 0
4930 4933 5833 0
4930 -4933 -5833 0
-4930 4933 -5833 0
-4930 -4933 -5833 0
5833 5834 0
-5833 -5834 0
5790 5835 0
-5790 -5835 0
5834 5835 5804 5836 0
5834 5835 -5804 -5836 0
5834 -5835 5804 -5836 0
5834 -5835 -5804 -5836 0
-5834 5835 5804 -5836 0
-5834 5835 -5804 -5836 0
-5834 -5835 5804 -5836 0
-5834 -5835 -5804 -5836 0
5836 5837 0
-5836 -5837 0
5837 5778 5838 0
5837 -5778 -5838 0
-5837 5778 -5838 0
-5837 -5778 -5838 0
5799 5780 5818 5839 0
5799 5780 -5818 -5839 0
5799 -5780 5818 -5839 0
5799 -5780 -5818 -5839 0
-5799 5780 5818 -5839 0
-5799 5780 -5818 -5839 0
-5799 -5780 5818 -5839 0
-5799 -5780 -5818 -5839 0
5839 5840 0
-5839 -5840 0
5796 5823 5791 5841 0
5796 5823 -5791 -5841 0
5796 -5823 5791 -5841 0
5796 -5823 -5791 -5841 0
-5796 5823 5791 -5841 0
-5796 5823 -5791 -5841 0
-5796 -5823 5791 -5841 0
-5796 -5823 -5791 -5841 0
5841 5842 0
-5841 -5842 0
5840 5842 5778 5843 0
5840 5842 -5778 -5843 0
5840 -5842 5778 -5843 0
5840 -5842 -5778 -5843 0
-5840 5842 5778 -5843 0
-5840 5842 -5778 -5843 0
-5840 -5842 5778 -5843 0
-5840 -5842 -5778 -5843 0
5818 5781 5799 5844 0
5818 5781 -5799 -5844 0
5818 -5781 5799 -5844 0
5818 -5781 -5799 -5844 0
-5818 5781 5799 -5844 0
-5818 5781 -5799 -5844 0
-5818 -5781 5799 -5844 0
-5818 -5781 -5799 -5844 0
5844 5845 0
-5844 -5845 0
5791 5823 5812 5846 0
5791 5823 -5812 -5846 0
5791 -5823 5812 -5846 0
5791 -5823 -5812 -5846 0
-5791 5823 5812 -5846 0
-5791 5823 -5812 -5846 0
-5791 -5823 5812 -5846 0
-5791 -5823 -5812 -5846 0
5846 5847 0
-5846 -5847 0
5845 5847 5778 5848 0
5845 5847 -5778 -5848 0
5845 -5847 5778 -5848 0
5845 -5847 -5778 -5848 0
-5845 5847 5778 -5848 0
-5845 5847 -5778 -5848 0
-5845 -5847 5778 -5848 0
-5845 -5847 -5778 -5848 0
5838 5843 5848 -5849 0
5838 5843 -5848 5849 0
5838 -5843 5848 5849 0
5838 -5843 -5848 5849 0
-5838 5843 5848 5849 0
-5838 5843 -5848 5849 0
-5838 -5843 5848 5849 0
-5838 -5843 -5848 5849 0
5810 5832 5849 5850 0
5810 5832 -5849 -5850 0
5810 -5832 5849 -5850 0
5810 -5832 -5849 -5850 0
-5810 5832 5849 -5850 0
-5810 5832 -5849 -5850 0
-5810 -5832 5849 -5850 0
-5810 -5832 -5849 -5850 0
5850 5851 0
-5850 -5851 0
413 5852 0
-413 -5852 0
353 5853 0
-353 -5853 0
5853 5854 0
-5853 -5854 0
5851 5852 4964 5854 5855 0
5851 5852 4964 -5854 -5855 0
5851 5852 -4964 5854 -5855 0
5851 5852 -4964 -5854 -5855 0
5851 -5852 4964 5854 -5855 0
5851 -5852 4964 -5854 -5855 0
5851 -5852 -4964 5854 -5855 0
5851 -5852 -4964 -5854 -5855 0
-5851 5852 4964 5854 -5855 0
-5851 5852 4964 -5854 -5855 0
-5851 5852 -4964 5854 -5855 0
-5851 5852 -4964 -5854 -5855 0
-5851 -5852 4964 5854 -5855 0
-5851 -5852 4964 -5854 -5855 0
-5851 -5852 -4964 5854 -5855 0
-5851 -5852 -4964 -5854 -5855 0
5138 2696 2571 5856 0
5138 2696 -2571 -5856 0
5138 -2696 2571 -5856 0
5138 -2696 -2571 -5856 0
-5138 2696 2571 -5856 0
-5138 2696 -2571 -5856 0
-5138 -2696 2571 -5856 0
-5138 -2696 -2571 -5856 0
2571 2697 5123 5857 0
2571 2697 -5123 -5857 0
2571 -2697 5123 -5857 0
2571 -2697 -5123 -5857 0
-2571 2697 5123 -5857 0
-2571 2697 -5123 -5857 0
-2571 -2697 5123 -5857 0
-2571 -2697 -5123 -5857 0
5856 5857 -5858 0
5856 -5857 5858 0
-5856 5857 5858 0
-5856 -5857 5858 0
5858 5859 0
-5858 -5859 0
1269 1226 5860 0
1269 -1226 -5860 0
-1269 1226 -5860 0
-1269 -1226 -5860 0
1234 1269 5861 0
1234 -1269 -5861 0
-1234 1269 -5861 0
-1234 -1269 -5861 0
5861 5862 0
-5861 -5862 0
1269 1258 5863 0
1269 -1258 -5863 0
-1269 1258 -5863 0
-1269 -1258 -5863 0
5860 5862 5863 5864 0
5860 5862 -5863 -5864 0
5860 -5862 5863 -5864 0
5860 -5862 -5863 -5864 0
-5860 5862 5863 -5864 0
-5860 5862 -5863 -5864 0
-5860 -5862 5863 -5864 0
-5860 -5862 -5863 -5864 0
5864 5865 0
-5864 -5865 0
4994 4995 5866 0
4994 -4995 -5866 0
-4994 4995 -5866 0
-4994 -4995 -5866 0
5866 5867 0
-5866 -5867 0
4325 5868 0
-4325 -5868 0
4988 5868 5869 0
4988 -5868 -5869 0
-4988 5868 -5869 0
-4988 -5868 -5869 0
5869 5870 0
-5869 -5870 0
4361 5871 0
-4361 -5871 0
5871 5872 0
-5871 -5872 0
5867 5870 5872 5873 0
5867 5870 -5872 -5873 0
5867 -5870 5872 -5873 0
5867 -5870 -5872 -5873 0
-5867 5870 5872 -5873 0
-5867 5870 -5872 -5873 0
-5867 -5870 5872 -5873 0
-5867 -5870 -5872 -5873 0
5873 5874 0
-5873 -5874 0
5859 5865 5874 5875 0
5859 5865 -5874 -5875 0
5859 -5865 5874 -5875 0
5859 -5865 -5874 -5875 0
-5859 5865 5874 -5875 0
-5859 5865 -5874 -5875 0
-5859 -5865 5874 -5875 0
-5859 -5865 -5874 -5875 0
4987 4986 5876 0
4987 -4986 -5876 0
-4987 4986 -5876 0
-4987 -4986 -5876 0
5876 5877 0
-5876 -5877 0
5870 5877 5872 5878 0
5870 5877 -5872 -5878 0
5870 -5877 5872 -5878 0
5870 -5877 -5872 -5878 0
-5870 5877 5872 -5878 0
-5870 5877 -5872 -5878 0
-5870 -5877 5872 -5878 0
-5870 -5877 -5872 -5878 0
5878 5879 0
-5878 -5879 0
5860 5880 0
-5860 -5880 0
5861 5880 5863 5881 0
5861 5880 -5863 -5881 0
5861 -5880 5863 -5881 0
5861 -5880 -5863 -5881 0
-5861 5880 5863 -5881 0
-5861 5880 -5863 -5881 0
-5861 -5880 5863 -5881 0
-5861 -5880 -5863 -5881 0
5881 5882 0
-5881 -5882 0
5879 5859 5882 5883 0
5879 5859 -5882 -5883 0
5879 -5859 5882 -5883 0
5879 -5859 -5882 -5883 0
-5879 5859 5882 -5883 0
-5879 5859 -5882 -5883 0
-5879 -5859 5882 -5883 0
-5879 -5859 -5882 -5883 0
4995 4987 5884 0
4995 -4987 -5884 0
-4995 4987 -5884 0
-4995 -4987 -5884 0
5884 5885 0
-5884 -5885 0
5870 5872 5885 5886 0
5870 5872 -5885 -5886 0
5870 -5872 5885 -5886 0
5870 -5872 -5885 -5886 0
-5870 5872 5885 -5886 0
-5870 5872 -5885 -5886 0
-5870 -5872 5885 -5886 0
-5870 -5872 -5885 -5886 0
5886 5887 0
-5886 -5887 0
5860 5861 5863 1269 5888 0
5860 5861 5863 -1269 -5888 0
5860 5861 -5863 1269 -5888 0
5860 5861 -5863 -1269 -5888 0
5860 -5861 5863 1269 -5888 0
5860 -5861 5863 -1269 -5888 0
5860 -5861 -5863 1269 -5888 0
5860 -5861 -5863 -1269 -5888 0
-5860 5861 5863 1269 -5888 0
-5860 5861 5863 -1269 -5888 0
-5860 5861 -5863 1269 -5888 0
-5860 5861 -5863 -1269 -5888 0
-5860 -5861 5863 1269 -5888 0
-5860 -5861 5863 -1269 -5888 0
-5860 -5861 -5863 1269 -5888 0
-5860 -5861 -5863 -1269 -5888 0
5888 5889 0
-5888 -5889 0
5887 5859 5889 5890 0
5887 5859 -5889 -5890 0
5887 -5859 5889 -5890 0
5887 -5859 -5889 -5890 0
-5887 5859 5889 -5890 0
-5887 5859 -5889 -5890 0
-5887 -5859 5889 -5890 0
-5887 -5859 -5889 -5890 0
5875 5883 5890 -5891 0
5875 5883 -5890 5891 0
5875 -5883 5890 5891 0
5875 -5883 -5890 5891 0
-5875 5883 5890 5891 0
-5875 5883 -5890 5891 0
-5875 -5883 5890 5891 0
-5875 -5883 -5890 5891 0
4986 4994 5892 0
4986 -4994 -5892 0
-4986 4994 -5892 0
-4986 -4994 -5892 0
5892 5893 0
-5892 -5893 0
5893 5870 5872 5894 0
5893 5870 -5872 -5894 0
5893 -5870 5872 -5894 0
5893 -5870 -5872 -5894 0
-5893 5870 5872 -5894 0
-5893 5870 -5872 -5894 0
-5893 -5870 5872 -5894 0
-5893 -5870 -5872 -5894 0
5894 5895 0
-5894 -5895 0
5863 5880 5862 5896 0
5863 5880 -5862 -5896 0
5863 -5880 5862 -5896 0
5863 -5880 -5862 -5896 0
-5863 5880 5862 -5896 0
-5863 5880 -5862 -5896 0
-5863 -5880 5862 -5896 0
-5863 -5880 -5862 -5896 0
5896 5897 0
-5896 -5897 0
5895 5859 5897 5898 0
5895 5859 -5897 -5898 0
5895 -5859 5897 -5898 0
5895 -5859 -5897 -5898 0
-5895 5859 5897 -5898 0
-5895 5859 -5897 -5898 0
-5895 -5859 5897 -5898 0
-5895 -5859 -5897 -5898 0
5863 5899 0
-5863 -5899 0
5862 5899 5860 5900 0
5862 5899 -5860 -5900 0
5862 -5899 5860 -5900 0
5862 -5899 -5860 -5900 0
-5862 5899 5860 -5900 0
-5862 5899 -5860 -5900 0
-5862 -5899 5860 -5900 0
-5862 -5899 -5860 -5900 0
5900 5901 0
-5900 -5901 0
4292 5902 0
-4292 -5902 0
5868 5902 5903 0
5868 -5902 -5903 0
-5868 5902 -5903 0
-5868 -5902 -5903 0
5903 5904 0
-5903 -5904 0
5872 5867 5904 5905 0
5872 5867 -5904 -5905 0
5872 -5867 5904 -5905 0
5872 -5867 -5904 -5905 0
-5872 5867 5904 -5905 0
-5872 5867 -5904 -5905 0
-5872 -5867 5904 -5905 0
-5872 -5867 -5904 -5905 0
5905 5906 0
-5905 -5906 0
5901 5859 5906 5907 0
5901 5859 -5906 -5907 0
5901 -5859 5906 -5907 0
5901 -5859 -5906 -5907 0
-5901 5859 5906 -5907 0
-5901 5859 -5906 -5907 0
-5901 -5859 5906 -5907 0
-5901 -5859 -5906 -5907 0
5885 5872 5904 5908 0
5885 5872 -5904 -5908 0
5885 -5872 5904 -5908 0
5885 -5872 -5904 -5908 0
-5885 5872 5904 -5908 0
-5885 5872 -5904 -5908 0
-5885 -5872 5904 -5908 0
-5885 -5872 -5904 -5908 0
5908 5909 0
-5908 -5909 0
5860 5899 5861 5910 0
5860 5899 -5861 -5910 0
5860 -5899 5861 -5910 0
5860 -5899 -5861 -5910 0
-5860 5899 5861 -5910 0
-5860 5899 -5861 -5910 0
-5860 -5899 5861 -5910 0
-5860 -5899 -5861 -5910 0
5910 5911 0
-5910 -5911 0
5909 5911 5859 5912 0
5909 5911 -5859 -5912 0
5909 -5911 5859 -5912 0
5909 -5911 -5859 -5912 0
-5909 5911 5859 -5912 0
-5909 5911 -5859 -5912 0
-5909 -5911 5859 -5912 0
-5909 -5911 -5859 -5912 0
5898 5907 5912 -5913 0
5898 5907 -5912 5913 0
5898 -5907 5912 5913 0
5898 -5907 -5912 5913 0
-5898 5907 5912 5913 0
-5898 5907 -5912 5913 0
-5898 -5907 5912 5913 0
-5898 -5907 -5912 5913 0
4985 4988 5914 0
4985 -4988 -5914 0
-4985 4988 -5914 0
-4985 -4988 -5914 0
5914 5915 0
-5914 -5915 0
5871 5916 0
-5871 -5916 0
5915 5916 5885 5917 0
5915 5916 -5885 -5917 0
5915 -5916 5885 -5917 0
5915 -5916 -5885 -5917 0
-5915 5916 5885 -5917 0
-5915 5916 -5885 -5917 0
-5915 -5916 5885 -5917 0
-5915 -5916 -5885 -5917 0
5917 5918 0
-5917 -5918 0
5918 5859 5919 0
5918 -5859 -5919 0
-5918 5859 -5919 0
-5918 -5859 -5919 0
5880 5861 5899 5920 0
5880 5861 -5899 -5920 0
5880 -5861 5899 -5920 0
5880 -5861 -5899 -5920 0
-5880 5861 5899 -5920 0
-5880 5861 -5899 -5920 0
-5880 -5861 5899 -5920 0
-5880 -5861 -5899 -5920 0
5920 5921 0
-5920 -5921 0
5877 5904 5872 5922 0
5877 5904 -5872 -5922 0
5877 -5904 5872 -5922 0
5877 -5904 -5872 -5922 0
-5877 5904 5872 -5922 0
-5877 5904 -5872 -5922 0
-5877 -5904 5872 -5922 0
-5877 -5904 -5872 -5922 0
5922 5923 0
-5922 -5923 0
5921 5923 5859 5924 0
5921 5923 -5859 -5924 0
5921 -5923 5859 -5924 0
5921 -5923 -5859 -5924 0
-5921 5923 5859 -5924 0
-5921 5923 -5859 -5924 0
-5921 -5923 5859 -5924 0
-5921 -5923 -5859 -5924 0
5899 5862 5880 5925 0
5899 5862 -5880 -5925 0
5899 -5862 5880 -5925 0
5899 -5862 -5880 -5925 0
-5899 5862 5880 -5925 0
-5899 5862 -5880 -5925 0
-5899 -5862 5880 -5925 0
-5899 -5862 -5880 -5925 0
5925 5926 0
-5925 -5926 0
5872 5904 5893 5927 0
5872 5904 -5893 -5927 0
5872 -5904 5893 -5927 0
5872 -5904 -5893 -5927 0
-5872 5904 5893 -5927 0
-5872 5904 -5893 -5927 0
-5872 -5904 5893 -5927 0
-5872 -5904 -5893 -5927 0
5927 5928 0
-5927 -5928 0
5926 5928 5859 5929 0
5926 5928 -5859 -5929 0
5926 -5928 5859 -5929 0
5926 -5928 -5859 -5929 0
-5926 5928 5859 -5929 0
-5926 5928 -5859 -5929 0
-5926 -5928 5859 -5929 0
-5926 -5928 -5859 -5929 0
5919 5924 5929 -5930 0
5919 5924 -5929 5930 0
5919 -5924 5929 5930 0
5919 -5924 -5929 5930 0
-5919 5924 5929 5930 0
-5919 5924 -5929 5930 0
-5919 -5924 5929 5930 0
-5919 -5924 -5929 5930 0
5891 5913 5930 5931 0
5891 5913 -5930 -5931 0
5891 -5913 5930 -5931 0
5891 -5913 -5930 -5931 0
-5891 5913 5930 -5931 0
-5891 5913 -5930 -5931 0
-5891 -5913 5930 -5931 0
-5891 -5913 -5930 -5931 0
5931 5932 0
-5931 -5932 0
413 5933 0
-413 -5933 0
353 5934 0
-353 -5934 0
5934 5935 0
-5934 -5935 0
5932 5933 5019 5935 5936 0
5932 5933 5019 -5935 -5936 0
5932 5933 -5019 5935 -5936 0
5932 5933 -5019 -5935 -5936 0
5932 -5933 5019 5935 -5936 0
5932 -5933 5019 -5935 -5936 0
5932 -5933 -5019 5935 -5936 0
5932 -5933 -5019 -5935 -5936 0
-5932 5933 5019 5935 -5936 0
-5932 5933 5019 -5935 -5936 0
-5932 5933 -5019 5935 -5936 0
-5932 5933 -5019 -5935 -5936 0
-5932 -5933 5019 5935 -5936 0
-5932 -5933 5019 -5935 -5936 0
-5932 -5933 -5019 5935 -5936 0
-5932 -5933 -5019 -5935 -5936 0
5855 5936 -5937 0
5855 -5936 5937 0
-5855 5936 5937 0
-5855 -5936 -5937 0
358 5938 0
-358 -5938 0
358 5939 0
-358 -5939 0
5938 5939 -5940 0
5938 -5939 5940 0
-5938 5939 5940 0
-5938 -5939 -5940 0
359 5941 0
-359 -5941 0
359 5942 0
-359 -5942 0
5941 5942 -5943 0
5941 -5942 5943 0
-5941 5942 5943 0
-5941 -5942 -5943 0
1889 1909 -5944 0
1889 -1909 5944 0
-1889 1909 5944 0
-1889 -1909 -5944 0
1890 1910 -5945 0
1890 -1910 5945 0
-1890 1910 5945 0
-1890 -1910 -5945 0
368 5946 0
-368 -5946 0
368 5947 0
-368 -5947 0
5946 5947 -5948 0
5946 -5947 5948 0
-5946 5947 5948 0
-5946 -5947 -5948 0
1891 1911 -5949 0
1891 -1911 5949 0
-1891 1911 5949 0
-1891 -1911 -5949 0
1893 1913 -5950 0
1893 -1913 5950 0
-1893 1913 5950 0
-1893 -1913 -5950 0
372 5951 0
-372 -5951 0
372 5952 0
-372 -5952 0
5951 5952 -5953 0
5951 -5952 5953 0
-5951 5952 5953 0
-5951 -5952 -5953 0
373 5954 0
-373 -5954 0
373 5955 0
-373 -5955 0
5954 5955 -5956 0
5954 -5955 5956 0
-5954 5955 5956 0
-5954 -5955 -5956 0
5851 2989 5957 0
5851 -2989 -5957 0
-5851 2989 -5957 0
-5851 -2989 -5957 0
5932 3052 5958 0
5932 -3052 -5958 0
-5932 3052 -5958 0
-5932 -3052 -5958 0
5957 5958 -5959 0
5957 -5958 5959 0
-5957 5958 5959 0
-5957 -5958 -5959 0
369 5960 0
-369 -5960 0
5960 5961 0
-5960 -5961 0
412 5962 0
-412 -5962 0
5962 5963 0
-5962 -5963 0
5961 2986 5963 5964 0
5961 2986 -5963 -5964 0
5961 -2986 5963 -5964 0
5961 -2986 -5963 -5964 0
-5961 2986 5963 -5964 0
-5961 2986 -5963 -5964 0
-5961 -2986 5963 -5964 0
-5961 -2986 -5963 -5964 0
369 5965 0
-369 -5965 0
5965 5966 0
-5965 -5966 0
412 5967 0
-412 -5967 0
5967 5968 0
-5967 -5968 0
5966 3049 5968 5969 0
5966 3049 -5968 -5969 0
5966 -3049 5968 -5969 0
5966 -3049 -5968 -5969 0
-5966 3049 5968 -5969 0
-5966 3049 -5968 -5969 0
-5966 -3049 5968 -5969 0
-5966 -3049 -5968 -5969 0
5964 5969 -5970 0
5964 -5969 5970 0
-5964 5969 5970 0
-5964 -5969 -5970 0
413 5971 0
-413 -5971 0
5971 5972 0
-5971 -5972 0
5972 1885 5973 0
5972 -1885 -5973 0
-5972 1885 -5973 0
-5972 -1885 -5973 0
5973 5851 5974 0
5973 -5851 -5974 0
-5973 5851 -5974 0
-5973 -5851 -5974 0
5974 5975 0
-5974 -5975 0
2989 4964 5975 5976 0
2989 4964 -5975 -5976 0
2989 -4964 5975 -5976 0
2989 -4964 -5975 -5976 0
-2989 4964 5975 -5976 0
-2989 4964 -5975 -5976 0
-2989 -4964 5975 -5976 0
-2989 -4964 -5975 -5976 0
413 5977 0
-413 -5977 0
5977 5978 0
-5977 -5978 0
5978 1905 5979 0
5978 -1905 -5979 0
-5978 1905 -5979 0
-5978 -1905 -5979 0
5979 5932 5980 0
5979 -5932 -5980 0
-5979 5932 -5980 0
-5979 -5932 -5980 0
5980 5981 0
-5980 -5981 0
3052 5019 5981 5982 0
3052 5019 -5981 -5982 0
3052 -5019 5981 -5982 0
3052 -5019 -5981 -5982 0
-3052 5019 5981 -5982 0
-3052 5019 -5981 -5982 0
-3052 -5019 5981 -5982 0
-3052 -5019 -5981 -5982 0
5976 5982 -5983 0
5976 -5982 5983 0
-5976 5982 5983 0
-5976 -5982 -5983 0
3131 5984 0
-3131 -5984 0
3149 5985 0
-3149 -5985 0
5984 5985 -5986 0
5984 -5985 5986 0
-5984 5985 5986 0
-5984 -5985 -5986 0
5851 5060 5987 0
5851 -5060 -5987 0
-5851 5060 -5987 0
-5851 -5060 -5987 0
5932 5123 5988 0
5932 -5123 -5988 0
-5932 5123 -5988 0
-5932 -5123 -5988 0
5987 5988 -5989 0
5987 -5988 5989 0
-5987 5988 5989 0
-5987 -5988 -5989 0
4940 4939 5821 5990 0
4940 4939 -5821 -5990 0
4940 -4939 5821 -5990 0
4940 -4939 -5821 -5990 0
-4940 4939 5821 -5990 0
-4940 4939 -5821 -5990 0
-4940 -4939 5821 -5990 0
-4940 -4939 -5821 -5990 0
5990 5991 0
-5990 -5991 0
4930 5790 5991 5992 0
4930 5790 -5991 -5992 0
4930 -5790 5991 -5992 0
4930 -5790 -5991 -5992 0
-4930 5790 5991 -5992 0
-4930 5790 -5991 -5992 0
-4930 -5790 5991 -5992 0
-4930 -5790 -5991 -5992 0
5992 5993 0
-5992 -5993 0
5067 5993 5994 0
5067 -5993 -5994 0
-5067 5993 -5994 0
-5067 -5993 -5994 0
4995 4994 5902 5995 0
4995 4994 -5902 -5995 0
4995 -4994 5902 -5995 0
4995 -4994 -5902 -5995 0
-4995 4994 5902 -5995 0
-4995 4994 -5902 -5995 0
-4995 -4994 5902 -5995 0
-4995 -4994 -5902 -5995 0
5995 5996 0
-5995 -5996 0
4985 5871 5996 5997 0
4985 5871 -5996 -5997 0
4985 -5871 5996 -5997 0
4985 -5871 -5996 -5997 0
-4985 5871 5996 -5997 0
-4985 5871 -5996 -5997 0
-4985 -5871 5996 -5997 0
-4985 -5871 -5996 -5997 0
5997 5998 0
-5997 -5998 0
5130 5998 5999 0
5130 -5998 -5999 0
-5130 5998 -5999 0
-5130 -5998 -5999 0
5994 5999 -6000 0
5994 -5999 6000 0
-5994 5999 6000 0
-5994 -5999 -6000 0
2337 2697 -6001 0
2337 -2697 6001 0
-2337 2697 6001 0
-2337 -2697 -6001 0
1933 1969 1964 1957 6002 0
1933 1969 1964 -1957 -6002 0
1933 1969 -1964 1957 -6002 0
1933 1969 -1964 -1957 -6002 0
1933 -1969 1964 1957 -6002 0
1933 -1969 1964 -1957 -6002 0
1933 -1969 -1964 1957 -6002 0
1933 -1969 -1964 -1957 -6002 0
-1933 1969 1964 1957 -6002 0
-1933 1969 1964 -1957 -6002 0
-1933 1969 -1964 1957 -6002 0
-1933 1969 -1964 -1957 -6002 0
-1933 -1969 1964 1957 -6002 0
-1933 -1969 1964 -1957 -6002 0
-1933 -1969 -1964 1957 -6002 0
-1933 -1969 -1964 -1957 -6002 0
6002 6003 0
-6002 -6003 0
1987 2023 2018 2011 6004 0
1987 2023 2018 -2011 -6004 0
1987 2023 -2018 2011 -6004 0
1987 2023 -2018 -2011 -6004 0
1987 -2023 2018 2011 -6004 0
1987 -2023 2018 -2011 -6004 0
1987 -2023 -2018 2011 -6004 0
1987 -2023 -2018 -2011 -6004 0
-1987 2023 2018 2011 -6004 0
-1987 2023 2018 -2011 -6004 0
-1987 2023 -2018 2011 -6004 0
-1987 2023 -2018 -2011 -6004 0
-1987 -2023 2018 2011 -6004 0
-1987 -2023 2018 -2011 -6004 0
-1987 -2023 -2018 2011 -6004 0
-1987 -2023 -2018 -2011 -6004 0
6004 6005 0
-6004 -6005 0
6003 6005 -6006 0
6003 -6005 6006 0
-6003 6005 6006 0
-6003 -6005 -6006 0
265 6007 0
-265 -6007 0
6007 6008 0
-6007 -6008 0
6008 6009 0
-6008 -6009 0
6009 6010 0
-6009 -6010 0
342 6011 0
-342 -6011 0
6010 6011 6012 0
6010 -6011 -6012 0
-6010 6011 -6012 0
-6010 -6011 -6012 0
265 6013 0
-265 -6013 0
6013 6014 0
-6013 -6014 0
6014 6015 0
-6014 -6015 0
6015 6016 0
-6015 -6016 0
342 6017 0
-342 -6017 0
6016 6017 6018 0
6016 -6017 -6018 0
-6016 6017 -6018 0
-6016 -6017 -6018 0
6012 6018 -6019 0
6012 -6018 6019 0
-6012 6018 6019 0
-6012 -6018 -6019 0
3000 3063 -6020 0
3000 -3063 6020 0
-3000 3063 6020 0
-3000 -3063 -6020 0
5060 5993 6021 0
5060 -5993 -6021 0
-5060 5993 -6021 0
-5060 -5993 -6021 0
5123 5998 6022 0
5123 -5998 -6022 0
-5123 5998 -6022 0
-5123 -5998 -6022 0
6021 6022 -6023 0
6021 -6022 6023 0
-6021 6022 6023 0
-6021 -6022 -6023 0
2336 5075 6024 0
2336 -5075 -6024 0
-2336 5075 -6024 0
-2336 -5075 -6024 0
2337 5060 6025 0
2337 -5060 -6025 0
-2337 5060 -6025 0
-2337 -5060 -6025 0
6024 6025 6026 0
6024 -6025 -6026 0
-6024 6025 -6026 0
-6024 -6025 -6026 0
5821 4931 4932 6027 0
5821 4931 -4932 -6027 0
5821 -4931 4932 -6027 0
5821 -4931 -4932 -6027 0
-5821 4931 4932 -6027 0
-5821 4931 -4932 -6027 0
-5821 -4931 4932 -6027 0
-5821 -4931 -4932 -6027 0
6027 6028 0
-6027 -6028 0
6028 5790 4930 6029 0
6028 5790 -4930 -6029 0
6028 -5790 4930 -6029 0
6028 -5790 -4930 -6029 0
-6028 5790 4930 -6029 0
-6028 5790 -4930 -6029 0
-6028 -5790 4930 -6029 0
-6028 -5790 -4930 -6029 0
6029 6030 0
-6029 -6030 0
6026 6030 6031 0
6026 -6030 -6031 0
-6026 6030 -6031 0
-6026 -6030 -6031 0
2696 5138 6032 0
2696 -5138 -6032 0
-2696 5138 -6032 0
-2696 -5138 -6032 0
2697 5123 6033 0
2697 -5123 -6033 0
-2697 5123 -6033 0
-2697 -5123 -6033 0
6032 6033 6034 0
6032 -6033 -6034 0
-6032 6033 -6034 0
-6032 -6033 -6034 0
5902 4986 4987 6035 0
5902 4986 -4987 -6035 0
5902 -4986 4987 -6035 0
5902 -4986 -4987 -6035 0
-5902 4986 4987 -6035 0
-5902 4986 -4987 -6035 0
-5902 -4986 4987 -6035 0
-5902 -4986 -4987 -6035 0
6035 6036 0
-6035 -6036 0
6036 5871 4985 6037 0
6036 5871 -4985 -6037 0
6036 -5871 4985 -6037 0
6036 -5871 -4985 -6037 0
-6036 5871 4985 -6037 0
-6036 5871 -4985 -6037 0
-6036 -5871 4985 -6037 0
-6036 -5871 -4985 -6037 0
6037 6038 0
-6037 -6038 0
6034 6038 6039 0
6034 -6038 -6039 0
-6034 6038 -6039 0
-6034 -6038 -6039 0
6031 6039 -6040 0
6031 -6039 6040 0
-6031 6039 6040 0
-6031 -6039 -6040 0
1972 6041 0
-1972 -6041 0
1786 6042 0
-1786 -6042 0
6042 6043 0
-6042 -6043 0
1938 1961 6044 0
1938 -1961 -6044 0
-1938 1961 -6044 0
-1938 -1961 -6044 0
6044 6045 0
-6044 -6045 0
6043 6045 6046 0
6043 -6045 -6046 0
-6043 6045 -6046 0
-6043 -6045 -6046 0
1938 1950 6047 0
1938 -1950 -6047 0
-1938 1950 -6047 0
-1938 -1950 -6047 0
6047 6048 0
-6047 -6048 0
1786 6049 0
-1786 -6049 0
6049 6050 0
-6049 -6050 0
6048 6050 6051 0
6048 -6050 -6051 0
-6048 6050 -6051 0
-6048 -6050 -6051 0
6041 6046 6051 6052 0
6041 6046 -6051 -6052 0
6041 -6046 6051 -6052 0
6041 -6046 -6051 -6052 0
-6041 6046 6051 -6052 0
-6041 6046 -6051 -6052 0
-6041 -6046 6051 -6052 0
-6041 -6046 -6051 -6052 0
6052 6053 0
-6052 -6053 0
2026 6054 0
-2026 -6054 0
1806 6055 0
-1806 -6055 0
6055 6056 0
-6055 -6056 0
1992 2015 6057 0
1992 -2015 -6057 0
-1992 2015 -6057 0
-1992 -2015 -6057 0
6057 6058 0
-6057 -6058 0
6056 6058 6059 0
6056 -6058 -6059 0
-6056 6058 -6059 0
-6056 -6058 -6059 0
1992 2004 6060 0
1992 -2004 -6060 0
-1992 2004 -6060 0
-1992 -2004 -6060 0
6060 6061 0
-6060 -6061 0
1806 6062 0
-1806 -6062 0
6062 6063 0
-6062 -6063 0
6061 6063 6064 0
6061 -6063 -6064 0
-6061 6063 -6064 0
-6061 -6063 -6064 0
6054 6059 6064 6065 0
6054 6059 -6064 -6065 0
6054 -6059 6064 -6065 0
6054 -6059 -6064 -6065 0
-6054 6059 6064 -6065 0
-6054 6059 -6064 -6065 0
-6054 -6059 6064 -6065 0
-6054 -6059 -6064 -6065 0
6065 6066 0
-6065 -6066 0
6053 6066 -6067 0
6053 -6066 6067 0
-6053 6066 6067 0
-6053 -6066 -6067 0
6041 6054 -6068 0
6041 -6054 6068 0
-6041 6054 6068 0
-6041 -6054 -6068 0
1885 1905 -6069 0
1885 -1905 6069 0
-1885 1905 6069 0
-1885 -1905 -6069 0
5066 5129 -6070 0
5066 -5129 6070 0
-5066 5129 6070 0
-5066 -5129 -6070 0
5080 5143 -6071 0
5080 -5143 6071 0
-5080 5143 6071 0
-5080 -5143 -6071 0
1688 6072 0
-1688 -6072 0
6072 5052 5054 -6073 0
6072 5052 -5054 6073 0
6072 -5052 5054 6073 0
6072 -5052 -5054 6073 0
-6072 5052 5054 6073 0
-6072 5052 -5054 6073 0
-6072 -5052 5054 6073 0
-6072 -5052 -5054 6073 0
5071 5053 6073 -6074 0
5071 5053 -6073 6074 0
5071 -5053 6073 6074 0
5071 -5053 -6073 6074 0
-5071 5053 6073 6074 0
-5071 5053 -6073 6074 0
-5071 -5053 6073 6074 0
-5071 -5053 -6073 6074 0
6074 6075 0
-6074 -6075 0
1715 6076 0
-1715 -6076 0
6076 5115 5117 -6077 0
6076 5115 -5117 6077 0
6076 -5115 5117 6077 0
6076 -5115 -5117 6077 0
-6076 5115 5117 6077 0
-6076 5115 -5117 6077 0
-6076 -5115 5117 6077 0
-6076 -5115 -5117 6077 0
5134 5116 6077 -6078 0
5134 5116 -6077 6078 0
5134 -5116 6077 6078 0
5134 -5116 -6077 6078 0
-5134 5116 6077 6078 0
-5134 5116 -6077 6078 0
-5134 -5116 6077 6078 0
-5134 -5116 -6077 6078 0
6078 6079 0
-6078 -6079 0
6075 6079 -6080 0
6075 -6079 6080 0
-6075 6079 6080 0
-6075 -6079 -6080 0
6051 6081 0
-6051 -6081 0
5760 3003 5162 6082 0
5760 3003 -5162 -6082 0
5760 -3003 5162 -6082 0
5760 -3003 -5162 -6082 0
-5760 3003 5162 -6082 0
-5760 3003 -5162 -6082 0
-5760 -3003 5162 -6082 0
-5760 -3003 -5162 -6082 0
6082 6083 0
-6082 -6083 0
6081 6083 6084 0
6081 -6083 -6084 0
-6081 6083 -6084 0
-6081 -6083 -6084 0
6064 6085 0
-6064 -6085 0
5761 3066 5172 6086 0
5761 3066 -5172 -6086 0
5761 -3066 5172 -6086 0
5761 -3066 -5172 -6086 0
-5761 3066 5172 -6086 0
-5761 3066 -5172 -6086 0
-5761 -3066 5172 -6086 0
-5761 -3066 -5172 -6086 0
6086 6087 0
-6086 -6087 0
6085 6087 6088 0
6085 -6087 -6088 0
-6085 6087 -6088 0
-6085 -6087 -6088 0
6084 6088 -6089 0
6084 -6088 6089 0
-6084 6088 6089 0
-6084 -6088 -6089 0
2926 2959 -6090 0
2926 -2959 6090 0
-2926 2959 6090 0
-2926 -2959 -6090 0
5071 5055 5053 -6091 0
5071 5055 -5053 6091 0
5071 -5055 5053 6091 0
5071 -5055 -5053 6091 0
-5071 5055 5053 6091 0
-5071 5055 -5053 6091 0
-5071 -5055 5053 6091 0
-5071 -5055 -5053 6091 0
5070 5063 6091 -6092 0
5070 5063 -6091 6092 0
5070 -5063 6091 6092 0
5070 -5063 -6091 6092 0
-5070 5063 6091 6092 0
-5070 5063 -6091 6092 0
-5070 -5063 6091 6092 0
-5070 -5063 -6091 6092 0
6092 6093 0
-6092 -6093 0
6093 6094 0
-6093 -6094 0
2330 6094 6095 0
2330 -6094 -6095 0
-2330 6094 -6095 0
-2330 -6094 -6095 0
5134 5118 5116 -6096 0
5134 5118 -5116 6096 0
5134 -5118 5116 6096 0
5134 -5118 -5116 6096 0
-5134 5118 5116 6096 0
-5134 5118 -5116 6096 0
-5134 -5118 5116 6096 0
-5134 -5118 -5116 6096 0
5133 5126 6096 -6097 0
5133 5126 -6096 6097 0
5133 -5126 6096 6097 0
5133 -5126 -6096 6097 0
-5133 5126 6096 6097 0
-5133 5126 -6096 6097 0
-5133 -5126 6096 6097 0
-5133 -5126 -6096 6097 0
6097 6098 0
-6097 -6098 0
6098 6099 0
-6098 -6099 0
2690 6099 6100 0
2690 -6099 -6100 0
-2690 6099 -6100 0
-2690 -6099 -6100 0
6095 6100 -6101 0
6095 -6100 6101 0
-6095 6100 6101 0
-6095 -6100 -6101 0
5056 6072 5070 -6102 0
5056 6072 -5070 6102 0
5056 -6072 5070 6102 0
5056 -6072 -5070 6102 0
-5056 6072 5070 6102 0
-5056 6072 -5070 6102 0
-5056 -6072 5070 6102 0
-5056 -6072 -5070 6102 0
5054 5053 6102 -6103 0
5054 5053 -6102 6103 0
5054 -5053 6102 6103 0
5054 -5053 -6102 6103 0
-5054 5053 6102 6103 0
-5054 5053 -6102 6103 0
-5054 -5053 6102 6103 0
-5054 -5053 -6102 6103 0
6103 6104 0
-6103 -6104 0
5119 6076 5133 -6105 0
5119 6076 -5133 6105 0
5119 -6076 5133 6105 0
5119 -6076 -5133 6105 0
-5119 6076 5133 6105 0
-5119 6076 -5133 6105 0
-5119 -6076 5133 6105 0
-5119 -6076 -5133 6105 0
5117 5116 6105 -6106 0
5117 5116 -6105 6106 0
5117 -5116 6105 6106 0
5117 -5116 -6105 6106 0
-5117 5116 6105 6106 0
-5117 5116 -6105 6106 0
-5117 -5116 6105 6106 0
-5117 -5116 -6105 6106 0
6106 6107 0
-6106 -6107 0
6104 6107 -6108 0
6104 -6107 6108 0
-6104 6107 6108 0
-6104 -6107 -6108 0
6051 6064 -6109 0
6051 -6064 6109 0
-6051 6064 6109 0
-6051 -6064 -6109 0
6046 6059 -6110 0
6046 -6059 6110 0
-6046 6059 6110 0
-6046 -6059 -6110 0
1926 1952 6111 0
1926 -1952 -6111 0
-1926 1952 -6111 0
-1926 -1952 -6111 0
1980 2006 6112 0
1980 -2006 -6112 0
-1980 2006 -6112 0
-1980 -2006 -6112 0
6111 6112 -6113 0
6111 -6112 6113 0
-6111 6112 6113 0
-6111 -6112 -6113 0
6046 6114 0
-6046 -6114 0
6114 6083 6115 0
6114 -6083 -6115 0
-6114 6083 -6115 0
-6114 -6083 -6115 0
6059 6116 0
-6059 -6116 0
6116 6087 6117 0
6116 -6087 -6117 0
-6116 6087 -6117 0
-6116 -6087 -6117 0
6115 6117 -6118 0
6115 -6117 6118 0
-6115 6117 6118 0
-6115 -6117 -6118 0
1786 6119 0
-1786 -6119 0
6119 6120 0
-6119 -6120 0
6120 1483 6121 0
6120 -1483 -6121 0
-6120 1483 -6121 0
-6120 -1483 -6121 0
6121 6122 0
-6121 -6122 0
6083 6122 6123 0
6083 -6122 -6123 0
-6083 6122 -6123 0
-6083 -6122 -6123 0
1806 6124 0
-1806 -6124 0
6124 6125 0
-6124 -6125 0
6125 1581 6126 0
6125 -1581 -6126 0
-6125 1581 -6126 0
-6125 -1581 -6126 0
6126 6127 0
-6126 -6127 0
6087 6127 6128 0
6087 -6127 -6128 0
-6087 6127 -6128 0
-6087 -6127 -6128 0
6123 6128 -6129 0
6123 -6128 6129 0
-6123 6128 6129 0
-6123 -6128 -6129 0
6121 6126 -6130 0
6121 -6126 6130 0
-6121 6126 6130 0
-6121 -6126 -6130 0
2251 2611 -6131 0
2251 -2611 6131 0
-2251 2611 6131 0
-2251 -2611 -6131 0
5071 5070 5054 -6132 0
5071 5070 -5054 6132 0
5071 -5070 5054 6132 0
5071 -5070 -5054 6132 0
-5071 5070 5054 6132 0
-5071 5070 -5054 6132 0
-5071 -5070 5054 6132 0
-5071 -5070 -5054 6132 0
5055 5053 6132 -6133 0
5055 5053 -6132 6133 0
5055 -5053 6132 6133 0
5055 -5053 -6132 6133 0
-5055 5053 6132 6133 0
-5055 5053 -6132 6133 0
-5055 -5053 6132 6133 0
-5055 -5053 -6132 6133 0
6133 6134 0
-6133 -6134 0
6134 6135 0
-6134 -6135 0
6135 5852 6136 0
6135 -5852 -6136 0
-6135 5852 -6136 0
-6135 -5852 -6136 0
5134 5133 5117 -6137 0
5134 5133 -5117 6137 0
5134 -5133 5117 6137 0
5134 -5133 -5117 6137 0
-5134 5133 5117 6137 0
-5134 5133 -5117 6137 0
-5134 -5133 5117 6137 0
-5134 -5133 -5117 6137 0
5118 5116 6137 -6138 0
5118 5116 -6137 6138 0
5118 -5116 6137 6138 0
5118 -5116 -6137 6138 0
-5118 5116 6137 6138 0
-5118 5116 -6137 6138 0
-5118 -5116 6137 6138 0
-5118 -5116 -6137 6138 0
6138 6139 0
-6138 -6139 0
6139 6140 0
-6139 -6140 0
6140 5933 6141 0
6140 -5933 -6141 0
-6140 5933 -6141 0
-6140 -5933 -6141 0
6136 6141 -6142 0
6136 -6141 6142 0
-6136 6141 6142 0
-6136 -6141 -6142 0
6075 6143 0
-6075 -6143 0
6143 6030 6144 0
6143 -6030 -6144 0
-6143 6030 -6144 0
-6143 -6030 -6144 0
6079 6145 0
-6079 -6145 0
6145 6038 6146 0
6145 -6038 -6146 0
-6145 6038 -6146 0
-6145 -6038 -6146 0
6144 6146 -6147 0
6144 -6146 6147 0
-6144 6146 6147 0
-6144 -6146 -6147 0
5053 5056 5055 -6148 0
5053 5056 -5055 6148 0
5053 -5056 5055 6148 0
5053 -5056 -5055 6148 0
-5053 5056 5055 6148 0
-5053 5056 -5055 6148 0
-5053 -5056 5055 6148 0
-5053 -5056 -5055 6148 0
5054 5070 6148 -6149 0
5054 5070 -6148 6149 0
5054 -5070 6148 6149 0
5054 -5070 -6148 6149 0
-5054 5070 6148 6149 0
-5054 5070 -6148 6149 0
-5054 -5070 6148 6149 0
-5054 -5070 -6148 6149 0
6149 6150 0
-6149 -6150 0
6150 6151 0
-6150 -6151 0
6030 6151 6152 0
6030 -6151 -6152 0
-6030 6151 -6152 0
-6030 -6151 -6152 0
5116 5119 5118 -6153 0
5116 5119 -5118 6153 0
5116 -5119 5118 6153 0
5116 -5119 -5118 6153 0
-5116 5119 5118 6153 0
-5116 5119 -5118 6153 0
-5116 -5119 5118 6153 0
-5116 -5119 -5118 6153 0
5117 5133 6153 -6154 0
5117 5133 -6153 6154 0
5117 -5133 6153 6154 0
5117 -5133 -6153 6154 0
-5117 5133 6153 6154 0
-5117 5133 -6153 6154 0
-5117 -5133 6153 6154 0
-5117 -5133 -6153 6154 0
6154 6155 0
-6154 -6155 0
6155 6156 0
-6155 -6156 0
6038 6156 6157 0
6038 -6156 -6157 0
-6038 6156 -6157 0
-6038 -6156 -6157 0
6152 6157 -6158 0
6152 -6157 6158 0
-6152 6157 6158 0
-6152 -6157 -6158 0
2330 5075 5851 4936 6159 0
2330 5075 5851 -4936 -6159 0
2330 5075 -5851 4936 -6159 0
2330 5075 -5851 -4936 -6159 0
2330 -5075 5851 4936 -6159 0
2330 -5075 5851 -4936 -6159 0
2330 -5075 -5851 4936 -6159 0
2330 -5075 -5851 -4936 -6159 0
-2330 5075 5851 4936 -6159 0
-2330 5075 5851 -4936 -6159 0
-2330 5075 -5851 4936 -6159 0
-2330 5075 -5851 -4936 -6159 0
-2330 -5075 5851 4936 -6159 0
-2330 -5075 5851 -4936 -6159 0
-2330 -5075 -5851 4936 -6159 0
-2330 -5075 -5851 -4936 -6159 0
2690 5138 5932 4991 6160 0
2690 5138 5932 -4991 -6160 0
2690 5138 -5932 4991 -6160 0
2690 5138 -5932 -4991 -6160 0
2690 -5138 5932 4991 -6160 0
2690 -5138 5932 -4991 -6160 0
2690 -5138 -5932 4991 -6160 0
2690 -5138 -5932 -4991 -6160 0
-2690 5138 5932 4991 -6160 0
-2690 5138 5932 -4991 -6160 0
-2690 5138 -5932 4991 -6160 0
-2690 5138 -5932 -4991 -6160 0
-2690 -5138 5932 4991 -6160 0
-2690 -5138 5932 -4991 -6160 0
-2690 -5138 -5932 4991 -6160 0
-2690 -5138 -5932 -4991 -6160 0
6159 6160 -6161 0
6159 -6160 6161 0
-6159 6160 6161 0
-6159 -6160 -6161 0
4932 4933 4940 6162 0
4932 4933 -4940 -6162 0
4932 -4933 4940 -6162 0
4932 -4933 -4940 -6162 0
-4932 4933 4940 -6162 0
-4932 4933 -4940 -6162 0
-4932 -4933 4940 -6162 0
-4932 -4933 -4940 -6162 0
6162 6163 0
-6162 -6163 0
5787 4929 6163 6164 0
5787 4929 -6163 -6164 0
5787 -4929 6163 -6164 0
5787 -4929 -6163 -6164 0
-5787 4929 6163 -6164 0
-5787 4929 -6163 -6164 0
-5787 -4929 6163 -6164 0
-5787 -4929 -6163 -6164 0
6164 6165 0
-6164 -6165 0
6135 6165 6166 0
6135 -6165 -6166 0
-6135 6165 -6166 0
-6135 -6165 -6166 0
4987 4988 4995 6167 0
4987 4988 -4995 -6167 0
4987 -4988 4995 -6167 0
4987 -4988 -4995 -6167 0
-4987 4988 4995 -6167 0
-4987 4988 -4995 -6167 0
-4987 -4988 4995 -6167 0
-4987 -4988 -4995 -6167 0
6167 6168 0
-6167 -6168 0
5868 4984 6168 6169 0
5868 4984 -6168 -6169 0
5868 -4984 6168 -6169 0
5868 -4984 -6168 -6169 0
-5868 4984 6168 -6169 0
-5868 4984 -6168 -6169 0
-5868 -4984 6168 -6169 0
-5868 -4984 -6168 -6169 0
6169 6170 0
-6169 -6170 0
6140 6170 6171 0
6140 -6170 -6171 0
-6140 6170 -6171 0
-6140 -6170 -6171 0
6166 6171 -6172 0
6166 -6171 6172 0
-6166 6171 6172 0
-6166 -6171 -6172 0
405 6173 0
-405 -6173 0
405 6174 0
-405 -6174 0
6173 6174 -6175 0
6173 -6174 6175 0
-6173 6174 6175 0
-6173 -6174 -6175 0
3027 3090 -6176 0
3027 -3090 6176 0
-3027 3090 6176 0
-3027 -3090 -6176 0
2041 2142 2047 -6177 0
2041 2142 -2047 6177 0
2041 -2142 2047 6177 0
2041 -2142 -2047 6177 0
-2041 2142 2047 6177 0
-2041 2142 -2047 6177 0
-2041 -2142 2047 6177 0
-2041 -2142 -2047 6177 0
2035 2038 6177 -6178 0
2035 2038 -6177 6178 0
2035 -2038 6177 6178 0
2035 -2038 -6177 6178 0
-2035 2038 6177 6178 0
-2035 2038 -6177 6178 0
-2035 -2038 6177 6178 0
-2035 -2038 -6177 6178 0
6178 6179 0
-6178 -6179 0
6179 6180 0
-6179 -6180 0
6180 3130 6181 0
6180 -3130 -6181 0
-6180 3130 -6181 0
-6180 -3130 -6181 0
2506 2489 2486 -6182 0
2506 2489 -2486 6182 0
2506 -2489 2486 6182 0
2506 -2489 -2486 6182 0
-2506 2489 2486 6182 0
-2506 2489 -2486 6182 0
-2506 -2489 2486 6182 0
-2506 -2489 -2486 6182 0
2531 2509 6182 -6183 0
2531 2509 -6182 6183 0
2531 -2509 6182 6183 0
2531 -2509 -6182 6183 0
-2531 2509 6182 6183 0
-2531 2509 -6182 6183 0
-2531 -2509 6182 6183 0
-2531 -2509 -6182 6183 0
6183 6184 0
-6183 -6184 0
6184 6185 0
-6184 -6185 0
6185 3148 6186 0
6185 -3148 -6186 0
-6185 3148 -6186 0
-6185 -3148 -6186 0
6181 6186 -6187 0
6181 -6186 6187 0
-6181 6186 6187 0
-6181 -6186 -6187 0
408 6188 0
-408 -6188 0
408 6189 0
-408 -6189 0
6188 6189 -6190 0
6188 -6189 6190 0
-6188 6189 6190 0
-6188 -6189 -6190 0
411 6191 0
-411 -6191 0
411 6192 0
-411 -6192 0
6191 6192 -6193 0
6191 -6192 6193 0
-6191 6192 6193 0
-6191 -6192 -6193 0
412 6194 0
-412 -6194 0
412 6195 0
-412 -6195 0
6194 6195 -6196 0
6194 -6195 6196 0
-6194 6195 6196 0
-6194 -6195 -6196 0
-626 6197 0
-629 6197 0
-632 6197 0
-635 6197 0
-638 6197 0
-783 6197 0
-786 6197 0
-789 6197 0
-898 6197 0
-901 6197 0
-904 6197 0
-907 6197 0
-910 6197 0
-1097 6197 0
-1294 6197 0
-1481 6197 0
-1678 6197 0
-1733 6197 0
-1784 6197 0
-1825 6197 0
-1848 6197 0
-1863 6197 0
-1882 6197 0
-1923 6197 0
-2032 6197 0
-2757 6197 0
-2904 6197 0
-2971 6197 0
-2984 6197 0
-3111 6197 0
-3124 6197 0
-3161 6197 0
-3318 6197 0
-3363 6197 0
-3408 6197 0
-3453 6197 0
-3498 6197 0
-3543 6197 0
-3588 6197 0
-3633 6197 0
-3818 6197 0
-3837 6197 0
-3856 6197 0
-3875 6197 0
-3932 6197 0
-3959 6197 0
-3986 6197 0
-4001 6197 0
-4016 6197 0
-4031 6197 0
-4046 6197 0
-4061 6197 0
-4076 6197 0
-4089 6197 0
-4128 6197 0
-4161 6197 0
-4196 6197 0
-4235 6197 0
-4268 6197 0
-4303 6197 0
-4336 6197 0
-4371 6197 0
-4388 6197 0
-4407 6197 0
-4452 6197 0
-4495 6197 0
-4568 6197 0
-4593 6197 0
-4634 6197 0
-4709 6197 0
-4742 6197 0
-4785 6197 0
-4822 6197 0
-4859 6197 0
-4888 6197 0
-4917 6197 0
-5028 6197 0
-5155 6197 0
-5176 6197 0
-5183 6197 0
-5190 6197 0
-5197 6197 0
-5204 6197 0
-5211 6197 0
-5218 6197 0
-5225 6197 0
-5232 6197 0
-5239 6197 0
-5246 6197 0
-5275 6197 0
-5282 6197 0
-5289 6197 0
-5296 6197 0
-5337 6197 0
-5338 6197 0
-5347 6197 0
-5368 6197 0
-5369 6197 0
-5428 6197 0
-5445 6197 0
-5458 6197 0
-5465 6197 0
-5472 6197 0
-5479 6197 0
-5486 6197 0
-5493 6197 0
-5512 6197 0
-5525 6197 0
-5532 6197 0
-5539 6197 0
-5546 6197 0
-5553 6197 0
-5560 6197 0
-5567 6197 0
-5574 6197 0
-5581 6197 0
-5590 6197 0
-5599 6197 0
-5608 6197 0
-5621 6197 0
-5628 6197 0
-5635 6197 0
-5642 6197 0
-5649 6197 0
-5658 6197 0
-5667 6197 0
-5676 6197 0
-5685 6197 0
-5694 6197 0
-5699 6197 0
-5704 6197 0
-5709 6197 0
-5714 6197 0
-5719 6197 0
-5724 6197 0
-5729 6197 0
-5734 6197 0
-5739 6197 0
-5744 6197 0
-5745 6197 0
-5746 6197 0
-5747 6197 0
-5748 6197 0
-5749 6197 0
-5752 6197 0
-5753 6197 0
-5754 6197 0
-5755 6197 0
-5756 6197 0
-5757 6197 0
-5758 6197 0
-5759 6197 0
-5762 6197 0
-5765 6197 0
-5766 6197 0
-5767 6197 0
-5768 6197 0
-5769 6197 0
-5770 6197 0
-5771 6197 0
-5772 6197 0
-5773 6197 0
-5774 6197 0
-5937 6197 0
-5940 6197 0
-5943 6197 0
-5944 6197 0
-5945 6197 0
-5948 6197 0
-5949 6197 0
-5950 6197 0
-5953 6197 0
-5956 6197 0
-5959 6197 0
-5970 6197 0
-5983 6197 0
-5986 6197 0
-5989 6197 0
-6000 6197 0
-6001 6197 0
-6006 6197 0
-6019 6197 0
-6020 6197 0
-6023 6197 0
-6040 6197 0
-6067 6197 0
-6068 6197 0
-6069 6197 0
-6070 6197 0
-6071 6197 0
-6080 6197 0
-6089 6197 0
-6090 6197 0
-6101 6197 0
-6108 6197 0
-6109 6197 0
-6110 6197 0
-6113 6197 0
-6118 6197 0
-6129 6197 0
-6130 6197 0
-6131 6197 0
-6142 6197 0
-6147 6197 0
-6158 6197 0
-6161 6197 0
-6172 6197 0
-6175 6197 0
-6176 6197 0
-6187 6197 0
-6190 6197 0
-6193 6197 0
-6196 6197 0
-6197 626 629 632 635 638 783 786 789 898 901 904 907 910 1097 1294 1481 1678 1733 1784 1825 1848 1863 1882 1923 2032 2757 2904 2971 2984 3111 3124 3161 3318 3363 3408 3453 3498 3543 3588 3633 3818 3837 3856 3875 3932 3959 3986 4001 4016 4031 4046 4061 4076 4089 4128 4161 4196 4235 4268 4303 4336 4371 4388 4407 4452 4495 4568 4593 4634 4709 4742 4785 4822 4859 4888 4917 5028 5155 5176 5183 5190 5197 5204 5211 5218 5225 5232 5239 5246 5275 5282 5289 5296 5337 5338 5347 5368 5369 5428 5445 5458 5465 5472 5479 5486 5493 5512 5525 5532 5539 5546 5553 5560 5567 5574 5581 5590 5599 5608 5621 5628 5635 5642 5649 5658 5667 5676 5685 5694 5699 5704 5709 5714 5719 5724 5729 5734 5739 5744 5745 5746 5747 5748 5749 5752 5753 5754 5755 5756 5757 5758 5759 5762 5765 5766 5767 5768 5769 5770 5771 5772 5773 5774 5937 5940 5943 5944 5945 5948 5949 5950 5953 5956 5959 5970 5983 5986 5989 6000 6001 6006 6019 6020 6023 6040 6067 6068 6069 6070 6071 6080 6089 6090 6101 6108 6109 6110 6113 6118 6129 6130 6131 6142 6147 6158 6161 6172 6175 6176 6187 6190 6193 6196 0
-1 215 0
1 -215 0
-2 216 0
2 -216 0
-3 217 0
3 -217 0
-4 218 0
4 -218 0
-5 219 0
5 -219 0
-6 220 0
6 -220 0
-7 221 0
7 -221 0
-8 222 0
8 -222 0
-9 223 0
9 -223 0
-10 224 0
10 -224 0
-11 225 0
11 -225 0
-12 226 0
12 -226 0
-13 227 0
13 -227 0
-14 228 0
14 -228 0
-15 229 0
15 -229 0
-16 230 0
16 -230 0
-17 231 0
17 -231 0
-18 232 0
18 -232 0
-19 233 0
19 -233 0
-20 234 0
20 -234 0
-21 235 0
21 -235 0
-22 236 0
22 -236 0
-23 237 0
23 -237 0
-24 238 0
24 -238 0
-25 239 0
25 -239 0
-26 240 0
26 -240 0
-27 241 0
27 -241 0
-28 242 0
28 -242 0
-29 243 0
29 -243 0
-30 244 0
30 -244 0
-31 245 0
31 -245 0
-32 246 0
32 -246 0
-33 247 0
33 -247 0
-34 248 0
34 -248 0
-35 249 0
35 -249 0
-36 250 0
36 -250 0
-37 251 0
37 -251 0
-38 252 0
38 -252 0
-39 253 0
39 -253 0
-40 254 0
40 -254 0
-41 255 0
41 -255 0
-42 256 0
42 -256 0
-43 257 0
43 -257 0
-44 258 0
44 -258 0
-45 259 0
45 -259 0
-46 260 0
46 -260 0
-47 261 0
47 -261 0
-48 262 0
48 -262 0
-49 263 0
49 -263 0
-50 264 0
50 -264 0
-51 265 0
51 -265 0
-52 266 0
52 -266 0
-53 267 0
53 -267 0
-54 268 0
54 -268 0
-55 269 0
55 -269 0
-56 270 0
56 -270 0
-57 271 0
57 -271 0
-58 272 0
58 -272 0
-59 273 0
59 -273 0
-60 274 0
60 -274 0
-61 275 0
61 -275 0
-62 276 0
62 -276 0
-63 277 0
63 -277 0
-64 278 0
64 -278 0
-65 279 0
65 -279 0
-66 280 0
66 -280 0
-67 281 0
67 -281 0
-68 282 0
68 -282 0
-69 283 0
69 -283 0
-70 284 0
70 -284 0
-71 285 0
71 -285 0
-72 286 0
72 -286 0
-73 287 0
73 -287 0
-74 288 0
74 -288 0
-75 289 0
75 -289 0
-76 290 0
76 -290 0
-77 291 0
77 -291 0
-78 292 0
78 -292 0
-79 293 0
79 -293 0
-80 294 0
80 -294 0
-81 295 0
81 -295 0
-82 296 0
82 -296 0
-83 297 0
83 -297 0
-84 298 0
84 -298 0
-85 299 0
85 -299 0
-86 300 0
86 -300 0
-87 301 0
87 -301 0
-88 302 0
88 -302 0
-89 303 0
89 -303 0
-90 304 0
90 -304 0
-91 305 0
91 -305 0
-92 306 0
92 -306 0
-93 307 0
93 -307 0
-94 308 0
94 -308 0
-95 309 0
95 -309 0
-96 310 0
96 -310 0
-97 311 0
97 -311 0
-98 312 0
98 -312 0
-99 313 0
99 -313 0
-100 314 0
100 -314 0
-101 315 0
101 -315 0
-102 316 0
102 -316 0
-103 317 0
103 -317 0
-104 318 0
104 -318 0
-105 319 0
105 -319 0
-106 320 0
106 -320 0
-107 321 0
107 -321 0
-108 322 0
108 -322 0
-109 323 0
109 -323 0
-110 324 0
110 -324 0
-111 325 0
111 -325 0
-112 326 0
112 -326 0
-113 327 0
113 -327 0
-114 328 0
114 -328 0
-115 329 0
115 -329 0
-116 330 0
116 -330 0
-117 331 0
117 -331 0
-118 332 0
118 -332 0
-119 333 0
119 -333 0
-120 334 0
120 -334 0
-121 335 0
121 -335 0
-122 336 0
122 -336 0
-123 337 0
123 -337 0
-124 338 0
124 -338 0
-125 339 0
125 -339 0
-126 340 0
126 -340 0
-127 341 0
127 -341 0
-128 342 0
128 -342 0
-129 343 0
129 -343 0
-130 344 0
130 -344 0
-131 345 0
131 -345 0
-132 346 0
132 -346 0
-133 347 0
133 -347 0
-134 348 0
134 -348 0
-135 349 0
135 -349 0
-136 350 0
136 -350 0
-137 351 0
137 -351 0
-138 352 0
138 -352 0
-139 353 0
139 -353 0
-140 354 0
140 -354 0
-141 355 0
141 -355 0
-142 356 0
142 -356 0
-143 357 0
143 -357 0
-144 358 0
144 -358 0
-145 359 0
145 -359 0
-146 360 0
146 -360 0
-147 361 0
147 -361 0
-148 362 0
148 -362 0
-149 363 0
149 -363 0
-150 364 0
150 -364 0
-151 365 0
151 -365 0
-152 366 0
152 -366 0
-153 367 0
153 -367 0
-154 368 0
154 -368 0
-155 369 0
155 -369 0
-156 370 0
156 -370 0
-157 371 0
157 -371 0
-158 372 0
158 -372 0
-159 373 0
159 -373 0
-160 374 0
160 -374 0
-161 375 0
161 -375 0
-162 376 0
162 -376 0
-163 377 0
163 -377 0
-164 378 0
164 -378 0
-165 379 0
165 -379 0
-166 380 0
166 -380 0
-167 381 0
167 -381 0
-168 382 0
168 -382 0
-169 383 0
169 -383 0
-170 384 0
170 -384 0
-171 385 0
171 -385 0
-172 386 0
172 -386 0
-173 387 0
173 -387 0
-174 388 0
174 -388 0
-175 389 0
175 -389 0
-176 390 0
176 -390 0
-177 391 0
177 -391 0
-178 392 0
178 -392 0
-179 393 0
179 -393 0
-180 394 0
180 -394 0
-181 395 0
181 -395 0
-182 396 0
182 -396 0
-183 397 0
183 -397 0
-184 398 0
184 -398 0
-185 399 0
185 -399 0
-186 400 0
186 -400 0
-187 401 0
187 -401 0
-188 402 0
188 -402 0
-189 403 0
189 -403 0
-190 404 0
190 -404 0
-191 405 0
191 -405 0
-192 406 0
192 -406 0
-193 407 0
193 -407 0
-194 408 0
194 -408 0
-195 409 0
195 -409 0
-196 410 0
196 -410 0
-197 411 0
197 -411 0
-198 412 0
198 -412 0
-199 413 0
199 -413 0
-200 414 0
200 -414 0
-201 415 0
201 -415 0
-202 416 0
202 -416 0
-203 417 0
203 -417 0
-204 418 0
204 -418 0
-205 419 0
205 -419 0
-206 420 0
206 -420 0
-207 421 0
207 -421 0
-208 422 0
208 -422 0
-209 423 0
209 -423 0
-210 424 0
210 -424 0
-211 425 0
211 -425 0
-212 426 0
212 -426 0
-213 427 0
213 -427 0
-214 428 0
214 -428 0
-6198 -100 0
6198 100 0
-6199 -122 0
6199 122 0
-6200 -126 0
6200 126 0
-6201 133 0
6201 -133 0
-6202 134 0
6202 -134 0
-6203 -6198 0
-6203 -6199 0
-6203 -6200 0
-6203 -6201 0
-6203 -6202 0
6203 6198 6199 6200 6201 6202 0
-6204 -15 0
-6204 -19 0
-6204 -25 0
-6204 -32 0
-6204 -33 0
-6204 -42 0
-6204 -47 0
-6204 -48 0
-6204 -49 0
6204 15 19 25 32 33 42 47 48 49 0
-6205 -15 0
-6205 -19 0
-6205 -25 0
-6205 -32 0
-6205 -33 0
-6205 -42 0
-6205 -47 0
-6205 48 0
-6205 49 0
6205 15 19 25 32 33 42 47 -48 -49 0
-6206 15 0
-6206 16 0
-6206 25 0
-6206 32 0
-6206 33 0
-6206 42 0
-6206 47 0
-6206 48 0
-6206 49 0
6206 -15 -16 -25 -32 -33 -42 -47 -48 -49 0
-6207 15 0
-6207 16 0
-6207 25 0
-6207 32 0
-6207 33 0
-6207 42 0
-6207 47 0
-6207 -48 0
-6207 -49 0
6207 -15 -16 -25 -32 -33 -42 -47 48 49 0
-6208 -15 0
-6208 -16 0
-6208 -17 0
-6208 19 0
-6208 -25 0
-6208 32 0
-6208 -33 0
-6208 39 0
-6208 -42 0
-6208 -47 0
-6208 -48 0
-6208 -49 0
-6208 -116 0
6208 15 16 17 -19 25 -32 33 -39 42 47 48 49 116 0
-6209 15 0
-6209 -16 0
-6209 -17 0
-6209 19 0
-6209 -25 0
-6209 32 0
-6209 33 0
-6209 39 0
-6209 -42 0
-6209 -47 0
-6209 -48 0
-6209 -49 0
-6209 -116 0
6209 -15 16 17 -19 25 -32 -33 -39 42 47 48 49 116 0
-6210 15 0
-6210 16 0
-6210 25 0
-6210 -32 0
-6210 33 0
-6210 42 0
-6210 47 0
-6210 48 0
-6210 -49 0
6210 -15 -16 -25 32 -33 -42 -47 -48 49 0
-6211 15 0
-6211 17 0
-6211 25 0
-6211 -32 0
-6211 33 0
-6211 42 0
-6211 47 0
-6211 48 0
-6211 -49 0
6211 -15 -17 -25 32 -33 -42 -47 -48 49 0
-6212 15 0
-6212 25 0
-6212 -32 0
-6212 33 0
-6212 42 0
-6212 47 0
-6212 48 0
-6212 -49 0
-6212 116 0
6212 -15 -25 32 -33 -42 -47 -48 49 -116 0
-6213 -15 0
-6213 16 0
-6213 -25 0
-6213 -32 0
-6213 33 0
-6213 42 0
-6213 47 0
-6213 48 0
-6213 -49 0
6213 15 -16 25 32 -33 -42 -47 -48 49 0
-6214 -15 0
-6214 17 0
-6214 -25 0
-6214 -32 0
-6214 33 0
-6214 42 0
-6214 47 0
-6214 48 0
-6214 -49 0
6214 15 -17 25 32 -33 -42 -47 -48 49 0
-6215 -15 0
-6215 -25 0
-6215 -32 0
-6215 33 0
-6215 42 0
-6215 47 0
-6215 48 0
-6215 -49 0
-6215 116 0
6215 15 25 32 -33 -42 -47 -48 49 -116 0
-6216 -15 0
-6216 16 0
-6216 25 0
-6216 32 0
-6216 33 0
-6216 42 0
-6216 47 0
-6216 48 0
-6216 -49 0
6216 15 -16 -25 -32 -33 -42 -47 -48 49 0
-6217 -15 0
-6217 16 0
-6217 25 0
-6217 -32 0
-6217 33 0
-6217 -42 0
-6217 47 0
-6217 48 0
-6217 -49 0
6217 15 -16 -25 32 -33 42 -47 -48 49 0
-6218 15 0
-6218 16 0
-6218 25 0
-6218 32 0
-6218 33 0
-6218 -42 0
-6218 47 0
-6218 48 0
-6218 -49 0
6218 -15 -16 -25 -32 -33 42 -47 -48 49 0
-6219 -15 0
-6219 16 0
-6219 -25 0
-6219 32 0
-6219 33 0
-6219 -42 0
-6219 47 0
-6219 48 0
-6219 -49 0
6219 15 -16 25 -32 -33 42 -47 -48 49 0
-6220 15 0
-6220 16 0
-6220 -25 0
-6220 -32 0
-6220 33 0
-6220 -42 0
-6220 47 0
-6220 48 0
-6220 -49 0
6220 -15 -16 25 32 -33 42 -47 -48 49 0
-6221 -15 0
-6221 16 0
-6221 -25 0
-6221 -32 0
-6221 -33 0
-6221 -42 0
-6221 47 0
-6221 48 0
-6221 -49 0
6221 15 -16 25 32 33 42 -47 -48 49 0
-6222 15 0
-6222 16 0
-6222 25 0
-6222 -32 0
-6222 -33 0
-6222 -42 0
-6222 47 0
-6222 48 0
-6222 -49 0
6222 -15 -16 -25 32 33 42 -47 -48 49 0
-6223 -15 0
-6223 16 0
-6223 25 0
-6223 32 0
-6223 -33 0
-6223 -42 0
-6223 47 0
-6223 48 0
-6223 -49 0
6223 15 -16 -25 -32 33 42 -47 -48 49 0
-6224 15 0
-6224 16 0
-6224 -25 0
-6224 32 0
-6224 -33 0
-6224 -42 0
-6224 47 0
-6224 48 0
-6224 -49 0
6224 -15 -16 25 -32 33 42 -47 -48 49 0
-6225 -15 0
-6225 16 0
-6225 -25 0
-6225 32 0
-6225 -33 0
-6225 42 0
-6225 47 0
-6225 48 0
-6225 -49 0
6225 15 -16 25 -32 33 -42 -47 -48 49 0
-6226 15 0
-6226 16 0
-6226 25 0
-6226 32 0
-6226 -33 0
-6226 42 0
-6226 47 0
-6226 48 0
-6226 -49 0
6226 -15 -16 -25 -32 33 -42 -47 -48 49 0
-6227 -15 0
-6227 16 0
-6227 25 0
-6227 -32 0
-6227 -33 0
-6227 42 0
-6227 47 0
-6227 48 0
-6227 -49 0
6227 15 -16 -25 32 33 -42 -47 -48 49 0
-6228 15 0
-6228 16 0
-6228 -25 0
-6228 -32 0
-6228 -33 0
-6228 42 0
-6228 47 0
-6228 48 0
-6228 -49 0
6228 -15 -16 25 32 33 -42 -47 -48 49 0
-6229 15 0
-6229 16 0
-6229 -25 0
-6229 32 0
-6229 33 0
-6229 42 0
-6229 47 0
-6229 48 0
-6229 -49 0
6229 -15 -16 25 -32 -33 -42 -47 -48 49 0
-6230 -15 0
-6230 16 0
-6230 -25 0
-6230 32 0
-6230 33 0
-6230 42 0
-6230 -47 0
-6230 48 0
-6230 -49 0
6230 15 -16 25 -32 -33 -42 47 -48 49 0
-6231 15 0
-6231 16 0
-6231 25 0
-6231 32 0
-6231 33 0
-6231 42 0
-6231 -47 0
-6231 48 0
-6231 -49 0
6231 -15 -16 -25 -32 -33 -42 47 -48 49 0
-6232 -15 0
-6232 16 0
-6232 25 0
-6232 -32 0
-6232 33 0
-6232 42 0
-6232 -47 0
-6232 48 0
-6232 -49 0
6232 15 -16 -25 32 -33 -42 47 -48 49 0
-6233 15 0
-6233 16 0
-6233 -25 0
-6233 -32 0
-6233 33 0
-6233 42 0
-6233 -47 0
-6233 48 0
-6233 -49 0
6233 -15 -16 25 32 -33 -42 47 -48 49 0
-6234 -15 0
-6234 16 0
-6234 -25 0
-6234 -32 0
-6234 -33 0
-6234 42 0
-6234 -47 0
-6234 48 0
-6234 -49 0
6234 15 -16 25 32 33 -42 47 -48 49 0
-6235 15 0
-6235 16 0
-6235 25 0
-6235 -32 0
-6235 -33 0
-6235 42 0
-6235 -47 0
-6235 48 0
-6235 -49 0
6235 -15 -16 -25 32 33 -42 47 -48 49 0
-6236 -15 0
-6236 16 0
-6236 25 0
-6236 32 0
-6236 -33 0
-6236 42 0
-6236 -47 0
-6236 48 0
-6236 -49 0
6236 15 -16 -25 -32 33 -42 47 -48 49 0
-6237 15 0
-6237 16 0
-6237 -25 0
-6237 32 0
-6237 -33 0
-6237 42 0
-6237 -47 0
-6237 48 0
-6237 -49 0
6237 -15 -16 25 -32 33 -42 47 -48 49 0
-6238 -15 0
-6238 16 0
-6238 -25 0
-6238 32 0
-6238 -33 0
-6238 -42 0
-6238 -47 0
-6238 48 0
-6238 -49 0
6238 15 -16 25 -32 33 42 47 -48 49 0
-6239 15 0
-6239 16 0
-6239 25 0
-6239 32 0
-6239 -33 0
-6239 -42 0
-6239 -47 0
-6239 48 0
-6239 -49 0
6239 -15 -16 -25 -32 33 42 47 -48 49 0
-6240 -15 0
-6240 16 0
-6240 25 0
-6240 -32 0
-6240 -33 0
-6240 -42 0
-6240 -47 0
-6240 48 0
-6240 -49 0
6240 15 -16 -25 32 33 42 47 -48 49 0
-6241 15 0
-6241 16 0
-6241 -25 0
-6241 -32 0
-6241 -33 0
-6241 -42 0
-6241 -47 0
-6241 48 0
-6241 -49 0
6241 -15 -16 25 32 33 42 47 -48 49 0
-6242 -15 0
-6242 16 0
-6242 -25 0
-6242 -32 0
-6242 33 0
-6242 -42 0
-6242 -47 0
-6242 48 0
-6242 -49 0
6242 15 -16 25 32 -33 42 47 -48 49 0
-6243 15 0
-6243 16 0
-6243 25 0
-6243 -32 0
-6243 33 0
-6243 -42 0
-6243 -47 0
-6243 48 0
-6243 -49 0
6243 -15 -16 -25 32 -33 42 47 -48 49 0
-6244 -15 0
-6244 16 0
-6244 25 0
-6244 32 0
-6244 33 0
-6244 -42 0
-6244 -47 0
-6244 48 0
-6244 -49 0
6244 15 -16 -25 -32 -33 42 47 -48 49 0
-6245 15 0
-6245 16 0
-6245 -25 0
-6245 32 0
-6245 33 0
-6245 -42 0
-6245 -47 0
-6245 48 0
-6245 -49 0
6245 -15 -16 25 -32 -33 42 47 -48 49 0
-6246 -15 0
-6246 16 0
-6246 -25 0
-6246 32 0
-6246 33 0
-6246 -42 0
-6246 -47 0
-6246 -48 0
-6246 -49 0
6246 15 -16 25 -32 -33 42 47 48 49 0
-6247 15 0
-6247 16 0
-6247 25 0
-6247 32 0
-6247 33 0
-6247 -42 0
-6247 -47 0
-6247 -48 0
-6247 -49 0
6247 -15 -16 -25 -32 -33 42 47 48 49 0
-6248 -15 0
-6248 16 0
-6248 25 0
-6248 -32 0
-6248 33 0
-6248 -42 0
-6248 -47 0
-6248 -48 0
-6248 -49 0
6248 15 -16 -25 32 -33 42 47 48 49 0
-6249 15 0
-6249 16 0
-6249 -25 0
-6249 -32 0
-6249 33 0
-6249 -42 0
-6249 -47 0
-6249 -48 0
-6249 -49 0
6249 -15 -16 25 32 -33 42 47 48 49 0
-6250 -15 0
-6250 16 0
-6250 -25 0
-6250 -32 0
-6250 -33 0
-6250 -42 0
-6250 -47 0
-6250 -48 0
-6250 -49 0
6250 15 -16 25 32 33 42 47 48 49 0
-6251 15 0
-6251 16 0
-6251 25 0
-6251 -32 0
-6251 -33 0
-6251 -42 0
-6251 -47 0
-6251 -48 0
-6251 -49 0
6251 -15 -16 -25 32 33 42 47 48 49 0
-6252 -15 0
-6252 16 0
-6252 25 0
-6252 32 0
-6252 -33 0
-6252 -42 0
-6252 -47 0
-6252 -48 0
-6252 -49 0
6252 15 -16 -25 -32 33 42 47 48 49 0
-6253 15 0
-6253 16 0
-6253 -25 0
-6253 32 0
-6253 -33 0
-6253 -42 0
-6253 -47 0
-6253 -48 0
-6253 -49 0
6253 -15 -16 25 -32 33 42 47 48 49 0
-6254 -15 0
-6254 16 0
-6254 -25 0
-6254 32 0
-6254 -33 0
-6254 42 0
-6254 -47 0
-6254 -48 0
-6254 -49 0
6254 15 -16 25 -32 33 -42 47 48 49 0
-6255 15 0
-6255 16 0
-6255 25 0
-6255 32 0
-6255 -33 0
-6255 42 0
-6255 -47 0
-6255 -48 0
-6255 -49 0
6255 -15 -16 -25 -32 33 -42 47 48 49 0
-6256 -15 0
-6256 16 0
-6256 25 0
-6256 -32 0
-6256 -33 0
-6256 42 0
-6256 -47 0
-6256 -48 0
-6256 -49 0
6256 15 -16 -25 32 33 -42 47 48 49 0
-6257 15 0
-6257 16 0
-6257 -25 0
-6257 -32 0
-6257 -33 0
-6257 42 0
-6257 -47 0
-6257 -48 0
-6257 -49 0
6257 -15 -16 25 32 33 -42 47 48 49 0
-6258 -15 0
-6258 16 0
-6258 -25 0
-6258 -32 0
-6258 33 0
-6258 42 0
-6258 -47 0
-6258 -48 0
-6258 -49 0
6258 15 -16 25 32 -33 -42 47 48 49 0
-6259 15 0
-6259 16 0
-6259 25 0
-6259 -32 0
-6259 33 0
-6259 42 0
-6259 -47 0
-6259 -48 0
-6259 -49 0
6259 -15 -16 -25 32 -33 -42 47 48 49 0
-6260 -15 0
-6260 16 0
-6260 25 0
-6260 32 0
-6260 33 0
-6260 42 0
-6260 -47 0
-6260 -48 0
-6260 -49 0
6260 15 -16 -25 -32 -33 -42 47 48 49 0
-6261 15 0
-6261 16 0
-6261 -25 0
-6261 32 0
-6261 33 0
-6261 42 0
-6261 -47 0
-6261 -48 0
-6261 -49 0
6261 -15 -16 25 -32 -33 -42 47 48 49 0
-6262 -15 0
-6262 16 0
-6262 -25 0
-6262 32 0
-6262 33 0
-6262 42 0
-6262 47 0
-6262 -48 0
-6262 -49 0
6262 15 -16 25 -32 -33 -42 -47 48 49 0
-6263 -15 0
-6263 16 0
-6263 25 0
-6263 -32 0
-6263 33 0
-6263 42 0
-6263 47 0
-6263 -48 0
-6263 -49 0
6263 15 -16 -25 32 -33 -42 -47 48 49 0
-6264 15 0
-6264 16 0
-6264 25 0
-6264 32 0
-6264 33 0
-6264 42 0
-6264 -47 0
-6264 -48 0
-6264 49 0
6264 -15 -16 -25 -32 -33 -42 47 48 -49 0
-6265 15 0
-6265 16 0
-6265 -25 0
-6265 -32 0
-6265 33 0
-6265 42 0
-6265 47 0
-6265 -48 0
-6265 -49 0
6265 -15 -16 25 32 -33 -42 -47 48 49 0
-6266 -15 0
-6266 16 0
-6266 -25 0
-6266 -32 0
-6266 -33 0
-6266 42 0
-6266 47 0
-6266 -48 0
-6266 -49 0
6266 15 -16 25 32 33 -42 -47 48 49 0
-6267 15 0
-6267 16 0
-6267 25 0
-6267 -32 0
-6267 -33 0
-6267 42 0
-6267 47 0
-6267 -48 0
-6267 -49 0
6267 -15 -16 -25 32 33 -42 -47 48 49 0
-6268 -15 0
-6268 16 0
-6268 25 0
-6268 32 0
-6268 -33 0
-6268 42 0
-6268 47 0
-6268 -48 0
-6268 -49 0
6268 15 -16 -25 -32 33 -42 -47 48 49 0
-6269 15 0
-6269 16 0
-6269 -25 0
-6269 32 0
-6269 -33 0
-6269 42 0
-6269 47 0
-6269 -48 0
-6269 -49 0
6269 -15 -16 25 -32 33 -42 -47 48 49 0
-6270 -15 0
-6270 16 0
-6270 -25 0
-6270 32 0
-6270 -33 0
-6270 -42 0
-6270 47 0
-6270 -48 0
-6270 -49 0
6270 15 -16 25 -32 33 42 -47 48 49 0
-6271 15 0
-6271 16 0
-6271 25 0
-6271 32 0
-6271 -33 0
-6271 -42 0
-6271 47 0
-6271 -48 0
-6271 -49 0
6271 -15 -16 -25 -32 33 42 -47 48 49 0
-6272 -15 0
-6272 16 0
-6272 25 0
-6272 -32 0
-6272 -33 0
-6272 -42 0
-6272 47 0
-6272 -48 0
-6272 -49 0
6272 15 -16 -25 32 33 42 -47 48 49 0
-6273 15 0
-6273 16 0
-6273 -25 0
-6273 -32 0
-6273 -33 0
-6273 -42 0
-6273 47 0
-6273 -48 0
-6273 -49 0
6273 -15 -16 25 32 33 42 -47 48 49 0
-6274 -15 0
-6274 16 0
-6274 -25 0
-6274 -32 0
-6274 33 0
-6274 -42 0
-6274 47 0
-6274 -48 0
-6274 -49 0
6274 15 -16 25 32 -33 42 -47 48 49 0
-6275 15 0
-6275 16 0
-6275 25 0
-6275 -32 0
-6275 33 0
-6275 -42 0
-6275 47 0
-6275 -48 0
-6275 -49 0
6275 -15 -16 -25 32 -33 42 -47 48 49 0
-6276 -15 0
-6276 16 0
-6276 25 0
-6276 32 0
-6276 33 0
-6276 -42 0
-6276 47 0
-6276 -48 0
-6276 -49 0
6276 15 -16 -25 -32 -33 42 -47 48 49 0
-6277 15 0
-6277 16 0
-6277 -25 0
-6277 32 0
-6277 33 0
-6277 -42 0
-6277 47 0
-6277 -48 0
-6277 -49 0
6277 -15 -16 25 -32 -33 42 -47 48 49 0
-6278 -15 0
-6278 16 0
-6278 -25 0
-6278 32 0
-6278 33 0
-6278 -42 0
-6278 47 0
-6278 -48 0
-6278 49 0
6278 15 -16 25 -32 -33 42 -47 48 -49 0
-6279 15 0
-6279 16 0
-6279 25 0
-6279 32 0
-6279 33 0
-6279 -42 0
-6279 47 0
-6279 -48 0
-6279 49 0
6279 -15 -16 -25 -32 -33 42 -47 48 -49 0
-6280 -15 0
-6280 16 0
-6280 25 0
-6280 -32 0
-6280 33 0
-6280 -42 0
-6280 47 0
-6280 -48 0
-6280 49 0
6280 15 -16 -25 32 -33 42 -47 48 -49 0
-6281 15 0
-6281 16 0
-6281 -25 0
-6281 -32 0
-6281 33 0
-6281 -42 0
-6281 47 0
-6281 -48 0
-6281 49 0
6281 -15 -16 25 32 -33 42 -47 48 -49 0
-6282 -15 0
-6282 16 0
-6282 -25 0
-6282 -32 0
-6282 -33 0
-6282 -42 0
-6282 47 0
-6282 -48 0
-6282 49 0
6282 15 -16 25 32 33 42 -47 48 -49 0
-6283 15 0
-6283 16 0
-6283 25 0
-6283 -32 0
-6283 -33 0
-6283 -42 0
-6283 47 0
-6283 -48 0
-6283 49 0
6283 -15 -16 -25 32 33 42 -47 48 -49 0
-6284 -15 0
-6284 16 0
-6284 25 0
-6284 32 0
-6284 -33 0
-6284 -42 0
-6284 47 0
-6284 -48 0
-6284 49 0
6284 15 -16 -25 -32 33 42 -47 48 -49 0
-6285 15 0
-6285 16 0
-6285 -25 0
-6285 32 0
-6285 -33 0
-6285 -42 0
-6285 47 0
-6285 -48 0
-6285 49 0
6285 -15 -16 25 -32 33 42 -47 48 -49 0
-6286 -15 0
-6286 16 0
-6286 -25 0
-6286 32 0
-6286 -33 0
-6286 42 0
-6286 47 0
-6286 -48 0
-6286 49 0
6286 15 -16 25 -32 33 -42 -47 48 -49 0
-6287 15 0
-6287 16 0
-6287 25 0
-6287 32 0
-6287 -33 0
-6287 42 0
-6287 47 0
-6287 -48 0
-6287 49 0
6287 -15 -16 -25 -32 33 -42 -47 48 -49 0
-6288 -15 0
-6288 16 0
-6288 25 0
-6288 -32 0
-6288 -33 0
-6288 42 0
-6288 47 0
-6288 -48 0
-6288 49 0
6288 15 -16 -25 32 33 -42 -47 48 -49 0
-6289 15 0
-6289 16 0
-6289 -25 0
-6289 -32 0
-6289 -33 0
-6289 42 0
-6289 47 0
-6289 -48 0
-6289 49 0
6289 -15 -16 25 32 33 -42 -47 48 -49 0
-6290 -15 0
-6290 16 0
-6290 -25 0
-6290 -32 0
-6290 33 0
-6290 42 0
-6290 47 0
-6290 -48 0
-6290 49 0
6290 15 -16 25 32 -33 -42 -47 48 -49 0
-6291 15 0
-6291 16 0
-6291 25 0
-6291 -32 0
-6291 33 0
-6291 42 0
-6291 47 0
-6291 -48 0
-6291 49 0
6291 -15 -16 -25 32 -33 -42 -47 48 -49 0
-6292 -15 0
-6292 16 0
-6292 25 0
-6292 32 0
-6292 33 0
-6292 42 0
-6292 47 0
-6292 -48 0
-6292 49 0
6292 15 -16 -25 -32 -33 -42 -47 48 -49 0
-6293 15 0
-6293 16 0
-6293 -25 0
-6293 32 0
-6293 33 0
-6293 42 0
-6293 47 0
-6293 -48 0
-6293 49 0
6293 -15 -16 25 -32 -33 -42 -47 48 -49 0
-6294 -15 0
-6294 16 0
-6294 -25 0
-6294 32 0
-6294 33 0
-6294 42 0
-6294 -47 0
-6294 -48 0
-6294 49 0
6294 15 -16 25 -32 -33 -42 47 48 -49 0
-6295 -15 0
-6295 16 0
-6295 25 0
-6295 -32 0
-6295 33 0
-6295 42 0
-6295 -47 0
-6295 -48 0
-6295 49 0
6295 15 -16 -25 32 -33 -42 47 48 -49 0
-6296 15 0
-6296 16 0
-6296 25 0
-6296 32 0
-6296 33 0
-6296 -42 0
-6296 -47 0
-6296 48 0
-6296 49 0
6296 -15 -16 -25 -32 -33 42 47 -48 -49 0
-6297 15 0
-6297 16 0
-6297 -25 0
-6297 -32 0
-6297 33 0
-6297 42 0
-6297 -47 0
-6297 -48 0
-6297 49 0
6297 -15 -16 25 32 -33 -42 47 48 -49 0
-6298 -15 0
-6298 16 0
-6298 -25 0
-6298 -32 0
-6298 -33 0
-6298 42 0
-6298 -47 0
-6298 -48 0
-6298 49 0
6298 15 -16 25 32 33 -42 47 48 -49 0
-6299 15 0
-6299 16 0
-6299 25 0
-6299 -32 0
-6299 -33 0
-6299 42 0
-6299 -47 0
-6299 -48 0
-6299 49 0
6299 -15 -16 -25 32 33 -42 47 48 -49 0
-6300 -15 0
-6300 16 0
-6300 25 0
-6300 32 0
-6300 -33 0
-6300 42 0
-6300 -47 0
-6300 -48 0
-6300 49 0
6300 15 -16 -25 -32 33 -42 47 48 -49 0
-6301 15 0
-6301 16 0
-6301 -25 0
-6301 32 0
-6301 -33 0
-6301 42 0
-6301 -47 0
-6301 -48 0
-6301 49 0
6301 -15 -16 25 -32 33 -42 47 48 -49 0
-6302 -15 0
-6302 16 0
-6302 -25 0
-6302 32 0
-6302 -33 0
-6302 -42 0
-6302 -47 0
-6302 -48 0
-6302 49 0
6302 15 -16 25 -32 33 42 47 48 -49 0
-6303 15 0
-6303 16 0
-6303 25 0
-6303 32 0
-6303 -33 0
-6303 -42 0
-6303 -47 0
-6303 -48 0
-6303 49 0
6303 -15 -16 -25 -32 33 42 47 48 -49 0
-6304 -15 0
-6304 16 0
-6304 25 0
-6304 -32 0
-6304 -33 0
-6304 -42 0
-6304 -47 0
-6304 -48 0
-6304 49 0
6304 15 -16 -25 32 33 42 47 48 -49 0
-6305 15 0
-6305 16 0
-6305 -25 0
-6305 -32 0
-6305 -33 0
-6305 -42 0
-6305 -47 0
-6305 -48 0
-6305 49 0
6305 -15 -16 25 32 33 42 47 48 -49 0
-6306 -15 0
-6306 16 0
-6306 -25 0
-6306 -32 0
-6306 33 0
-6306 -42 0
-6306 -47 0
-6306 -48 0
-6306 49 0
6306 15 -16 25 32 -33 42 47 48 -49 0
-6307 15 0
-6307 16 0
-6307 25 0
-6307 -32 0
-6307 33 0
-6307 -42 0
-6307 -47 0
-6307 -48 0
-6307 49 0
6307 -15 -16 -25 32 -33 42 47 48 -49 0
-6308 -15 0
-6308 16 0
-6308 25 0
-6308 32 0
-6308 33 0
-6308 -42 0
-6308 -47 0
-6308 -48 0
-6308 49 0
6308 15 -16 -25 -32 -33 42 47 48 -49 0
-6309 15 0
-6309 16 0
-6309 -25 0
-6309 32 0
-6309 33 0
-6309 -42 0
-6309 -47 0
-6309 -48 0
-6309 49 0
6309 -15 -16 25 -32 -33 42 47 48 -49 0
-6310 -15 0
-6310 16 0
-6310 -25 0
-6310 32 0
-6310 33 0
-6310 -42 0
-6310 -47 0
-6310 48 0
-6310 49 0
6310 15 -16 25 -32 -33 42 47 -48 -49 0
-6311 -15 0
-6311 16 0
-6311 25 0
-6311 -32 0
-6311 33 0
-6311 -42 0
-6311 -47 0
-6311 48 0
-6311 49 0
6311 15 -16 -25 32 -33 42 47 -48 -49 0
-6312 15 0
-6312 16 0
-6312 -25 0
-6312 -32 0
-6312 33 0
-6312 -42 0
-6312 -47 0
-6312 48 0
-6312 49 0
6312 -15 -16 25 32 -33 42 47 -48 -49 0
-6313 -15 0
-6313 16 0
-6313 -25 0
-6313 -32 0
-6313 -33 0
-6313 -42 0
-6313 -47 0
-6313 48 0
-6313 49 0
6313 15 -16 25 32 33 42 47 -48 -49 0
-6314 15 0
-6314 16 0
-6314 25 0
-6314 -32 0
-6314 -33 0
-6314 -42 0
-6314 -47 0
-6314 48 0
-6314 49 0
6314 -15 -16 -25 32 33 42 47 -48 -49 0
-6315 -15 0
-6315 16 0
-6315 25 0
-6315 32 0
-6315 -33 0
-6315 -42 0
-6315 -47 0
-6315 48 0
-6315 49 0
6315 15 -16 -25 -32 33 42 47 -48 -49 0
-6316 15 0
-6316 16 0
-6316 -25 0
-6316 32 0
-6316 -33 0
-6316 -42 0
-6316 -47 0
-6316 48 0
-6316 49 0
6316 -15 -16 25 -32 33 42 47 -48 -49 0
-6317 -15 0
-6317 16 0
-6317 -25 0
-6317 32 0
-6317 -33 0
-6317 42 0
-6317 -47 0
-6317 48 0
-6317 49 0
6317 15 -16 25 -32 33 -42 47 -48 -49 0
-6318 15 0
-6318 16 0
-6318 25 0
-6318 32 0
-6318 -33 0
-6318 42 0
-6318 -47 0
-6318 48 0
-6318 49 0
6318 -15 -16 -25 -32 33 -42 47 -48 -49 0
-6319 -15 0
-6319 16 0
-6319 25 0
-6319 -32 0
-6319 -33 0
-6319 42 0
-6319 -47 0
-6319 48 0
-6319 49 0
6319 15 -16 -25 32 33 -42 47 -48 -49 0
-6320 15 0
-6320 16 0
-6320 -25 0
-6320 -32 0
-6320 -33 0
-6320 42 0
-6320 -47 0
-6320 48 0
-6320 49 0
6320 -15 -16 25 32 33 -42 47 -48 -49 0
-6321 -15 0
-6321 16 0
-6321 -25 0
-6321 -32 0
-6321 33 0
-6321 42 0
-6321 -47 0
-6321 48 0
-6321 49 0
6321 15 -16 25 32 -33 -42 47 -48 -49 0
-6322 15 0
-6322 16 0
-6322 25 0
-6322 -32 0
-6322 33 0
-6322 42 0
-6322 -47 0
-6322 48 0
-6322 49 0
6322 -15 -16 -25 32 -33 -42 47 -48 -49 0
-6323 -15 0
-6323 16 0
-6323 25 0
-6323 32 0
-6323 33 0
-6323 42 0
-6323 -47 0
-6323 48 0
-6323 49 0
6323 15 -16 -25 -32 -33 -42 47 -48 -49 0
-6324 15 0
-6324 16 0
-6324 -25 0
-6324 32 0
-6324 33 0
-6324 42 0
-6324 -47 0
-6324 48 0
-6324 49 0
6324 -15 -16 25 -32 -33 -42 47 -48 -49 0
-6325 15 0
-6325 16 0
-6325 25 0
-6325 32 0
-6325 -33 0
-6325 -42 0
-6325 47 0
-6325 48 0
-6325 49 0
6325 -15 -16 -25 -32 33 42 -47 -48 -49 0
-6326 -15 0
-6326 16 0
-6326 -25 0
-6326 32 0
-6326 33 0
-6326 42 0
-6326 47 0
-6326 48 0
-6326 49 0
6326 15 -16 25 -32 -33 -42 -47 -48 -49 0
-6327 -15 0
-6327 16 0
-6327 25 0
-6327 -32 0
-6327 33 0
-6327 42 0
-6327 47 0
-6327 48 0
-6327 49 0
6327 15 -16 -25 32 -33 -42 -47 -48 -49 0
-6328 15 0
-6328 16 0
-6328 -25 0
-6328 -32 0
-6328 33 0
-6328 42 0
-6328 47 0
-6328 48 0
-6328 49 0
6328 -15 -16 25 32 -33 -42 -47 -48 -49 0
-6329 -15 0
-6329 16 0
-6329 -25 0
-6329 -32 0
-6329 -33 0
-6329 42 0
-6329 47 0
-6329 48 0
-6329 49 0
6329 15 -16 25 32 33 -42 -47 -48 -49 0
-6330 15 0
-6330 16 0
-6330 25 0
-6330 -32 0
-6330 -33 0
-6330 42 0
-6330 47 0
-6330 48 0
-6330 49 0
6330 -15 -16 -25 32 33 -42 -47 -48 -49 0
-6331 -15 0
-6331 16 0
-6331 25 0
-6331 32 0
-6331 -33 0
-6331 42 0
-6331 47 0
-6331 48 0
-6331 49 0
6331 15 -16 -25 -32 33 -42 -47 -48 -49 0
-6332 15 0
-6332 16 0
-6332 -25 0
-6332 32 0
-6332 -33 0
-6332 42 0
-6332 47 0
-6332 48 0
-6332 49 0
6332 -15 -16 25 -32 33 -42 -47 -48 -49 0
-6333 15 0
-6333 16 0
-6333 25 0
-6333 -32 0
-6333 33 0
-6333 -42 0
-6333 47 0
-6333 48 0
-6333 49 0
6333 -15 -16 -25 32 -33 42 -47 -48 -49 0
-6334 -15 0
-6334 16 0
-6334 -25 0
-6334 32 0
-6334 -33 0
-6334 -42 0
-6334 47 0
-6334 48 0
-6334 49 0
6334 15 -16 25 -32 33 42 -47 -48 -49 0
-6335 -15 0
-6335 16 0
-6335 25 0
-6335 -32 0
-6335 -33 0
-6335 -42 0
-6335 47 0
-6335 48 0
-6335 49 0
6335 15 -16 -25 32 33 42 -47 -48 -49 0
-6336 15 0
-6336 16 0
-6336 -25 0
-6336 -32 0
-6336 -33 0
-6336 -42 0
-6336 47 0
-6336 48 0
-6336 49 0
6336 -15 -16 25 32 33 42 -47 -48 -49 0
-6337 15 0
-6337 16 0
-6337 -25 0
-6337 32 0
-6337 33 0
-6337 -42 0
-6337 47 0
-6337 48 0
-6337 49 0
6337 -15 -16 25 -32 -33 42 -47 -48 -49 0
-6338 -15 0
-6338 16 0
-6338 -25 0
-6338 -32 0
-6338 33 0
-6338 -42 0
-6338 47 0
-6338 48 0
-6338 49 0
6338 15 -16 25 32 -33 42 -47 -48 -49 0
-6339 -15 0
-6339 16 0
-6339 25 0
-6339 32 0
-6339 33 0
-6339 -42 0
-6339 47 0
-6339 48 0
-6339 49 0
6339 15 -16 -25 -32 -33 42 -47 -48 -49 0
-6340 15 0
-6340 17 0
-6340 25 0
-6340 32 0
-6340 33 0
-6340 42 0
-6340 47 0
-6340 48 0
-6340 49 0
6340 -15 -17 -25 -32 -33 -42 -47 -48 -49 0
-6341 15 0
-6341 17 0
-6341 25 0
-6341 32 0
-6341 33 0
-6341 42 0
-6341 47 0
-6341 -48 0
-6341 -49 0
6341 -15 -17 -25 -32 -33 -42 -47 48 49 0
-6342 -15 0
-6342 -16 0
-6342 -17 0
-6342 19 0
-6342 -25 0
-6342 32 0
-6342 33 0
-6342 39 0
-6342 -42 0
-6342 47 0
-6342 48 0
-6342 49 0
-6342 -116 0
6342 15 16 17 -19 25 -32 -33 -39 42 -47 -48 -49 116 0
-6343 15 0
-6343 17 0
-6343 -25 0
-6343 32 0
-6343 33 0
-6343 -42 0
-6343 47 0
-6343 48 0
-6343 49 0
6343 -15 -17 25 -32 -33 42 -47 -48 -49 0
-6344 15 0
-6344 -19 0
-6344 -25 0
-6344 32 0
-6344 33 0
-6344 -42 0
-6344 47 0
-6344 48 0
-6344 49 0
6344 -15 19 25 -32 -33 42 -47 -48 -49 0
-6345 15 0
-6345 -25 0
-6345 32 0
-6345 33 0
-6345 -39 0
-6345 -42 0
-6345 47 0
-6345 48 0
-6345 49 0
6345 -15 25 -32 -33 39 42 -47 -48 -49 0
-6346 15 0
-6346 -25 0
-6346 32 0
-6346 33 0
-6346 -42 0
-6346 47 0
-6346 48 0
-6346 49 0
-6346 116 0
6346 -15 25 -32 -33 42 -47 -48 -49 -116 0
-6347 15 0
-6347 -16 0
-6347 -17 0
-6347 19 0
-6347 25 0
-6347 32 0
-6347 33 0
-6347 39 0
-6347 -42 0
-6347 47 0
-6347 48 0
-6347 49 0
-6347 -116 0
6347 -15 16 17 -19 -25 -32 -33 -39 42 -47 -48 -49 116 0
-6348 -15 0
-6348 17 0
-6348 25 0
-6348 32 0
-6348 33 0
-6348 -42 0
-6348 47 0
-6348 48 0
-6348 49 0
6348 15 -17 -25 -32 -33 42 -47 -48 -49 0
-6349 -15 0
-6349 -19 0
-6349 25 0
-6349 32 0
-6349 33 0
-6349 -42 0
-6349 47 0
-6349 48 0
-6349 49 0
6349 15 19 -25 -32 -33 42 -47 -48 -49 0
-6350 -15 0
-6350 25 0
-6350 32 0
-6350 33 0
-6350 -39 0
-6350 -42 0
-6350 47 0
-6350 48 0
-6350 49 0
6350 15 -25 -32 -33 39 42 -47 -48 -49 0
-6351 -15 0
-6351 25 0
-6351 32 0
-6351 33 0
-6351 -42 0
-6351 47 0
-6351 48 0
-6351 49 0
-6351 116 0
6351 15 -25 -32 -33 42 -47 -48 -49 -116 0
-6352 -15 0
-6352 -16 0
-6352 -17 0
-6352 19 0
-6352 25 0
-6352 -32 0
-6352 33 0
-6352 39 0
-6352 -42 0
-6352 47 0
-6352 48 0
-6352 49 0
-6352 -116 0
6352 15 16 17 -19 -25 32 -33 -39 42 -47 -48 -49 116 0
-6353 15 0
-6353 17 0
-6353 25 0
-6353 -32 0
-6353 33 0
-6353 -42 0
-6353 47 0
-6353 48 0
-6353 49 0
6353 -15 -17 -25 32 -33 42 -47 -48 -49 0
-6354 15 0
-6354 -19 0
-6354 25 0
-6354 -32 0
-6354 33 0
-6354 -42 0
-6354 47 0
-6354 48 0
-6354 49 0
6354 -15 19 -25 32 -33 42 -47 -48 -49 0
-6355 15 0
-6355 25 0
-6355 -32 0
-6355 33 0
-6355 -39 0
-6355 -42 0
-6355 47 0
-6355 48 0
-6355 49 0
6355 -15 -25 32 -33 39 42 -47 -48 -49 0
-6356 15 0
-6356 25 0
-6356 -32 0
-6356 33 0
-6356 -42 0
-6356 47 0
-6356 48 0
-6356 49 0
-6356 116 0
6356 -15 -25 32 -33 42 -47 -48 -49 -116 0
-6357 15 0
-6357 -16 0
-6357 -17 0
-6357 19 0
-6357 -25 0
-6357 -32 0
-6357 33 0
-6357 39 0
-6357 -42 0
-6357 47 0
-6357 48 0
-6357 49 0
-6357 -116 0
6357 -15 16 17 -19 25 32 -33 -39 42 -47 -48 -49 116 0
-6358 -15 0
-6358 17 0
-6358 -25 0
-6358 -32 0
-6358 33 0
-6358 -42 0
-6358 47 0
-6358 48 0
-6358 49 0
6358 15 -17 25 32 -33 42 -47 -48 -49 0
-6359 -15 0
-6359 -19 0
-6359 -25 0
-6359 -32 0
-6359 33 0
-6359 -42 0
-6359 47 0
-6359 48 0
-6359 49 0
6359 15 19 25 32 -33 42 -47 -48 -49 0
-6360 -15 0
-6360 -25 0
-6360 -32 0
-6360 33 0
-6360 -39 0
-6360 -42 0
-6360 47 0
-6360 48 0
-6360 49 0
6360 15 25 32 -33 39 42 -47 -48 -49 0
-6361 -15 0
-6361 -25 0
-6361 -32 0
-6361 33 0
-6361 -42 0
-6361 47 0
-6361 48 0
-6361 49 0
-6361 116 0
6361 15 25 32 -33 42 -47 -48 -49 -116 0
-6362 -15 0
-6362 -16 0
-6362 -17 0
-6362 19 0
-6362 -25 0
-6362 -32 0
-6362 -33 0
-6362 39 0
-6362 -42 0
-6362 47 0
-6362 48 0
-6362 49 0
-6362 -116 0
6362 15 16 17 -19 25 32 33 -39 42 -47 -48 -49 116 0
-6363 15 0
-6363 17 0
-6363 -25 0
-6363 -32 0
-6363 -33 0
-6363 -42 0
-6363 47 0
-6363 48 0
-6363 49 0
6363 -15 -17 25 32 33 42 -47 -48 -49 0
-6364 15 0
-6364 -19 0
-6364 -25 0
-6364 -32 0
-6364 -33 0
-6364 -42 0
-6364 47 0
-6364 48 0
-6364 49 0
6364 -15 19 25 32 33 42 -47 -48 -49 0
-6365 15 0
-6365 -25 0
-6365 -32 0
-6365 -33 0
-6365 -39 0
-6365 -42 0
-6365 47 0
-6365 48 0
-6365 49 0
6365 -15 25 32 33 39 42 -47 -48 -49 0
-6366 15 0
-6366 -25 0
-6366 -32 0
-6366 -33 0
-6366 -42 0
-6366 47 0
-6366 48 0
-6366 49 0
-6366 116 0
6366 -15 25 32 33 42 -47 -48 -49 -116 0
-6367 15 0
-6367 -16 0
-6367 -17 0
-6367 19 0
-6367 25 0
-6367 -32 0
-6367 -33 0
-6367 39 0
-6367 -42 0
-6367 47 0
-6367 48 0
-6367 49 0
-6367 -116 0
6367 -15 16 17 -19 -25 32 33 -39 42 -47 -48 -49 116 0
-6368 -15 0
-6368 17 0
-6368 25 0
-6368 -32 0
-6368 -33 0
-6368 -42 0
-6368 47 0
-6368 48 0
-6368 49 0
6368 15 -17 -25 32 33 42 -47 -48 -49 0
-6369 -15 0
-6369 -19 0
-6369 25 0
-6369 -32 0
-6369 -33 0
-6369 -42 0
-6369 47 0
-6369 48 0
-6369 49 0
6369 15 19 -25 32 33 42 -47 -48 -49 0
-6370 -15 0
-6370 25 0
-6370 -32 0
-6370 -33 0
-6370 -39 0
-6370 -42 0
-6370 47 0
-6370 48 0
-6370 49 0
6370 15 -25 32 33 39 42 -47 -48 -49 0
-6371 -15 0
-6371 25 0
-6371 -32 0
-6371 -33 0
-6371 -42 0
-6371 47 0
-6371 48 0
-6371 49 0
-6371 116 0
6371 15 -25 32 33 42 -47 -48 -49 -116 0
-6372 -15 0
-6372 -16 0
-6372 -17 0
-6372 19 0
-6372 25 0
-6372 32 0
-6372 -33 0
-6372 39 0
-6372 -42 0
-6372 47 0
-6372 48 0
-6372 49 0
-6372 -116 0
6372 15 16 17 -19 -25 -32 33 -39 42 -47 -48 -49 116 0
-6373 15 0
-6373 17 0
-6373 25 0
-6373 32 0
-6373 -33 0
-6373 -42 0
-6373 47 0
-6373 48 0
-6373 49 0
6373 -15 -17 -25 -32 33 42 -47 -48 -49 0
-6374 15 0
-6374 -19 0
-6374 25 0
-6374 32 0
-6374 -33 0
-6374 -42 0
-6374 47 0
-6374 48 0
-6374 49 0
6374 -15 19 -25 -32 33 42 -47 -48 -49 0
-6375 15 0
-6375 25 0
-6375 32 0
-6375 -33 0
-6375 -39 0
-6375 -42 0
-6375 47 0
-6375 48 0
-6375 49 0
6375 -15 -25 -32 33 39 42 -47 -48 -49 0
-6376 15 0
-6376 25 0
-6376 32 0
-6376 -33 0
-6376 -42 0
-6376 47 0
-6376 48 0
-6376 49 0
-6376 116 0
6376 -15 -25 -32 33 42 -47 -48 -49 -116 0
-6377 15 0
-6377 -16 0
-6377 -17 0
-6377 19 0
-6377 -25 0
-6377 32 0
-6377 -33 0
-6377 39 0
-6377 -42 0
-6377 47 0
-6377 48 0
-6377 49 0
-6377 -116 0
6377 -15 16 17 -19 25 -32 33 -39 42 -47 -48 -49 116 0
-6378 -15 0
-6378 17 0
-6378 -25 0
-6378 32 0
-6378 -33 0
-6378 -42 0
-6378 47 0
-6378 48 0
-6378 49 0
6378 15 -17 25 -32 33 42 -47 -48 -49 0
-6379 -15 0
-6379 -19 0
-6379 -25 0
-6379 32 0
-6379 -33 0
-6379 -42 0
-6379 47 0
-6379 48 0
-6379 49 0
6379 15 19 25 -32 33 42 -47 -48 -49 0
-6380 -15 0
-6380 -25 0
-6380 32 0
-6380 -33 0
-6380 -39 0
-6380 -42 0
-6380 47 0
-6380 48 0
-6380 49 0
6380 15 25 -32 33 39 42 -47 -48 -49 0
-6381 -15 0
-6381 -25 0
-6381 32 0
-6381 -33 0
-6381 -42 0
-6381 47 0
-6381 48 0
-6381 49 0
-6381 116 0
6381 15 25 -32 33 42 -47 -48 -49 -116 0
-6382 -15 0
-6382 -16 0
-6382 -17 0
-6382 19 0
-6382 -25 0
-6382 32 0
-6382 -33 0
-6382 39 0
-6382 42 0
-6382 47 0
-6382 48 0
-6382 49 0
-6382 -116 0
6382 15 16 17 -19 25 -32 33 -39 -42 -47 -48 -49 116 0
-6383 15 0
-6383 17 0
-6383 -25 0
-6383 32 0
-6383 -33 0
-6383 42 0
-6383 47 0
-6383 48 0
-6383 49 0
6383 -15 -17 25 -32 33 -42 -47 -48 -49 0
-6384 15 0
-6384 -19 0
-6384 -25 0
-6384 32 0
-6384 -33 0
-6384 42 0
-6384 47 0
-6384 48 0
-6384 49 0
6384 -15 19 25 -32 33 -42 -47 -48 -49 0
-6385 15 0
-6385 -25 0
-6385 32 0
-6385 -33 0
-6385 -39 0
-6385 42 0
-6385 47 0
-6385 48 0
-6385 49 0
6385 -15 25 -32 33 39 -42 -47 -48 -49 0
-6386 15 0
-6386 -25 0
-6386 32 0
-6386 -33 0
-6386 42 0
-6386 47 0
-6386 48 0
-6386 49 0
-6386 116 0
6386 -15 25 -32 33 -42 -47 -48 -49 -116 0
-6387 15 0
-6387 -16 0
-6387 -17 0
-6387 19 0
-6387 25 0
-6387 32 0
-6387 -33 0
-6387 39 0
-6387 42 0
-6387 47 0
-6387 48 0
-6387 49 0
-6387 -116 0
6387 -15 16 17 -19 -25 -32 33 -39 -42 -47 -48 -49 116 0
-6388 -15 0
-6388 17 0
-6388 25 0
-6388 32 0
-6388 -33 0
-6388 42 0
-6388 47 0
-6388 48 0
-6388 49 0
6388 15 -17 -25 -32 33 -42 -47 -48 -49 0
-6389 -15 0
-6389 -19 0
-6389 25 0
-6389 32 0
-6389 -33 0
-6389 42 0
-6389 47 0
-6389 48 0
-6389 49 0
6389 15 19 -25 -32 33 -42 -47 -48 -49 0
-6390 -15 0
-6390 25 0
-6390 32 0
-6390 -33 0
-6390 -39 0
-6390 42 0
-6390 47 0
-6390 48 0
-6390 49 0
6390 15 -25 -32 33 39 -42 -47 -48 -49 0
-6391 -15 0
-6391 25 0
-6391 32 0
-6391 -33 0
-6391 42 0
-6391 47 0
-6391 48 0
-6391 49 0
-6391 116 0
6391 15 -25 -32 33 -42 -47 -48 -49 -116 0
-6392 -15 0
-6392 -16 0
-6392 -17 0
-6392 19 0
-6392 25 0
-6392 -32 0
-6392 -33 0
-6392 39 0
-6392 42 0
-6392 47 0
-6392 48 0
-6392 49 0
-6392 -116 0
6392 15 16 17 -19 -25 32 33 -39 -42 -47 -48 -49 116 0
-6393 15 0
-6393 17 0
-6393 25 0
-6393 -32 0
-6393 -33 0
-6393 42 0
-6393 47 0
-6393 48 0
-6393 49 0
6393 -15 -17 -25 32 33 -42 -47 -48 -49 0
-6394 15 0
-6394 -19 0
-6394 25 0
-6394 -32 0
-6394 -33 0
-6394 42 0
-6394 47 0
-6394 48 0
-6394 49 0
6394 -15 19 -25 32 33 -42 -47 -48 -49 0
-6395 15 0
-6395 25 0
-6395 -32 0
-6395 -33 0
-6395 -39 0
-6395 42 0
-6395 47 0
-6395 48 0
-6395 49 0
6395 -15 -25 32 33 39 -42 -47 -48 -49 0
-6396 15 0
-6396 25 0
-6396 -32 0
-6396 -33 0
-6396 42 0
-6396 47 0
-6396 48 0
-6396 49 0
-6396 116 0
6396 -15 -25 32 33 -42 -47 -48 -49 -116 0
-6397 15 0
-6397 -16 0
-6397 -17 0
-6397 19 0
-6397 -25 0
-6397 -32 0
-6397 -33 0
-6397 39 0
-6397 42 0
-6397 47 0
-6397 48 0
-6397 49 0
-6397 -116 0
6397 -15 16 17 -19 25 32 33 -39 -42 -47 -48 -49 116 0
-6398 -15 0
-6398 17 0
-6398 -25 0
-6398 -32 0
-6398 -33 0
-6398 42 0
-6398 47 0
-6398 48 0
-6398 49 0
6398 15 -17 25 32 33 -42 -47 -48 -49 0
-6399 -15 0
-6399 -19 0
-6399 -25 0
-6399 -32 0
-6399 -33 0
-6399 42 0
-6399 47 0
-6399 48 0
-6399 49 0
6399 15 19 25 32 33 -42 -47 -48 -49 0
-6400 -15 0
-6400 -25 0
-6400 -32 0
-6400 -33 0
-6400 -39 0
-6400 42 0
-6400 47 0
-6400 48 0
-6400 49 0
6400 15 25 32 33 39 -42 -47 -48 -49 0
-6401 -15 0
-6401 -25 0
-6401 -32 0
-6401 -33 0
-6401 42 0
-6401 47 0
-6401 48 0
-6401 49 0
-6401 116 0
6401 15 25 32 33 -42 -47 -48 -49 -116 0
-6402 -15 0
-6402 -16 0
-6402 -17 0
-6402 19 0
-6402 -25 0
-6402 -32 0
-6402 33 0
-6402 39 0
-6402 42 0
-6402 47 0
-6402 48 0
-6402 49 0
-6402 -116 0
6402 15 16 17 -19 25 32 -33 -39 -42 -47 -48 -49 116 0
-6403 15 0
-6403 17 0
-6403 -25 0
-6403 -32 0
-6403 33 0
-6403 42 0
-6403 47 0
-6403 48 0
-6403 49 0
6403 -15 -17 25 32 -33 -42 -47 -48 -49 0
-6404 15 0
-6404 -19 0
-6404 -25 0
-6404 -32 0
-6404 33 0
-6404 42 0
-6404 47 0
-6404 48 0
-6404 49 0
6404 -15 19 25 32 -33 -42 -47 -48 -49 0
-6405 15 0
-6405 -25 0
-6405 -32 0
-6405 33 0
-6405 -39 0
-6405 42 0
-6405 47 0
-6405 48 0
-6405 49 0
6405 -15 25 32 -33 39 -42 -47 -48 -49 0
-6406 15 0
-6406 -25 0
-6406 -32 0
-6406 33 0
-6406 42 0
-6406 47 0
-6406 48 0
-6406 49 0
-6406 116 0
6406 -15 25 32 -33 -42 -47 -48 -49 -116 0
-6407 15 0
-6407 -16 0
-6407 -17 0
-6407 19 0
-6407 25 0
-6407 -32 0
-6407 33 0
-6407 39 0
-6407 42 0
-6407 47 0
-6407 48 0
-6407 49 0
-6407 -116 0
6407 -15 16 17 -19 -25 32 -33 -39 -42 -47 -48 -49 116 0
-6408 -15 0
-6408 17 0
-6408 25 0
-6408 -32 0
-6408 33 0
-6408 42 0
-6408 47 0
-6408 48 0
-6408 49 0
6408 15 -17 -25 32 -33 -42 -47 -48 -49 0
-6409 -15 0
-6409 -19 0
-6409 25 0
-6409 -32 0
-6409 33 0
-6409 42 0
-6409 47 0
-6409 48 0
-6409 49 0
6409 15 19 -25 32 -33 -42 -47 -48 -49 0
-6410 -15 0
-6410 25 0
-6410 -32 0
-6410 33 0
-6410 -39 0
-6410 42 0
-6410 47 0
-6410 48 0
-6410 49 0
6410 15 -25 32 -33 39 -42 -47 -48 -49 0
-6411 -15 0
-6411 25 0
-6411 -32 0
-6411 33 0
-6411 42 0
-6411 47 0
-6411 48 0
-6411 49 0
-6411 116 0
6411 15 -25 32 -33 -42 -47 -48 -49 -116 0
-6412 -15 0
-6412 -16 0
-6412 -17 0
-6412 19 0
-6412 25 0
-6412 32 0
-6412 33 0
-6412 39 0
-6412 42 0
-6412 47 0
-6412 48 0
-6412 49 0
-6412 -116 0
6412 15 16 17 -19 -25 -32 -33 -39 -42 -47 -48 -49 116 0
-6413 15 0
-6413 -19 0
-6413 25 0
-6413 32 0
-6413 33 0
-6413 42 0
-6413 47 0
-6413 48 0
-6413 49 0
6413 -15 19 -25 -32 -33 -42 -47 -48 -49 0
-6414 15 0
-6414 25 0
-6414 32 0
-6414 33 0
-6414 -39 0
-6414 42 0
-6414 47 0
-6414 48 0
-6414 49 0
6414 -15 -25 -32 -33 39 -42 -47 -48 -49 0
-6415 15 0
-6415 25 0
-6415 32 0
-6415 33 0
-6415 42 0
-6415 47 0
-6415 48 0
-6415 49 0
-6415 116 0
6415 -15 -25 -32 -33 -42 -47 -48 -49 -116 0
-6416 15 0
-6416 -16 0
-6416 -17 0
-6416 19 0
-6416 -25 0
-6416 32 0
-6416 33 0
-6416 39 0
-6416 42 0
-6416 47 0
-6416 48 0
-6416 49 0
-6416 -116 0
6416 -15 16 17 -19 25 -32 -33 -39 -42 -47 -48 -49 116 0
-6417 -15 0
-6417 17 0
-6417 -25 0
-6417 32 0
-6417 33 0
-6417 42 0
-6417 47 0
-6417 48 0
-6417 49 0
6417 15 -17 25 -32 -33 -42 -47 -48 -49 0
-6418 -15 0
-6418 -19 0
-6418 -25 0
-6418 32 0
-6418 33 0
-6418 42 0
-6418 47 0
-6418 48 0
-6418 49 0
6418 15 19 25 -32 -33 -42 -47 -48 -49 0
-6419 -15 0
-6419 -25 0
-6419 32 0
-6419 33 0
-6419 -39 0
-6419 42 0
-6419 47 0
-6419 48 0
-6419 49 0
6419 15 25 -32 -33 39 -42 -47 -48 -49 0
-6420 -15 0
-6420 -25 0
-6420 32 0
-6420 33 0
-6420 42 0
-6420 47 0
-6420 48 0
-6420 49 0
-6420 116 0
6420 15 25 -32 -33 -42 -47 -48 -49 -116 0
-6421 -15 0
-6421 -16 0
-6421 -17 0
-6421 19 0
-6421 -25 0
-6421 32 0
-6421 33 0
-6421 39 0
-6421 42 0
-6421 -47 0
-6421 48 0
-6421 49 0
-6421 -116 0
6421 15 16 17 -19 25 -32 -33 -39 -42 47 -48 -49 116 0
-6422 15 0
-6422 17 0
-6422 -25 0
-6422 32 0
-6422 33 0
-6422 42 0
-6422 -47 0
-6422 48 0
-6422 49 0
6422 -15 -17 25 -32 -33 -42 47 -48 -49 0
-6423 15 0
-6423 -19 0
-6423 -25 0
-6423 32 0
-6423 33 0
-6423 42 0
-6423 -47 0
-6423 48 0
-6423 49 0
6423 -15 19 25 -32 -33 -42 47 -48 -49 0
-6424 15 0
-6424 -25 0
-6424 32 0
-6424 33 0
-6424 -39 0
-6424 42 0
-6424 -47 0
-6424 48 0
-6424 49 0
6424 -15 25 -32 -33 39 -42 47 -48 -49 0
-6425 15 0
-6425 -25 0
-6425 32 0
-6425 33 0
-6425 42 0
-6425 -47 0
-6425 48 0
-6425 49 0
-6425 116 0
6425 -15 25 -32 -33 -42 47 -48 -49 -116 0
-6426 15 0
-6426 -16 0
-6426 -17 0
-6426 19 0
-6426 25 0
-6426 32 0
-6426 33 0
-6426 39 0
-6426 42 0
-6426 -47 0
-6426 48 0
-6426 49 0
-6426 -116 0
6426 -15 16 17 -19 -25 -32 -33 -39 -42 47 -48 -49 116 0
-6427 -15 0
-6427 17 0
-6427 25 0
-6427 32 0
-6427 33 0
-6427 42 0
-6427 -47 0
-6427 48 0
-6427 49 0
6427 15 -17 -25 -32 -33 -42 47 -48 -49 0
-6428 -15 0
-6428 -19 0
-6428 25 0
-6428 32 0
-6428 33 0
-6428 42 0
-6428 -47 0
-6428 48 0
-6428 49 0
6428 15 19 -25 -32 -33 -42 47 -48 -49 0
-6429 -15 0
-6429 25 0
-6429 32 0
-6429 33 0
-6429 -39 0
-6429 42 0
-6429 -47 0
-6429 48 0
-6429 49 0
6429 15 -25 -32 -33 39 -42 47 -48 -49 0
-6430 -15 0
-6430 25 0
-6430 32 0
-6430 33 0
-6430 42 0
-6430 -47 0
-6430 48 0
-6430 49 0
-6430 116 0
6430 15 -25 -32 -33 -42 47 -48 -49 -116 0
-6431 -15 0
-6431 -16 0
-6431 -17 0
-6431 19 0
-6431 25 0
-6431 -32 0
-6431 33 0
-6431 39 0
-6431 42 0
-6431 -47 0
-6431 48 0
-6431 49 0
-6431 -116 0
6431 15 16 17 -19 -25 32 -33 -39 -42 47 -48 -49 116 0
-6432 15 0
-6432 17 0
-6432 25 0
-6432 -32 0
-6432 33 0
-6432 42 0
-6432 -47 0
-6432 48 0
-6432 49 0
6432 -15 -17 -25 32 -33 -42 47 -48 -49 0
-6433 15 0
-6433 -19 0
-6433 25 0
-6433 -32 0
-6433 33 0
-6433 42 0
-6433 -47 0
-6433 48 0
-6433 49 0
6433 -15 19 -25 32 -33 -42 47 -48 -49 0
-6434 15 0
-6434 25 0
-6434 -32 0
-6434 33 0
-6434 -39 0
-6434 42 0
-6434 -47 0
-6434 48 0
-6434 49 0
6434 -15 -25 32 -33 39 -42 47 -48 -49 0
-6435 15 0
-6435 25 0
-6435 -32 0
-6435 33 0
-6435 42 0
-6435 -47 0
-6435 48 0
-6435 49 0
-6435 116 0
6435 -15 -25 32 -33 -42 47 -48 -49 -116 0
-6436 15 0
-6436 -16 0
-6436 -17 0
-6436 19 0
-6436 -25 0
-6436 -32 0
-6436 33 0
-6436 39 0
-6436 42 0
-6436 -47 0
-6436 48 0
-6436 49 0
-6436 -116 0
6436 -15 16 17 -19 25 32 -33 -39 -42 47 -48 -49 116 0
-6437 -15 0
-6437 17 0
-6437 -25 0
-6437 -32 0
-6437 33 0
-6437 42 0
-6437 -47 0
-6437 48 0
-6437 49 0
6437 15 -17 25 32 -33 -42 47 -48 -49 0
-6438 -15 0
-6438 -19 0
-6438 -25 0
-6438 -32 0
-6438 33 0
-6438 42 0
-6438 -47 0
-6438 48 0
-6438 49 0
6438 15 19 25 32 -33 -42 47 -48 -49 0
-6439 -15 0
-6439 -25 0
-6439 -32 0
-6439 33 0
-6439 -39 0
-6439 42 0
-6439 -47 0
-6439 48 0
-6439 49 0
6439 15 25 32 -33 39 -42 47 -48 -49 0
-6440 -15 0
-6440 -25 0
-6440 -32 0
-6440 33 0
-6440 42 0
-6440 -47 0
-6440 48 0
-6440 49 0
-6440 116 0
6440 15 25 32 -33 -42 47 -48 -49 -116 0
-6441 -15 0
-6441 -16 0
-6441 -17 0
-6441 19 0
-6441 -25 0
-6441 -32 0
-6441 -33 0
-6441 39 0
-6441 42 0
-6441 -47 0
-6441 48 0
-6441 49 0
-6441 -116 0
6441 15 16 17 -19 25 32 33 -39 -42 47 -48 -49 116 0
-6442 15 0
-6442 17 0
-6442 -25 0
-6442 -32 0
-6442 -33 0
-6442 42 0
-6442 -47 0
-6442 48 0
-6442 49 0
6442 -15 -17 25 32 33 -42 47 -48 -49 0
-6443 15 0
-6443 -19 0
-6443 -25 0
-6443 -32 0
-6443 -33 0
-6443 42 0
-6443 -47 0
-6443 48 0
-6443 49 0
6443 -15 19 25 32 33 -42 47 -48 -49 0
-6444 15 0
-6444 -25 0
-6444 -32 0
-6444 -33 0
-6444 -39 0
-6444 42 0
-6444 -47 0
-6444 48 0
-6444 49 0
6444 -15 25 32 33 39 -42 47 -48 -49 0
-6445 15 0
-6445 -25 0
-6445 -32 0
-6445 -33 0
-6445 42 0
-6445 -47 0
-6445 48 0
-6445 49 0
-6445 116 0
6445 -15 25 32 33 -42 47 -48 -49 -116 0
-6446 15 0
-6446 -16 0
-6446 -17 0
-6446 19 0
-6446 25 0
-6446 -32 0
-6446 -33 0
-6446 39 0
-6446 42 0
-6446 -47 0
-6446 48 0
-6446 49 0
-6446 -116 0
6446 -15 16 17 -19 -25 32 33 -39 -42 47 -48 -49 116 0
-6447 -15 0
-6447 17 0
-6447 25 0
-6447 -32 0
-6447 -33 0
-6447 42 0
-6447 -47 0
-6447 48 0
-6447 49 0
6447 15 -17 -25 32 33 -42 47 -48 -49 0
-6448 -15 0
-6448 -19 0
-6448 25 0
-6448 -32 0
-6448 -33 0
-6448 42 0
-6448 -47 0
-6448 48 0
-6448 49 0
6448 15 19 -25 32 33 -42 47 -48 -49 0
-6449 -15 0
-6449 25 0
-6449 -32 0
-6449 -33 0
-6449 -39 0
-6449 42 0
-6449 -47 0
-6449 48 0
-6449 49 0
6449 15 -25 32 33 39 -42 47 -48 -49 0
-6450 -15 0
-6450 25 0
-6450 -32 0
-6450 -33 0
-6450 42 0
-6450 -47 0
-6450 48 0
-6450 49 0
-6450 116 0
6450 15 -25 32 33 -42 47 -48 -49 -116 0
-6451 -15 0
-6451 -16 0
-6451 -17 0
-6451 19 0
-6451 25 0
-6451 32 0
-6451 -33 0
-6451 39 0
-6451 42 0
-6451 -47 0
-6451 48 0
-6451 49 0
-6451 -116 0
6451 15 16 17 -19 -25 -32 33 -39 -42 47 -48 -49 116 0
-6452 15 0
-6452 17 0
-6452 25 0
-6452 32 0
-6452 -33 0
-6452 42 0
-6452 -47 0
-6452 48 0
-6452 49 0
6452 -15 -17 -25 -32 33 -42 47 -48 -49 0
-6453 15 0
-6453 -19 0
-6453 25 0
-6453 32 0
-6453 -33 0
-6453 42 0
-6453 -47 0
-6453 48 0
-6453 49 0
6453 -15 19 -25 -32 33 -42 47 -48 -49 0
-6454 15 0
-6454 25 0
-6454 32 0
-6454 -33 0
-6454 -39 0
-6454 42 0
-6454 -47 0
-6454 48 0
-6454 49 0
6454 -15 -25 -32 33 39 -42 47 -48 -49 0
-6455 15 0
-6455 25 0
-6455 32 0
-6455 -33 0
-6455 42 0
-6455 -47 0
-6455 48 0
-6455 49 0
-6455 116 0
6455 -15 -25 -32 33 -42 47 -48 -49 -116 0
-6456 15 0
-6456 -16 0
-6456 -17 0
-6456 19 0
-6456 -25 0
-6456 32 0
-6456 -33 0
-6456 39 0
-6456 42 0
-6456 -47 0
-6456 48 0
-6456 49 0
-6456 -116 0
6456 -15 16 17 -19 25 -32 33 -39 -42 47 -48 -49 116 0
-6457 -15 0
-6457 17 0
-6457 -25 0
-6457 32 0
-6457 -33 0
-6457 42 0
-6457 -47 0
-6457 48 0
-6457 49 0
6457 15 -17 25 -32 33 -42 47 -48 -49 0
-6458 -15 0
-6458 -19 0
-6458 -25 0
-6458 32 0
-6458 -33 0
-6458 42 0
-6458 -47 0
-6458 48 0
-6458 49 0
6458 15 19 25 -32 33 -42 47 -48 -49 0
-6459 -15 0
-6459 -25 0
-6459 32 0
-6459 -33 0
-6459 -39 0
-6459 42 0
-6459 -47 0
-6459 48 0
-6459 49 0
6459 15 25 -32 33 39 -42 47 -48 -49 0
-6460 -15 0
-6460 -25 0
-6460 32 0
-6460 -33 0
-6460 42 0
-6460 -47 0
-6460 48 0
-6460 49 0
-6460 116 0
6460 15 25 -32 33 -42 47 -48 -49 -116 0
-6461 -15 0
-6461 -16 0
-6461 -17 0
-6461 19 0
-6461 -25 0
-6461 32 0
-6461 -33 0
-6461 39 0
-6461 -42 0
-6461 -47 0
-6461 48 0
-6461 49 0
-6461 -116 0
6461 15 16 17 -19 25 -32 33 -39 42 47 -48 -49 116 0
-6462 15 0
-6462 17 0
-6462 -25 0
-6462 32 0
-6462 -33 0
-6462 -42 0
-6462 -47 0
-6462 48 0
-6462 49 0
6462 -15 -17 25 -32 33 42 47 -48 -49 0
-6463 15 0
-6463 -19 0
-6463 -25 0
-6463 32 0
-6463 -33 0
-6463 -42 0
-6463 -47 0
-6463 48 0
-6463 49 0
6463 -15 19 25 -32 33 42 47 -48 -49 0
-6464 15 0
-6464 -25 0
-6464 32 0
-6464 -33 0
-6464 -39 0
-6464 -42 0
-6464 -47 0
-6464 48 0
-6464 49 0
6464 -15 25 -32 33 39 42 47 -48 -49 0
-6465 15 0
-6465 -25 0
-6465 32 0
-6465 -33 0
-6465 -42 0
-6465 -47 0
-6465 48 0
-6465 49 0
-6465 116 0
6465 -15 25 -32 33 42 47 -48 -49 -116 0
-6466 15 0
-6466 -16 0
-6466 -17 0
-6466 19 0
-6466 25 0
-6466 32 0
-6466 -33 0
-6466 39 0
-6466 -42 0
-6466 -47 0
-6466 48 0
-6466 49 0
-6466 -116 0
6466 -15 16 17 -19 -25 -32 33 -39 42 47 -48 -49 116 0
-6467 -15 0
-6467 17 0
-6467 25 0
-6467 32 0
-6467 -33 0
-6467 -42 0
-6467 -47 0
-6467 48 0
-6467 49 0
6467 15 -17 -25 -32 33 42 47 -48 -49 0
-6468 -15 0
-6468 -19 0
-6468 25 0
-6468 32 0
-6468 -33 0
-6468 -42 0
-6468 -47 0
-6468 48 0
-6468 49 0
6468 15 19 -25 -32 33 42 47 -48 -49 0
-6469 -15 0
-6469 25 0
-6469 32 0
-6469 -33 0
-6469 -39 0
-6469 -42 0
-6469 -47 0
-6469 48 0
-6469 49 0
6469 15 -25 -32 33 39 42 47 -48 -49 0
-6470 -15 0
-6470 25 0
-6470 32 0
-6470 -33 0
-6470 -42 0
-6470 -47 0
-6470 48 0
-6470 49 0
-6470 116 0
6470 15 -25 -32 33 42 47 -48 -49 -116 0
-6471 -15 0
-6471 -16 0
-6471 -17 0
-6471 19 0
-6471 25 0
-6471 -32 0
-6471 -33 0
-6471 39 0
-6471 -42 0
-6471 -47 0
-6471 48 0
-6471 49 0
-6471 -116 0
6471 15 16 17 -19 -25 32 33 -39 42 47 -48 -49 116 0
-6472 15 0
-6472 17 0
-6472 25 0
-6472 -32 0
-6472 -33 0
-6472 -42 0
-6472 -47 0
-6472 48 0
-6472 49 0
6472 -15 -17 -25 32 33 42 47 -48 -49 0
-6473 15 0
-6473 -19 0
-6473 25 0
-6473 -32 0
-6473 -33 0
-6473 -42 0
-6473 -47 0
-6473 48 0
-6473 49 0
6473 -15 19 -25 32 33 42 47 -48 -49 0
-6474 15 0
-6474 25 0
-6474 -32 0
-6474 -33 0
-6474 -39 0
-6474 -42 0
-6474 -47 0
-6474 48 0
-6474 49 0
6474 -15 -25 32 33 39 42 47 -48 -49 0
-6475 15 0
-6475 25 0
-6475 -32 0
-6475 -33 0
-6475 -42 0
-6475 -47 0
-6475 48 0
-6475 49 0
-6475 116 0
6475 -15 -25 32 33 42 47 -48 -49 -116 0
-6476 15 0
-6476 -16 0
-6476 -17 0
-6476 19 0
-6476 -25 0
-6476 -32 0
-6476 -33 0
-6476 39 0
-6476 -42 0
-6476 -47 0
-6476 48 0
-6476 49 0
-6476 -116 0
6476 -15 16 17 -19 25 32 33 -39 42 47 -48 -49 116 0
-6477 -15 0
-6477 17 0
-6477 -25 0
-6477 -32 0
-6477 -33 0
-6477 -42 0
-6477 -47 0
-6477 48 0
-6477 49 0
6477 15 -17 25 32 33 42 47 -48 -49 0
-6478 -15 0
-6478 -25 0
-6478 -32 0
-6478 -33 0
-6478 -39 0
-6478 -42 0
-6478 -47 0
-6478 48 0
-6478 49 0
6478 15 25 32 33 39 42 47 -48 -49 0
-6479 -15 0
-6479 -25 0
-6479 -32 0
-6479 -33 0
-6479 -42 0
-6479 -47 0
-6479 48 0
-6479 49 0
-6479 116 0
6479 15 25 32 33 42 47 -48 -49 -116 0
-6480 -15 0
-6480 -16 0
-6480 -17 0
-6480 19 0
-6480 -25 0
-6480 -32 0
-6480 33 0
-6480 39 0
-6480 -42 0
-6480 -47 0
-6480 48 0
-6480 49 0
-6480 -116 0
6480 15 16 17 -19 25 32 -33 -39 42 47 -48 -49 116 0
-6481 15 0
-6481 17 0
-6481 -25 0
-6481 -32 0
-6481 33 0
-6481 -42 0
-6481 -47 0
-6481 48 0
-6481 49 0
6481 -15 -17 25 32 -33 42 47 -48 -49 0
-6482 15 0
-6482 -19 0
-6482 -25 0
-6482 -32 0
-6482 33 0
-6482 -42 0
-6482 -47 0
-6482 48 0
-6482 49 0
6482 -15 19 25 32 -33 42 47 -48 -49 0
-6483 15 0
-6483 -25 0
-6483 -32 0
-6483 33 0
-6483 -39 0
-6483 -42 0
-6483 -47 0
-6483 48 0
-6483 49 0
6483 -15 25 32 -33 39 42 47 -48 -49 0
-6484 15 0
-6484 -25 0
-6484 -32 0
-6484 33 0
-6484 -42 0
-6484 -47 0
-6484 48 0
-6484 49 0
-6484 116 0
6484 -15 25 32 -33 42 47 -48 -49 -116 0
-6485 15 0
-6485 -16 0
-6485 -17 0
-6485 19 0
-6485 25 0
-6485 -32 0
-6485 33 0
-6485 39 0
-6485 -42 0
-6485 -47 0
-6485 48 0
-6485 49 0
-6485 -116 0
6485 -15 16 17 -19 -25 32 -33 -39 42 47 -48 -49 116 0
-6486 -15 0
-6486 17 0
-6486 25 0
-6486 -32 0
-6486 33 0
-6486 -42 0
-6486 -47 0
-6486 48 0
-6486 49 0
6486 15 -17 -25 32 -33 42 47 -48 -49 0
-6487 -15 0
-6487 -19 0
-6487 25 0
-6487 -32 0
-6487 33 0
-6487 -42 0
-6487 -47 0
-6487 48 0
-6487 49 0
6487 15 19 -25 32 -33 42 47 -48 -49 0
-6488 -15 0
-6488 25 0
-6488 -32 0
-6488 33 0
-6488 -39 0
-6488 -42 0
-6488 -47 0
-6488 48 0
-6488 49 0
6488 15 -25 32 -33 39 42 47 -48 -49 0
-6489 -15 0
-6489 25 0
-6489 -32 0
-6489 33 0
-6489 -42 0
-6489 -47 0
-6489 48 0
-6489 49 0
-6489 116 0
6489 15 -25 32 -33 42 47 -48 -49 -116 0
-6490 -15 0
-6490 -16 0
-6490 -17 0
-6490 19 0
-6490 25 0
-6490 32 0
-6490 33 0
-6490 39 0
-6490 -42 0
-6490 -47 0
-6490 48 0
-6490 49 0
-6490 -116 0
6490 15 16 17 -19 -25 -32 -33 -39 42 47 -48 -49 116 0
-6491 15 0
-6491 17 0
-6491 25 0
-6491 32 0
-6491 33 0
-6491 -42 0
-6491 -47 0
-6491 48 0
-6491 49 0
6491 -15 -17 -25 -32 -33 42 47 -48 -49 0
-6492 15 0
-6492 -19 0
-6492 25 0
-6492 32 0
-6492 33 0
-6492 -42 0
-6492 -47 0
-6492 48 0
-6492 49 0
6492 -15 19 -25 -32 -33 42 47 -48 -49 0
-6493 15 0
-6493 25 0
-6493 32 0
-6493 33 0
-6493 -39 0
-6493 -42 0
-6493 -47 0
-6493 48 0
-6493 49 0
6493 -15 -25 -32 -33 39 42 47 -48 -49 0
-6494 15 0
-6494 25 0
-6494 32 0
-6494 33 0
-6494 -42 0
-6494 -47 0
-6494 48 0
-6494 49 0
-6494 116 0
6494 -15 -25 -32 -33 42 47 -48 -49 -116 0
-6495 15 0
-6495 -16 0
-6495 -17 0
-6495 19 0
-6495 -25 0
-6495 32 0
-6495 33 0
-6495 39 0
-6495 -42 0
-6495 -47 0
-6495 48 0
-6495 49 0
-6495 -116 0
6495 -15 16 17 -19 25 -32 -33 -39 42 47 -48 -49 116 0
-6496 -15 0
-6496 17 0
-6496 -25 0
-6496 32 0
-6496 33 0
-6496 -42 0
-6496 -47 0
-6496 48 0
-6496 49 0
6496 15 -17 25 -32 -33 42 47 -48 -49 0
-6497 -15 0
-6497 -19 0
-6497 -25 0
-6497 32 0
-6497 33 0
-6497 -42 0
-6497 -47 0
-6497 48 0
-6497 49 0
6497 15 19 25 -32 -33 42 47 -48 -49 0
-6498 -15 0
-6498 -25 0
-6498 32 0
-6498 33 0
-6498 -39 0
-6498 -42 0
-6498 -47 0
-6498 48 0
-6498 49 0
6498 15 25 -32 -33 39 42 47 -48 -49 0
-6499 -15 0
-6499 -25 0
-6499 32 0
-6499 33 0
-6499 -42 0
-6499 -47 0
-6499 48 0
-6499 49 0
-6499 116 0
6499 15 25 -32 -33 42 47 -48 -49 -116 0
-6500 -15 0
-6500 -16 0
-6500 -17 0
-6500 19 0
-6500 -25 0
-6500 32 0
-6500 33 0
-6500 39 0
-6500 -42 0
-6500 -47 0
-6500 -48 0
-6500 49 0
-6500 -116 0
6500 15 16 17 -19 25 -32 -33 -39 42 47 48 -49 116 0
-6501 15 0
-6501 17 0
-6501 -25 0
-6501 32 0
-6501 33 0
-6501 -42 0
-6501 -47 0
-6501 -48 0
-6501 49 0
6501 -15 -17 25 -32 -33 42 47 48 -49 0
-6502 15 0
-6502 -19 0
-6502 -25 0
-6502 32 0
-6502 33 0
-6502 -42 0
-6502 -47 0
-6502 -48 0
-6502 49 0
6502 -15 19 25 -32 -33 42 47 48 -49 0
-6503 15 0
-6503 -25 0
-6503 32 0
-6503 33 0
-6503 -39 0
-6503 -42 0
-6503 -47 0
-6503 -48 0
-6503 49 0
6503 -15 25 -32 -33 39 42 47 48 -49 0
-6504 15 0
-6504 -25 0
-6504 32 0
-6504 33 0
-6504 -42 0
-6504 -47 0
-6504 -48 0
-6504 49 0
-6504 116 0
6504 -15 25 -32 -33 42 47 48 -49 -116 0
-6505 15 0
-6505 -16 0
-6505 -17 0
-6505 19 0
-6505 25 0
-6505 32 0
-6505 33 0
-6505 39 0
-6505 -42 0
-6505 -47 0
-6505 -48 0
-6505 49 0
-6505 -116 0
6505 -15 16 17 -19 -25 -32 -33 -39 42 47 48 -49 116 0
-6506 -15 0
-6506 17 0
-6506 25 0
-6506 32 0
-6506 33 0
-6506 -42 0
-6506 -47 0
-6506 -48 0
-6506 49 0
6506 15 -17 -25 -32 -33 42 47 48 -49 0
-6507 -15 0
-6507 -19 0
-6507 25 0
-6507 32 0
-6507 33 0
-6507 -42 0
-6507 -47 0
-6507 -48 0
-6507 49 0
6507 15 19 -25 -32 -33 42 47 48 -49 0
-6508 -15 0
-6508 25 0
-6508 32 0
-6508 33 0
-6508 -39 0
-6508 -42 0
-6508 -47 0
-6508 -48 0
-6508 49 0
6508 15 -25 -32 -33 39 42 47 48 -49 0
-6509 -15 0
-6509 25 0
-6509 32 0
-6509 33 0
-6509 -42 0
-6509 -47 0
-6509 -48 0
-6509 49 0
-6509 116 0
6509 15 -25 -32 -33 42 47 48 -49 -116 0
-6510 -15 0
-6510 -16 0
-6510 -17 0
-6510 19 0
-6510 25 0
-6510 -32 0
-6510 33 0
-6510 39 0
-6510 -42 0
-6510 -47 0
-6510 -48 0
-6510 49 0
-6510 -116 0
6510 15 16 17 -19 -25 32 -33 -39 42 47 48 -49 116 0
-6511 15 0
-6511 17 0
-6511 25 0
-6511 -32 0
-6511 33 0
-6511 -42 0
-6511 -47 0
-6511 -48 0
-6511 49 0
6511 -15 -17 -25 32 -33 42 47 48 -49 0
-6512 15 0
-6512 -19 0
-6512 25 0
-6512 -32 0
-6512 33 0
-6512 -42 0
-6512 -47 0
-6512 -48 0
-6512 49 0
6512 -15 19 -25 32 -33 42 47 48 -49 0
-6513 15 0
-6513 25 0
-6513 -32 0
-6513 33 0
-6513 -39 0
-6513 -42 0
-6513 -47 0
-6513 -48 0
-6513 49 0
6513 -15 -25 32 -33 39 42 47 48 -49 0
-6514 15 0
-6514 25 0
-6514 -32 0
-6514 33 0
-6514 -42 0
-6514 -47 0
-6514 -48 0
-6514 49 0
-6514 116 0
6514 -15 -25 32 -33 42 47 48 -49 -116 0
-6515 15 0
-6515 -16 0
-6515 -17 0
-6515 19 0
-6515 -25 0
-6515 -32 0
-6515 33 0
-6515 39 0
-6515 -42 0
-6515 -47 0
-6515 -48 0
-6515 49 0
-6515 -116 0
6515 -15 16 17 -19 25 32 -33 -39 42 47 48 -49 116 0
-6516 -15 0
-6516 17 0
-6516 -25 0
-6516 -32 0
-6516 33 0
-6516 -42 0
-6516 -47 0
-6516 -48 0
-6516 49 0
6516 15 -17 25 32 -33 42 47 48 -49 0
-6517 -15 0
-6517 -19 0
-6517 -25 0
-6517 -32 0
-6517 33 0
-6517 -42 0
-6517 -47 0
-6517 -48 0
-6517 49 0
6517 15 19 25 32 -33 42 47 48 -49 0
-6518 -15 0
-6518 -25 0
-6518 -32 0
-6518 33 0
-6518 -39 0
-6518 -42 0
-6518 -47 0
-6518 -48 0
-6518 49 0
6518 15 25 32 -33 39 42 47 48 -49 0
-6519 -15 0
-6519 -25 0
-6519 -32 0
-6519 33 0
-6519 -42 0
-6519 -47 0
-6519 -48 0
-6519 49 0
-6519 116 0
6519 15 25 32 -33 42 47 48 -49 -116 0
-6520 -15 0
-6520 -16 0
-6520 -17 0
-6520 19 0
-6520 -25 0
-6520 -32 0
-6520 -33 0
-6520 39 0
-6520 -42 0
-6520 -47 0
-6520 -48 0
-6520 49 0
-6520 -116 0
6520 15 16 17 -19 25 32 33 -39 42 47 48 -49 116 0
-6521 15 0
-6521 17 0
-6521 -25 0
-6521 -32 0
-6521 -33 0
-6521 -42 0
-6521 -47 0
-6521 -48 0
-6521 49 0
6521 -15 -17 25 32 33 42 47 48 -49 0
-6522 -15 0
-6522 -19 0
-6522 -25 0
-6522 -32 0
-6522 -33 0
-6522 -42 0
-6522 47 0
-6522 -48 0
-6522 49 0
6522 15 19 25 32 33 42 -47 48 -49 0
-6523 -15 0
-6523 -19 0
-6523 -25 0
-6523 -32 0
-6523 -33 0
-6523 -42 0
-6523 47 0
-6523 48 0
-6523 -49 0
6523 15 19 25 32 33 42 -47 -48 49 0
-6524 15 0
-6524 -19 0
-6524 -25 0
-6524 -32 0
-6524 -33 0
-6524 -42 0
-6524 -47 0
-6524 -48 0
-6524 49 0
6524 -15 19 25 32 33 42 47 48 -49 0
-6525 15 0
-6525 -25 0
-6525 -32 0
-6525 -33 0
-6525 -39 0
-6525 -42 0
-6525 -47 0
-6525 -48 0
-6525 49 0
6525 -15 25 32 33 39 42 47 48 -49 0
-6526 15 0
-6526 -25 0
-6526 -32 0
-6526 -33 0
-6526 -42 0
-6526 -47 0
-6526 -48 0
-6526 49 0
-6526 116 0
6526 -15 25 32 33 42 47 48 -49 -116 0
-6527 15 0
-6527 -16 0
-6527 -17 0
-6527 19 0
-6527 25 0
-6527 -32 0
-6527 -33 0
-6527 39 0
-6527 -42 0
-6527 -47 0
-6527 -48 0
-6527 49 0
-6527 -116 0
6527 -15 16 17 -19 -25 32 33 -39 42 47 48 -49 116 0
-6528 -15 0
-6528 17 0
-6528 25 0
-6528 -32 0
-6528 -33 0
-6528 -42 0
-6528 -47 0
-6528 -48 0
-6528 49 0
6528 15 -17 -25 32 33 42 47 48 -49 0
-6529 -15 0
-6529 -19 0
-6529 25 0
-6529 -32 0
-6529 -33 0
-6529 -42 0
-6529 -47 0
-6529 -48 0
-6529 49 0
6529 15 19 -25 32 33 42 47 48 -49 0
-6530 -15 0
-6530 25 0
-6530 -32 0
-6530 -33 0
-6530 -39 0
-6530 -42 0
-6530 -47 0
-6530 -48 0
-6530 49 0
6530 15 -25 32 33 39 42 47 48 -49 0
-6531 -15 0
-6531 25 0
-6531 -32 0
-6531 -33 0
-6531 -42 0
-6531 -47 0
-6531 -48 0
-6531 49 0
-6531 116 0
6531 15 -25 32 33 42 47 48 -49 -116 0
-6532 -15 0
-6532 -16 0
-6532 -17 0
-6532 19 0
-6532 25 0
-6532 32 0
-6532 -33 0
-6532 39 0
-6532 -42 0
-6532 -47 0
-6532 -48 0
-6532 49 0
-6532 -116 0
6532 15 16 17 -19 -25 -32 33 -39 42 47 48 -49 116 0
-6533 15 0
-6533 17 0
-6533 25 0
-6533 32 0
-6533 -33 0
-6533 -42 0
-6533 -47 0
-6533 -48 0
-6533 49 0
6533 -15 -17 -25 -32 33 42 47 48 -49 0
-6534 15 0
-6534 -19 0
-6534 25 0
-6534 32 0
-6534 -33 0
-6534 -42 0
-6534 -47 0
-6534 -48 0
-6534 49 0
6534 -15 19 -25 -32 33 42 47 48 -49 0
-6535 15 0
-6535 25 0
-6535 32 0
-6535 -33 0
-6535 -39 0
-6535 -42 0
-6535 -47 0
-6535 -48 0
-6535 49 0
6535 -15 -25 -32 33 39 42 47 48 -49 0
-6536 15 0
-6536 25 0
-6536 32 0
-6536 -33 0
-6536 -42 0
-6536 -47 0
-6536 -48 0
-6536 49 0
-6536 116 0
6536 -15 -25 -32 33 42 47 48 -49 -116 0
-6537 15 0
-6537 -16 0
-6537 -17 0
-6537 19 0
-6537 -25 0
-6537 32 0
-6537 -33 0
-6537 39 0
-6537 -42 0
-6537 -47 0
-6537 -48 0
-6537 49 0
-6537 -116 0
6537 -15 16 17 -19 25 -32 33 -39 42 47 48 -49 116 0
-6538 -15 0
-6538 17 0
-6538 -25 0
-6538 32 0
-6538 -33 0
-6538 -42 0
-6538 -47 0
-6538 -48 0
-6538 49 0
6538 15 -17 25 -32 33 42 47 48 -49 0
-6539 -15 0
-6539 -19 0
-6539 -25 0
-6539 32 0
-6539 -33 0
-6539 -42 0
-6539 -47 0
-6539 -48 0
-6539 49 0
6539 15 19 25 -32 33 42 47 48 -49 0
-6540 -15 0
-6540 -25 0
-6540 32 0
-6540 -33 0
-6540 -39 0
-6540 -42 0
-6540 -47 0
-6540 -48 0
-6540 49 0
6540 15 25 -32 33 39 42 47 48 -49 0
-6541 -15 0
-6541 -25 0
-6541 32 0
-6541 -33 0
-6541 -42 0
-6541 -47 0
-6541 -48 0
-6541 49 0
-6541 116 0
6541 15 25 -32 33 42 47 48 -49 -116 0
-6542 -15 0
-6542 -16 0
-6542 -17 0
-6542 19 0
-6542 -25 0
-6542 32 0
-6542 -33 0
-6542 39 0
-6542 42 0
-6542 -47 0
-6542 -48 0
-6542 49 0
-6542 -116 0
6542 15 16 17 -19 25 -32 33 -39 -42 47 48 -49 116 0
-6543 15 0
-6543 17 0
-6543 -25 0
-6543 32 0
-6543 -33 0
-6543 42 0
-6543 -47 0
-6543 -48 0
-6543 49 0
6543 -15 -17 25 -32 33 -42 47 48 -49 0
-6544 15 0
-6544 -19 0
-6544 -25 0
-6544 32 0
-6544 -33 0
-6544 42 0
-6544 -47 0
-6544 -48 0
-6544 49 0
6544 -15 19 25 -32 33 -42 47 48 -49 0
-6545 15 0
-6545 -25 0
-6545 32 0
-6545 -33 0
-6545 -39 0
-6545 42 0
-6545 -47 0
-6545 -48 0
-6545 49 0
6545 -15 25 -32 33 39 -42 47 48 -49 0
-6546 15 0
-6546 -25 0
-6546 32 0
-6546 -33 0
-6546 42 0
-6546 -47 0
-6546 -48 0
-6546 49 0
-6546 116 0
6546 -15 25 -32 33 -42 47 48 -49 -116 0
-6547 15 0
-6547 -16 0
-6547 -17 0
-6547 19 0
-6547 25 0
-6547 32 0
-6547 -33 0
-6547 39 0
-6547 42 0
-6547 -47 0
-6547 -48 0
-6547 49 0
-6547 -116 0
6547 -15 16 17 -19 -25 -32 33 -39 -42 47 48 -49 116 0
-6548 -15 0
-6548 17 0
-6548 25 0
-6548 32 0
-6548 -33 0
-6548 42 0
-6548 -47 0
-6548 -48 0
-6548 49 0
6548 15 -17 -25 -32 33 -42 47 48 -49 0
-6549 -15 0
-6549 -19 0
-6549 25 0
-6549 32 0
-6549 -33 0
-6549 42 0
-6549 -47 0
-6549 -48 0
-6549 49 0
6549 15 19 -25 -32 33 -42 47 48 -49 0
-6550 -15 0
-6550 25 0
-6550 32 0
-6550 -33 0
-6550 -39 0
-6550 42 0
-6550 -47 0
-6550 -48 0
-6550 49 0
6550 15 -25 -32 33 39 -42 47 48 -49 0
-6551 -15 0
-6551 25 0
-6551 32 0
-6551 -33 0
-6551 42 0
-6551 -47 0
-6551 -48 0
-6551 49 0
-6551 116 0
6551 15 -25 -32 33 -42 47 48 -49 -116 0
-6552 -15 0
-6552 -16 0
-6552 -17 0
-6552 19 0
-6552 25 0
-6552 -32 0
-6552 -33 0
-6552 39 0
-6552 42 0
-6552 -47 0
-6552 -48 0
-6552 49 0
-6552 -116 0
6552 15 16 17 -19 -25 32 33 -39 -42 47 48 -49 116 0
-6553 15 0
-6553 17 0
-6553 25 0
-6553 -32 0
-6553 -33 0
-6553 42 0
-6553 -47 0
-6553 -48 0
-6553 49 0
6553 -15 -17 -25 32 33 -42 47 48 -49 0
-6554 15 0
-6554 -19 0
-6554 25 0
-6554 -32 0
-6554 -33 0
-6554 42 0
-6554 -47 0
-6554 -48 0
-6554 49 0
6554 -15 19 -25 32 33 -42 47 48 -49 0
-6555 15 0
-6555 25 0
-6555 -32 0
-6555 -33 0
-6555 -39 0
-6555 42 0
-6555 -47 0
-6555 -48 0
-6555 49 0
6555 -15 -25 32 33 39 -42 47 48 -49 0
-6556 15 0
-6556 25 0
-6556 -32 0
-6556 -33 0
-6556 42 0
-6556 -47 0
-6556 -48 0
-6556 49 0
-6556 116 0
6556 -15 -25 32 33 -42 47 48 -49 -116 0
-6557 15 0
-6557 -16 0
-6557 -17 0
-6557 19 0
-6557 -25 0
-6557 -32 0
-6557 -33 0
-6557 39 0
-6557 42 0
-6557 -47 0
-6557 -48 0
-6557 49 0
-6557 -116 0
6557 -15 16 17 -19 25 32 33 -39 -42 47 48 -49 116 0
-6558 -15 0
-6558 17 0
-6558 -25 0
-6558 -32 0
-6558 -33 0
-6558 42 0
-6558 -47 0
-6558 -48 0
-6558 49 0
6558 15 -17 25 32 33 -42 47 48 -49 0
-6559 -15 0
-6559 -19 0
-6559 -25 0
-6559 -32 0
-6559 -33 0
-6559 42 0
-6559 -47 0
-6559 -48 0
-6559 49 0
6559 15 19 25 32 33 -42 47 48 -49 0
-6560 -15 0
-6560 -25 0
-6560 -32 0
-6560 -33 0
-6560 -39 0
-6560 42 0
-6560 -47 0
-6560 -48 0
-6560 49 0
6560 15 25 32 33 39 -42 47 48 -49 0
-6561 -15 0
-6561 -25 0
-6561 -32 0
-6561 -33 0
-6561 42 0
-6561 -47 0
-6561 -48 0
-6561 49 0
-6561 116 0
6561 15 25 32 33 -42 47 48 -49 -116 0
-6562 -15 0
-6562 -16 0
-6562 -17 0
-6562 19 0
-6562 -25 0
-6562 -32 0
-6562 33 0
-6562 39 0
-6562 42 0
-6562 -47 0
-6562 -48 0
-6562 49 0
-6562 -116 0
6562 15 16 17 -19 25 32 -33 -39 -42 47 48 -49 116 0
-6563 15 0
-6563 17 0
-6563 -25 0
-6563 -32 0
-6563 33 0
-6563 42 0
-6563 -47 0
-6563 -48 0
-6563 49 0
6563 -15 -17 25 32 -33 -42 47 48 -49 0
-6564 15 0
-6564 -19 0
-6564 -25 0
-6564 -32 0
-6564 33 0
-6564 42 0
-6564 -47 0
-6564 -48 0
-6564 49 0
6564 -15 19 25 32 -33 -42 47 48 -49 0
-6565 15 0
-6565 -25 0
-6565 -32 0
-6565 33 0
-6565 -39 0
-6565 42 0
-6565 -47 0
-6565 -48 0
-6565 49 0
6565 -15 25 32 -33 39 -42 47 48 -49 0
-6566 15 0
-6566 -25 0
-6566 -32 0
-6566 33 0
-6566 42 0
-6566 -47 0
-6566 -48 0
-6566 49 0
-6566 116 0
6566 -15 25 32 -33 -42 47 48 -49 -116 0
-6567 15 0
-6567 -16 0
-6567 -17 0
-6567 19 0
-6567 25 0
-6567 -32 0
-6567 33 0
-6567 39 0
-6567 42 0
-6567 -47 0
-6567 -48 0
-6567 49 0
-6567 -116 0
6567 -15 16 17 -19 -25 32 -33 -39 -42 47 48 -49 116 0
-6568 -15 0
-6568 17 0
-6568 25 0
-6568 -32 0
-6568 33 0
-6568 42 0
-6568 -47 0
-6568 -48 0
-6568 49 0
6568 15 -17 -25 32 -33 -42 47 48 -49 0
-6569 -15 0
-6569 -19 0
-6569 25 0
-6569 -32 0
-6569 33 0
-6569 42 0
-6569 -47 0
-6569 -48 0
-6569 49 0
6569 15 19 -25 32 -33 -42 47 48 -49 0
-6570 -15 0
-6570 25 0
-6570 -32 0
-6570 33 0
-6570 -39 0
-6570 42 0
-6570 -47 0
-6570 -48 0
-6570 49 0
6570 15 -25 32 -33 39 -42 47 48 -49 0
-6571 -15 0
-6571 25 0
-6571 -32 0
-6571 33 0
-6571 42 0
-6571 -47 0
-6571 -48 0
-6571 49 0
-6571 116 0
6571 15 -25 32 -33 -42 47 48 -49 -116 0
-6572 -15 0
-6572 -16 0
-6572 -17 0
-6572 19 0
-6572 25 0
-6572 32 0
-6572 33 0
-6572 39 0
-6572 42 0
-6572 -47 0
-6572 -48 0
-6572 49 0
-6572 -116 0
6572 15 16 17 -19 -25 -32 -33 -39 -42 47 48 -49 116 0
-6573 15 0
-6573 17 0
-6573 25 0
-6573 32 0
-6573 33 0
-6573 42 0
-6573 -47 0
-6573 -48 0
-6573 49 0
6573 -15 -17 -25 -32 -33 -42 47 48 -49 0
-6574 15 0
-6574 -19 0
-6574 25 0
-6574 32 0
-6574 33 0
-6574 42 0
-6574 -47 0
-6574 -48 0
-6574 49 0
6574 -15 19 -25 -32 -33 -42 47 48 -49 0
-6575 15 0
-6575 25 0
-6575 32 0
-6575 33 0
-6575 -39 0
-6575 42 0
-6575 -47 0
-6575 -48 0
-6575 49 0
6575 -15 -25 -32 -33 39 -42 47 48 -49 0
-6576 15 0
-6576 25 0
-6576 32 0
-6576 33 0
-6576 42 0
-6576 -47 0
-6576 -48 0
-6576 49 0
-6576 116 0
6576 -15 -25 -32 -33 -42 47 48 -49 -116 0
-6577 15 0
-6577 -16 0
-6577 -17 0
-6577 19 0
-6577 -25 0
-6577 32 0
-6577 33 0
-6577 39 0
-6577 42 0
-6577 -47 0
-6577 -48 0
-6577 49 0
-6577 -116 0
6577 -15 16 17 -19 25 -32 -33 -39 -42 47 48 -49 116 0
-6578 -15 0
-6578 17 0
-6578 -25 0
-6578 32 0
-6578 33 0
-6578 42 0
-6578 -47 0
-6578 -48 0
-6578 49 0
6578 15 -17 25 -32 -33 -42 47 48 -49 0
-6579 -15 0
-6579 -19 0
-6579 -25 0
-6579 32 0
-6579 33 0
-6579 42 0
-6579 -47 0
-6579 -48 0
-6579 49 0
6579 15 19 25 -32 -33 -42 47 48 -49 0
-6580 -15 0
-6580 -25 0
-6580 32 0
-6580 33 0
-6580 -39 0
-6580 42 0
-6580 -47 0
-6580 -48 0
-6580 49 0
6580 15 25 -32 -33 39 -42 47 48 -49 0
-6581 -15 0
-6581 -25 0
-6581 32 0
-6581 33 0
-6581 42 0
-6581 -47 0
-6581 -48 0
-6581 49 0
-6581 116 0
6581 15 25 -32 -33 -42 47 48 -49 -116 0
-6582 -15 0
-6582 -16 0
-6582 -17 0
-6582 19 0
-6582 -25 0
-6582 32 0
-6582 33 0
-6582 39 0
-6582 42 0
-6582 47 0
-6582 -48 0
-6582 49 0
-6582 -116 0
6582 15 16 17 -19 25 -32 -33 -39 -42 -47 48 -49 116 0
-6583 15 0
-6583 17 0
-6583 -25 0
-6583 32 0
-6583 33 0
-6583 42 0
-6583 47 0
-6583 -48 0
-6583 49 0
6583 -15 -17 25 -32 -33 -42 -47 48 -49 0
-6584 15 0
-6584 -19 0
-6584 -25 0
-6584 32 0
-6584 33 0
-6584 42 0
-6584 47 0
-6584 -48 0
-6584 49 0
6584 -15 19 25 -32 -33 -42 -47 48 -49 0
-6585 15 0
-6585 -25 0
-6585 32 0
-6585 33 0
-6585 -39 0
-6585 42 0
-6585 47 0
-6585 -48 0
-6585 49 0
6585 -15 25 -32 -33 39 -42 -47 48 -49 0
-6586 15 0
-6586 -25 0
-6586 32 0
-6586 33 0
-6586 42 0
-6586 47 0
-6586 -48 0
-6586 49 0
-6586 116 0
6586 -15 25 -32 -33 -42 -47 48 -49 -116 0
-6587 15 0
-6587 -16 0
-6587 -17 0
-6587 19 0
-6587 25 0
-6587 32 0
-6587 33 0
-6587 39 0
-6587 42 0
-6587 47 0
-6587 -48 0
-6587 49 0
-6587 -116 0
6587 -15 16 17 -19 -25 -32 -33 -39 -42 -47 48 -49 116 0
-6588 -15 0
-6588 17 0
-6588 25 0
-6588 32 0
-6588 33 0
-6588 42 0
-6588 47 0
-6588 -48 0
-6588 49 0
6588 15 -17 -25 -32 -33 -42 -47 48 -49 0
-6589 15 0
-6589 17 0
-6589 25 0
-6589 32 0
-6589 33 0
-6589 42 0
-6589 -47 0
-6589 48 0
-6589 -49 0
6589 -15 -17 -25 -32 -33 -42 47 -48 49 0
-6590 -15 0
-6590 -19 0
-6590 25 0
-6590 32 0
-6590 33 0
-6590 42 0
-6590 47 0
-6590 -48 0
-6590 49 0
6590 15 19 -25 -32 -33 -42 -47 48 -49 0
-6591 -15 0
-6591 25 0
-6591 32 0
-6591 33 0
-6591 -39 0
-6591 42 0
-6591 47 0
-6591 -48 0
-6591 49 0
6591 15 -25 -32 -33 39 -42 -47 48 -49 0
-6592 -15 0
-6592 25 0
-6592 32 0
-6592 33 0
-6592 42 0
-6592 47 0
-6592 -48 0
-6592 49 0
-6592 116 0
6592 15 -25 -32 -33 -42 -47 48 -49 -116 0
-6593 -15 0
-6593 -16 0
-6593 -17 0
-6593 19 0
-6593 25 0
-6593 -32 0
-6593 33 0
-6593 39 0
-6593 42 0
-6593 47 0
-6593 -48 0
-6593 49 0
-6593 -116 0
6593 15 16 17 -19 -25 32 -33 -39 -42 -47 48 -49 116 0
-6594 15 0
-6594 17 0
-6594 25 0
-6594 -32 0
-6594 33 0
-6594 42 0
-6594 47 0
-6594 -48 0
-6594 49 0
6594 -15 -17 -25 32 -33 -42 -47 48 -49 0
-6595 15 0
-6595 -19 0
-6595 25 0
-6595 -32 0
-6595 33 0
-6595 42 0
-6595 47 0
-6595 -48 0
-6595 49 0
6595 -15 19 -25 32 -33 -42 -47 48 -49 0
-6596 15 0
-6596 25 0
-6596 -32 0
-6596 33 0
-6596 -39 0
-6596 42 0
-6596 47 0
-6596 -48 0
-6596 49 0
6596 -15 -25 32 -33 39 -42 -47 48 -49 0
-6597 15 0
-6597 25 0
-6597 -32 0
-6597 33 0
-6597 42 0
-6597 47 0
-6597 -48 0
-6597 49 0
-6597 116 0
6597 -15 -25 32 -33 -42 -47 48 -49 -116 0
-6598 15 0
-6598 -16 0
-6598 -17 0
-6598 19 0
-6598 -25 0
-6598 -32 0
-6598 33 0
-6598 39 0
-6598 42 0
-6598 47 0
-6598 -48 0
-6598 49 0
-6598 -116 0
6598 -15 16 17 -19 25 32 -33 -39 -42 -47 48 -49 116 0
-6599 -15 0
-6599 17 0
-6599 -25 0
-6599 -32 0
-6599 33 0
-6599 42 0
-6599 47 0
-6599 -48 0
-6599 49 0
6599 15 -17 25 32 -33 -42 -47 48 -49 0
-6600 -15 0
-6600 -19 0
-6600 -25 0
-6600 -32 0
-6600 33 0
-6600 42 0
-6600 47 0
-6600 -48 0
-6600 49 0
6600 15 19 25 32 -33 -42 -47 48 -49 0
-6601 -15 0
-6601 -25 0
-6601 -32 0
-6601 33 0
-6601 -39 0
-6601 42 0
-6601 47 0
-6601 -48 0
-6601 49 0
6601 15 25 32 -33 39 -42 -47 48 -49 0
-6602 -15 0
-6602 -25 0
-6602 -32 0
-6602 33 0
-6602 42 0
-6602 47 0
-6602 -48 0
-6602 49 0
-6602 116 0
6602 15 25 32 -33 -42 -47 48 -49 -116 0
-6603 -15 0
-6603 -16 0
-6603 -17 0
-6603 19 0
-6603 -25 0
-6603 -32 0
-6603 -33 0
-6603 39 0
-6603 42 0
-6603 47 0
-6603 -48 0
-6603 49 0
-6603 -116 0
6603 15 16 17 -19 25 32 33 -39 -42 -47 48 -49 116 0
-6604 15 0
-6604 17 0
-6604 -25 0
-6604 -32 0
-6604 -33 0
-6604 42 0
-6604 47 0
-6604 -48 0
-6604 49 0
6604 -15 -17 25 32 33 -42 -47 48 -49 0
-6605 15 0
-6605 -19 0
-6605 -25 0
-6605 -32 0
-6605 -33 0
-6605 42 0
-6605 47 0
-6605 -48 0
-6605 49 0
6605 -15 19 25 32 33 -42 -47 48 -49 0
-6606 15 0
-6606 -25 0
-6606 -32 0
-6606 -33 0
-6606 -39 0
-6606 42 0
-6606 47 0
-6606 -48 0
-6606 49 0
6606 -15 25 32 33 39 -42 -47 48 -49 0
-6607 15 0
-6607 -25 0
-6607 -32 0
-6607 -33 0
-6607 42 0
-6607 47 0
-6607 -48 0
-6607 49 0
-6607 116 0
6607 -15 25 32 33 -42 -47 48 -49 -116 0
-6608 15 0
-6608 -16 0
-6608 -17 0
-6608 19 0
-6608 25 0
-6608 -32 0
-6608 -33 0
-6608 39 0
-6608 42 0
-6608 47 0
-6608 -48 0
-6608 49 0
-6608 -116 0
6608 -15 16 17 -19 -25 32 33 -39 -42 -47 48 -49 116 0
-6609 -15 0
-6609 17 0
-6609 25 0
-6609 -32 0
-6609 -33 0
-6609 42 0
-6609 47 0
-6609 -48 0
-6609 49 0
6609 15 -17 -25 32 33 -42 -47 48 -49 0
-6610 -15 0
-6610 -19 0
-6610 25 0
-6610 -32 0
-6610 -33 0
-6610 42 0
-6610 47 0
-6610 -48 0
-6610 49 0
6610 15 19 -25 32 33 -42 -47 48 -49 0
-6611 -15 0
-6611 25 0
-6611 -32 0
-6611 -33 0
-6611 -39 0
-6611 42 0
-6611 47 0
-6611 -48 0
-6611 49 0
6611 15 -25 32 33 39 -42 -47 48 -49 0
-6612 -15 0
-6612 25 0
-6612 -32 0
-6612 -33 0
-6612 42 0
-6612 47 0
-6612 -48 0
-6612 49 0
-6612 116 0
6612 15 -25 32 33 -42 -47 48 -49 -116 0
-6613 -15 0
-6613 -16 0
-6613 -17 0
-6613 19 0
-6613 25 0
-6613 32 0
-6613 -33 0
-6613 39 0
-6613 42 0
-6613 47 0
-6613 -48 0
-6613 49 0
-6613 -116 0
6613 15 16 17 -19 -25 -32 33 -39 -42 -47 48 -49 116 0
-6614 15 0
-6614 17 0
-6614 25 0
-6614 32 0
-6614 -33 0
-6614 42 0
-6614 47 0
-6614 -48 0
-6614 49 0
6614 -15 -17 -25 -32 33 -42 -47 48 -49 0
-6615 15 0
-6615 -19 0
-6615 25 0
-6615 32 0
-6615 -33 0
-6615 42 0
-6615 47 0
-6615 -48 0
-6615 49 0
6615 -15 19 -25 -32 33 -42 -47 48 -49 0
-6616 15 0
-6616 25 0
-6616 32 0
-6616 -33 0
-6616 -39 0
-6616 42 0
-6616 47 0
-6616 -48 0
-6616 49 0
6616 -15 -25 -32 33 39 -42 -47 48 -49 0
-6617 15 0
-6617 25 0
-6617 32 0
-6617 -33 0
-6617 42 0
-6617 47 0
-6617 -48 0
-6617 49 0
-6617 116 0
6617 -15 -25 -32 33 -42 -47 48 -49 -116 0
-6618 15 0
-6618 -16 0
-6618 -17 0
-6618 19 0
-6618 -25 0
-6618 32 0
-6618 -33 0
-6618 39 0
-6618 42 0
-6618 47 0
-6618 -48 0
-6618 49 0
-6618 -116 0
6618 -15 16 17 -19 25 -32 33 -39 -42 -47 48 -49 116 0
-6619 -15 0
-6619 17 0
-6619 -25 0
-6619 32 0
-6619 -33 0
-6619 42 0
-6619 47 0
-6619 -48 0
-6619 49 0
6619 15 -17 25 -32 33 -42 -47 48 -49 0
-6620 -15 0
-6620 -19 0
-6620 -25 0
-6620 32 0
-6620 -33 0
-6620 42 0
-6620 47 0
-6620 -48 0
-6620 49 0
6620 15 19 25 -32 33 -42 -47 48 -49 0
-6621 -15 0
-6621 -25 0
-6621 32 0
-6621 -33 0
-6621 -39 0
-6621 42 0
-6621 47 0
-6621 -48 0
-6621 49 0
6621 15 25 -32 33 39 -42 -47 48 -49 0
-6622 -15 0
-6622 -25 0
-6622 32 0
-6622 -33 0
-6622 42 0
-6622 47 0
-6622 -48 0
-6622 49 0
-6622 116 0
6622 15 25 -32 33 -42 -47 48 -49 -116 0
-6623 -15 0
-6623 -16 0
-6623 -17 0
-6623 19 0
-6623 -25 0
-6623 32 0
-6623 -33 0
-6623 39 0
-6623 -42 0
-6623 47 0
-6623 -48 0
-6623 49 0
-6623 -116 0
6623 15 16 17 -19 25 -32 33 -39 42 -47 48 -49 116 0
-6624 15 0
-6624 17 0
-6624 -25 0
-6624 32 0
-6624 -33 0
-6624 -42 0
-6624 47 0
-6624 -48 0
-6624 49 0
6624 -15 -17 25 -32 33 42 -47 48 -49 0
-6625 15 0
-6625 -19 0
-6625 -25 0
-6625 32 0
-6625 -33 0
-6625 -42 0
-6625 47 0
-6625 -48 0
-6625 49 0
6625 -15 19 25 -32 33 42 -47 48 -49 0
-6626 15 0
-6626 -25 0
-6626 32 0
-6626 -33 0
-6626 -39 0
-6626 -42 0
-6626 47 0
-6626 -48 0
-6626 49 0
6626 -15 25 -32 33 39 42 -47 48 -49 0
-6627 15 0
-6627 -25 0
-6627 32 0
-6627 -33 0
-6627 -42 0
-6627 47 0
-6627 -48 0
-6627 49 0
-6627 116 0
6627 -15 25 -32 33 42 -47 48 -49 -116 0
-6628 15 0
-6628 -16 0
-6628 -17 0
-6628 19 0
-6628 25 0
-6628 32 0
-6628 -33 0
-6628 39 0
-6628 -42 0
-6628 47 0
-6628 -48 0
-6628 49 0
-6628 -116 0
6628 -15 16 17 -19 -25 -32 33 -39 42 -47 48 -49 116 0
-6629 -15 0
-6629 17 0
-6629 25 0
-6629 32 0
-6629 -33 0
-6629 -42 0
-6629 47 0
-6629 -48 0
-6629 49 0
6629 15 -17 -25 -32 33 42 -47 48 -49 0
-6630 -15 0
-6630 -19 0
-6630 25 0
-6630 32 0
-6630 -33 0
-6630 -42 0
-6630 47 0
-6630 -48 0
-6630 49 0
6630 15 19 -25 -32 33 42 -47 48 -49 0
-6631 -15 0
-6631 25 0
-6631 32 0
-6631 -33 0
-6631 -39 0
-6631 -42 0
-6631 47 0
-6631 -48 0
-6631 49 0
6631 15 -25 -32 33 39 42 -47 48 -49 0
-6632 -15 0
-6632 25 0
-6632 32 0
-6632 -33 0
-6632 -42 0
-6632 47 0
-6632 -48 0
-6632 49 0
-6632 116 0
6632 15 -25 -32 33 42 -47 48 -49 -116 0
-6633 -15 0
-6633 -16 0
-6633 -17 0
-6633 19 0
-6633 25 0
-6633 -32 0
-6633 -33 0
-6633 39 0
-6633 -42 0
-6633 47 0
-6633 -48 0
-6633 49 0
-6633 -116 0
6633 15 16 17 -19 -25 32 33 -39 42 -47 48 -49 116 0
-6634 15 0
-6634 17 0
-6634 25 0
-6634 -32 0
-6634 -33 0
-6634 -42 0
-6634 47 0
-6634 -48 0
-6634 49 0
6634 -15 -17 -25 32 33 42 -47 48 -49 0
-6635 15 0
-6635 -19 0
-6635 25 0
-6635 -32 0
-6635 -33 0
-6635 -42 0
-6635 47 0
-6635 -48 0
-6635 49 0
6635 -15 19 -25 32 33 42 -47 48 -49 0
-6636 15 0
-6636 25 0
-6636 -32 0
-6636 -33 0
-6636 -39 0
-6636 -42 0
-6636 47 0
-6636 -48 0
-6636 49 0
6636 -15 -25 32 33 39 42 -47 48 -49 0
-6637 15 0
-6637 25 0
-6637 -32 0
-6637 -33 0
-6637 -42 0
-6637 47 0
-6637 -48 0
-6637 49 0
-6637 116 0
6637 -15 -25 32 33 42 -47 48 -49 -116 0
-6638 15 0
-6638 -16 0
-6638 -17 0
-6638 19 0
-6638 -25 0
-6638 -32 0
-6638 -33 0
-6638 39 0
-6638 -42 0
-6638 47 0
-6638 -48 0
-6638 49 0
-6638 -116 0
6638 -15 16 17 -19 25 32 33 -39 42 -47 48 -49 116 0
-6639 -15 0
-6639 17 0
-6639 -25 0
-6639 -32 0
-6639 -33 0
-6639 -42 0
-6639 47 0
-6639 -48 0
-6639 49 0
6639 15 -17 25 32 33 42 -47 48 -49 0
-6640 -15 0
-6640 -25 0
-6640 -32 0
-6640 -33 0
-6640 -39 0
-6640 -42 0
-6640 47 0
-6640 -48 0
-6640 49 0
6640 15 25 32 33 39 42 -47 48 -49 0
-6641 -15 0
-6641 -25 0
-6641 -32 0
-6641 -33 0
-6641 -42 0
-6641 47 0
-6641 -48 0
-6641 49 0
-6641 116 0
6641 15 25 32 33 42 -47 48 -49 -116 0
-6642 -15 0
-6642 -16 0
-6642 -17 0
-6642 19 0
-6642 -25 0
-6642 -32 0
-6642 33 0
-6642 39 0
-6642 -42 0
-6642 47 0
-6642 -48 0
-6642 49 0
-6642 -116 0
6642 15 16 17 -19 25 32 -33 -39 42 -47 48 -49 116 0
-6643 15 0
-6643 17 0
-6643 -25 0
-6643 -32 0
-6643 33 0
-6643 -42 0
-6643 47 0
-6643 -48 0
-6643 49 0
6643 -15 -17 25 32 -33 42 -47 48 -49 0
-6644 15 0
-6644 -19 0
-6644 -25 0
-6644 -32 0
-6644 33 0
-6644 -42 0
-6644 47 0
-6644 -48 0
-6644 49 0
6644 -15 19 25 32 -33 42 -47 48 -49 0
-6645 15 0
-6645 -25 0
-6645 -32 0
-6645 33 0
-6645 -39 0
-6645 -42 0
-6645 47 0
-6645 -48 0
-6645 49 0
6645 -15 25 32 -33 39 42 -47 48 -49 0
-6646 15 0
-6646 -25 0
-6646 -32 0
-6646 33 0
-6646 -42 0
-6646 47 0
-6646 -48 0
-6646 49 0
-6646 116 0
6646 -15 25 32 -33 42 -47 48 -49 -116 0
-6647 15 0
-6647 -16 0
-6647 -17 0
-6647 19 0
-6647 25 0
-6647 -32 0
-6647 33 0
-6647 39 0
-6647 -42 0
-6647 47 0
-6647 -48 0
-6647 49 0
-6647 -116 0
6647 -15 16 17 -19 -25 32 -33 -39 42 -47 48 -49 116 0
-6648 -15 0
-6648 17 0
-6648 25 0
-6648 -32 0
-6648 33 0
-6648 -42 0
-6648 47 0
-6648 -48 0
-6648 49 0
6648 15 -17 -25 32 -33 42 -47 48 -49 0
-6649 -15 0
-6649 -19 0
-6649 25 0
-6649 -32 0
-6649 33 0
-6649 -42 0
-6649 47 0
-6649 -48 0
-6649 49 0
6649 15 19 -25 32 -33 42 -47 48 -49 0
-6650 -15 0
-6650 25 0
-6650 -32 0
-6650 33 0
-6650 -39 0
-6650 -42 0
-6650 47 0
-6650 -48 0
-6650 49 0
6650 15 -25 32 -33 39 42 -47 48 -49 0
-6651 -15 0
-6651 25 0
-6651 -32 0
-6651 33 0
-6651 -42 0
-6651 47 0
-6651 -48 0
-6651 49 0
-6651 116 0
6651 15 -25 32 -33 42 -47 48 -49 -116 0
-6652 -15 0
-6652 -16 0
-6652 -17 0
-6652 19 0
-6652 25 0
-6652 32 0
-6652 33 0
-6652 39 0
-6652 -42 0
-6652 47 0
-6652 -48 0
-6652 49 0
-6652 -116 0
6652 15 16 17 -19 -25 -32 -33 -39 42 -47 48 -49 116 0
-6653 15 0
-6653 17 0
-6653 25 0
-6653 32 0
-6653 33 0
-6653 -42 0
-6653 47 0
-6653 -48 0
-6653 49 0
6653 -15 -17 -25 -32 -33 42 -47 48 -49 0
-6654 15 0
-6654 -19 0
-6654 25 0
-6654 32 0
-6654 33 0
-6654 -42 0
-6654 47 0
-6654 -48 0
-6654 49 0
6654 -15 19 -25 -32 -33 42 -47 48 -49 0
-6655 15 0
-6655 25 0
-6655 32 0
-6655 33 0
-6655 -39 0
-6655 -42 0
-6655 47 0
-6655 -48 0
-6655 49 0
6655 -15 -25 -32 -33 39 42 -47 48 -49 0
-6656 15 0
-6656 25 0
-6656 32 0
-6656 33 0
-6656 -42 0
-6656 47 0
-6656 -48 0
-6656 49 0
-6656 116 0
6656 -15 -25 -32 -33 42 -47 48 -49 -116 0
-6657 15 0
-6657 -16 0
-6657 -17 0
-6657 19 0
-6657 -25 0
-6657 32 0
-6657 33 0
-6657 39 0
-6657 -42 0
-6657 47 0
-6657 -48 0
-6657 49 0
-6657 -116 0
6657 -15 16 17 -19 25 -32 -33 -39 42 -47 48 -49 116 0
-6658 -15 0
-6658 17 0
-6658 -25 0
-6658 32 0
-6658 33 0
-6658 -42 0
-6658 47 0
-6658 -48 0
-6658 49 0
6658 15 -17 25 -32 -33 42 -47 48 -49 0
-6659 -15 0
-6659 -19 0
-6659 -25 0
-6659 32 0
-6659 33 0
-6659 -42 0
-6659 47 0
-6659 -48 0
-6659 49 0
6659 15 19 25 -32 -33 42 -47 48 -49 0
-6660 -15 0
-6660 -25 0
-6660 32 0
-6660 33 0
-6660 -39 0
-6660 -42 0
-6660 47 0
-6660 -48 0
-6660 49 0
6660 15 25 -32 -33 39 42 -47 48 -49 0
-6661 -15 0
-6661 -25 0
-6661 32 0
-6661 33 0
-6661 -42 0
-6661 47 0
-6661 -48 0
-6661 49 0
-6661 116 0
6661 15 25 -32 -33 42 -47 48 -49 -116 0
-6662 -15 0
-6662 -16 0
-6662 -17 0
-6662 19 0
-6662 -25 0
-6662 32 0
-6662 33 0
-6662 39 0
-6662 -42 0
-6662 47 0
-6662 -48 0
-6662 -49 0
-6662 -116 0
6662 15 16 17 -19 25 -32 -33 -39 42 -47 48 49 116 0
-6663 15 0
-6663 17 0
-6663 -25 0
-6663 32 0
-6663 33 0
-6663 -42 0
-6663 47 0
-6663 -48 0
-6663 -49 0
6663 -15 -17 25 -32 -33 42 -47 48 49 0
-6664 15 0
-6664 -19 0
-6664 -25 0
-6664 32 0
-6664 33 0
-6664 -42 0
-6664 47 0
-6664 -48 0
-6664 -49 0
6664 -15 19 25 -32 -33 42 -47 48 49 0
-6665 15 0
-6665 -25 0
-6665 32 0
-6665 33 0
-6665 -39 0
-6665 -42 0
-6665 47 0
-6665 -48 0
-6665 -49 0
6665 -15 25 -32 -33 39 42 -47 48 49 0
-6666 15 0
-6666 -25 0
-6666 32 0
-6666 33 0
-6666 -42 0
-6666 47 0
-6666 -48 0
-6666 -49 0
-6666 116 0
6666 -15 25 -32 -33 42 -47 48 49 -116 0
-6667 15 0
-6667 -16 0
-6667 -17 0
-6667 19 0
-6667 25 0
-6667 32 0
-6667 33 0
-6667 39 0
-6667 -42 0
-6667 47 0
-6667 -48 0
-6667 -49 0
-6667 -116 0
6667 -15 16 17 -19 -25 -32 -33 -39 42 -47 48 49 116 0
-6668 -15 0
-6668 17 0
-6668 25 0
-6668 32 0
-6668 33 0
-6668 -42 0
-6668 47 0
-6668 -48 0
-6668 -49 0
6668 15 -17 -25 -32 -33 42 -47 48 49 0
-6669 -15 0
-6669 -19 0
-6669 25 0
-6669 32 0
-6669 33 0
-6669 -42 0
-6669 47 0
-6669 -48 0
-6669 -49 0
6669 15 19 -25 -32 -33 42 -47 48 49 0
-6670 -15 0
-6670 25 0
-6670 32 0
-6670 33 0
-6670 -39 0
-6670 -42 0
-6670 47 0
-6670 -48 0
-6670 -49 0
6670 15 -25 -32 -33 39 42 -47 48 49 0
-6671 -15 0
-6671 25 0
-6671 32 0
-6671 33 0
-6671 -42 0
-6671 47 0
-6671 -48 0
-6671 -49 0
-6671 116 0
6671 15 -25 -32 -33 42 -47 48 49 -116 0
-6672 -15 0
-6672 -16 0
-6672 -17 0
-6672 19 0
-6672 25 0
-6672 -32 0
-6672 33 0
-6672 39 0
-6672 -42 0
-6672 47 0
-6672 -48 0
-6672 -49 0
-6672 -116 0
6672 15 16 17 -19 -25 32 -33 -39 42 -47 48 49 116 0
-6673 15 0
-6673 17 0
-6673 25 0
-6673 -32 0
-6673 33 0
-6673 -42 0
-6673 47 0
-6673 -48 0
-6673 -49 0
6673 -15 -17 -25 32 -33 42 -47 48 49 0
-6674 15 0
-6674 -19 0
-6674 25 0
-6674 -32 0
-6674 33 0
-6674 -42 0
-6674 47 0
-6674 -48 0
-6674 -49 0
6674 -15 19 -25 32 -33 42 -47 48 49 0
-6675 15 0
-6675 25 0
-6675 -32 0
-6675 33 0
-6675 -39 0
-6675 -42 0
-6675 47 0
-6675 -48 0
-6675 -49 0
6675 -15 -25 32 -33 39 42 -47 48 49 0
-6676 15 0
-6676 25 0
-6676 -32 0
-6676 33 0
-6676 -42 0
-6676 47 0
-6676 -48 0
-6676 -49 0
-6676 116 0
6676 -15 -25 32 -33 42 -47 48 49 -116 0
-6677 15 0
-6677 -16 0
-6677 -17 0
-6677 19 0
-6677 -25 0
-6677 -32 0
-6677 33 0
-6677 39 0
-6677 -42 0
-6677 47 0
-6677 -48 0
-6677 -49 0
-6677 -116 0
6677 -15 16 17 -19 25 32 -33 -39 42 -47 48 49 116 0
-6678 -15 0
-6678 17 0
-6678 -25 0
-6678 -32 0
-6678 33 0
-6678 -42 0
-6678 47 0
-6678 -48 0
-6678 -49 0
6678 15 -17 25 32 -33 42 -47 48 49 0
-6679 -15 0
-6679 -19 0
-6679 -25 0
-6679 -32 0
-6679 33 0
-6679 -42 0
-6679 47 0
-6679 -48 0
-6679 -49 0
6679 15 19 25 32 -33 42 -47 48 49 0
-6680 -15 0
-6680 -25 0
-6680 -32 0
-6680 33 0
-6680 -39 0
-6680 -42 0
-6680 47 0
-6680 -48 0
-6680 -49 0
6680 15 25 32 -33 39 42 -47 48 49 0
-6681 -15 0
-6681 -25 0
-6681 -32 0
-6681 33 0
-6681 -42 0
-6681 47 0
-6681 -48 0
-6681 -49 0
-6681 116 0
6681 15 25 32 -33 42 -47 48 49 -116 0
-6682 -15 0
-6682 -16 0
-6682 -17 0
-6682 19 0
-6682 -25 0
-6682 -32 0
-6682 -33 0
-6682 39 0
-6682 -42 0
-6682 47 0
-6682 -48 0
-6682 -49 0
-6682 -116 0
6682 15 16 17 -19 25 32 33 -39 42 -47 48 49 116 0
-6683 15 0
-6683 17 0
-6683 -25 0
-6683 -32 0
-6683 -33 0
-6683 -42 0
-6683 47 0
-6683 -48 0
-6683 -49 0
6683 -15 -17 25 32 33 42 -47 48 49 0
-6684 15 0
-6684 -19 0
-6684 -25 0
-6684 -32 0
-6684 -33 0
-6684 -42 0
-6684 47 0
-6684 -48 0
-6684 -49 0
6684 -15 19 25 32 33 42 -47 48 49 0
-6685 15 0
-6685 -25 0
-6685 -32 0
-6685 -33 0
-6685 -39 0
-6685 -42 0
-6685 47 0
-6685 -48 0
-6685 -49 0
6685 -15 25 32 33 39 42 -47 48 49 0
-6686 15 0
-6686 -25 0
-6686 -32 0
-6686 -33 0
-6686 -42 0
-6686 47 0
-6686 -48 0
-6686 -49 0
-6686 116 0
6686 -15 25 32 33 42 -47 48 49 -116 0
-6687 15 0
-6687 -16 0
-6687 -17 0
-6687 19 0
-6687 25 0
-6687 -32 0
-6687 -33 0
-6687 39 0
-6687 -42 0
-6687 47 0
-6687 -48 0
-6687 -49 0
-6687 -116 0
6687 -15 16 17 -19 -25 32 33 -39 42 -47 48 49 116 0
-6688 -15 0
-6688 17 0
-6688 25 0
-6688 -32 0
-6688 -33 0
-6688 -42 0
-6688 47 0
-6688 -48 0
-6688 -49 0
6688 15 -17 -25 32 33 42 -47 48 49 0
-6689 -15 0
-6689 -19 0
-6689 25 0
-6689 -32 0
-6689 -33 0
-6689 -42 0
-6689 47 0
-6689 -48 0
-6689 -49 0
6689 15 19 -25 32 33 42 -47 48 49 0
-6690 -15 0
-6690 25 0
-6690 -32 0
-6690 -33 0
-6690 -39 0
-6690 -42 0
-6690 47 0
-6690 -48 0
-6690 -49 0
6690 15 -25 32 33 39 42 -47 48 49 0
-6691 -15 0
-6691 25 0
-6691 -32 0
-6691 -33 0
-6691 -42 0
-6691 47 0
-6691 -48 0
-6691 -49 0
-6691 116 0
6691 15 -25 32 33 42 -47 48 49 -116 0
-6692 -15 0
-6692 -16 0
-6692 -17 0
-6692 19 0
-6692 25 0
-6692 32 0
-6692 -33 0
-6692 39 0
-6692 -42 0
-6692 47 0
-6692 -48 0
-6692 -49 0
-6692 -116 0
6692 15 16 17 -19 -25 -32 33 -39 42 -47 48 49 116 0
-6693 15 0
-6693 17 0
-6693 25 0
-6693 32 0
-6693 -33 0
-6693 -42 0
-6693 47 0
-6693 -48 0
-6693 -49 0
6693 -15 -17 -25 -32 33 42 -47 48 49 0
-6694 15 0
-6694 -19 0
-6694 25 0
-6694 32 0
-6694 -33 0
-6694 -42 0
-6694 47 0
-6694 -48 0
-6694 -49 0
6694 -15 19 -25 -32 33 42 -47 48 49 0
-6695 15 0
-6695 25 0
-6695 32 0
-6695 -33 0
-6695 -39 0
-6695 -42 0
-6695 47 0
-6695 -48 0
-6695 -49 0
6695 -15 -25 -32 33 39 42 -47 48 49 0
-6696 15 0
-6696 25 0
-6696 32 0
-6696 -33 0
-6696 -42 0
-6696 47 0
-6696 -48 0
-6696 -49 0
-6696 116 0
6696 -15 -25 -32 33 42 -47 48 49 -116 0
-6697 15 0
-6697 -16 0
-6697 -17 0
-6697 19 0
-6697 -25 0
-6697 32 0
-6697 -33 0
-6697 39 0
-6697 -42 0
-6697 47 0
-6697 -48 0
-6697 -49 0
-6697 -116 0
6697 -15 16 17 -19 25 -32 33 -39 42 -47 48 49 116 0
-6698 -15 0
-6698 17 0
-6698 -25 0
-6698 32 0
-6698 -33 0
-6698 -42 0
-6698 47 0
-6698 -48 0
-6698 -49 0
6698 15 -17 25 -32 33 42 -47 48 49 0
-6699 -15 0
-6699 -19 0
-6699 -25 0
-6699 32 0
-6699 -33 0
-6699 -42 0
-6699 47 0
-6699 -48 0
-6699 -49 0
6699 15 19 25 -32 33 42 -47 48 49 0
-6700 -15 0
-6700 -25 0
-6700 32 0
-6700 -33 0
-6700 -39 0
-6700 -42 0
-6700 47 0
-6700 -48 0
-6700 -49 0
6700 15 25 -32 33 39 42 -47 48 49 0
-6701 -15 0
-6701 -25 0
-6701 32 0
-6701 -33 0
-6701 -42 0
-6701 47 0
-6701 -48 0
-6701 -49 0
-6701 116 0
6701 15 25 -32 33 42 -47 48 49 -116 0
-6702 -15 0
-6702 -16 0
-6702 -17 0
-6702 19 0
-6702 -25 0
-6702 32 0
-6702 -33 0
-6702 39 0
-6702 42 0
-6702 47 0
-6702 -48 0
-6702 -49 0
-6702 -116 0
6702 15 16 17 -19 25 -32 33 -39 -42 -47 48 49 116 0
-6703 15 0
-6703 17 0
-6703 -25 0
-6703 32 0
-6703 -33 0
-6703 42 0
-6703 47 0
-6703 -48 0
-6703 -49 0
6703 -15 -17 25 -32 33 -42 -47 48 49 0
-6704 15 0
-6704 -19 0
-6704 -25 0
-6704 32 0
-6704 -33 0
-6704 42 0
-6704 47 0
-6704 -48 0
-6704 -49 0
6704 -15 19 25 -32 33 -42 -47 48 49 0
-6705 15 0
-6705 -25 0
-6705 32 0
-6705 -33 0
-6705 -39 0
-6705 42 0
-6705 47 0
-6705 -48 0
-6705 -49 0
6705 -15 25 -32 33 39 -42 -47 48 49 0
-6706 15 0
-6706 -25 0
-6706 32 0
-6706 -33 0
-6706 42 0
-6706 47 0
-6706 -48 0
-6706 -49 0
-6706 116 0
6706 -15 25 -32 33 -42 -47 48 49 -116 0
-6707 15 0
-6707 -16 0
-6707 -17 0
-6707 19 0
-6707 25 0
-6707 32 0
-6707 -33 0
-6707 39 0
-6707 42 0
-6707 47 0
-6707 -48 0
-6707 -49 0
-6707 -116 0
6707 -15 16 17 -19 -25 -32 33 -39 -42 -47 48 49 116 0
-6708 -15 0
-6708 17 0
-6708 25 0
-6708 32 0
-6708 -33 0
-6708 42 0
-6708 47 0
-6708 -48 0
-6708 -49 0
6708 15 -17 -25 -32 33 -42 -47 48 49 0
-6709 -15 0
-6709 -19 0
-6709 25 0
-6709 32 0
-6709 -33 0
-6709 42 0
-6709 47 0
-6709 -48 0
-6709 -49 0
6709 15 19 -25 -32 33 -42 -47 48 49 0
-6710 -15 0
-6710 25 0
-6710 32 0
-6710 -33 0
-6710 -39 0
-6710 42 0
-6710 47 0
-6710 -48 0
-6710 -49 0
6710 15 -25 -32 33 39 -42 -47 48 49 0
-6711 -15 0
-6711 25 0
-6711 32 0
-6711 -33 0
-6711 42 0
-6711 47 0
-6711 -48 0
-6711 -49 0
-6711 116 0
6711 15 -25 -32 33 -42 -47 48 49 -116 0
-6712 -15 0
-6712 -16 0
-6712 -17 0
-6712 19 0
-6712 25 0
-6712 -32 0
-6712 -33 0
-6712 39 0
-6712 42 0
-6712 47 0
-6712 -48 0
-6712 -49 0
-6712 -116 0
6712 15 16 17 -19 -25 32 33 -39 -42 -47 48 49 116 0
-6713 15 0
-6713 17 0
-6713 25 0
-6713 -32 0
-6713 -33 0
-6713 42 0
-6713 47 0
-6713 -48 0
-6713 -49 0
6713 -15 -17 -25 32 33 -42 -47 48 49 0
-6714 15 0
-6714 -19 0
-6714 25 0
-6714 -32 0
-6714 -33 0
-6714 42 0
-6714 47 0
-6714 -48 0
-6714 -49 0
6714 -15 19 -25 32 33 -42 -47 48 49 0
-6715 15 0
-6715 25 0
-6715 -32 0
-6715 -33 0
-6715 -39 0
-6715 42 0
-6715 47 0
-6715 -48 0
-6715 -49 0
6715 -15 -25 32 33 39 -42 -47 48 49 0
-6716 15 0
-6716 25 0
-6716 -32 0
-6716 -33 0
-6716 42 0
-6716 47 0
-6716 -48 0
-6716 -49 0
-6716 116 0
6716 -15 -25 32 33 -42 -47 48 49 -116 0
-6717 15 0
-6717 -16 0
-6717 -17 0
-6717 19 0
-6717 -25 0
-6717 -32 0
-6717 -33 0
-6717 39 0
-6717 42 0
-6717 47 0
-6717 -48 0
-6717 -49 0
-6717 -116 0
6717 -15 16 17 -19 25 32 33 -39 -42 -47 48 49 116 0
-6718 -15 0
-6718 17 0
-6718 -25 0
-6718 -32 0
-6718 -33 0
-6718 42 0
-6718 47 0
-6718 -48 0
-6718 -49 0
6718 15 -17 25 32 33 -42 -47 48 49 0
-6719 -15 0
-6719 -19 0
-6719 -25 0
-6719 -32 0
-6719 -33 0
-6719 42 0
-6719 47 0
-6719 -48 0
-6719 -49 0
6719 15 19 25 32 33 -42 -47 48 49 0
-6720 -15 0
-6720 -25 0
-6720 -32 0
-6720 -33 0
-6720 -39 0
-6720 42 0
-6720 47 0
-6720 -48 0
-6720 -49 0
6720 15 25 32 33 39 -42 -47 48 49 0
-6721 -15 0
-6721 -25 0
-6721 -32 0
-6721 -33 0
-6721 42 0
-6721 47 0
-6721 -48 0
-6721 -49 0
-6721 116 0
6721 15 25 32 33 -42 -47 48 49 -116 0
-6722 -15 0
-6722 -16 0
-6722 -17 0
-6722 19 0
-6722 -25 0
-6722 -32 0
-6722 33 0
-6722 39 0
-6722 42 0
-6722 47 0
-6722 -48 0
-6722 -49 0
-6722 -116 0
6722 15 16 17 -19 25 32 -33 -39 -42 -47 48 49 116 0
-6723 15 0
-6723 17 0
-6723 -25 0
-6723 -32 0
-6723 33 0
-6723 42 0
-6723 47 0
-6723 -48 0
-6723 -49 0
6723 -15 -17 25 32 -33 -42 -47 48 49 0
-6724 15 0
-6724 -19 0
-6724 -25 0
-6724 -32 0
-6724 33 0
-6724 42 0
-6724 47 0
-6724 -48 0
-6724 -49 0
6724 -15 19 25 32 -33 -42 -47 48 49 0
-6725 15 0
-6725 -25 0
-6725 -32 0
-6725 33 0
-6725 -39 0
-6725 42 0
-6725 47 0
-6725 -48 0
-6725 -49 0
6725 -15 25 32 -33 39 -42 -47 48 49 0
-6726 15 0
-6726 -25 0
-6726 -32 0
-6726 33 0
-6726 42 0
-6726 47 0
-6726 -48 0
-6726 -49 0
-6726 116 0
6726 -15 25 32 -33 -42 -47 48 49 -116 0
-6727 15 0
-6727 -16 0
-6727 -17 0
-6727 19 0
-6727 25 0
-6727 -32 0
-6727 33 0
-6727 39 0
-6727 42 0
-6727 47 0
-6727 -48 0
-6727 -49 0
-6727 -116 0
6727 -15 16 17 -19 -25 32 -33 -39 -42 -47 48 49 116 0
-6728 -15 0
-6728 17 0
-6728 25 0
-6728 -32 0
-6728 33 0
-6728 42 0
-6728 47 0
-6728 -48 0
-6728 -49 0
6728 15 -17 -25 32 -33 -42 -47 48 49 0
-6729 -15 0
-6729 -19 0
-6729 25 0
-6729 -32 0
-6729 33 0
-6729 42 0
-6729 47 0
-6729 -48 0
-6729 -49 0
6729 15 19 -25 32 -33 -42 -47 48 49 0
-6730 -15 0
-6730 25 0
-6730 -32 0
-6730 33 0
-6730 -39 0
-6730 42 0
-6730 47 0
-6730 -48 0
-6730 -49 0
6730 15 -25 32 -33 39 -42 -47 48 49 0
-6731 -15 0
-6731 25 0
-6731 -32 0
-6731 33 0
-6731 42 0
-6731 47 0
-6731 -48 0
-6731 -49 0
-6731 116 0
6731 15 -25 32 -33 -42 -47 48 49 -116 0
-6732 -15 0
-6732 -16 0
-6732 -17 0
-6732 19 0
-6732 25 0
-6732 32 0
-6732 33 0
-6732 39 0
-6732 42 0
-6732 47 0
-6732 -48 0
-6732 -49 0
-6732 -116 0
6732 15 16 17 -19 -25 -32 -33 -39 -42 -47 48 49 116 0
-6733 15 0
-6733 -19 0
-6733 25 0
-6733 32 0
-6733 33 0
-6733 42 0
-6733 47 0
-6733 -48 0
-6733 -49 0
6733 -15 19 -25 -32 -33 -42 -47 48 49 0
-6734 15 0
-6734 25 0
-6734 32 0
-6734 33 0
-6734 -39 0
-6734 42 0
-6734 47 0
-6734 -48 0
-6734 -49 0
6734 -15 -25 -32 -33 39 -42 -47 48 49 0
-6735 15 0
-6735 25 0
-6735 32 0
-6735 33 0
-6735 42 0
-6735 47 0
-6735 -48 0
-6735 -49 0
-6735 116 0
6735 -15 -25 -32 -33 -42 -47 48 49 -116 0
-6736 15 0
-6736 -16 0
-6736 -17 0
-6736 19 0
-6736 -25 0
-6736 32 0
-6736 33 0
-6736 39 0
-6736 42 0
-6736 47 0
-6736 -48 0
-6736 -49 0
-6736 -116 0
6736 -15 16 17 -19 25 -32 -33 -39 -42 -47 48 49 116 0
-6737 -15 0
-6737 17 0
-6737 -25 0
-6737 32 0
-6737 33 0
-6737 42 0
-6737 47 0
-6737 -48 0
-6737 -49 0
6737 15 -17 25 -32 -33 -42 -47 48 49 0
-6738 -15 0
-6738 -19 0
-6738 -25 0
-6738 32 0
-6738 33 0
-6738 42 0
-6738 47 0
-6738 -48 0
-6738 -49 0
6738 15 19 25 -32 -33 -42 -47 48 49 0
-6739 -15 0
-6739 -25 0
-6739 32 0
-6739 33 0
-6739 -39 0
-6739 42 0
-6739 47 0
-6739 -48 0
-6739 -49 0
6739 15 25 -32 -33 39 -42 -47 48 49 0
-6740 -15 0
-6740 -25 0
-6740 32 0
-6740 33 0
-6740 42 0
-6740 47 0
-6740 -48 0
-6740 -49 0
-6740 116 0
6740 15 25 -32 -33 -42 -47 48 49 -116 0
-6741 -15 0
-6741 -16 0
-6741 -17 0
-6741 19 0
-6741 -25 0
-6741 32 0
-6741 33 0
-6741 39 0
-6741 42 0
-6741 -47 0
-6741 -48 0
-6741 -49 0
-6741 -116 0
6741 15 16 17 -19 25 -32 -33 -39 -42 47 48 49 116 0
-6742 15 0
-6742 17 0
-6742 -25 0
-6742 32 0
-6742 33 0
-6742 42 0
-6742 -47 0
-6742 -48 0
-6742 -49 0
6742 -15 -17 25 -32 -33 -42 47 48 49 0
-6743 15 0
-6743 -19 0
-6743 -25 0
-6743 32 0
-6743 33 0
-6743 42 0
-6743 -47 0
-6743 -48 0
-6743 -49 0
6743 -15 19 25 -32 -33 -42 47 48 49 0
-6744 15 0
-6744 -25 0
-6744 32 0
-6744 33 0
-6744 -39 0
-6744 42 0
-6744 -47 0
-6744 -48 0
-6744 -49 0
6744 -15 25 -32 -33 39 -42 47 48 49 0
-6745 15 0
-6745 -25 0
-6745 32 0
-6745 33 0
-6745 42 0
-6745 -47 0
-6745 -48 0
-6745 -49 0
-6745 116 0
6745 -15 25 -32 -33 -42 47 48 49 -116 0
-6746 15 0
-6746 -16 0
-6746 -17 0
-6746 19 0
-6746 25 0
-6746 32 0
-6746 33 0
-6746 39 0
-6746 42 0
-6746 -47 0
-6746 -48 0
-6746 -49 0
-6746 -116 0
6746 -15 16 17 -19 -25 -32 -33 -39 -42 47 48 49 116 0
-6747 -15 0
-6747 17 0
-6747 25 0
-6747 32 0
-6747 33 0
-6747 42 0
-6747 -47 0
-6747 -48 0
-6747 -49 0
6747 15 -17 -25 -32 -33 -42 47 48 49 0
-6748 15 0
-6748 17 0
-6748 25 0
-6748 32 0
-6748 33 0
-6748 -42 0
-6748 47 0
-6748 48 0
-6748 -49 0
6748 -15 -17 -25 -32 -33 42 -47 -48 49 0
-6749 15 0
-6749 17 0
-6749 25 0
-6749 32 0
-6749 33 0
-6749 -42 0
-6749 -47 0
-6749 -48 0
-6749 -49 0
6749 -15 -17 -25 -32 -33 42 47 48 49 0
-6750 -15 0
-6750 -19 0
-6750 25 0
-6750 32 0
-6750 33 0
-6750 42 0
-6750 -47 0
-6750 -48 0
-6750 -49 0
6750 15 19 -25 -32 -33 -42 47 48 49 0
-6751 -15 0
-6751 25 0
-6751 32 0
-6751 33 0
-6751 -39 0
-6751 42 0
-6751 -47 0
-6751 -48 0
-6751 -49 0
6751 15 -25 -32 -33 39 -42 47 48 49 0
-6752 -15 0
-6752 25 0
-6752 32 0
-6752 33 0
-6752 42 0
-6752 -47 0
-6752 -48 0
-6752 -49 0
-6752 116 0
6752 15 -25 -32 -33 -42 47 48 49 -116 0
-6753 -15 0
-6753 -16 0
-6753 -17 0
-6753 19 0
-6753 25 0
-6753 -32 0
-6753 33 0
-6753 39 0
-6753 42 0
-6753 -47 0
-6753 -48 0
-6753 -49 0
-6753 -116 0
6753 15 16 17 -19 -25 32 -33 -39 -42 47 48 49 116 0
-6754 15 0
-6754 17 0
-6754 25 0
-6754 -32 0
-6754 33 0
-6754 42 0
-6754 -47 0
-6754 -48 0
-6754 -49 0
6754 -15 -17 -25 32 -33 -42 47 48 49 0
-6755 15 0
-6755 -19 0
-6755 25 0
-6755 -32 0
-6755 33 0
-6755 42 0
-6755 -47 0
-6755 -48 0
-6755 -49 0
6755 -15 19 -25 32 -33 -42 47 48 49 0
-6756 15 0
-6756 25 0
-6756 -32 0
-6756 33 0
-6756 -39 0
-6756 42 0
-6756 -47 0
-6756 -48 0
-6756 -49 0
6756 -15 -25 32 -33 39 -42 47 48 49 0
-6757 15 0
-6757 25 0
-6757 -32 0
-6757 33 0
-6757 42 0
-6757 -47 0
-6757 -48 0
-6757 -49 0
-6757 116 0
6757 -15 -25 32 -33 -42 47 48 49 -116 0
-6758 15 0
-6758 -16 0
-6758 -17 0
-6758 19 0
-6758 -25 0
-6758 -32 0
-6758 33 0
-6758 39 0
-6758 42 0
-6758 -47 0
-6758 -48 0
-6758 -49 0
-6758 -116 0
6758 -15 16 17 -19 25 32 -33 -39 -42 47 48 49 116 0
-6759 -15 0
-6759 17 0
-6759 -25 0
-6759 -32 0
-6759 33 0
-6759 42 0
-6759 -47 0
-6759 -48 0
-6759 -49 0
6759 15 -17 25 32 -33 -42 47 48 49 0
-6760 -15 0
-6760 -19 0
-6760 -25 0
-6760 -32 0
-6760 33 0
-6760 42 0
-6760 -47 0
-6760 -48 0
-6760 -49 0
6760 15 19 25 32 -33 -42 47 48 49 0
-6761 -15 0
-6761 -25 0
-6761 -32 0
-6761 33 0
-6761 -39 0
-6761 42 0
-6761 -47 0
-6761 -48 0
-6761 -49 0
6761 15 25 32 -33 39 -42 47 48 49 0
-6762 -15 0
-6762 -25 0
-6762 -32 0
-6762 33 0
-6762 42 0
-6762 -47 0
-6762 -48 0
-6762 -49 0
-6762 116 0
6762 15 25 32 -33 -42 47 48 49 -116 0
-6763 -15 0
-6763 -16 0
-6763 -17 0
-6763 19 0
-6763 -25 0
-6763 -32 0
-6763 -33 0
-6763 39 0
-6763 42 0
-6763 -47 0
-6763 -48 0
-6763 -49 0
-6763 -116 0
6763 15 16 17 -19 25 32 33 -39 -42 47 48 49 116 0
-6764 15 0
-6764 17 0
-6764 -25 0
-6764 -32 0
-6764 -33 0
-6764 42 0
-6764 -47 0
-6764 -48 0
-6764 -49 0
6764 -15 -17 25 32 33 -42 47 48 49 0
-6765 15 0
-6765 -19 0
-6765 -25 0
-6765 -32 0
-6765 -33 0
-6765 42 0
-6765 -47 0
-6765 -48 0
-6765 -49 0
6765 -15 19 25 32 33 -42 47 48 49 0
-6766 15 0
-6766 -25 0
-6766 -32 0
-6766 -33 0
-6766 -39 0
-6766 42 0
-6766 -47 0
-6766 -48 0
-6766 -49 0
6766 -15 25 32 33 39 -42 47 48 49 0
-6767 15 0
-6767 -25 0
-6767 -32 0
-6767 -33 0
-6767 42 0
-6767 -47 0
-6767 -48 0
-6767 -49 0
-6767 116 0
6767 -15 25 32 33 -42 47 48 49 -116 0
-6768 15 0
-6768 -16 0
-6768 -17 0
-6768 19 0
-6768 25 0
-6768 -32 0
-6768 -33 0
-6768 39 0
-6768 42 0
-6768 -47 0
-6768 -48 0
-6768 -49 0
-6768 -116 0
6768 -15 16 17 -19 -25 32 33 -39 -42 47 48 49 116 0
-6769 -15 0
-6769 17 0
-6769 25 0
-6769 -32 0
-6769 -33 0
-6769 42 0
-6769 -47 0
-6769 -48 0
-6769 -49 0
6769 15 -17 -25 32 33 -42 47 48 49 0
-6770 -15 0
-6770 -19 0
-6770 25 0
-6770 -32 0
-6770 -33 0
-6770 42 0
-6770 -47 0
-6770 -48 0
-6770 -49 0
6770 15 19 -25 32 33 -42 47 48 49 0
-6771 -15 0
-6771 25 0
-6771 -32 0
-6771 -33 0
-6771 -39 0
-6771 42 0
-6771 -47 0
-6771 -48 0
-6771 -49 0
6771 15 -25 32 33 39 -42 47 48 49 0
-6772 -15 0
-6772 25 0
-6772 -32 0
-6772 -33 0
-6772 42 0
-6772 -47 0
-6772 -48 0
-6772 -49 0
-6772 116 0
6772 15 -25 32 33 -42 47 48 49 -116 0
-6773 -15 0
-6773 -16 0
-6773 -17 0
-6773 19 0
-6773 25 0
-6773 32 0
-6773 -33 0
-6773 39 0
-6773 42 0
-6773 -47 0
-6773 -48 0
-6773 -49 0
-6773 -116 0
6773 15 16 17 -19 -25 -32 33 -39 -42 47 48 49 116 0
-6774 15 0
-6774 17 0
-6774 25 0
-6774 32 0
-6774 -33 0
-6774 42 0
-6774 -47 0
-6774 -48 0
-6774 -49 0
6774 -15 -17 -25 -32 33 -42 47 48 49 0
-6775 15 0
-6775 -19 0
-6775 25 0
-6775 32 0
-6775 -33 0
-6775 42 0
-6775 -47 0
-6775 -48 0
-6775 -49 0
6775 -15 19 -25 -32 33 -42 47 48 49 0
-6776 15 0
-6776 25 0
-6776 32 0
-6776 -33 0
-6776 -39 0
-6776 42 0
-6776 -47 0
-6776 -48 0
-6776 -49 0
6776 -15 -25 -32 33 39 -42 47 48 49 0
-6777 15 0
-6777 25 0
-6777 32 0
-6777 -33 0
-6777 42 0
-6777 -47 0
-6777 -48 0
-6777 -49 0
-6777 116 0
6777 -15 -25 -32 33 -42 47 48 49 -116 0
-6778 15 0
-6778 -16 0
-6778 -17 0
-6778 19 0
-6778 -25 0
-6778 32 0
-6778 -33 0
-6778 39 0
-6778 42 0
-6778 -47 0
-6778 -48 0
-6778 -49 0
-6778 -116 0
6778 -15 16 17 -19 25 -32 33 -39 -42 47 48 49 116 0
-6779 -15 0
-6779 17 0
-6779 -25 0
-6779 32 0
-6779 -33 0
-6779 42 0
-6779 -47 0
-6779 -48 0
-6779 -49 0
6779 15 -17 25 -32 33 -42 47 48 49 0
-6780 -15 0
-6780 -19 0
-6780 -25 0
-6780 32 0
-6780 -33 0
-6780 42 0
-6780 -47 0
-6780 -48 0
-6780 -49 0
6780 15 19 25 -32 33 -42 47 48 49 0
-6781 -15 0
-6781 -25 0
-6781 32 0
-6781 -33 0
-6781 -39 0
-6781 42 0
-6781 -47 0
-6781 -48 0
-6781 -49 0
6781 15 25 -32 33 39 -42 47 48 49 0
-6782 -15 0
-6782 -25 0
-6782 32 0
-6782 -33 0
-6782 42 0
-6782 -47 0
-6782 -48 0
-6782 -49 0
-6782 116 0
6782 15 25 -32 33 -42 47 48 49 -116 0
-6783 15 0
-6783 17 0
-6783 -25 0
-6783 32 0
-6783 -33 0
-6783 -42 0
-6783 -47 0
-6783 -48 0
-6783 -49 0
6783 -15 -17 25 -32 33 42 47 48 49 0
-6784 15 0
-6784 -19 0
-6784 -25 0
-6784 32 0
-6784 -33 0
-6784 -42 0
-6784 -47 0
-6784 -48 0
-6784 -49 0
6784 -15 19 25 -32 33 42 47 48 49 0
-6785 15 0
-6785 -25 0
-6785 32 0
-6785 -33 0
-6785 -39 0
-6785 -42 0
-6785 -47 0
-6785 -48 0
-6785 -49 0
6785 -15 25 -32 33 39 42 47 48 49 0
-6786 15 0
-6786 -25 0
-6786 32 0
-6786 -33 0
-6786 -42 0
-6786 -47 0
-6786 -48 0
-6786 -49 0
-6786 116 0
6786 -15 25 -32 33 42 47 48 49 -116 0
-6787 15 0
-6787 -16 0
-6787 -17 0
-6787 19 0
-6787 25 0
-6787 32 0
-6787 -33 0
-6787 39 0
-6787 -42 0
-6787 -47 0
-6787 -48 0
-6787 -49 0
-6787 -116 0
6787 -15 16 17 -19 -25 -32 33 -39 42 47 48 49 116 0
-6788 -15 0
-6788 17 0
-6788 25 0
-6788 32 0
-6788 -33 0
-6788 -42 0
-6788 -47 0
-6788 -48 0
-6788 -49 0
6788 15 -17 -25 -32 33 42 47 48 49 0
-6789 -15 0
-6789 -19 0
-6789 25 0
-6789 32 0
-6789 -33 0
-6789 -42 0
-6789 -47 0
-6789 -48 0
-6789 -49 0
6789 15 19 -25 -32 33 42 47 48 49 0
-6790 -15 0
-6790 25 0
-6790 32 0
-6790 -33 0
-6790 -39 0
-6790 -42 0
-6790 -47 0
-6790 -48 0
-6790 -49 0
6790 15 -25 -32 33 39 42 47 48 49 0
-6791 -15 0
-6791 25 0
-6791 32 0
-6791 -33 0
-6791 -42 0
-6791 -47 0
-6791 -48 0
-6791 -49 0
-6791 116 0
6791 15 -25 -32 33 42 47 48 49 -116 0
-6792 -15 0
-6792 -16 0
-6792 -17 0
-6792 19 0
-6792 25 0
-6792 -32 0
-6792 -33 0
-6792 39 0
-6792 -42 0
-6792 -47 0
-6792 -48 0
-6792 -49 0
-6792 -116 0
6792 15 16 17 -19 -25 32 33 -39 42 47 48 49 116 0
-6793 -15 0
-6793 -16 0
-6793 -17 0
-6793 19 0
-6793 25 0
-6793 32 0
-6793 33 0
-6793 39 0
-6793 -42 0
-6793 -47 0
-6793 -48 0
-6793 -49 0
-6793 -116 0
6793 15 16 17 -19 -25 -32 -33 -39 42 47 48 49 116 0
-6794 15 0
-6794 17 0
-6794 25 0
-6794 -32 0
-6794 -33 0
-6794 -42 0
-6794 -47 0
-6794 -48 0
-6794 -49 0
6794 -15 -17 -25 32 33 42 47 48 49 0
-6795 15 0
-6795 -19 0
-6795 25 0
-6795 -32 0
-6795 -33 0
-6795 -42 0
-6795 -47 0
-6795 -48 0
-6795 -49 0
6795 -15 19 -25 32 33 42 47 48 49 0
-6796 15 0
-6796 25 0
-6796 -32 0
-6796 -33 0
-6796 -39 0
-6796 -42 0
-6796 -47 0
-6796 -48 0
-6796 -49 0
6796 -15 -25 32 33 39 42 47 48 49 0
-6797 15 0
-6797 25 0
-6797 -32 0
-6797 -33 0
-6797 -42 0
-6797 -47 0
-6797 -48 0
-6797 -49 0
-6797 116 0
6797 -15 -25 32 33 42 47 48 49 -116 0
-6798 15 0
-6798 -16 0
-6798 -17 0
-6798 19 0
-6798 -25 0
-6798 -32 0
-6798 -33 0
-6798 39 0
-6798 -42 0
-6798 -47 0
-6798 -48 0
-6798 -49 0
-6798 -116 0
6798 -15 16 17 -19 25 32 33 -39 42 47 48 49 116 0
-6799 -15 0
-6799 17 0
-6799 -25 0
-6799 -32 0
-6799 -33 0
-6799 -42 0
-6799 -47 0
-6799 -48 0
-6799 -49 0
6799 15 -17 25 32 33 42 47 48 49 0
-6800 -15 0
-6800 -25 0
-6800 -32 0
-6800 -33 0
-6800 -39 0
-6800 -42 0
-6800 -47 0
-6800 -48 0
-6800 -49 0
6800 15 25 32 33 39 42 47 48 49 0
-6801 -15 0
-6801 -25 0
-6801 -32 0
-6801 -33 0
-6801 -42 0
-6801 -47 0
-6801 -48 0
-6801 -49 0
-6801 116 0
6801 15 25 32 33 42 47 48 49 -116 0
-6802 -15 0
-6802 -16 0
-6802 -17 0
-6802 19 0
-6802 -25 0
-6802 -32 0
-6802 33 0
-6802 39 0
-6802 -42 0
-6802 -47 0
-6802 -48 0
-6802 -49 0
-6802 -116 0
6802 15 16 17 -19 25 32 -33 -39 42 47 48 49 116 0
-6803 -15 0
-6803 -19 0
-6803 -25 0
-6803 -32 0
-6803 -33 0
-6803 42 0
-6803 -47 0
-6803 48 0
-6803 -49 0
6803 15 19 25 32 33 -42 47 -48 49 0
-6804 15 0
-6804 17 0
-6804 -25 0
-6804 -32 0
-6804 33 0
-6804 -42 0
-6804 -47 0
-6804 -48 0
-6804 -49 0
6804 -15 -17 25 32 -33 42 47 48 49 0
-6805 15 0
-6805 -19 0
-6805 -25 0
-6805 -32 0
-6805 33 0
-6805 -42 0
-6805 -47 0
-6805 -48 0
-6805 -49 0
6805 -15 19 25 32 -33 42 47 48 49 0
-6806 15 0
-6806 -25 0
-6806 -32 0
-6806 33 0
-6806 -39 0
-6806 -42 0
-6806 -47 0
-6806 -48 0
-6806 -49 0
6806 -15 25 32 -33 39 42 47 48 49 0
-6807 15 0
-6807 -25 0
-6807 -32 0
-6807 33 0
-6807 -42 0
-6807 -47 0
-6807 -48 0
-6807 -49 0
-6807 116 0
6807 -15 25 32 -33 42 47 48 49 -116 0
-6808 15 0
-6808 -16 0
-6808 -17 0
-6808 19 0
-6808 25 0
-6808 -32 0
-6808 33 0
-6808 39 0
-6808 -42 0
-6808 -47 0
-6808 -48 0
-6808 -49 0
-6808 -116 0
6808 -15 16 17 -19 -25 32 -33 -39 42 47 48 49 116 0
-6809 -15 0
-6809 17 0
-6809 25 0
-6809 -32 0
-6809 33 0
-6809 -42 0
-6809 -47 0
-6809 -48 0
-6809 -49 0
6809 15 -17 -25 32 -33 42 47 48 49 0
-6810 -15 0
-6810 -19 0
-6810 25 0
-6810 -32 0
-6810 33 0
-6810 -42 0
-6810 -47 0
-6810 -48 0
-6810 -49 0
6810 15 19 -25 32 -33 42 47 48 49 0
-6811 -15 0
-6811 25 0
-6811 -32 0
-6811 33 0
-6811 -39 0
-6811 -42 0
-6811 -47 0
-6811 -48 0
-6811 -49 0
6811 15 -25 32 -33 39 42 47 48 49 0
-6812 -15 0
-6812 25 0
-6812 -32 0
-6812 33 0
-6812 -42 0
-6812 -47 0
-6812 -48 0
-6812 -49 0
-6812 116 0
6812 15 -25 32 -33 42 47 48 49 -116 0
-6813 15 0
-6813 -19 0
-6813 25 0
-6813 32 0
-6813 33 0
-6813 -42 0
-6813 -47 0
-6813 -48 0
-6813 -49 0
6813 -15 19 -25 -32 -33 42 47 48 49 0
-6814 15 0
-6814 25 0
-6814 32 0
-6814 33 0
-6814 -39 0
-6814 -42 0
-6814 -47 0
-6814 -48 0
-6814 -49 0
6814 -15 -25 -32 -33 39 42 47 48 49 0
-6815 15 0
-6815 25 0
-6815 32 0
-6815 33 0
-6815 -42 0
-6815 -47 0
-6815 -48 0
-6815 -49 0
-6815 116 0
6815 -15 -25 -32 -33 42 47 48 49 -116 0
-6816 -15 0
-6816 17 0
-6816 -25 0
-6816 32 0
-6816 33 0
-6816 -42 0
-6816 -47 0
-6816 -48 0
-6816 -49 0
6816 15 -17 25 -32 -33 42 47 48 49 0
-6817 -15 0
-6817 -16 0
-6817 -17 0
-6817 19 0
-6817 -25 0
-6817 32 0
-6817 -33 0
-6817 39 0
-6817 -42 0
-6817 47 0
-6817 48 0
-6817 -49 0
-6817 -116 0
6817 15 16 17 -19 25 -32 33 -39 42 -47 -48 49 116 0
-6818 15 0
-6818 -16 0
-6818 -17 0
-6818 19 0
-6818 -25 0
-6818 32 0
-6818 33 0
-6818 39 0
-6818 -42 0
-6818 47 0
-6818 48 0
-6818 -49 0
-6818 -116 0
6818 -15 16 17 -19 25 -32 -33 -39 42 -47 -48 49 116 0
-6819 -15 0
-6819 -19 0
-6819 -25 0
-6819 32 0
-6819 33 0
-6819 -42 0
-6819 -47 0
-6819 -48 0
-6819 -49 0
6819 15 19 25 -32 -33 42 47 48 49 0
-6820 -15 0
-6820 -25 0
-6820 32 0
-6820 33 0
-6820 -39 0
-6820 -42 0
-6820 -47 0
-6820 -48 0
-6820 -49 0
6820 15 25 -32 -33 39 42 47 48 49 0
-6821 -15 0
-6821 -25 0
-6821 32 0
-6821 33 0
-6821 -42 0
-6821 -47 0
-6821 -48 0
-6821 -49 0
-6821 116 0
6821 15 25 -32 -33 42 47 48 49 -116 0
-6822 -15 0
-6822 -16 0
-6822 -17 0
-6822 19 0
-6822 -25 0
-6822 32 0
-6822 33 0
-6822 39 0
-6822 -42 0
-6822 -47 0
-6822 48 0
-6822 -49 0
-6822 -116 0
6822 15 16 17 -19 25 -32 -33 -39 42 47 -48 49 116 0
-6823 15 0
-6823 17 0
-6823 -25 0
-6823 32 0
-6823 33 0
-6823 -42 0
-6823 -47 0
-6823 48 0
-6823 -49 0
6823 -15 -17 25 -32 -33 42 47 -48 49 0
-6824 15 0
-6824 -19 0
-6824 -25 0
-6824 32 0
-6824 33 0
-6824 -42 0
-6824 -47 0
-6824 48 0
-6824 -49 0
6824 -15 19 25 -32 -33 42 47 -48 49 0
-6825 15 0
-6825 -25 0
-6825 32 0
-6825 33 0
-6825 -39 0
-6825 -42 0
-6825 -47 0
-6825 48 0
-6825 -49 0
6825 -15 25 -32 -33 39 42 47 -48 49 0
-6826 15 0
-6826 -25 0
-6826 32 0
-6826 33 0
-6826 -42 0
-6826 -47 0
-6826 48 0
-6826 -49 0
-6826 116 0
6826 -15 25 -32 -33 42 47 -48 49 -116 0
-6827 15 0
-6827 -16 0
-6827 -17 0
-6827 19 0
-6827 25 0
-6827 32 0
-6827 33 0
-6827 39 0
-6827 -42 0
-6827 -47 0
-6827 48 0
-6827 -49 0
-6827 -116 0
6827 -15 16 17 -19 -25 -32 -33 -39 42 47 -48 49 116 0
-6828 -15 0
-6828 17 0
-6828 25 0
-6828 32 0
-6828 33 0
-6828 -42 0
-6828 -47 0
-6828 48 0
-6828 -49 0
6828 15 -17 -25 -32 -33 42 47 -48 49 0
-6829 -15 0
-6829 -19 0
-6829 25 0
-6829 32 0
-6829 33 0
-6829 -42 0
-6829 -47 0
-6829 48 0
-6829 -49 0
6829 15 19 -25 -32 -33 42 47 -48 49 0
-6830 -15 0
-6830 25 0
-6830 32 0
-6830 33 0
-6830 -39 0
-6830 -42 0
-6830 -47 0
-6830 48 0
-6830 -49 0
6830 15 -25 -32 -33 39 42 47 -48 49 0
-6831 -15 0
-6831 25 0
-6831 32 0
-6831 33 0
-6831 -42 0
-6831 -47 0
-6831 48 0
-6831 -49 0
-6831 116 0
6831 15 -25 -32 -33 42 47 -48 49 -116 0
-6832 -15 0
-6832 -16 0
-6832 -17 0
-6832 19 0
-6832 25 0
-6832 -32 0
-6832 33 0
-6832 39 0
-6832 -42 0
-6832 -47 0
-6832 48 0
-6832 -49 0
-6832 -116 0
6832 15 16 17 -19 -25 32 -33 -39 42 47 -48 49 116 0
-6833 15 0
-6833 17 0
-6833 25 0
-6833 -32 0
-6833 33 0
-6833 -42 0
-6833 -47 0
-6833 48 0
-6833 -49 0
6833 -15 -17 -25 32 -33 42 47 -48 49 0
-6834 15 0
-6834 -19 0
-6834 25 0
-6834 -32 0
-6834 33 0
-6834 -42 0
-6834 -47 0
-6834 48 0
-6834 -49 0
6834 -15 19 -25 32 -33 42 47 -48 49 0
-6835 15 0
-6835 25 0
-6835 -32 0
-6835 33 0
-6835 -39 0
-6835 -42 0
-6835 -47 0
-6835 48 0
-6835 -49 0
6835 -15 -25 32 -33 39 42 47 -48 49 0
-6836 15 0
-6836 25 0
-6836 -32 0
-6836 33 0
-6836 -42 0
-6836 -47 0
-6836 48 0
-6836 -49 0
-6836 116 0
6836 -15 -25 32 -33 42 47 -48 49 -116 0
-6837 15 0
-6837 -16 0
-6837 -17 0
-6837 19 0
-6837 -25 0
-6837 -32 0
-6837 33 0
-6837 39 0
-6837 -42 0
-6837 -47 0
-6837 48 0
-6837 -49 0
-6837 -116 0
6837 -15 16 17 -19 25 32 -33 -39 42 47 -48 49 116 0
-6838 -15 0
-6838 17 0
-6838 -25 0
-6838 -32 0
-6838 33 0
-6838 -42 0
-6838 -47 0
-6838 48 0
-6838 -49 0
6838 15 -17 25 32 -33 42 47 -48 49 0
-6839 -15 0
-6839 -19 0
-6839 -25 0
-6839 -32 0
-6839 33 0
-6839 -42 0
-6839 -47 0
-6839 48 0
-6839 -49 0
6839 15 19 25 32 -33 42 47 -48 49 0
-6840 -15 0
-6840 -25 0
-6840 -32 0
-6840 33 0
-6840 -39 0
-6840 -42 0
-6840 -47 0
-6840 48 0
-6840 -49 0
6840 15 25 32 -33 39 42 47 -48 49 0
-6841 -15 0
-6841 -25 0
-6841 -32 0
-6841 33 0
-6841 -42 0
-6841 -47 0
-6841 48 0
-6841 -49 0
-6841 116 0
6841 15 25 32 -33 42 47 -48 49 -116 0
-6842 -15 0
-6842 -16 0
-6842 -17 0
-6842 19 0
-6842 -25 0
-6842 -32 0
-6842 -33 0
-6842 39 0
-6842 -42 0
-6842 -47 0
-6842 48 0
-6842 -49 0
-6842 -116 0
6842 15 16 17 -19 25 32 33 -39 42 47 -48 49 116 0
-6843 15 0
-6843 17 0
-6843 -25 0
-6843 -32 0
-6843 -33 0
-6843 -42 0
-6843 -47 0
-6843 48 0
-6843 -49 0
6843 -15 -17 25 32 33 42 47 -48 49 0
-6844 15 0
-6844 -19 0
-6844 -25 0
-6844 -32 0
-6844 -33 0
-6844 -42 0
-6844 -47 0
-6844 48 0
-6844 -49 0
6844 -15 19 25 32 33 42 47 -48 49 0
-6845 15 0
-6845 -25 0
-6845 -32 0
-6845 -33 0
-6845 -39 0
-6845 -42 0
-6845 -47 0
-6845 48 0
-6845 -49 0
6845 -15 25 32 33 39 42 47 -48 49 0
-6846 15 0
-6846 -25 0
-6846 -32 0
-6846 -33 0
-6846 -42 0
-6846 -47 0
-6846 48 0
-6846 -49 0
-6846 116 0
6846 -15 25 32 33 42 47 -48 49 -116 0
-6847 15 0
-6847 -16 0
-6847 -17 0
-6847 19 0
-6847 25 0
-6847 -32 0
-6847 -33 0
-6847 39 0
-6847 -42 0
-6847 -47 0
-6847 48 0
-6847 -49 0
-6847 -116 0
6847 -15 16 17 -19 -25 32 33 -39 42 47 -48 49 116 0
-6848 -15 0
-6848 17 0
-6848 25 0
-6848 -32 0
-6848 -33 0
-6848 -42 0
-6848 -47 0
-6848 48 0
-6848 -49 0
6848 15 -17 -25 32 33 42 47 -48 49 0
-6849 -15 0
-6849 -19 0
-6849 25 0
-6849 -32 0
-6849 -33 0
-6849 -42 0
-6849 -47 0
-6849 48 0
-6849 -49 0
6849 15 19 -25 32 33 42 47 -48 49 0
-6850 -15 0
-6850 25 0
-6850 -32 0
-6850 -33 0
-6850 -39 0
-6850 -42 0
-6850 -47 0
-6850 48 0
-6850 -49 0
6850 15 -25 32 33 39 42 47 -48 49 0
-6851 -15 0
-6851 25 0
-6851 -32 0
-6851 -33 0
-6851 -42 0
-6851 -47 0
-6851 48 0
-6851 -49 0
-6851 116 0
6851 15 -25 32 33 42 47 -48 49 -116 0
-6852 -15 0
-6852 -16 0
-6852 -17 0
-6852 19 0
-6852 25 0
-6852 32 0
-6852 -33 0
-6852 39 0
-6852 -42 0
-6852 -47 0
-6852 48 0
-6852 -49 0
-6852 -116 0
6852 15 16 17 -19 -25 -32 33 -39 42 47 -48 49 116 0
-6853 15 0
-6853 17 0
-6853 25 0
-6853 32 0
-6853 -33 0
-6853 -42 0
-6853 -47 0
-6853 48 0
-6853 -49 0
6853 -15 -17 -25 -32 33 42 47 -48 49 0
-6854 15 0
-6854 -19 0
-6854 25 0
-6854 32 0
-6854 -33 0
-6854 -42 0
-6854 -47 0
-6854 48 0
-6854 -49 0
6854 -15 19 -25 -32 33 42 47 -48 49 0
-6855 15 0
-6855 25 0
-6855 32 0
-6855 -33 0
-6855 -39 0
-6855 -42 0
-6855 -47 0
-6855 48 0
-6855 -49 0
6855 -15 -25 -32 33 39 42 47 -48 49 0
-6856 15 0
-6856 25 0
-6856 32 0
-6856 -33 0
-6856 -42 0
-6856 -47 0
-6856 48 0
-6856 -49 0
-6856 116 0
6856 -15 -25 -32 33 42 47 -48 49 -116 0
-6857 15 0
-6857 -16 0
-6857 -17 0
-6857 19 0
-6857 -25 0
-6857 32 0
-6857 -33 0
-6857 39 0
-6857 -42 0
-6857 -47 0
-6857 48 0
-6857 -49 0
-6857 -116 0
6857 -15 16 17 -19 25 -32 33 -39 42 47 -48 49 116 0
-6858 -15 0
-6858 17 0
-6858 -25 0
-6858 32 0
-6858 -33 0
-6858 -42 0
-6858 -47 0
-6858 48 0
-6858 -49 0
6858 15 -17 25 -32 33 42 47 -48 49 0
-6859 -15 0
-6859 -19 0
-6859 -25 0
-6859 32 0
-6859 -33 0
-6859 -42 0
-6859 -47 0
-6859 48 0
-6859 -49 0
6859 15 19 25 -32 33 42 47 -48 49 0
-6860 -15 0
-6860 -25 0
-6860 32 0
-6860 -33 0
-6860 -39 0
-6860 -42 0
-6860 -47 0
-6860 48 0
-6860 -49 0
6860 15 25 -32 33 39 42 47 -48 49 0
-6861 -15 0
-6861 -25 0
-6861 32 0
-6861 -33 0
-6861 -42 0
-6861 -47 0
-6861 48 0
-6861 -49 0
-6861 116 0
6861 15 25 -32 33 42 47 -48 49 -116 0
-6862 -15 0
-6862 -16 0
-6862 -17 0
-6862 19 0
-6862 -25 0
-6862 32 0
-6862 -33 0
-6862 39 0
-6862 42 0
-6862 -47 0
-6862 48 0
-6862 -49 0
-6862 -116 0
6862 15 16 17 -19 25 -32 33 -39 -42 47 -48 49 116 0
-6863 15 0
-6863 17 0
-6863 -25 0
-6863 32 0
-6863 -33 0
-6863 42 0
-6863 -47 0
-6863 48 0
-6863 -49 0
6863 -15 -17 25 -32 33 -42 47 -48 49 0
-6864 15 0
-6864 -19 0
-6864 -25 0
-6864 32 0
-6864 -33 0
-6864 42 0
-6864 -47 0
-6864 48 0
-6864 -49 0
6864 -15 19 25 -32 33 -42 47 -48 49 0
-6865 15 0
-6865 -25 0
-6865 32 0
-6865 -33 0
-6865 -39 0
-6865 42 0
-6865 -47 0
-6865 48 0
-6865 -49 0
6865 -15 25 -32 33 39 -42 47 -48 49 0
-6866 15 0
-6866 -25 0
-6866 32 0
-6866 -33 0
-6866 42 0
-6866 -47 0
-6866 48 0
-6866 -49 0
-6866 116 0
6866 -15 25 -32 33 -42 47 -48 49 -116 0
-6867 15 0
-6867 -16 0
-6867 -17 0
-6867 19 0
-6867 25 0
-6867 32 0
-6867 -33 0
-6867 39 0
-6867 42 0
-6867 -47 0
-6867 48 0
-6867 -49 0
-6867 -116 0
6867 -15 16 17 -19 -25 -32 33 -39 -42 47 -48 49 116 0
-6868 -15 0
-6868 17 0
-6868 25 0
-6868 32 0
-6868 -33 0
-6868 42 0
-6868 -47 0
-6868 48 0
-6868 -49 0
6868 15 -17 -25 -32 33 -42 47 -48 49 0
-6869 -15 0
-6869 -19 0
-6869 25 0
-6869 32 0
-6869 -33 0
-6869 42 0
-6869 -47 0
-6869 48 0
-6869 -49 0
6869 15 19 -25 -32 33 -42 47 -48 49 0
-6870 -15 0
-6870 25 0
-6870 32 0
-6870 -33 0
-6870 -39 0
-6870 42 0
-6870 -47 0
-6870 48 0
-6870 -49 0
6870 15 -25 -32 33 39 -42 47 -48 49 0
-6871 -15 0
-6871 25 0
-6871 32 0
-6871 -33 0
-6871 42 0
-6871 -47 0
-6871 48 0
-6871 -49 0
-6871 116 0
6871 15 -25 -32 33 -42 47 -48 49 -116 0
-6872 -15 0
-6872 -16 0
-6872 -17 0
-6872 19 0
-6872 25 0
-6872 -32 0
-6872 -33 0
-6872 39 0
-6872 42 0
-6872 -47 0
-6872 48 0
-6872 -49 0
-6872 -116 0
6872 15 16 17 -19 -25 32 33 -39 -42 47 -48 49 116 0
-6873 15 0
-6873 17 0
-6873 25 0
-6873 -32 0
-6873 -33 0
-6873 42 0
-6873 -47 0
-6873 48 0
-6873 -49 0
6873 -15 -17 -25 32 33 -42 47 -48 49 0
-6874 15 0
-6874 -19 0
-6874 25 0
-6874 -32 0
-6874 -33 0
-6874 42 0
-6874 -47 0
-6874 48 0
-6874 -49 0
6874 -15 19 -25 32 33 -42 47 -48 49 0
-6875 15 0
-6875 25 0
-6875 -32 0
-6875 -33 0
-6875 -39 0
-6875 42 0
-6875 -47 0
-6875 48 0
-6875 -49 0
6875 -15 -25 32 33 39 -42 47 -48 49 0
-6876 15 0
-6876 25 0
-6876 -32 0
-6876 -33 0
-6876 42 0
-6876 -47 0
-6876 48 0
-6876 -49 0
-6876 116 0
6876 -15 -25 32 33 -42 47 -48 49 -116 0
-6877 15 0
-6877 -16 0
-6877 -17 0
-6877 19 0
-6877 -25 0
-6877 -32 0
-6877 -33 0
-6877 39 0
-6877 42 0
-6877 -47 0
-6877 48 0
-6877 -49 0
-6877 -116 0
6877 -15 16 17 -19 25 32 33 -39 -42 47 -48 49 116 0
-6878 -15 0
-6878 17 0
-6878 -25 0
-6878 -32 0
-6878 -33 0
-6878 42 0
-6878 -47 0
-6878 48 0
-6878 -49 0
6878 15 -17 25 32 33 -42 47 -48 49 0
-6879 -15 0
-6879 -25 0
-6879 -32 0
-6879 -33 0
-6879 -39 0
-6879 42 0
-6879 -47 0
-6879 48 0
-6879 -49 0
6879 15 25 32 33 39 -42 47 -48 49 0
-6880 -15 0
-6880 -25 0
-6880 -32 0
-6880 -33 0
-6880 42 0
-6880 -47 0
-6880 48 0
-6880 -49 0
-6880 116 0
6880 15 25 32 33 -42 47 -48 49 -116 0
-6881 -15 0
-6881 -16 0
-6881 -17 0
-6881 19 0
-6881 -25 0
-6881 -32 0
-6881 33 0
-6881 39 0
-6881 42 0
-6881 -47 0
-6881 48 0
-6881 -49 0
-6881 -116 0
6881 15 16 17 -19 25 32 -33 -39 -42 47 -48 49 116 0
-6882 -15 0
-6882 -19 0
-6882 -25 0
-6882 -32 0
-6882 33 0
-6882 42 0
-6882 47 0
-6882 48 0
-6882 -49 0
6882 15 19 25 32 -33 -42 -47 -48 49 0
-6883 15 0
-6883 17 0
-6883 -25 0
-6883 -32 0
-6883 33 0
-6883 42 0
-6883 -47 0
-6883 48 0
-6883 -49 0
6883 -15 -17 25 32 -33 -42 47 -48 49 0
-6884 15 0
-6884 -19 0
-6884 -25 0
-6884 -32 0
-6884 33 0
-6884 42 0
-6884 -47 0
-6884 48 0
-6884 -49 0
6884 -15 19 25 32 -33 -42 47 -48 49 0
-6885 15 0
-6885 -25 0
-6885 -32 0
-6885 33 0
-6885 -39 0
-6885 42 0
-6885 -47 0
-6885 48 0
-6885 -49 0
6885 -15 25 32 -33 39 -42 47 -48 49 0
-6886 15 0
-6886 -25 0
-6886 -32 0
-6886 33 0
-6886 42 0
-6886 -47 0
-6886 48 0
-6886 -49 0
-6886 116 0
6886 -15 25 32 -33 -42 47 -48 49 -116 0
-6887 15 0
-6887 -16 0
-6887 -17 0
-6887 19 0
-6887 25 0
-6887 -32 0
-6887 33 0
-6887 39 0
-6887 42 0
-6887 -47 0
-6887 48 0
-6887 -49 0
-6887 -116 0
6887 -15 16 17 -19 -25 32 -33 -39 -42 47 -48 49 116 0
-6888 -15 0
-6888 17 0
-6888 25 0
-6888 -32 0
-6888 33 0
-6888 42 0
-6888 -47 0
-6888 48 0
-6888 -49 0
6888 15 -17 -25 32 -33 -42 47 -48 49 0
-6889 -15 0
-6889 -19 0
-6889 25 0
-6889 -32 0
-6889 33 0
-6889 42 0
-6889 -47 0
-6889 48 0
-6889 -49 0
6889 15 19 -25 32 -33 -42 47 -48 49 0
-6890 -15 0
-6890 25 0
-6890 -32 0
-6890 33 0
-6890 -39 0
-6890 42 0
-6890 -47 0
-6890 48 0
-6890 -49 0
6890 15 -25 32 -33 39 -42 47 -48 49 0
-6891 -15 0
-6891 25 0
-6891 -32 0
-6891 33 0
-6891 42 0
-6891 -47 0
-6891 48 0
-6891 -49 0
-6891 116 0
6891 15 -25 32 -33 -42 47 -48 49 -116 0
-6892 -15 0
-6892 -16 0
-6892 -17 0
-6892 19 0
-6892 25 0
-6892 32 0
-6892 33 0
-6892 39 0
-6892 42 0
-6892 -47 0
-6892 48 0
-6892 -49 0
-6892 -116 0
6892 15 16 17 -19 -25 -32 -33 -39 -42 47 -48 49 116 0
-6893 15 0
-6893 -19 0
-6893 25 0
-6893 32 0
-6893 33 0
-6893 42 0
-6893 -47 0
-6893 48 0
-6893 -49 0
6893 -15 19 -25 -32 -33 -42 47 -48 49 0
-6894 15 0
-6894 25 0
-6894 32 0
-6894 33 0
-6894 -39 0
-6894 42 0
-6894 -47 0
-6894 48 0
-6894 -49 0
6894 -15 -25 -32 -33 39 -42 47 -48 49 0
-6895 15 0
-6895 25 0
-6895 32 0
-6895 33 0
-6895 42 0
-6895 -47 0
-6895 48 0
-6895 -49 0
-6895 116 0
6895 -15 -25 -32 -33 -42 47 -48 49 -116 0
-6896 15 0
-6896 -16 0
-6896 -17 0
-6896 19 0
-6896 -25 0
-6896 32 0
-6896 33 0
-6896 39 0
-6896 42 0
-6896 -47 0
-6896 48 0
-6896 -49 0
-6896 -116 0
6896 -15 16 17 -19 25 -32 -33 -39 -42 47 -48 49 116 0
-6897 15 0
-6897 17 0
-6897 25 0
-6897 32 0
-6897 -33 0
-6897 42 0
-6897 47 0
-6897 48 0
-6897 -49 0
6897 -15 -17 -25 -32 33 -42 -47 -48 49 0
-6898 -15 0
-6898 17 0
-6898 -25 0
-6898 32 0
-6898 33 0
-6898 42 0
-6898 -47 0
-6898 48 0
-6898 -49 0
6898 15 -17 25 -32 -33 -42 47 -48 49 0
-6899 -15 0
-6899 -19 0
-6899 -25 0
-6899 32 0
-6899 33 0
-6899 42 0
-6899 -47 0
-6899 48 0
-6899 -49 0
6899 15 19 25 -32 -33 -42 47 -48 49 0
-6900 -15 0
-6900 -25 0
-6900 32 0
-6900 33 0
-6900 -39 0
-6900 42 0
-6900 -47 0
-6900 48 0
-6900 -49 0
6900 15 25 -32 -33 39 -42 47 -48 49 0
-6901 -15 0
-6901 -25 0
-6901 32 0
-6901 33 0
-6901 42 0
-6901 -47 0
-6901 48 0
-6901 -49 0
-6901 116 0
6901 15 25 -32 -33 -42 47 -48 49 -116 0
-6902 -15 0
-6902 -16 0
-6902 -17 0
-6902 19 0
-6902 -25 0
-6902 32 0
-6902 33 0
-6902 39 0
-6902 42 0
-6902 47 0
-6902 48 0
-6902 -49 0
-6902 -116 0
6902 15 16 17 -19 25 -32 -33 -39 -42 -47 -48 49 116 0
-6903 15 0
-6903 17 0
-6903 -25 0
-6903 32 0
-6903 33 0
-6903 42 0
-6903 47 0
-6903 48 0
-6903 -49 0
6903 -15 -17 25 -32 -33 -42 -47 -48 49 0
-6904 15 0
-6904 -19 0
-6904 -25 0
-6904 32 0
-6904 33 0
-6904 42 0
-6904 47 0
-6904 48 0
-6904 -49 0
6904 -15 19 25 -32 -33 -42 -47 -48 49 0
-6905 15 0
-6905 -25 0
-6905 32 0
-6905 33 0
-6905 -39 0
-6905 42 0
-6905 47 0
-6905 48 0
-6905 -49 0
6905 -15 25 -32 -33 39 -42 -47 -48 49 0
-6906 15 0
-6906 -25 0
-6906 32 0
-6906 33 0
-6906 42 0
-6906 47 0
-6906 48 0
-6906 -49 0
-6906 116 0
6906 -15 25 -32 -33 -42 -47 -48 49 -116 0
-6907 15 0
-6907 -16 0
-6907 -17 0
-6907 19 0
-6907 25 0
-6907 32 0
-6907 33 0
-6907 39 0
-6907 42 0
-6907 47 0
-6907 48 0
-6907 -49 0
-6907 -116 0
6907 -15 16 17 -19 -25 -32 -33 -39 -42 -47 -48 49 116 0
-6908 -15 0
-6908 17 0
-6908 25 0
-6908 32 0
-6908 33 0
-6908 42 0
-6908 47 0
-6908 48 0
-6908 -49 0
6908 15 -17 -25 -32 -33 -42 -47 -48 49 0
-6909 -15 0
-6909 -19 0
-6909 25 0
-6909 32 0
-6909 33 0
-6909 42 0
-6909 47 0
-6909 48 0
-6909 -49 0
6909 15 19 -25 -32 -33 -42 -47 -48 49 0
-6910 -15 0
-6910 25 0
-6910 32 0
-6910 33 0
-6910 -39 0
-6910 42 0
-6910 47 0
-6910 48 0
-6910 -49 0
6910 15 -25 -32 -33 39 -42 -47 -48 49 0
-6911 -15 0
-6911 25 0
-6911 32 0
-6911 33 0
-6911 42 0
-6911 47 0
-6911 48 0
-6911 -49 0
-6911 116 0
6911 15 -25 -32 -33 -42 -47 -48 49 -116 0
-6912 -15 0
-6912 -16 0
-6912 -17 0
-6912 19 0
-6912 25 0
-6912 -32 0
-6912 33 0
-6912 39 0
-6912 42 0
-6912 47 0
-6912 48 0
-6912 -49 0
-6912 -116 0
6912 15 16 17 -19 -25 32 -33 -39 -42 -47 -48 49 116 0
-6913 15 0
-6913 -19 0
-6913 25 0
-6913 -32 0
-6913 33 0
-6913 42 0
-6913 47 0
-6913 48 0
-6913 -49 0
6913 -15 19 -25 32 -33 -42 -47 -48 49 0
-6914 15 0
-6914 25 0
-6914 -32 0
-6914 33 0
-6914 -39 0
-6914 42 0
-6914 47 0
-6914 48 0
-6914 -49 0
6914 -15 -25 32 -33 39 -42 -47 -48 49 0
-6915 15 0
-6915 -16 0
-6915 -17 0
-6915 19 0
-6915 -25 0
-6915 -32 0
-6915 33 0
-6915 39 0
-6915 42 0
-6915 47 0
-6915 48 0
-6915 -49 0
-6915 -116 0
6915 -15 16 17 -19 25 32 -33 -39 -42 -47 -48 49 116 0
-6916 -15 0
-6916 17 0
-6916 25 0
-6916 -32 0
-6916 -33 0
-6916 42 0
-6916 47 0
-6916 48 0
-6916 -49 0
6916 15 -17 -25 32 33 -42 -47 -48 49 0
-6917 -15 0
-6917 25 0
-6917 -32 0
-6917 -33 0
-6917 42 0
-6917 47 0
-6917 48 0
-6917 -49 0
-6917 116 0
6917 15 -25 32 33 -42 -47 -48 49 -116 0
-6918 15 0
-6918 17 0
-6918 -25 0
-6918 -32 0
-6918 -33 0
-6918 42 0
-6918 47 0
-6918 48 0
-6918 -49 0
6918 -15 -17 25 32 33 -42 -47 -48 49 0
-6919 15 0
-6919 -25 0
-6919 -32 0
-6919 -33 0
-6919 42 0
-6919 47 0
-6919 48 0
-6919 -49 0
-6919 116 0
6919 -15 25 32 33 -42 -47 -48 49 -116 0
-6920 -15 0
-6920 -25 0
-6920 -32 0
-6920 33 0
-6920 -39 0
-6920 42 0
-6920 47 0
-6920 48 0
-6920 -49 0
6920 15 25 32 -33 39 -42 -47 -48 49 0
-6921 -15 0
-6921 -16 0
-6921 -17 0
-6921 19 0
-6921 -25 0
-6921 -32 0
-6921 -33 0
-6921 39 0
-6921 42 0
-6921 47 0
-6921 48 0
-6921 -49 0
-6921 -116 0
6921 15 16 17 -19 25 32 33 -39 -42 -47 -48 49 116 0
-6922 15 0
-6922 -19 0
-6922 -25 0
-6922 -32 0
-6922 -33 0
-6922 42 0
-6922 47 0
-6922 48 0
-6922 -49 0
6922 -15 19 25 32 33 -42 -47 -48 49 0
-6923 -15 0
-6923 -19 0
-6923 -25 0
-6923 32 0
-6923 -33 0
-6923 42 0
-6923 47 0
-6923 48 0
-6923 -49 0
6923 15 19 25 -32 33 -42 -47 -48 49 0
-6924 -15 0
-6924 -19 0
-6924 -25 0
-6924 32 0
-6924 33 0
-6924 -42 0
-6924 47 0
-6924 48 0
-6924 -49 0
6924 15 19 25 -32 -33 42 -47 -48 49 0
-6925 15 0
-6925 -25 0
-6925 -32 0
-6925 -33 0
-6925 -39 0
-6925 42 0
-6925 47 0
-6925 48 0
-6925 -49 0
6925 -15 25 32 33 39 -42 -47 -48 49 0
-6926 15 0
-6926 -16 0
-6926 -17 0
-6926 19 0
-6926 25 0
-6926 -32 0
-6926 -33 0
-6926 39 0
-6926 42 0
-6926 47 0
-6926 48 0
-6926 -49 0
-6926 -116 0
6926 -15 16 17 -19 -25 32 33 -39 -42 -47 -48 49 116 0
-6927 -15 0
-6927 -19 0
-6927 25 0
-6927 -32 0
-6927 -33 0
-6927 42 0
-6927 47 0
-6927 48 0
-6927 -49 0
6927 15 19 -25 32 33 -42 -47 -48 49 0
-6928 -15 0
-6928 25 0
-6928 -32 0
-6928 -33 0
-6928 -39 0
-6928 42 0
-6928 47 0
-6928 48 0
-6928 -49 0
6928 15 -25 32 33 39 -42 -47 -48 49 0
-6929 15 0
-6929 25 0
-6929 32 0
-6929 33 0
-6929 -42 0
-6929 47 0
-6929 48 0
-6929 -49 0
-6929 116 0
6929 -15 -25 -32 -33 42 -47 -48 49 -116 0
-6930 -15 0
-6930 17 0
-6930 -25 0
-6930 32 0
-6930 33 0
-6930 -42 0
-6930 47 0
-6930 48 0
-6930 -49 0
6930 15 -17 25 -32 -33 42 -47 -48 49 0
-6931 -15 0
-6931 -25 0
-6931 32 0
-6931 33 0
-6931 -42 0
-6931 47 0
-6931 48 0
-6931 -49 0
-6931 116 0
6931 15 25 -32 -33 42 -47 -48 49 -116 0
-6932 -15 0
-6932 -16 0
-6932 -17 0
-6932 19 0
-6932 25 0
-6932 32 0
-6932 -33 0
-6932 39 0
-6932 42 0
-6932 47 0
-6932 48 0
-6932 -49 0
-6932 -116 0
6932 15 16 17 -19 -25 -32 33 -39 -42 -47 -48 49 116 0
-6933 15 0
-6933 -19 0
-6933 25 0
-6933 32 0
-6933 -33 0
-6933 42 0
-6933 47 0
-6933 48 0
-6933 -49 0
6933 -15 19 -25 -32 33 -42 -47 -48 49 0
-6934 15 0
-6934 25 0
-6934 32 0
-6934 -33 0
-6934 -39 0
-6934 42 0
-6934 47 0
-6934 48 0
-6934 -49 0
6934 -15 -25 -32 33 39 -42 -47 -48 49 0
-6935 15 0
-6935 25 0
-6935 32 0
-6935 -33 0
-6935 42 0
-6935 47 0
-6935 48 0
-6935 -49 0
-6935 116 0
6935 -15 -25 -32 33 -42 -47 -48 49 -116 0
-6936 15 0
-6936 -16 0
-6936 -17 0
-6936 19 0
-6936 -25 0
-6936 32 0
-6936 -33 0
-6936 39 0
-6936 42 0
-6936 47 0
-6936 48 0
-6936 -49 0
-6936 -116 0
6936 -15 16 17 -19 25 -32 33 -39 -42 -47 -48 49 116 0
-6937 15 0
-6937 17 0
-6937 25 0
-6937 -32 0
-6937 -33 0
-6937 -42 0
-6937 47 0
-6937 48 0
-6937 -49 0
6937 -15 -17 -25 32 33 42 -47 -48 49 0
-6938 -15 0
-6938 17 0
-6938 -25 0
-6938 32 0
-6938 -33 0
-6938 42 0
-6938 47 0
-6938 48 0
-6938 -49 0
6938 15 -17 25 -32 33 -42 -47 -48 49 0
-6939 -15 0
-6939 -25 0
-6939 32 0
-6939 -33 0
-6939 -39 0
-6939 42 0
-6939 47 0
-6939 48 0
-6939 -49 0
6939 15 25 -32 33 39 -42 -47 -48 49 0
-6940 -15 0
-6940 -25 0
-6940 32 0
-6940 -33 0
-6940 42 0
-6940 47 0
-6940 48 0
-6940 -49 0
-6940 116 0
6940 15 25 -32 33 -42 -47 -48 49 -116 0
-6941 15 0
-6941 17 0
-6941 -25 0
-6941 32 0
-6941 -33 0
-6941 -42 0
-6941 47 0
-6941 48 0
-6941 -49 0
6941 -15 -17 25 -32 33 42 -47 -48 49 0
-6942 15 0
-6942 -19 0
-6942 -25 0
-6942 32 0
-6942 -33 0
-6942 -42 0
-6942 47 0
-6942 48 0
-6942 -49 0
6942 -15 19 25 -32 33 42 -47 -48 49 0
-6943 15 0
-6943 -25 0
-6943 32 0
-6943 -33 0
-6943 -39 0
-6943 -42 0
-6943 47 0
-6943 48 0
-6943 -49 0
6943 -15 25 -32 33 39 42 -47 -48 49 0
-6944 15 0
-6944 -25 0
-6944 32 0
-6944 -33 0
-6944 -42 0
-6944 47 0
-6944 48 0
-6944 -49 0
-6944 116 0
6944 -15 25 -32 33 42 -47 -48 49 -116 0
-6945 15 0
-6945 -16 0
-6945 -17 0
-6945 19 0
-6945 25 0
-6945 32 0
-6945 -33 0
-6945 39 0
-6945 -42 0
-6945 47 0
-6945 48 0
-6945 -49 0
-6945 -116 0
6945 -15 16 17 -19 -25 -32 33 -39 42 -47 -48 49 116 0
-6946 -15 0
-6946 17 0
-6946 25 0
-6946 32 0
-6946 -33 0
-6946 -42 0
-6946 47 0
-6946 48 0
-6946 -49 0
6946 15 -17 -25 -32 33 42 -47 -48 49 0
-6947 -15 0
-6947 -19 0
-6947 25 0
-6947 32 0
-6947 -33 0
-6947 -42 0
-6947 47 0
-6947 48 0
-6947 -49 0
6947 15 19 -25 -32 33 42 -47 -48 49 0
-6948 -15 0
-6948 25 0
-6948 32 0
-6948 -33 0
-6948 -39 0
-6948 -42 0
-6948 47 0
-6948 48 0
-6948 -49 0
6948 15 -25 -32 33 39 42 -47 -48 49 0
-6949 -15 0
-6949 25 0
-6949 32 0
-6949 -33 0
-6949 -42 0
-6949 47 0
-6949 48 0
-6949 -49 0
-6949 116 0
6949 15 -25 -32 33 42 -47 -48 49 -116 0
-6950 -15 0
-6950 -16 0
-6950 -17 0
-6950 19 0
-6950 25 0
-6950 -32 0
-6950 -33 0
-6950 39 0
-6950 -42 0
-6950 47 0
-6950 48 0
-6950 -49 0
-6950 -116 0
6950 15 16 17 -19 -25 32 33 -39 42 -47 -48 49 116 0
-6951 -15 0
-6951 -16 0
-6951 -17 0
-6951 19 0
-6951 25 0
-6951 32 0
-6951 33 0
-6951 39 0
-6951 -42 0
-6951 47 0
-6951 48 0
-6951 -49 0
-6951 -116 0
6951 15 16 17 -19 -25 -32 -33 -39 42 -47 -48 49 116 0
-6952 15 0
-6952 -19 0
-6952 25 0
-6952 -32 0
-6952 -33 0
-6952 -42 0
-6952 47 0
-6952 48 0
-6952 -49 0
6952 -15 19 -25 32 33 42 -47 -48 49 0
-6953 15 0
-6953 25 0
-6953 -32 0
-6953 -33 0
-6953 -39 0
-6953 -42 0
-6953 47 0
-6953 48 0
-6953 -49 0
6953 -15 -25 32 33 39 42 -47 -48 49 0
-6954 15 0
-6954 25 0
-6954 -32 0
-6954 -33 0
-6954 -42 0
-6954 47 0
-6954 48 0
-6954 -49 0
-6954 116 0
6954 -15 -25 32 33 42 -47 -48 49 -116 0
-6955 15 0
-6955 -16 0
-6955 -17 0
-6955 19 0
-6955 -25 0
-6955 -32 0
-6955 -33 0
-6955 39 0
-6955 -42 0
-6955 47 0
-6955 48 0
-6955 -49 0
-6955 -116 0
6955 -15 16 17 -19 25 32 33 -39 42 -47 -48 49 116 0
-6956 15 0
-6956 17 0
-6956 -25 0
-6956 -32 0
-6956 33 0
-6956 -42 0
-6956 47 0
-6956 48 0
-6956 -49 0
6956 -15 -17 25 32 -33 42 -47 -48 49 0
-6957 -15 0
-6957 17 0
-6957 -25 0
-6957 -32 0
-6957 -33 0
-6957 -42 0
-6957 47 0
-6957 48 0
-6957 -49 0
6957 15 -17 25 32 33 42 -47 -48 49 0
-6958 -15 0
-6958 -25 0
-6958 -32 0
-6958 -33 0
-6958 -39 0
-6958 -42 0
-6958 47 0
-6958 48 0
-6958 -49 0
6958 15 25 32 33 39 42 -47 -48 49 0
-6959 -15 0
-6959 -25 0
-6959 -32 0
-6959 -33 0
-6959 -42 0
-6959 47 0
-6959 48 0
-6959 -49 0
-6959 116 0
6959 15 25 32 33 42 -47 -48 49 -116 0
-6960 -15 0
-6960 -16 0
-6960 -17 0
-6960 19 0
-6960 -25 0
-6960 -32 0
-6960 33 0
-6960 39 0
-6960 -42 0
-6960 47 0
-6960 48 0
-6960 -49 0
-6960 -116 0
6960 15 16 17 -19 25 32 -33 -39 42 -47 -48 49 116 0
-6961 -15 0
-6961 -19 0
-6961 25 0
-6961 -32 0
-6961 33 0
-6961 -42 0
-6961 47 0
-6961 48 0
-6961 -49 0
6961 15 19 -25 32 -33 42 -47 -48 49 0
-6962 15 0
-6962 -19 0
-6962 -25 0
-6962 -32 0
-6962 33 0
-6962 -42 0
-6962 47 0
-6962 48 0
-6962 -49 0
6962 -15 19 25 32 -33 42 -47 -48 49 0
-6963 -15 0
-6963 -25 0
-6963 32 0
-6963 33 0
-6963 -39 0
-6963 -42 0
-6963 47 0
-6963 48 0
-6963 -49 0
6963 15 25 -32 -33 39 42 -47 -48 49 0
-6964 15 0
-6964 -25 0
-6964 -32 0
-6964 33 0
-6964 -39 0
-6964 -42 0
-6964 47 0
-6964 48 0
-6964 -49 0
6964 -15 25 32 -33 39 42 -47 -48 49 0
-6965 15 0
-6965 -25 0
-6965 -32 0
-6965 33 0
-6965 -42 0
-6965 47 0
-6965 48 0
-6965 -49 0
-6965 116 0
6965 -15 25 32 -33 42 -47 -48 49 -116 0
-6966 15 0
-6966 -16 0
-6966 -17 0
-6966 19 0
-6966 25 0
-6966 -32 0
-6966 33 0
-6966 39 0
-6966 -42 0
-6966 47 0
-6966 48 0
-6966 -49 0
-6966 -116 0
6966 -15 16 17 -19 -25 32 -33 -39 42 -47 -48 49 116 0
-6967 -15 0
-6967 17 0
-6967 25 0
-6967 -32 0
-6967 33 0
-6967 -42 0
-6967 47 0
-6967 48 0
-6967 -49 0
6967 15 -17 -25 32 -33 42 -47 -48 49 0
-6968 15 0
-6968 25 0
-6968 32 0
-6968 33 0
-6968 -39 0
-6968 -42 0
-6968 47 0
-6968 48 0
-6968 -49 0
6968 -15 -25 -32 -33 39 42 -47 -48 49 0
-6969 -15 0
-6969 25 0
-6969 -32 0
-6969 33 0
-6969 -39 0
-6969 -42 0
-6969 47 0
-6969 48 0
-6969 -49 0
6969 15 -25 32 -33 39 42 -47 -48 49 0
-6970 -15 0
-6970 25 0
-6970 -32 0
-6970 33 0
-6970 -42 0
-6970 47 0
-6970 48 0
-6970 -49 0
-6970 116 0
6970 15 -25 32 -33 42 -47 -48 49 -116 0
-6971 15 0
-6971 -19 0
-6971 25 0
-6971 32 0
-6971 33 0
-6971 -42 0
-6971 47 0
-6971 48 0
-6971 -49 0
6971 -15 19 -25 -32 -33 42 -47 -48 49 0
-6972 -6204 0
-6972 -6205 0
-6972 -6206 0
-6972 -6207 0
-6972 -6208 0
-6972 -6209 0
-6972 -6210 0
-6972 -6211 0
-6972 -6212 0
-6972 -6213 0
-6972 -6214 0
-6972 -6215 0
-6972 -6216 0
-6972 -6217 0
-6972 -6218 0
-6972 -6219 0
-6972 -6220 0
-6972 -6221 0
-6972 -6222 0
-6972 -6223 0
-6972 -6224 0
-6972 -6225 0
-6972 -6226 0
-6972 -6227 0
-6972 -6228 0
-6972 -6229 0
-6972 -6230 0
-6972 -6231 0
-6972 -6232 0
-6972 -6233 0
-6972 -6234 0
-6972 -6235 0
-6972 -6236 0
-6972 -6237 0
-6972 -6238 0
-6972 -6239 0
-6972 -6240 0
-6972 -6241 0
-6972 -6242 0
-6972 -6243 0
-6972 -6244 0
-6972 -6245 0
-6972 -6246 0
-6972 -6247 0
-6972 -6248 0
-6972 -6249 0
-6972 -6250 0
-6972 -6251 0
-6972 -6252 0
-6972 -6253 0
-6972 -6254 0
-6972 -6255 0
-6972 -6256 0
-6972 -6257 0
-6972 -6258 0
-6972 -6259 0
-6972 -6260 0
-6972 -6261 0
-6972 -6262 0
-6972 -6263 0
-6972 -6264 0
-6972 -6265 0
-6972 -6266 0
-6972 -6267 0
-6972 -6268 0
-6972 -6269 0
-6972 -6270 0
-6972 -6271 0
-6972 -6272 0
-6972 -6273 0
-6972 -6274 0
-6972 -6275 0
-6972 -6276 0
-6972 -6277 0
-6972 -6278 0
-6972 -6279 0
-6972 -6280 0
-6972 -6281 0
-6972 -6282 0
-6972 -6283 0
-6972 -6284 0
-6972 -6285 0
-6972 -6286 0
-6972 -6287 0
-6972 -6288 0
-6972 -6289 0
-6972 -6290 0
-6972 -6291 0
-6972 -6292 0
-6972 -6293 0
-6972 -6294 0
-6972 -6295 0
-6972 -6296 0
-6972 -6297 0
-6972 -6298 0
-6972 -6299 0
-6972 -6300 0
-6972 -6301 0
-6972 -6302 0
-6972 -6303 0
-6972 -6304 0
-6972 -6305 0
-6972 -6306 0
-6972 -6307 0
-6972 -6308 0
-6972 -6309 0
-6972 -6310 0
-6972 -6311 0
-6972 -6312 0
-6972 -6313 0
-6972 -6314 0
-6972 -6315 0
-6972 -6316 0
-6972 -6317 0
-6972 -6318 0
-6972 -6319 0
-6972 -6320 0
-6972 -6321 0
-6972 -6322 0
-6972 -6323 0
-6972 -6324 0
-6972 -6325 0
-6972 -6326 0
-6972 -6327 0
-6972 -6328 0
-6972 -6329 0
-6972 -6330 0
-6972 -6331 0
-6972 -6332 0
-6972 -6333 0
-6972 -6334 0
-6972 -6335 0
-6972 -6336 0
-6972 -6337 0
-6972 -6338 0
-6972 -6339 0
-6972 -6340 0
-6972 -6341 0
-6972 -6342 0
-6972 -6343 0
-6972 -6344 0
-6972 -6345 0
-6972 -6346 0
-6972 -6347 0
-6972 -6348 0
-6972 -6349 0
-6972 -6350 0
-6972 -6351 0
-6972 -6352 0
-6972 -6353 0
-6972 -6354 0
-6972 -6355 0
-6972 -6356 0
-6972 -6357 0
-6972 -6358 0
-6972 -6359 0
-6972 -6360 0
-6972 -6361 0
-6972 -6362 0
-6972 -6363 0
-6972 -6364 0
-6972 -6365 0
-6972 -6366 0
-6972 -6367 0
-6972 -6368 0
-6972 -6369 0
-6972 -6370 0
-6972 -6371 0
-6972 -6372 0
-6972 -6373 0
-6972 -6374 0
-6972 -6375 0
-6972 -6376 0
-6972 -6377 0
-6972 -6378 0
-6972 -6379 0
-6972 -6380 0
-6972 -6381 0
-6972 -6382 0
-6972 -6383 0
-6972 -6384 0
-6972 -6385 0
-6972 -6386 0
-6972 -6387 0
-6972 -6388 0
-6972 -6389 0
-6972 -6390 0
-6972 -6391 0
-6972 -6392 0
-6972 -6393 0
-6972 -6394 0
-6972 -6395 0
-6972 -6396 0
-6972 -6397 0
-6972 -6398 0
-6972 -6399 0
-6972 -6400 0
-6972 -6401 0
-6972 -6402 0
-6972 -6403 0
-6972 -6404 0
-6972 -6405 0
-6972 -6406 0
-6972 -6407 0
-6972 -6408 0
-6972 -6409 0
-6972 -6410 0
-6972 -6411 0
-6972 -6412 0
-6972 -6413 0
-6972 -6414 0
-6972 -6415 0
-6972 -6416 0
-6972 -6417 0
-6972 -6418 0
-6972 -6419 0
-6972 -6420 0
-6972 -6421 0
-6972 -6422 0
-6972 -6423 0
-6972 -6424 0
-6972 -6425 0
-6972 -6426 0
-6972 -6427 0
-6972 -6428 0
-6972 -6429 0
-6972 -6430 0
-6972 -6431 0
-6972 -6432 0
-6972 -6433 0
-6972 -6434 0
-6972 -6435 0
-6972 -6436 0
-6972 -6437 0
-6972 -6438 0
-6972 -6439 0
-6972 -6440 0
-6972 -6441 0
-6972 -6442 0
-6972 -6443 0
-6972 -6444 0
-6972 -6445 0
-6972 -6446 0
-6972 -6447 0
-6972 -6448 0
-6972 -6449 0
-6972 -6450 0
-6972 -6451 0
-6972 -6452 0
-6972 -6453 0
-6972 -6454 0
-6972 -6455 0
-6972 -6456 0
-6972 -6457 0
-6972 -6458 0
-6972 -6459 0
-6972 -6460 0
-6972 -6461 0
-6972 -6462 0
-6972 -6463 0
-6972 -6464 0
-6972 -6465 0
-6972 -6466 0
-6972 -6467 0
-6972 -6468 0
-6972 -6469 0
-6972 -6470 0
-6972 -6471 0
-6972 -6472 0
-6972 -6473 0
-6972 -6474 0
-6972 -6475 0
-6972 -6476 0
-6972 -6477 0
-6972 -6478 0
-6972 -6479 0
-6972 -6480 0
-6972 -6481 0
-6972 -6482 0
-6972 -6483 0
-6972 -6484 0
-6972 -6485 0
-6972 -6486 0
-6972 -6487 0
-6972 -6488 0
-6972 -6489 0
-6972 -6490 0
-6972 -6491 0
-6972 -6492 0
-6972 -6493 0
-6972 -6494 0
-6972 -6495 0
-6972 -6496 0
-6972 -6497 0
-6972 -6498 0
-6972 -6499 0
-6972 -6500 0
-6972 -6501 0
-6972 -6502 0
-6972 -6503 0
-6972 -6504 0
-6972 -6505 0
-6972 -6506 0
-6972 -6507 0
-6972 -6508 0
-6972 -6509 0
-6972 -6510 0
-6972 -6511 0
-6972 -6512 0
-6972 -6513 0
-6972 -6514 0
-6972 -6515 0
-6972 -6516 0
-6972 -6517 0
-6972 -6518 0
-6972 -6519 0
-6972 -6520 0
-6972 -6521 0
-6972 -6522 0
-6972 -6523 0
-6972 -6524 0
-6972 -6525 0
-6972 -6526 0
-6972 -6527 0
-6972 -6528 0
-6972 -6529 0
-6972 -6530 0
-6972 -6531 0
-6972 -6532 0
-6972 -6533 0
-6972 -6534 0
-6972 -6535 0
-6972 -6536 0
-6972 -6537 0
-6972 -6538 0
-6972 -6539 0
-6972 -6540 0
-6972 -6541 0
-6972 -6542 0
-6972 -6543 0
-6972 -6544 0
-6972 -6545 0
-6972 -6546 0
-6972 -6547 0
-6972 -6548 0
-6972 -6549 0
-6972 -6550 0
-6972 -6551 0
-6972 -6552 0
-6972 -6553 0
-6972 -6554 0
-6972 -6555 0
-6972 -6556 0
-6972 -6557 0
-6972 -6558 0
-6972 -6559 0
-6972 -6560 0
-6972 -6561 0
-6972 -6562 0
-6972 -6563 0
-6972 -6564 0
-6972 -6565 0
-6972 -6566 0
-6972 -6567 0
-6972 -6568 0
-6972 -6569 0
-6972 -6570 0
-6972 -6571 0
-6972 -6572 0
-6972 -6573 0
-6972 -6574 0
-6972 -6575 0
-6972 -6576 0
-6972 -6577 0
-6972 -6578 0
-6972 -6579 0
-6972 -6580 0
-6972 -6581 0
-6972 -6582 0
-6972 -6583 0
-6972 -6584 0
-6972 -6585 0
-6972 -6586 0
-6972 -6587 0
-6972 -6588 0
-6972 -6589 0
-6972 -6590 0
-6972 -6591 0
-6972 -6592 0
-6972 -6593 0
-6972 -6594 0
-6972 -6595 0
-6972 -6596 0
-6972 -6597 0
-6972 -6598 0
-6972 -6599 0
-6972 -6600 0
-6972 -6601 0
-6972 -6602 0
-6972 -6603 0
-6972 -6604 0
-6972 -6605 0
-6972 -6606 0
-6972 -6607 0
-6972 -6608 0
-6972 -6609 0
-6972 -6610 0
-6972 -6611 0
-6972 -6612 0
-6972 -6613 0
-6972 -6614 0
-6972 -6615 0
-6972 -6616 0
-6972 -6617 0
-6972 -6618 0
-6972 -6619 0
-6972 -6620 0
-6972 -6621 0
-6972 -6622 0
-6972 -6623 0
-6972 -6624 0
-6972 -6625 0
-6972 -6626 0
-6972 -6627 0
-6972 -6628 0
-6972 -6629 0
-6972 -6630 0
-6972 -6631 0
-6972 -6632 0
-6972 -6633 0
-6972 -6634 0
-6972 -6635 0
-6972 -6636 0
-6972 -6637 0
-6972 -6638 0
-6972 -6639 0
-6972 -6640 0
-6972 -6641 0
-6972 -6642 0
-6972 -6643 0
-6972 -6644 0
-6972 -6645 0
-6972 -6646 0
-6972 -6647 0
-6972 -6648 0
-6972 -6649 0
-6972 -6650 0
-6972 -6651 0
-6972 -6652 0
-6972 -6653 0
-6972 -6654 0
-6972 -6655 0
-6972 -6656 0
-6972 -6657 0
-6972 -6658 0
-6972 -6659 0
-6972 -6660 0
-6972 -6661 0
-6972 -6662 0
-6972 -6663 0
-6972 -6664 0
-6972 -6665 0
-6972 -6666 0
-6972 -6667 0
-6972 -6668 0
-6972 -6669 0
-6972 -6670 0
-6972 -6671 0
-6972 -6672 0
-6972 -6673 0
-6972 -6674 0
-6972 -6675 0
-6972 -6676 0
-6972 -6677 0
-6972 -6678 0
-6972 -6679 0
-6972 -6680 0
-6972 -6681 0
-6972 -6682 0
-6972 -6683 0
-6972 -6684 0
-6972 -6685 0
-6972 -6686 0
-6972 -6687 0
-6972 -6688 0
-6972 -6689 0
-6972 -6690 0
-6972 -6691 0
-6972 -6692 0
-6972 -6693 0
-6972 -6694 0
-6972 -6695 0
-6972 -6696 0
-6972 -6697 0
-6972 -6698 0
-6972 -6699 0
-6972 -6700 0
-6972 -6701 0
-6972 -6702 0
-6972 -6703 0
-6972 -6704 0
-6972 -6705 0
-6972 -6706 0
-6972 -6707 0
-6972 -6708 0
-6972 -6709 0
-6972 -6710 0
-6972 -6711 0
-6972 -6712 0
-6972 -6713 0
-6972 -6714 0
-6972 -6715 0
-6972 -6716 0
-6972 -6717 0
-6972 -6718 0
-6972 -6719 0
-6972 -6720 0
-6972 -6721 0
-6972 -6722 0
-6972 -6723 0
-6972 -6724 0
-6972 -6725 0
-6972 -6726 0
-6972 -6727 0
-6972 -6728 0
-6972 -6729 0
-6972 -6730 0
-6972 -6731 0
-6972 -6732 0
-6972 -6733 0
-6972 -6734 0
-6972 -6735 0
-6972 -6736 0
-6972 -6737 0
-6972 -6738 0
-6972 -6739 0
-6972 -6740 0
-6972 -6741 0
-6972 -6742 0
-6972 -6743 0
-6972 -6744 0
-6972 -6745 0
-6972 -6746 0
-6972 -6747 0
-6972 -6748 0
-6972 -6749 0
-6972 -6750 0
-6972 -6751 0
-6972 -6752 0
-6972 -6753 0
-6972 -6754 0
-6972 -6755 0
-6972 -6756 0
-6972 -6757 0
-6972 -6758 0
-6972 -6759 0
-6972 -6760 0
-6972 -6761 0
-6972 -6762 0
-6972 -6763 0
-6972 -6764 0
-6972 -6765 0
-6972 -6766 0
-6972 -6767 0
-6972 -6768 0
-6972 -6769 0
-6972 -6770 0
-6972 -6771 0
-6972 -6772 0
-6972 -6773 0
-6972 -6774 0
-6972 -6775 0
-6972 -6776 0
-6972 -6777 0
-6972 -6778 0
-6972 -6779 0
-6972 -6780 0
-6972 -6781 0
-6972 -6782 0
-6972 -6783 0
-6972 -6784 0
-6972 -6785 0
-6972 -6786 0
-6972 -6787 0
-6972 -6788 0
-6972 -6789 0
-6972 -6790 0
-6972 -6791 0
-6972 -6792 0
-6972 -6793 0
-6972 -6794 0
-6972 -6795 0
-6972 -6796 0
-6972 -6797 0
-6972 -6798 0
-6972 -6799 0
-6972 -6800 0
-6972 -6801 0
-6972 -6802 0
-6972 -6803 0
-6972 -6804 0
-6972 -6805 0
-6972 -6806 0
-6972 -6807 0
-6972 -6808 0
-6972 -6809 0
-6972 -6810 0
-6972 -6811 0
-6972 -6812 0
-6972 -6813 0
-6972 -6814 0
-6972 -6815 0
-6972 -6816 0
-6972 -6817 0
-6972 -6818 0
-6972 -6819 0
-6972 -6820 0
-6972 -6821 0
-6972 -6822 0
-6972 -6823 0
-6972 -6824 0
-6972 -6825 0
-6972 -6826 0
-6972 -6827 0
-6972 -6828 0
-6972 -6829 0
-6972 -6830 0
-6972 -6831 0
-6972 -6832 0
-6972 -6833 0
-6972 -6834 0
-6972 -6835 0
-6972 -6836 0
-6972 -6837 0
-6972 -6838 0
-6972 -6839 0
-6972 -6840 0
-6972 -6841 0
-6972 -6842 0
-6972 -6843 0
-6972 -6844 0
-6972 -6845 0
-6972 -6846 0
-6972 -6847 0
-6972 -6848 0
-6972 -6849 0
-6972 -6850 0
-6972 -6851 0
-6972 -6852 0
-6972 -6853 0
-6972 -6854 0
-6972 -6855 0
-6972 -6856 0
-6972 -6857 0
-6972 -6858 0
-6972 -6859 0
-6972 -6860 0
-6972 -6861 0
-6972 -6862 0
-6972 -6863 0
-6972 -6864 0
-6972 -6865 0
-6972 -6866 0
-6972 -6867 0
-6972 -6868 0
-6972 -6869 0
-6972 -6870 0
-6972 -6871 0
-6972 -6872 0
-6972 -6873 0
-6972 -6874 0
-6972 -6875 0
-6972 -6876 0
-6972 -6877 0
-6972 -6878 0
-6972 -6879 0
-6972 -6880 0
-6972 -6881 0
-6972 -6882 0
-6972 -6883 0
-6972 -6884 0
-6972 -6885 0
-6972 -6886 0
-6972 -6887 0
-6972 -6888 0
-6972 -6889 0
-6972 -6890 0
-6972 -6891 0
-6972 -6892 0
-6972 -6893 0
-6972 -6894 0
-6972 -6895 0
-6972 -6896 0
-6972 -6897 0
-6972 -6898 0
-6972 -6899 0
-6972 -6900 0
-6972 -6901 0
-6972 -6902 0
-6972 -6903 0
-6972 -6904 0
-6972 -6905 0
-6972 -6906 0
-6972 -6907 0
-6972 -6908 0
-6972 -6909 0
-6972 -6910 0
-6972 -6911 0
-6972 -6912 0
-6972 -6913 0
-6972 -6914 0
-6972 -6915 0
-6972 -6916 0
-6972 -6917 0
-6972 -6918 0
-6972 -6919 0
-6972 -6920 0
-6972 -6921 0
-6972 -6922 0
-6972 -6923 0
-6972 -6924 0
-6972 -6925 0
-6972 -6926 0
-6972 -6927 0
-6972 -6928 0
-6972 -6929 0
-6972 -6930 0
-6972 -6931 0
-6972 -6932 0
-6972 -6933 0
-6972 -6934 0
-6972 -6935 0
-6972 -6936 0
-6972 -6937 0
-6972 -6938 0
-6972 -6939 0
-6972 -6940 0
-6972 -6941 0
-6972 -6942 0
-6972 -6943 0
-6972 -6944 0
-6972 -6945 0
-6972 -6946 0
-6972 -6947 0
-6972 -6948 0
-6972 -6949 0
-6972 -6950 0
-6972 -6951 0
-6972 -6952 0
-6972 -6953 0
-6972 -6954 0
-6972 -6955 0
-6972 -6956 0
-6972 -6957 0
-6972 -6958 0
-6972 -6959 0
-6972 -6960 0
-6972 -6961 0
-6972 -6962 0
-6972 -6963 0
-6972 -6964 0
-6972 -6965 0
-6972 -6966 0
-6972 -6967 0
-6972 -6968 0
-6972 -6969 0
-6972 -6970 0
-6972 -6971 0
6972 6204 6205 6206 6207 6208 6209 6210 6211 6212 6213 6214 6215 6216 6217 6218 6219 6220 6221 6222 6223 6224 6225 6226 6227 6228 6229 6230 6231 6232 6233 6234 6235 6236 6237 6238 6239 6240 6241 6242 6243 6244 6245 6246 6247 6248 6249 6250 6251 6252 6253 6254 6255 6256 6257 6258 6259 6260 6261 6262 6263 6264 6265 6266 6267 6268 6269 6270 6271 6272 6273 6274 6275 6276 6277 6278 6279 6280 6281 6282 6283 6284 6285 6286 6287 6288 6289 6290 6291 6292 6293 6294 6295 6296 6297 6298 6299 6300 6301 6302 6303 6304 6305 6306 6307 6308 6309 6310 6311 6312 6313 6314 6315 6316 6317 6318 6319 6320 6321 6322 6323 6324 6325 6326 6327 6328 6329 6330 6331 6332 6333 6334 6335 6336 6337 6338 6339 6340 6341 6342 6343 6344 6345 6346 6347 6348 6349 6350 6351 6352 6353 6354 6355 6356 6357 6358 6359 6360 6361 6362 6363 6364 6365 6366 6367 6368 6369 6370 6371 6372 6373 6374 6375 6376 6377 6378 6379 6380 6381 6382 6383 6384 6385 6386 6387 6388 6389 6390 6391 6392 6393 6394 6395 6396 6397 6398 6399 6400 6401 6402 6403 6404 6405 6406 6407 6408 6409 6410 6411 6412 6413 6414 6415 6416 6417 6418 6419 6420 6421 6422 6423 6424 6425 6426 6427 6428 6429 6430 6431 6432 6433 6434 6435 6436 6437 6438 6439 6440 6441 6442 6443 6444 6445 6446 6447 6448 6449 6450 6451 6452 6453 6454 6455 6456 6457 6458 6459 6460 6461 6462 6463 6464 6465 6466 6467 6468 6469 6470 6471 6472 6473 6474 6475 6476 6477 6478 6479 6480 6481 6482 6483 6484 6485 6486 6487 6488 6489 6490 6491 6492 6493 6494 6495 6496 6497 6498 6499 6500 6501 6502 6503 6504 6505 6506 6507 6508 6509 6510 6511 6512 6513 6514 6515 6516 6517 6518 6519 6520 6521 6522 6523 6524 6525 6526 6527 6528 6529 6530 6531 6532 6533 6534 6535 6536 6537 6538 6539 6540 6541 6542 6543 6544 6545 6546 6547 6548 6549 6550 6551 6552 6553 6554 6555 6556 6557 6558 6559 6560 6561 6562 6563 6564 6565 6566 6567 6568 6569 6570 6571 6572 6573 6574 6575 6576 6577 6578 6579 6580 6581 6582 6583 6584 6585 6586 6587 6588 6589 6590 6591 6592 6593 6594 6595 6596 6597 6598 6599 6600 6601 6602 6603 6604 6605 6606 6607 6608 6609 6610 6611 6612 6613 6614 6615 6616 6617 6618 6619 6620 6621 6622 6623 6624 6625 6626 6627 6628 6629 6630 6631 6632 6633 6634 6635 6636 6637 6638 6639 6640 6641 6642 6643 6644 6645 6646 6647 6648 6649 6650 6651 6652 6653 6654 6655 6656 6657 6658 6659 6660 6661 6662 6663 6664 6665 6666 6667 6668 6669 6670 6671 6672 6673 6674 6675 6676 6677 6678 6679 6680 6681 6682 6683 6684 6685 6686 6687 6688 6689 6690 6691 6692 6693 6694 6695 6696 6697 6698 6699 6700 6701 6702 6703 6704 6705 6706 6707 6708 6709 6710 6711 6712 6713 6714 6715 6716 6717 6718 6719 6720 6721 6722 6723 6724 6725 6726 6727 6728 6729 6730 6731 6732 6733 6734 6735 6736 6737 6738 6739 6740 6741 6742 6743 6744 6745 6746 6747 6748 6749 6750 6751 6752 6753 6754 6755 6756 6757 6758 6759 6760 6761 6762 6763 6764 6765 6766 6767 6768 6769 6770 6771 6772 6773 6774 6775 6776 6777 6778 6779 6780 6781 6782 6783 6784 6785 6786 6787 6788 6789 6790 6791 6792 6793 6794 6795 6796 6797 6798 6799 6800 6801 6802 6803 6804 6805 6806 6807 6808 6809 6810 6811 6812 6813 6814 6815 6816 6817 6818 6819 6820 6821 6822 6823 6824 6825 6826 6827 6828 6829 6830 6831 6832 6833 6834 6835 6836 6837 6838 6839 6840 6841 6842 6843 6844 6845 6846 6847 6848 6849 6850 6851 6852 6853 6854 6855 6856 6857 6858 6859 6860 6861 6862 6863 6864 6865 6866 6867 6868 6869 6870 6871 6872 6873 6874 6875 6876 6877 6878 6879 6880 6881 6882 6883 6884 6885 6886 6887 6888 6889 6890 6891 6892 6893 6894 6895 6896 6897 6898 6899 6900 6901 6902 6903 6904 6905 6906 6907 6908 6909 6910 6911 6912 6913 6914 6915 6916 6917 6918 6919 6920 6921 6922 6923 6924 6925 6926 6927 6928 6929 6930 6931 6932 6933 6934 6935 6936 6937 6938 6939 6940 6941 6942 6943 6944 6945 6946 6947 6948 6949 6950 6951 6952 6953 6954 6955 6956 6957 6958 6959 6960 6961 6962 6963 6964 6965 6966 6967 6968 6969 6970 6971 0
-6973 -134 0
6973 134 0
-6974 32 0
-6974 42 0
-6974 48 0
-6974 49 0
6974 -32 -42 -48 -49 0
-6975 133 0
6975 -133 0
-6976 122 0
6976 -122 0
-6977 32 0
-6977 42 0
-6977 -126 0
6977 -32 -42 126 0
-6978 42 0
-6978 48 0
-6978 -100 0
6978 -42 -48 100 0
-6979 32 0
-6979 49 0
-6979 100 0
6979 -32 -49 -100 0
-6980 42 0
-6980 -100 0
-6980 -126 0
6980 -42 100 126 0
-6981 32 0
-6981 100 0
-6981 -126 0
6981 -32 -100 126 0
-6982 48 0
-6982 49 0
-6982 126 0
6982 -48 -49 -126 0
-6983 49 0
-6983 100 0
-6983 126 0
6983 -49 -100 -126 0
-6984 48 0
-6984 -100 0
-6984 126 0
6984 -48 100 -126 0
-6985 -6973 0
-6985 -6974 0
-6985 -6975 0
-6985 -6976 0
-6985 -6977 0
-6985 -6978 0
-6985 -6979 0
-6985 -6980 0
-6985 -6981 0
-6985 -6982 0
-6985 -6983 0
-6985 -6984 0
6985 6973 6974 6975 6976 6977 6978 6979 6980 6981 6982 6983 6984 0
-6986 -122 0
6986 122 0
-6987 -134 0
6987 134 0
-6988 15 0
-6988 25 0
-6988 33 0
-6988 47 0
6988 -15 -25 -33 -47 0
-6989 133 0
6989 -133 0
-6990 25 0
-6990 33 0
-6990 100 0
6990 -25 -33 -100 0
-6991 15 0
-6991 25 0
-6991 126 0
6991 -15 -25 -126 0
-6992 15 0
-6992 47 0
-6992 -100 0
6992 -15 -47 100 0
-6993 47 0
-6993 -100 0
-6993 -126 0
6993 -47 100 126 0
-6994 33 0
-6994 100 0
-6994 -126 0
6994 -33 -100 126 0
-6995 25 0
-6995 100 0
-6995 126 0
6995 -25 -100 -126 0
-6996 15 0
-6996 -100 0
-6996 126 0
6996 -15 100 -126 0
-6997 -6986 0
-6997 -6987 0
-6997 -6988 0
-6997 -6989 0
-6997 -6990 0
-6997 -6991 0
-6997 -6992 0
-6997 -6993 0
-6997 -6994 0
-6997 -6995 0
-6997 -6996 0
6997 6986 6987 6988 6989 6990 6991 6992 6993 6994 6995 6996 0
-6998 -16 0
-6998 19 0
-6998 39 0
-6998 -116 0
6998 16 -19 -39 116 0
-6999 -6998 0
6999 6998 0
-7000 -193 0
7000 193 0
-7001 -133 0
7001 133 0
-7002 -122 0
-7002 -126 0
-7002 -134 0
7002 122 126 134 0
-7003 -100 0
-7003 -122 0
-7003 -126 0
-7003 -163 0
-7003 209 0
7003 100 122 126 163 -209 0
-7004 -100 0
-7004 -122 0
-7004 -126 0
-7004 -166 0
-7004 209 0
7004 100 122 126 166 -209 0
-7005 -100 0
-7005 -122 0
-7005 -126 0
-7005 -173 0
-7005 209 0
7005 100 122 126 173 -209 0
-7006 39 0
-7006 100 0
-7006 122 0
-7006 126 0
-7006 134 0
-7006 152 0
7006 -39 -100 -122 -126 -134 -152 0
-7007 12 0
-7007 100 0
-7007 122 0
-7007 126 0
-7007 -134 0
-7007 201 0
7007 -12 -100 -122 -126 134 -201 0
-7008 12 0
-7008 100 0
-7008 122 0
-7008 126 0
-7008 -134 0
-7008 163 0
-7008 166 0
-7008 173 0
7008 -12 -100 -122 -126 134 -163 -166 -173 0
-7009 116 0
-7009 122 0
-7009 126 0
-7009 134 0
-7009 152 0
7009 -116 -122 -126 -134 -152 0
-7010 -16 0
-7010 100 0
-7010 122 0
-7010 126 0
-7010 134 0
-7010 152 0
7010 16 -100 -122 -126 -134 -152 0
-7011 -17 0
-7011 100 0
-7011 122 0
-7011 126 0
-7011 134 0
-7011 152 0
7011 17 -100 -122 -126 -134 -152 0
-7012 -19 0
-7012 122 0
-7012 126 0
-7012 134 0
-7012 152 0
7012 19 -122 -126 -134 -152 0
-7013 6 0
-7013 16 0
-7013 31 0
-7013 39 0
-7013 -100 0
-7013 122 0
-7013 134 0
7013 -6 -16 -31 -39 100 -122 -134 0
-7014 16 0
-7014 39 0
-7014 -100 0
-7014 122 0
-7014 126 0
-7014 134 0
7014 -16 -39 100 -122 -126 -134 0
-7015 6 0
-7015 -16 0
-7015 31 0
-7015 -39 0
-7015 -100 0
-7015 122 0
-7015 134 0
7015 -6 16 -31 39 100 -122 -134 0
-7016 -16 0
-7016 -39 0
-7016 -100 0
-7016 122 0
-7016 126 0
-7016 134 0
7016 16 39 100 -122 -126 -134 0
-7017 6 0
-7017 16 0
-7017 -17 0
-7017 31 0
-7017 -100 0
-7017 122 0
-7017 134 0
7017 -6 -16 17 -31 100 -122 -134 0
-7018 16 0
-7018 -17 0
-7018 -100 0
-7018 122 0
-7018 126 0
-7018 134 0
7018 -16 17 100 -122 -126 -134 0
-7019 5 0
-7019 29 0
-7019 30 0
-7019 87 0
-7019 -100 0
-7019 -122 0
-7019 126 0
7019 -5 -29 -30 -87 100 122 -126 0
-7020 1 0
-7020 14 0
-7020 100 0
-7020 -122 0
-7020 126 0
-7020 134 0
7020 -1 -14 -100 122 -126 -134 0
-7021 14 0
-7021 100 0
-7021 -122 0
-7021 126 0
-7021 134 0
-7021 163 0
-7021 166 0
-7021 173 0
7021 -14 -100 122 -126 -134 -163 -166 -173 0
-7022 29 0
-7022 30 0
-7022 -100 0
-7022 -122 0
-7022 126 0
-7022 163 0
-7022 166 0
-7022 173 0
7022 -29 -30 100 122 -126 -163 -166 -173 0
-7023 10 0
-7023 22 0
-7023 85 0
-7023 100 0
-7023 122 0
-7023 -126 0
-7023 211 0
7023 -10 -22 -85 -100 -122 126 -211 0
-7024 22 0
-7024 100 0
-7024 122 0
-7024 -126 0
-7024 134 0
-7024 211 0
7024 -22 -100 -122 126 -134 -211 0
-7025 9 0
-7025 31 0
-7025 -100 0
-7025 122 0
-7025 -126 0
-7025 163 0
-7025 166 0
-7025 173 0
7025 -9 -31 100 -122 126 -163 -166 -173 0
-7026 20 0
-7026 100 0
-7026 -122 0
-7026 -126 0
-7026 206 0
7026 -20 -100 122 126 -206 0
-7027 5 0
-7027 21 0
-7027 29 0
-7027 30 0
-7027 87 0
-7027 -100 0
-7027 -122 0
-7027 209 0
7027 -5 -21 -29 -30 -87 100 122 -209 0
-7028 21 0
-7028 -100 0
-7028 -122 0
-7028 -126 0
-7028 209 0
7028 -21 100 122 126 -209 0
-7029 5 0
-7029 30 0
-7029 -100 0
-7029 -122 0
-7029 126 0
-7029 134 0
7029 -5 -30 100 122 -126 -134 0
-7030 5 0
-7030 87 0
-7030 -100 0
-7030 -122 0
-7030 126 0
-7030 -163 0
7030 -5 -87 100 122 -126 163 0
-7031 5 0
-7031 87 0
-7031 -100 0
-7031 -122 0
-7031 126 0
-7031 -166 0
7031 -5 -87 100 122 -126 166 0
-7032 5 0
-7032 87 0
-7032 -100 0
-7032 -122 0
-7032 126 0
-7032 -173 0
7032 -5 -87 100 122 -126 173 0
-7033 87 0
-7033 -100 0
-7033 -122 0
-7033 -134 0
-7033 -163 0
7033 -87 100 122 134 163 0
-7034 87 0
-7034 -100 0
-7034 -122 0
-7034 -134 0
-7034 -166 0
7034 -87 100 122 134 166 0
-7035 87 0
-7035 -100 0
-7035 -122 0
-7035 -134 0
-7035 -173 0
7035 -87 100 122 134 173 0
-7036 5 0
-7036 -100 0
-7036 -122 0
-7036 126 0
-7036 134 0
-7036 -163 0
7036 -5 100 122 -126 -134 163 0
-7037 5 0
-7037 -100 0
-7037 -122 0
-7037 126 0
-7037 134 0
-7037 -166 0
7037 -5 100 122 -126 -134 166 0
-7038 5 0
-7038 -100 0
-7038 -122 0
-7038 126 0
-7038 134 0
-7038 -173 0
7038 -5 100 122 -126 -134 173 0
-7039 30 0
-7039 -100 0
-7039 -122 0
-7039 126 0
-7039 134 0
-7039 163 0
-7039 166 0
-7039 173 0
7039 -30 100 122 -126 -134 -163 -166 -173 0
-7040 29 0
-7040 -100 0
-7040 -122 0
-7040 -134 0
-7040 163 0
-7040 166 0
-7040 173 0
7040 -29 100 122 134 -163 -166 -173 0
-7041 1 0
-7041 14 0
-7041 18 0
-7041 100 0
-7041 -122 0
-7041 126 0
-7041 179 0
7041 -1 -14 -18 -100 122 -126 -179 0
-7042 18 0
-7042 100 0
-7042 -122 0
-7042 -134 0
-7042 179 0
7042 -18 -100 122 134 -179 0
-7043 18 0
-7043 100 0
-7043 -122 0
-7043 -134 0
-7043 163 0
-7043 166 0
-7043 173 0
7043 -18 -100 122 134 -163 -166 -173 0
-7044 1 0
-7044 100 0
-7044 -122 0
-7044 126 0
-7044 134 0
-7044 -163 0
7044 -1 -100 122 -126 -134 163 0
-7045 100 0
-7045 -122 0
-7045 -134 0
-7045 -163 0
-7045 179 0
7045 -100 122 134 163 -179 0
-7046 100 0
-7046 -122 0
-7046 -134 0
-7046 -166 0
-7046 179 0
7046 -100 122 134 166 -179 0
-7047 100 0
-7047 -122 0
-7047 -134 0
-7047 -173 0
-7047 179 0
7047 -100 122 134 173 -179 0
-7048 1 0
-7048 100 0
-7048 -122 0
-7048 126 0
-7048 134 0
-7048 -166 0
7048 -1 -100 122 -126 -134 166 0
-7049 1 0
-7049 100 0
-7049 -122 0
-7049 126 0
-7049 134 0
-7049 -173 0
7049 -1 -100 122 -126 -134 173 0
-7050 100 0
-7050 -122 0
-7050 -126 0
-7050 -166 0
-7050 206 0
7050 -100 122 126 166 -206 0
-7051 100 0
-7051 -122 0
-7051 -126 0
-7051 -173 0
-7051 206 0
7051 -100 122 126 173 -206 0
-7052 21 0
-7052 -100 0
-7052 -122 0
-7052 -126 0
-7052 163 0
-7052 166 0
-7052 173 0
7052 -21 100 122 126 -163 -166 -173 0
-7053 20 0
-7053 100 0
-7053 -122 0
-7053 -126 0
-7053 163 0
-7053 166 0
-7053 173 0
7053 -20 -100 122 126 -163 -166 -173 0
-7054 100 0
-7054 -122 0
-7054 -126 0
-7054 -163 0
-7054 206 0
7054 -100 122 126 163 -206 0
-7055 4 0
-7055 6 0
-7055 9 0
-7055 16 0
-7055 31 0
-7055 39 0
-7055 86 0
-7055 -100 0
-7055 122 0
-7055 200 0
7055 -4 -6 -9 -16 -31 -39 -86 100 -122 -200 0
-7056 4 0
-7056 16 0
-7056 39 0
-7056 -100 0
-7056 122 0
-7056 126 0
-7056 200 0
7056 -4 -16 -39 100 -122 -126 -200 0
-7057 4 0
-7057 6 0
-7057 9 0
-7057 31 0
-7057 86 0
-7057 -100 0
-7057 116 0
-7057 122 0
-7057 200 0
7057 -4 -6 -9 -31 -86 100 -116 -122 -200 0
-7058 4 0
-7058 -100 0
-7058 116 0
-7058 122 0
-7058 126 0
-7058 200 0
7058 -4 100 -116 -122 -126 -200 0
-7059 4 0
-7059 6 0
-7059 9 0
-7059 -19 0
-7059 31 0
-7059 86 0
-7059 -100 0
-7059 122 0
-7059 200 0
7059 -4 -6 -9 19 -31 -86 100 -122 -200 0
-7060 4 0
-7060 -19 0
-7060 -100 0
-7060 122 0
-7060 126 0
-7060 200 0
7060 -4 19 100 -122 -126 -200 0
-7061 4 0
-7061 6 0
-7061 9 0
-7061 -16 0
-7061 31 0
-7061 -39 0
-7061 86 0
-7061 -100 0
-7061 122 0
-7061 200 0
7061 -4 -6 -9 16 -31 39 -86 100 -122 -200 0
-7062 4 0
-7062 -16 0
-7062 -39 0
-7062 -100 0
-7062 122 0
-7062 126 0
-7062 200 0
7062 -4 16 39 100 -122 -126 -200 0
-7063 4 0
-7063 6 0
-7063 9 0
-7063 16 0
-7063 -17 0
-7063 31 0
-7063 86 0
-7063 -100 0
-7063 122 0
-7063 200 0
7063 -4 -6 -9 -16 17 -31 -86 100 -122 -200 0
-7064 4 0
-7064 16 0
-7064 -17 0
-7064 -100 0
-7064 122 0
-7064 126 0
-7064 200 0
7064 -4 -16 17 100 -122 -126 -200 0
-7065 6 0
-7065 86 0
-7065 -100 0
-7065 122 0
-7065 -126 0
-7065 -163 0
7065 -6 -86 100 -122 126 163 0
-7066 86 0
-7066 -100 0
-7066 -126 0
-7066 -134 0
-7066 -166 0
7066 -86 100 126 134 166 0
-7067 86 0
-7067 -100 0
-7067 -126 0
-7067 -134 0
-7067 -173 0
7067 -86 100 126 134 173 0
-7068 6 0
-7068 -17 0
-7068 -39 0
-7068 -100 0
-7068 122 0
-7068 134 0
-7068 -166 0
7068 -6 17 39 100 -122 -134 166 0
-7069 6 0
-7069 -19 0
-7069 -100 0
-7069 122 0
-7069 134 0
-7069 -173 0
7069 -6 19 100 -122 -134 173 0
-7070 6 0
-7070 -17 0
-7070 -39 0
-7070 -100 0
-7070 122 0
-7070 134 0
-7070 -173 0
7070 -6 17 39 100 -122 -134 173 0
-7071 6 0
-7071 16 0
-7071 39 0
-7071 -100 0
-7071 122 0
-7071 134 0
-7071 -163 0
7071 -6 -16 -39 100 -122 -134 163 0
-7072 6 0
-7072 -100 0
-7072 122 0
-7072 -126 0
-7072 134 0
-7072 -163 0
7072 -6 100 -122 126 -134 163 0
-7073 9 0
-7073 86 0
-7073 -100 0
-7073 -126 0
-7073 -134 0
7073 -9 -86 100 126 134 0
-7074 86 0
-7074 -100 0
-7074 -126 0
-7074 -134 0
-7074 -163 0
7074 -86 100 126 134 163 0
-7075 85 0
-7075 100 0
-7075 -126 0
-7075 -134 0
-7075 -163 0
7075 -85 -100 126 134 163 0
-7076 100 0
-7076 122 0
-7076 -126 0
-7076 134 0
-7076 -163 0
-7076 211 0
7076 -100 -122 126 -134 163 -211 0
-7077 100 0
-7077 122 0
-7077 126 0
-7077 -134 0
-7077 -163 0
-7077 201 0
7077 -100 -122 -126 134 163 -201 0
-7078 10 0
-7078 22 0
-7078 100 0
-7078 122 0
-7078 -126 0
-7078 163 0
-7078 166 0
-7078 173 0
7078 -10 -22 -100 -122 126 -163 -166 -173 0
-7079 10 0
-7079 85 0
-7079 100 0
-7079 -126 0
-7079 -134 0
7079 -10 -85 -100 126 134 0
-7080 100 0
-7080 122 0
-7080 126 0
-7080 -134 0
-7080 -166 0
-7080 201 0
7080 -100 -122 -126 134 166 -201 0
-7081 100 0
-7081 122 0
-7081 126 0
-7081 -134 0
-7081 -173 0
-7081 201 0
7081 -100 -122 -126 134 173 -201 0
-7082 4 0
-7082 -100 0
-7082 122 0
-7082 126 0
-7082 -134 0
-7082 200 0
7082 -4 100 -122 -126 134 -200 0
-7083 4 0
-7083 9 0
-7083 16 0
-7083 31 0
-7083 39 0
-7083 -100 0
-7083 122 0
-7083 163 0
-7083 166 0
-7083 173 0
7083 -4 -9 -16 -31 -39 100 -122 -163 -166 -173 0
-7084 4 0
-7084 -100 0
-7084 122 0
-7084 126 0
-7084 -134 0
-7084 163 0
-7084 166 0
-7084 173 0
7084 -4 100 -122 -126 134 -163 -166 -173 0
-7085 -100 0
-7085 122 0
-7085 126 0
-7085 -134 0
-7085 -166 0
-7085 200 0
7085 100 -122 -126 134 166 -200 0
-7086 -100 0
-7086 122 0
-7086 126 0
-7086 -134 0
-7086 -173 0
-7086 200 0
7086 100 -122 -126 134 173 -200 0
-7087 -100 0
-7087 122 0
-7087 126 0
-7087 -134 0
-7087 -163 0
-7087 200 0
7087 100 -122 -126 134 163 -200 0
-7088 -19 0
-7088 -100 0
-7088 122 0
-7088 126 0
-7088 134 0
7088 19 100 -122 -126 -134 0
-7089 6 0
-7089 86 0
-7089 -100 0
-7089 122 0
-7089 -126 0
-7089 -166 0
7089 -6 -86 100 -122 126 166 0
-7090 6 0
-7090 -19 0
-7090 -100 0
-7090 122 0
-7090 134 0
-7090 -166 0
7090 -6 19 100 -122 -134 166 0
-7091 6 0
-7091 -19 0
-7091 31 0
-7091 -100 0
-7091 122 0
-7091 134 0
7091 -6 19 -31 100 -122 -134 0
-7092 -19 0
-7092 31 0
-7092 -100 0
-7092 122 0
-7092 134 0
-7092 163 0
-7092 166 0
-7092 173 0
7092 19 -31 100 -122 -134 -163 -166 -173 0
-7093 9 0
-7093 -100 0
-7093 -126 0
-7093 -134 0
-7093 163 0
-7093 166 0
-7093 173 0
7093 -9 100 126 134 -163 -166 -173 0
-7094 100 0
-7094 122 0
-7094 -126 0
-7094 134 0
-7094 -166 0
-7094 211 0
7094 -100 -122 126 -134 166 -211 0
-7095 100 0
-7095 122 0
-7095 -126 0
-7095 134 0
-7095 -173 0
-7095 211 0
7095 -100 -122 126 -134 173 -211 0
-7096 85 0
-7096 100 0
-7096 -126 0
-7096 -134 0
-7096 -166 0
7096 -85 -100 126 134 166 0
-7097 85 0
-7097 100 0
-7097 -126 0
-7097 -134 0
-7097 -173 0
7097 -85 -100 126 134 173 0
-7098 10 0
-7098 100 0
-7098 -126 0
-7098 -134 0
-7098 163 0
-7098 166 0
-7098 173 0
7098 -10 -100 126 134 -163 -166 -173 0
-7099 22 0
-7099 100 0
-7099 122 0
-7099 -126 0
-7099 134 0
-7099 163 0
-7099 166 0
-7099 173 0
7099 -22 -100 -122 126 -134 -163 -166 -173 0
-7100 6 0
-7100 -100 0
-7100 122 0
-7100 -126 0
-7100 134 0
-7100 -166 0
7100 -6 100 -122 126 -134 166 0
-7101 6 0
-7101 31 0
-7101 -100 0
-7101 116 0
-7101 122 0
-7101 134 0
7101 -6 -31 100 -116 -122 -134 0
-7102 6 0
-7102 9 0
-7102 31 0
-7102 86 0
-7102 -100 0
-7102 122 0
-7102 -126 0
7102 -6 -9 -31 -86 100 -122 126 0
-7103 6 0
-7103 31 0
-7103 -100 0
-7103 122 0
-7103 -126 0
-7103 134 0
7103 -6 -31 100 -122 126 -134 0
-7104 -100 0
-7104 116 0
-7104 122 0
-7104 126 0
-7104 134 0
7104 100 -116 -122 -126 -134 0
-7105 6 0
-7105 -100 0
-7105 122 0
-7105 -126 0
-7105 134 0
-7105 -173 0
7105 -6 100 -122 126 -134 173 0
-7106 31 0
-7106 -100 0
-7106 122 0
-7106 -126 0
-7106 134 0
-7106 163 0
-7106 166 0
-7106 173 0
7106 -31 100 -122 126 -134 -163 -166 -173 0
-7107 -7000 0
-7107 -7001 0
-7107 -7002 0
-7107 -7003 0
-7107 -7004 0
-7107 -7005 0
-7107 -7006 0
-7107 -7007 0
-7107 -7008 0
-7107 -7009 0
-7107 -7010 0
-7107 -7011 0
-7107 -7012 0
-7107 -7013 0
-7107 -7014 0
-7107 -7015 0
-7107 -7016 0
-7107 -7017 0
-7107 -7018 0
-7107 -7019 0
-7107 -7020 0
-7107 -7021 0
-7107 -7022 0
-7107 -7023 0
-7107 -7024 0
-7107 -7025 0
-7107 -7026 0
-7107 -7027 0
-7107 -7028 0
-7107 -7029 0
-7107 -7030 0
-7107 -7031 0
-7107 -7032 0
-7107 -7033 0
-7107 -7034 0
-7107 -7035 0
-7107 -7036 0
-7107 -7037 0
-7107 -7038 0
-7107 -7039 0
-7107 -7040 0
-7107 -7041 0
-7107 -7042 0
-7107 -7043 0
-7107 -7044 0
-7107 -7045 0
-7107 -7046 0
-7107 -7047 0
-7107 -7048 0
-7107 -7049 0
-7107 -7050 0
-7107 -7051 0
-7107 -7052 0
-7107 -7053 0
-7107 -7054 0
-7107 -7055 0
-7107 -7056 0
-7107 -7057 0
-7107 -7058 0
-7107 -7059 0
-7107 -7060 0
-7107 -7061 0
-7107 -7062 0
-7107 -7063 0
-7107 -7064 0
-7107 -7065 0
-7107 -7066 0
-7107 -7067 0
-7107 -7068 0
-7107 -7069 0
-7107 -7070 0
-7107 -7071 0
-7107 -7072 0
-7107 -7073 0
-7107 -7074 0
-7107 -7075 0
-7107 -7076 0
-7107 -7077 0
-7107 -7078 0
-7107 -7079 0
-7107 -7080 0
-7107 -7081 0
-7107 -7082 0
-7107 -7083 0
-7107 -7084 0
-7107 -7085 0
-7107 -7086 0
-7107 -7087 0
-7107 -7088 0
-7107 -7089 0
-7107 -7090 0
-7107 -7091 0
-7107 -7092 0
-7107 -7093 0
-7107 -7094 0
-7107 -7095 0
-7107 -7096 0
-7107 -7097 0
-7107 -7098 0
-7107 -7099 0
-7107 -7100 0
-7107 -7101 0
-7107 -7102 0
-7107 -7103 0
-7107 -7104 0
-7107 -7105 0
-7107 -7106 0
7107 7000 7001 7002 7003 7004 7005 7006 7007 7008 7009 7010 7011 7012 7013 7014 7015 7016 7017 7018 7019 7020 7021 7022 7023 7024 7025 7026 7027 7028 7029 7030 7031 7032 7033 7034 7035 7036 7037 7038 7039 7040 7041 7042 7043 7044 7045 7046 7047 7048 7049 7050 7051 7052 7053 7054 7055 7056 7057 7058 7059 7060 7061 7062 7063 7064 7065 7066 7067 7068 7069 7070 7071 7072 7073 7074 7075 7076 7077 7078 7079 7080 7081 7082 7083 7084 7085 7086 7087 7088 7089 7090 7091 7092 7093 7094 7095 7096 7097 7098 7099 7100 7101 7102 7103 7104 7105 7106 0
-7108 -164 0
-7108 192 0
7108 164 -192 0
-7109 -148 0
-7109 -164 0
-7109 186 0
7109 148 164 -186 0
-7110 163 0
-7110 -164 0
-7110 166 0
-7110 173 0
7110 -163 164 -166 -173 0
-7111 -163 0
-7111 -164 0
-7111 -174 0
-7111 186 0
7111 163 164 174 -186 0
-7112 148 0
-7112 -164 0
-7112 174 0
-7112 177 0
7112 -148 164 -174 -177 0
-7113 23 0
-7113 192 0
7113 -23 -192 0
-7114 23 0
-7114 148 0
-7114 163 0
-7114 177 0
7114 -23 -148 -163 -177 0
-7115 23 0
-7115 163 0
-7115 166 0
-7115 173 0
7115 -23 -163 -166 -173 0
-7116 23 0
-7116 148 0
-7116 174 0
-7116 177 0
7116 -23 -148 -174 -177 0
-7117 23 0
-7117 -163 0
-7117 -174 0
-7117 186 0
7117 -23 163 174 -186 0
-7118 23 0
-7118 -148 0
-7118 186 0
7118 -23 148 -186 0
-7119 97 0
-7119 -148 0
-7119 186 0
7119 -97 148 -186 0
-7120 97 0
-7120 192 0
7120 -97 -192 0
-7121 97 0
-7121 148 0
-7121 163 0
-7121 177 0
7121 -97 -148 -163 -177 0
-7122 97 0
-7122 163 0
-7122 166 0
-7122 173 0
7122 -97 -163 -166 -173 0
-7123 97 0
-7123 148 0
-7123 174 0
-7123 177 0
7123 -97 -148 -174 -177 0
-7124 148 0
-7124 163 0
-7124 -164 0
-7124 177 0
7124 -148 -163 164 -177 0
-7125 97 0
-7125 -163 0
-7125 -174 0
-7125 186 0
7125 -97 163 174 -186 0
-7126 -7108 0
-7126 -7109 0
-7126 -7110 0
-7126 -7111 0
-7126 -7112 0
-7126 -7113 0
-7126 -7114 0
-7126 -7115 0
-7126 -7116 0
-7126 -7117 0
-7126 -7118 0
-7126 -7119 0
-7126 -7120 0
-7126 -7121 0
-7126 -7122 0
-7126 -7123 0
-7126 -7124 0
-7126 -7125 0
7126 7108 7109 7110 7111 7112 7113 7114 7115 7116 7117 7118 7119 7120 7121 7122 7123 7124 7125 0
-7127 -92 0
-7127 -93 0
-7127 -94 0
-7127 -95 0
-7127 -101 0
-7127 -110 0
7127 92 93 94 95 101 110 0
-7128 -42 0
-7128 -91 0
-7128 -100 0
-7128 -122 0
-7128 -126 0
-7128 -133 0
7128 42 91 100 122 126 133 0
-7129 -42 0
-7129 -91 0
-7129 -100 0
-7129 -122 0
-7129 -126 0
-7129 134 0
7129 42 91 100 122 126 -134 0
-7130 -91 0
-7130 -100 0
-7130 -122 0
-7130 126 0
-7130 133 0
-7130 -134 0
7130 91 100 122 -126 -133 134 0
-7131 92 0
-7131 93 0
-7131 94 0
-7131 95 0
-7131 101 0
-7131 110 0
7131 -92 -93 -94 -95 -101 -110 0
-7132 91 0
-7132 100 0
-7132 122 0
-7132 126 0
-7132 133 0
-7132 134 0
7132 -91 -100 -122 -126 -133 -134 0
-7133 91 0
-7133 100 0
-7133 -122 0
-7133 -126 0
-7133 -133 0
-7133 -134 0
7133 -91 -100 122 126 133 134 0
-7134 92 0
-7134 93 0
-7134 -94 0
-7134 95 0
-7134 101 0
-7134 -110 0
7134 -92 -93 94 -95 -101 110 0
-7135 -92 0
-7135 -93 0
-7135 -94 0
-7135 95 0
-7135 101 0
-7135 -110 0
7135 92 93 94 -95 -101 110 0
-7136 92 0
-7136 93 0
-7136 94 0
-7136 -95 0
-7136 101 0
-7136 -110 0
7136 -92 -93 -94 95 -101 110 0
-7137 -92 0
-7137 -93 0
-7137 94 0
-7137 -95 0
-7137 101 0
-7137 -110 0
7137 92 93 -94 95 -101 110 0
-7138 91 0
-7138 -100 0
-7138 122 0
-7138 -126 0
-7138 133 0
-7138 134 0
7138 -91 100 -122 126 -133 -134 0
-7139 91 0
-7139 -100 0
-7139 -122 0
-7139 -126 0
-7139 -133 0
-7139 134 0
7139 -91 100 122 126 133 -134 0
-7140 92 0
-7140 -93 0
-7140 94 0
-7140 -95 0
-7140 -101 0
-7140 -110 0
7140 -92 93 -94 95 101 110 0
-7141 91 0
-7141 -100 0
-7141 122 0
-7141 -126 0
-7141 -133 0
-7141 -134 0
7141 -91 100 -122 126 133 134 0
-7142 -92 0
-7142 93 0
-7142 94 0
-7142 -95 0
-7142 -101 0
-7142 -110 0
7142 92 -93 -94 95 101 110 0
-7143 91 0
-7143 -100 0
-7143 -122 0
-7143 -126 0
-7143 133 0
-7143 -134 0
7143 -91 100 122 126 -133 134 0
-7144 92 0
-7144 93 0
-7144 -94 0
-7144 -95 0
-7144 -101 0
-7144 -110 0
7144 -92 -93 94 95 101 110 0
-7145 -91 0
-7145 -100 0
-7145 122 0
-7145 -126 0
-7145 133 0
-7145 -134 0
7145 91 100 -122 126 -133 134 0
-7146 91 0
-7146 100 0
-7146 122 0
-7146 -126 0
-7146 133 0
-7146 -134 0
7146 -91 -100 -122 126 -133 134 0
-7147 92 0
-7147 93 0
-7147 94 0
-7147 95 0
-7147 -101 0
-7147 -110 0
7147 -92 -93 -94 -95 101 110 0
-7148 -92 0
-7148 -93 0
-7148 94 0
-7148 95 0
-7148 -101 0
-7148 -110 0
7148 92 93 -94 -95 101 110 0
-7149 92 0
-7149 -93 0
-7149 -94 0
-7149 95 0
-7149 -101 0
-7149 -110 0
7149 -92 93 94 -95 101 110 0
-7150 -91 0
-7150 100 0
-7150 122 0
-7150 126 0
-7150 -134 0
7150 91 -100 -122 -126 134 0
-7151 91 0
-7151 -100 0
-7151 122 0
-7151 126 0
-7151 133 0
-7151 -134 0
7151 -91 100 -122 -126 -133 134 0
-7152 -92 0
-7152 93 0
-7152 -94 0
-7152 95 0
-7152 -101 0
-7152 -110 0
7152 92 -93 94 -95 101 110 0
-7153 -15 0
-7153 -91 0
-7153 122 0
-7153 126 0
-7153 -133 0
7153 15 91 -122 -126 133 0
-7154 -91 0
-7154 122 0
-7154 126 0
-7154 -133 0
-7154 -134 0
7154 91 -122 -126 133 134 0
-7155 91 0
-7155 100 0
-7155 -122 0
-7155 126 0
-7155 133 0
-7155 -134 0
7155 -91 -100 122 -126 -133 134 0
-7156 91 0
-7156 100 0
-7156 122 0
-7156 -126 0
-7156 -133 0
-7156 134 0
7156 -91 -100 -122 126 133 -134 0
-7157 -92 0
-7157 93 0
-7157 94 0
-7157 95 0
-7157 101 0
-7157 -110 0
7157 92 -93 -94 -95 -101 110 0
-7158 92 0
-7158 -93 0
-7158 94 0
-7158 95 0
-7158 101 0
-7158 -110 0
7158 -92 93 -94 -95 -101 110 0
-7159 -91 0
-7159 100 0
-7159 -122 0
-7159 -126 0
-7159 133 0
-7159 -134 0
7159 91 -100 122 126 -133 134 0
-7160 -91 0
-7160 100 0
-7160 122 0
-7160 -133 0
-7160 -134 0
7160 91 -100 -122 133 134 0
-7161 -91 0
-7161 100 0
-7161 -122 0
-7161 -126 0
-7161 -133 0
-7161 134 0
7161 91 -100 122 126 133 -134 0
-7162 -91 0
-7162 100 0
-7162 122 0
-7162 -126 0
-7162 133 0
-7162 134 0
7162 91 -100 -122 126 -133 -134 0
-7163 91 0
-7163 100 0
-7163 -122 0
-7163 126 0
-7163 -133 0
-7163 134 0
7163 -91 -100 122 -126 133 -134 0
-7164 -91 0
-7164 -100 0
-7164 -122 0
-7164 126 0
-7164 -133 0
-7164 134 0
7164 91 100 122 -126 133 -134 0
-7165 -91 0
-7165 -100 0
-7165 122 0
-7165 126 0
-7165 133 0
-7165 134 0
7165 91 100 -122 -126 -133 -134 0
-7166 -92 0
-7166 93 0
-7166 -94 0
-7166 -95 0
-7166 101 0
-7166 -110 0
7166 92 -93 94 95 -101 110 0
-7167 91 0
-7167 -100 0
-7167 -122 0
-7167 126 0
-7167 133 0
-7167 134 0
7167 -91 100 122 -126 -133 -134 0
-7168 91 0
-7168 -100 0
-7168 122 0
-7168 126 0
-7168 -133 0
-7168 134 0
7168 -91 100 -122 -126 133 -134 0
-7169 -91 0
-7169 100 0
-7169 122 0
-7169 126 0
-7169 -133 0
7169 91 -100 -122 -126 133 0
-7170 -91 0
-7170 100 0
-7170 -122 0
-7170 126 0
-7170 133 0
-7170 134 0
7170 91 -100 122 -126 -133 -134 0
-7171 92 0
-7171 -93 0
-7171 -94 0
-7171 -95 0
-7171 101 0
-7171 -110 0
7171 -92 93 94 95 -101 110 0
-7172 -91 0
-7172 -100 0
-7172 122 0
-7172 -126 0
-7172 -133 0
-7172 134 0
7172 91 100 -122 126 133 -134 0
-7173 -91 0
-7173 -100 0
-7173 -122 0
-7173 -126 0
-7173 133 0
-7173 134 0
7173 91 100 122 126 -133 -134 0
-7174 -92 0
-7174 93 0
-7174 94 0
-7174 95 0
-7174 -101 0
-7174 110 0
7174 92 -93 -94 -95 101 -110 0
-7175 -92 0
-7175 -93 0
-7175 94 0
-7175 95 0
-7175 101 0
-7175 110 0
7175 92 93 -94 -95 -101 -110 0
-7176 92 0
-7176 -93 0
-7176 94 0
-7176 95 0
-7176 -101 0
-7176 110 0
7176 -92 93 -94 -95 101 -110 0
-7177 91 0
-7177 100 0
-7177 -122 0
-7177 -126 0
-7177 133 0
-7177 134 0
7177 -91 -100 122 126 -133 -134 0
-7178 -92 0
-7178 -93 0
-7178 -94 0
-7178 95 0
-7178 -101 0
-7178 110 0
7178 92 93 94 -95 101 -110 0
-7179 -91 0
-7179 -100 0
-7179 -122 0
-7179 -126 0
-7179 -133 0
-7179 -134 0
7179 91 100 122 126 133 134 0
-7180 92 0
-7180 93 0
-7180 -94 0
-7180 95 0
-7180 -101 0
-7180 110 0
7180 -92 -93 94 -95 101 -110 0
-7181 -48 0
-7181 91 0
-7181 -100 0
-7181 -122 0
-7181 126 0
-7181 -133 0
7181 48 -91 100 122 -126 133 0
-7182 -15 0
-7182 -17 0
-7182 -25 0
-7182 32 0
-7182 -33 0
-7182 -42 0
-7182 -47 0
-7182 -48 0
-7182 -91 0
-7182 100 0
-7182 126 0
-7182 -133 0
7182 15 17 25 -32 33 42 47 48 91 -100 -126 133 0
-7183 91 0
-7183 -100 0
-7183 -122 0
-7183 126 0
-7183 -133 0
-7183 -134 0
7183 -91 100 122 -126 133 134 0
-7184 -92 0
-7184 -93 0
-7184 -94 0
-7184 -95 0
-7184 101 0
-7184 110 0
7184 92 93 94 95 -101 -110 0
-7185 -91 0
-7185 100 0
-7185 126 0
-7185 -133 0
-7185 -134 0
7185 91 -100 -126 133 134 0
-7186 -92 0
-7186 -93 0
-7186 94 0
-7186 -95 0
-7186 -101 0
-7186 110 0
7186 92 93 -94 95 101 -110 0
-7187 92 0
-7187 93 0
-7187 94 0
-7187 -95 0
-7187 -101 0
-7187 110 0
7187 -92 -93 -94 95 101 -110 0
-7188 92 0
-7188 -93 0
-7188 -94 0
-7188 -95 0
-7188 -101 0
-7188 110 0
7188 -92 93 94 95 101 -110 0
-7189 -92 0
-7189 93 0
-7189 -94 0
-7189 -95 0
-7189 -101 0
-7189 110 0
7189 92 -93 94 95 101 -110 0
-7190 92 0
-7190 93 0
-7190 -94 0
-7190 -95 0
-7190 101 0
-7190 110 0
7190 -92 -93 94 95 -101 -110 0
-7191 92 0
-7191 -93 0
-7191 94 0
-7191 -95 0
-7191 101 0
-7191 110 0
7191 -92 93 -94 95 -101 -110 0
-7192 92 0
-7192 -93 0
-7192 -94 0
-7192 95 0
-7192 101 0
-7192 110 0
7192 -92 93 94 -95 -101 -110 0
-7193 -92 0
-7193 93 0
-7193 -94 0
-7193 95 0
-7193 101 0
-7193 110 0
7193 92 -93 94 -95 -101 -110 0
-7194 -92 0
-7194 93 0
-7194 94 0
-7194 -95 0
-7194 101 0
-7194 110 0
7194 92 -93 -94 95 -101 -110 0
-7195 -7127 0
-7195 -7128 0
-7195 -7129 0
-7195 -7130 0
-7195 -7131 0
-7195 -7132 0
-7195 -7133 0
-7195 -7134 0
-7195 -7135 0
-7195 -7136 0
-7195 -7137 0
-7195 -7138 0
-7195 -7139 0
-7195 -7140 0
-7195 -7141 0
-7195 -7142 0
-7195 -7143 0
-7195 -7144 0
-7195 -7145 0
-7195 -7146 0
-7195 -7147 0
-7195 -7148 0
-7195 -7149 0
-7195 -7150 0
-7195 -7151 0
-7195 -7152 0
-7195 -7153 0
-7195 -7154 0
-7195 -7155 0
-7195 -7156 0
-7195 -7157 0
-7195 -7158 0
-7195 -7159 0
-7195 -7160 0
-7195 -7161 0
-7195 -7162 0
-7195 -7163 0
-7195 -7164 0
-7195 -7165 0
-7195 -7166 0
-7195 -7167 0
-7195 -7168 0
-7195 -7169 0
-7195 -7170 0
-7195 -7171 0
-7195 -7172 0
-7195 -7173 0
-7195 -7174 0
-7195 -7175 0
-7195 -7176 0
-7195 -7177 0
-7195 -7178 0
-7195 -7179 0
-7195 -7180 0
-7195 -7181 0
-7195 -7182 0
-7195 -7183 0
-7195 -7184 0
-7195 -7185 0
-7195 -7186 0
-7195 -7187 0
-7195 -7188 0
-7195 -7189 0
-7195 -7190 0
-7195 -7191 0
-7195 -7192 0
-7195 -7193 0
-7195 -7194 0
7195 7127 7128 7129 7130 7131 7132 7133 7134 7135 7136 7137 7138 7139 7140 7141 7142 7143 7144 7145 7146 7147 7148 7149 7150 7151 7152 7153 7154 7155 7156 7157 7158 7159 7160 7161 7162 7163 7164 7165 7166 7167 7168 7169 7170 7171 7172 7173 7174 7175 7176 7177 7178 7179 7180 7181 7182 7183 7184 7185 7186 7187 7188 7189 7190 7191 7192 7193 7194 0
-7196 -6203 0
-7196 -6972 0
-7196 -6985 0
-7196 -6997 0
-7196 -6999 0
-7196 -7107 0
-7196 -7126 0
-7196 -7195 0
7196 6203 6972 6985 6997 6999 7107 7126 7195 0
