p cnf 1259 220
-217 93 0
-217 94 0
-217 -95 0
-217 -101 0
-217 -110 0
-217 -140 0
217 -93 -94 95 101 110 140 0
-220 93 0
-220 -94 0
-220 -95 0
-220 101 0
-220 110 0
-220 140 0
220 -93 94 95 -101 -110 -140 0
-223 -100 0
-223 122 0
-223 126 0
-223 -133 0
-223 -134 0
223 100 -122 -126 133 134 0
-225 100 0
-225 122 0
-225 -126 0
-225 -133 0
-225 -134 0
225 -100 -122 126 133 134 0
-229 16 0
-229 -17 0
-229 19 0
-229 39 0
-229 -116 0
229 -16 17 -19 -39 116 0
-233 16 0
-233 17 0
-233 19 0
-233 -39 0
-233 -116 0
233 -16 -17 -19 39 116 0
-236 16 0
-236 -17 0
-236 -19 0
-236 39 0
-236 -116 0
236 -16 17 19 -39 116 0
-238 16 0
-238 17 0
-238 -19 0
-238 39 0
-238 -116 0
238 -16 -17 19 -39 116 0
-239 -229 0
-239 -233 0
-239 -236 0
-239 -238 0
239 229 233 236 238 0
-264 -57 0
-264 -58 0
264 57 58 0
-270 54 0
-270 61 0
-270 -64 0
-270 -65 0
-270 -66 0
-270 164 0
270 -54 -61 64 65 66 -164 0
-1013 54 0
-1013 55 0
-1013 62 0
-1013 63 0
-1013 -64 0
-1013 -65 0
-1013 -66 0
-1013 164 0
-1013 -270 0
1013 -54 -55 -62 -63 64 65 66 -164 270 0
-1015 56 0
-1015 61 0
-1015 -62 0
-1015 63 0
-1015 64 0
-1015 -65 0
-1015 -66 0
-1015 164 0
-1015 -264 0
1015 -56 -61 62 -63 -64 65 66 -164 264 0
-1016 -1013 0
-1016 -1015 0
1016 1013 1015 0
-1018 54 0
-1018 73 0
1018 -54 -73 0
-1019 56 0
-1019 82 0
1019 -56 -82 0
-1020 -1018 0
-1020 -1019 0
1020 1018 1019 0
-1021 54 0
-1021 74 0
1021 -54 -74 0
-1022 56 0
-1022 83 0
1022 -56 -83 0
-1023 -1021 0
-1023 -1022 0
1023 1021 1022 0
-1024 56 0
-1024 76 0
1024 -56 -76 0
-1025 54 0
-1025 67 0
1025 -54 -67 0
-1026 -1024 0
-1026 -1025 0
1026 1024 1025 0
-1027 56 0
-1027 79 0
1027 -56 -79 0
-1028 54 0
-1028 70 0
1028 -54 -70 0
-1029 -1027 0
-1029 -1028 0
1029 1027 1028 0
-1035 56 0
-1035 84 0
1035 -56 -84 0
-1036 54 0
-1036 75 0
1036 -54 -75 0
-1037 -1035 0
-1037 -1036 0
1037 1035 1036 0
-1050 56 0
-1050 78 0
1050 -56 -78 0
-1051 54 0
-1051 69 0
1051 -54 -69 0
-1052 -1050 0
-1052 -1051 0
1052 1050 1051 0
-1056 56 0
-1056 77 0
1056 -56 -77 0
-1057 54 0
-1057 68 0
1057 -54 -68 0
-1058 -1056 0
-1058 -1057 0
1058 1056 1057 0
-1059 56 0
-1059 80 0
1059 -56 -80 0
-1060 54 0
-1060 71 0
1060 -54 -71 0
-1061 -1059 0
-1061 -1060 0
1061 1059 1060 0
-1062 56 0
-1062 81 0
1062 -56 -81 0
-1063 54 0
-1063 72 0
1063 -54 -72 0
-1064 -1062 0
-1064 -1063 0
1064 1062 1063 0
-1153 76 0
-1153 77 0
-1153 78 0
-1153 79 0
-1153 80 0
-1153 81 0
-1153 82 0
-1153 83 0
-1153 84 0
-1153 -1016 0
-1153 -1020 0
-1153 -1023 0
-1153 -1026 0
-1153 -1029 0
-1153 -1037 0
-1153 -1052 0
-1153 -1058 0
-1153 -1061 0
-1153 -1064 0
1153 -76 -77 -78 -79 -80 -81 -82 -83 -84 1016 1020 1023 1026 1029 1037 1052 1058 1061 1064 0
-1154 -133 0
-1154 -217 0
-1154 -220 0
-1154 -223 0
-1154 -225 0
-1154 -239 0
1154 133 217 220 223 225 239 0
-1254 -133 0
-1254 -217 0
-1254 -220 0
-1254 -223 0
-1254 -225 0
-1254 -239 0
-1254 -1153 0
1254 133 217 220 223 225 239 1153 0
-1153 -1153 -1257 0
1153 1153 -1257 0
-1153 1153 1257 0
1153 -1153 1257 0
1257 1154 -1258 0
-1257 -1154 -1258 0
1257 -1154 1258 0
-1257 1154 1258 0
1258 1154 -1259 0
-1258 -1154 -1259 0
1258 -1154 1259 0
-1258 1154 1259 0
1259 1254 -1256 0
-1259 -1254 -1256 0
1259 -1254 1256 0
-1259 1254 1256 0
