p cnf 1255 585
-217 93 0
-217 94 0
-217 -95 0
-217 -101 0
-217 -110 0
-217 -140 0
217 -93 -94 95 101 110 140 0
-220 93 0
-220 -94 0
-220 -95 0
-220 101 0
-220 110 0
-220 140 0
220 -93 94 95 -101 -110 -140 0
-221 -217 0
-221 -220 0
221 217 220 0
-223 -100 0
-223 122 0
-223 126 0
-223 -133 0
-223 -134 0
223 100 -122 -126 133 134 0
-225 100 0
-225 122 0
-225 -126 0
-225 -133 0
-225 -134 0
225 -100 -122 126 133 134 0
-229 16 0
-229 -17 0
-229 19 0
-229 39 0
-229 -116 0
229 -16 17 -19 -39 116 0
-233 16 0
-233 17 0
-233 19 0
-233 -39 0
-233 -116 0
233 -16 -17 -19 39 116 0
-236 16 0
-236 -17 0
-236 -19 0
-236 39 0
-236 -116 0
236 -16 17 19 -39 116 0
-238 16 0
-238 17 0
-238 -19 0
-238 39 0
-238 -116 0
238 -16 -17 19 -39 116 0
-239 -229 0
-239 -233 0
-239 -236 0
-239 -238 0
239 229 233 236 238 0
-264 -57 0
-264 -58 0
264 57 58 0
-270 54 0
-270 61 0
-270 -64 0
-270 -65 0
-270 -66 0
-270 164 0
270 -54 -61 64 65 66 -164 0
-1013 54 0
-1013 55 0
-1013 62 0
-1013 63 0
-1013 -64 0
-1013 -65 0
-1013 -66 0
-1013 164 0
-1013 -270 0
1013 -54 -55 -62 -63 64 65 66 -164 270 0
-1015 56 0
-1015 61 0
-1015 -62 0
-1015 63 0
-1015 64 0
-1015 -65 0
-1015 -66 0
-1015 164 0
-1015 -264 0
1015 -56 -61 62 -63 -64 65 66 -164 264 0
-1016 -1013 0
-1016 -1015 0
1016 1013 1015 0
-1017 82 0
-1017 -1016 0
1017 -82 1016 0
-1018 54 0
-1018 73 0
1018 -54 -73 0
-1019 56 0
-1019 82 0
1019 -56 -82 0
-1020 -1018 0
-1020 -1019 0
1020 1018 1019 0
-1021 54 0
-1021 74 0
1021 -54 -74 0
-1022 56 0
-1022 83 0
1022 -56 -83 0
-1023 -1021 0
-1023 -1022 0
1023 1021 1022 0
-1024 56 0
-1024 76 0
1024 -56 -76 0
-1025 54 0
-1025 67 0
1025 -54 -67 0
-1026 -1024 0
-1026 -1025 0
1026 1024 1025 0
-1027 56 0
-1027 79 0
1027 -56 -79 0
-1028 54 0
-1028 70 0
1028 -54 -70 0
-1029 -1027 0
-1029 -1028 0
1029 1027 1028 0
-1033 83 0
-1033 -1016 0
1033 -83 1016 0
-1034 84 0
-1034 -1016 0
1034 -84 1016 0
-1035 56 0
-1035 84 0
1035 -56 -84 0
-1036 54 0
-1036 75 0
1036 -54 -75 0
-1037 -1035 0
-1037 -1036 0
1037 1035 1036 0
-1041 79 0
-1041 -1016 0
1041 -79 1016 0
-1042 81 0
-1042 -1016 0
1042 -81 1016 0
-1043 78 0
-1043 -1016 0
1043 -78 1016 0
-1044 80 0
-1044 -1016 0
1044 -80 1016 0
-1045 76 0
-1045 -1016 0
1045 -76 1016 0
-1046 77 0
-1046 -1016 0
1046 -77 1016 0
-1050 56 0
-1050 78 0
1050 -56 -78 0
-1051 54 0
-1051 69 0
1051 -54 -69 0
-1052 -1050 0
-1052 -1051 0
1052 1050 1051 0
-1056 56 0
-1056 77 0
1056 -56 -77 0
-1057 54 0
-1057 68 0
1057 -54 -68 0
-1058 -1056 0
-1058 -1057 0
1058 1056 1057 0
-1059 56 0
-1059 80 0
1059 -56 -80 0
-1060 54 0
-1060 71 0
1060 -54 -71 0
-1061 -1059 0
-1061 -1060 0
1061 1059 1060 0
-1062 56 0
-1062 81 0
1062 -56 -81 0
-1063 54 0
-1063 72 0
1063 -54 -72 0
-1064 -1062 0
-1064 -1063 0
1064 1062 1063 0
-1153 76 0
-1153 77 0
-1153 78 0
-1153 79 0
-1153 80 0
-1153 81 0
-1153 82 0
-1153 83 0
-1153 84 0
-1153 -1016 0
-1153 -1020 0
-1153 -1023 0
-1153 -1026 0
-1153 -1029 0
-1153 -1037 0
-1153 -1052 0
-1153 -1058 0
-1153 -1061 0
-1153 -1064 0
1153 -76 -77 -78 -79 -80 -81 -82 -83 -84 1016 1020 1023 1026 1029 1037 1052 1058 1061 1064 0
-1156 -133 0
-1156 -221 0
-1156 -223 0
-1156 -225 0
-1156 -239 0
1156 133 221 223 225 239 0
-1159 -133 0
-1159 -223 0
-1159 -225 0
-1159 -239 0
1159 133 223 225 239 0
-1161 -133 0
-1161 -217 0
-1161 -220 0
-1161 -223 0
-1161 -225 0
-1161 -239 0
-1161 -1017 0
1161 133 217 220 223 225 239 1017 0
-1164 -133 0
-1164 -217 0
-1164 -220 0
-1164 -223 0
-1164 -225 0
-1164 -239 0
-1164 -1033 0
1164 133 217 220 223 225 239 1033 0
-1167 -133 0
-1167 -217 0
-1167 -220 0
-1167 -223 0
-1167 -225 0
-1167 -239 0
-1167 -1034 0
1167 133 217 220 223 225 239 1034 0
-1169 54 0
-1169 74 0
-1169 -1156 0
1169 -54 -74 1156 0
-1171 56 0
-1171 83 0
-1171 -1156 0
1171 -56 -83 1156 0
-1172 -1156 0
-1172 -1169 0
-1172 -1171 0
1172 1156 1169 1171 0
-1174 54 0
-1174 74 0
-1174 -1159 0
1174 -54 -74 1159 0
-1176 56 0
-1176 83 0
-1176 -1159 0
1176 -56 -83 1159 0
-1177 -1159 0
-1177 -1174 0
-1177 -1176 0
1177 1159 1174 1176 0
1172 1177 -1178 0
-1172 -1177 -1178 0
1172 -1177 1178 0
-1172 1177 1178 0
-1181 -133 0
-1181 -217 0
-1181 -220 0
-1181 -223 0
-1181 -225 0
-1181 -239 0
-1181 -1041 0
1181 133 217 220 223 225 239 1041 0
-1184 -133 0
-1184 -217 0
-1184 -220 0
-1184 -223 0
-1184 -225 0
-1184 -239 0
-1184 -1042 0
1184 133 217 220 223 225 239 1042 0
-1187 -133 0
-1187 -217 0
-1187 -220 0
-1187 -223 0
-1187 -225 0
-1187 -239 0
-1187 -1043 0
1187 133 217 220 223 225 239 1043 0
-1190 -133 0
-1190 -217 0
-1190 -220 0
-1190 -223 0
-1190 -225 0
-1190 -239 0
-1190 -1044 0
1190 133 217 220 223 225 239 1044 0
-1193 -133 0
-1193 -217 0
-1193 -220 0
-1193 -223 0
-1193 -225 0
-1193 -239 0
-1193 -1045 0
1193 133 217 220 223 225 239 1045 0
-1196 -133 0
-1196 -217 0
-1196 -220 0
-1196 -223 0
-1196 -225 0
-1196 -239 0
-1196 -1046 0
1196 133 217 220 223 225 239 1046 0
-1197 54 0
-1197 67 0
-1197 -1156 0
1197 -54 -67 1156 0
-1198 56 0
-1198 76 0
-1198 -1156 0
1198 -56 -76 1156 0
-1199 -1156 0
-1199 -1197 0
-1199 -1198 0
1199 1156 1197 1198 0
-1200 54 0
-1200 67 0
-1200 -1159 0
1200 -54 -67 1159 0
-1201 56 0
-1201 76 0
-1201 -1159 0
1201 -56 -76 1159 0
-1202 -1159 0
-1202 -1200 0
-1202 -1201 0
1202 1159 1200 1201 0
1199 1202 -1203 0
-1199 -1202 -1203 0
1199 -1202 1203 0
-1199 1202 1203 0
-1204 56 0
-1204 82 0
-1204 -1156 0
1204 -56 -82 1156 0
-1205 54 0
-1205 73 0
-1205 -1156 0
1205 -54 -73 1156 0
-1206 -1156 0
-1206 -1204 0
-1206 -1205 0
1206 1156 1204 1205 0
-1207 56 0
-1207 82 0
-1207 -1159 0
1207 -56 -82 1159 0
-1208 54 0
-1208 73 0
-1208 -1159 0
1208 -54 -73 1159 0
-1209 -1159 0
-1209 -1207 0
-1209 -1208 0
1209 1159 1207 1208 0
1206 1209 -1210 0
-1206 -1209 -1210 0
1206 -1209 1210 0
-1206 1209 1210 0
-1211 56 0
-1211 78 0
-1211 -1156 0
1211 -56 -78 1156 0
-1212 54 0
-1212 69 0
-1212 -1156 0
1212 -54 -69 1156 0
-1213 -1156 0
-1213 -1211 0
-1213 -1212 0
1213 1156 1211 1212 0
-1214 56 0
-1214 78 0
-1214 -1159 0
1214 -56 -78 1159 0
-1215 54 0
-1215 69 0
-1215 -1159 0
1215 -54 -69 1159 0
-1216 -1159 0
-1216 -1214 0
-1216 -1215 0
1216 1159 1214 1215 0
1213 1216 -1217 0
-1213 -1216 -1217 0
1213 -1216 1217 0
-1213 1216 1217 0
-1218 56 0
-1218 84 0
-1218 -1156 0
1218 -56 -84 1156 0
-1219 54 0
-1219 75 0
-1219 -1156 0
1219 -54 -75 1156 0
-1220 -1156 0
-1220 -1218 0
-1220 -1219 0
1220 1156 1218 1219 0
-1221 56 0
-1221 84 0
-1221 -1159 0
1221 -56 -84 1159 0
-1222 54 0
-1222 75 0
-1222 -1159 0
1222 -54 -75 1159 0
-1223 -1159 0
-1223 -1221 0
-1223 -1222 0
1223 1159 1221 1222 0
1220 1223 -1224 0
-1220 -1223 -1224 0
1220 -1223 1224 0
-1220 1223 1224 0
-1225 54 0
-1225 68 0
-1225 -1156 0
1225 -54 -68 1156 0
-1226 56 0
-1226 77 0
-1226 -1156 0
1226 -56 -77 1156 0
-1227 -1156 0
-1227 -1225 0
-1227 -1226 0
1227 1156 1225 1226 0
-1228 54 0
-1228 68 0
-1228 -1159 0
1228 -54 -68 1159 0
-1229 56 0
-1229 77 0
-1229 -1159 0
1229 -56 -77 1159 0
-1230 -1159 0
-1230 -1228 0
-1230 -1229 0
1230 1159 1228 1229 0
1227 1230 -1231 0
-1227 -1230 -1231 0
1227 -1230 1231 0
-1227 1230 1231 0
-1232 56 0
-1232 81 0
-1232 -1156 0
1232 -56 -81 1156 0
-1233 54 0
-1233 72 0
-1233 -1156 0
1233 -54 -72 1156 0
-1234 -1156 0
-1234 -1232 0
-1234 -1233 0
1234 1156 1232 1233 0
-1235 56 0
-1235 81 0
-1235 -1159 0
1235 -56 -81 1159 0
-1236 54 0
-1236 72 0
-1236 -1159 0
1236 -54 -72 1159 0
-1237 -1159 0
-1237 -1235 0
-1237 -1236 0
1237 1159 1235 1236 0
1234 1237 -1238 0
-1234 -1237 -1238 0
1234 -1237 1238 0
-1234 1237 1238 0
-1239 54 0
-1239 70 0
-1239 -1156 0
1239 -54 -70 1156 0
-1240 56 0
-1240 79 0
-1240 -1156 0
1240 -56 -79 1156 0
-1241 -1156 0
-1241 -1239 0
-1241 -1240 0
1241 1156 1239 1240 0
-1242 54 0
-1242 70 0
-1242 -1159 0
1242 -54 -70 1159 0
-1243 56 0
-1243 79 0
-1243 -1159 0
1243 -56 -79 1159 0
-1244 -1159 0
-1244 -1242 0
-1244 -1243 0
1244 1159 1242 1243 0
1241 1244 -1245 0
-1241 -1244 -1245 0
1241 -1244 1245 0
-1241 1244 1245 0
-1246 54 0
-1246 71 0
-1246 -1156 0
1246 -54 -71 1156 0
-1247 56 0
-1247 80 0
-1247 -1156 0
1247 -56 -80 1156 0
-1248 -1156 0
-1248 -1246 0
-1248 -1247 0
1248 1156 1246 1247 0
-1249 54 0
-1249 71 0
-1249 -1159 0
1249 -54 -71 1159 0
-1250 56 0
-1250 80 0
-1250 -1159 0
1250 -56 -80 1159 0
-1251 -1159 0
-1251 -1249 0
-1251 -1250 0
1251 1159 1249 1250 0
1248 1251 -1252 0
-1248 -1251 -1252 0
1248 -1251 1252 0
-1248 1251 1252 0
-1253 -1161 0
-1253 -1164 0
-1253 -1167 0
-1253 -1178 0
-1253 -1181 0
-1253 -1184 0
-1253 -1187 0
-1253 -1190 0
-1253 -1193 0
-1253 -1196 0
-1253 -1203 0
-1253 -1210 0
-1253 -1217 0
-1253 -1224 0
-1253 -1231 0
-1253 -1238 0
-1253 -1245 0
-1253 -1252 0
1253 1161 1164 1167 1178 1181 1184 1187 1190 1193 1196 1203 1210 1217 1224 1231 1238 1245 1252 0
-1254 -133 0
-1254 -217 0
-1254 -220 0
-1254 -223 0
-1254 -225 0
-1254 -239 0
-1254 -1153 0
1254 133 217 220 223 225 239 1153 0
1253 1254 -1255 0
-1253 -1254 -1255 0
1253 -1254 1255 0
-1253 1254 1255 0
