p cnf 1259 134
-262 -57 0
-262 -58 0
262 57 58 0
-268 54 0
-268 61 0
-268 -64 0
-268 -65 0
-268 -66 0
-268 164 0
268 -54 -61 64 65 66 -164 0
-1011 54 0
-1011 55 0
-1011 62 0
-1011 63 0
-1011 -64 0
-1011 -65 0
-1011 -66 0
-1011 164 0
-1011 -268 0
1011 -54 -55 -62 -63 64 65 66 -164 268 0
-1013 56 0
-1013 61 0
-1013 -62 0
-1013 63 0
-1013 64 0
-1013 -65 0
-1013 -66 0
-1013 164 0
-1013 -262 0
1013 -56 -61 62 -63 -64 65 66 -164 262 0
-1014 -1011 0
-1014 -1013 0
1014 1011 1013 0
-1016 54 0
-1016 73 0
1016 -54 -73 0
-1017 56 0
-1017 82 0
1017 -56 -82 0
-1018 -1016 0
-1018 -1017 0
1018 1016 1017 0
-1019 54 0
-1019 74 0
1019 -54 -74 0
-1020 56 0
-1020 83 0
1020 -56 -83 0
-1021 -1019 0
-1021 -1020 0
1021 1019 1020 0
-1022 56 0
-1022 76 0
1022 -56 -76 0
-1023 54 0
-1023 67 0
1023 -54 -67 0
-1024 -1022 0
-1024 -1023 0
1024 1022 1023 0
-1025 56 0
-1025 79 0
1025 -56 -79 0
-1026 54 0
-1026 70 0
1026 -54 -70 0
-1027 -1025 0
-1027 -1026 0
1027 1025 1026 0
-1033 56 0
-1033 84 0
1033 -56 -84 0
-1034 54 0
-1034 75 0
1034 -54 -75 0
-1035 -1033 0
-1035 -1034 0
1035 1033 1034 0
-1048 56 0
-1048 78 0
1048 -56 -78 0
-1049 54 0
-1049 69 0
1049 -54 -69 0
-1050 -1048 0
-1050 -1049 0
1050 1048 1049 0
-1054 56 0
-1054 77 0
1054 -56 -77 0
-1055 54 0
-1055 68 0
1055 -54 -68 0
-1056 -1054 0
-1056 -1055 0
1056 1054 1055 0
-1057 56 0
-1057 80 0
1057 -56 -80 0
-1058 54 0
-1058 71 0
1058 -54 -71 0
-1059 -1057 0
-1059 -1058 0
1059 1057 1058 0
-1060 56 0
-1060 81 0
1060 -56 -81 0
-1061 54 0
-1061 72 0
1061 -54 -72 0
-1062 -1060 0
-1062 -1061 0
1062 1060 1061 0
-1151 76 0
-1151 77 0
-1151 78 0
-1151 79 0
-1151 80 0
-1151 81 0
-1151 82 0
-1151 83 0
-1151 84 0
-1151 -1014 0
-1151 -1018 0
-1151 -1021 0
-1151 -1024 0
-1151 -1027 0
-1151 -1035 0
-1151 -1050 0
-1151 -1056 0
-1151 -1059 0
-1151 -1062 0
1151 -76 -77 -78 -79 -80 -81 -82 -83 -84 1014 1018 1021 1024 1027 1035 1050 1056 1059 1062 0
