p cnf 1212 111
-526 91 0
-526 -100 0
-526 -126 0
526 -91 100 126 0
-527 -91 0
-527 100 0
-527 -126 0
527 91 -100 126 0
-528 91 0
-528 100 0
-528 126 0
528 -91 -100 -126 0
-529 -91 0
-529 -100 0
-529 126 0
529 91 100 -126 0
-531 -122 0
-531 -133 0
-531 -134 0
531 122 133 134 0
-532 122 0
-532 -133 0
-532 134 0
532 -122 133 -134 0
-533 -122 0
-533 133 0
-533 134 0
533 122 -133 -134 0
-534 122 0
-534 133 0
-534 -134 0
534 -122 -133 134 0
-536 -526 0
-536 -527 0
-536 -528 0
-536 -529 0
-536 -531 0
-536 -532 0
-536 -533 0
-536 -534 0
536 526 527 528 529 531 532 533 534 0
-537 -526 0
-537 -527 0
-537 -528 0
-537 -529 0
-537 -536 0
537 526 527 528 529 536 0
-538 -531 0
-538 -532 0
-538 -533 0
-538 -534 0
-538 -536 0
538 531 532 533 534 536 0
-540 94 0
-540 -95 0
-540 -110 0
540 -94 95 110 0
-541 -94 0
-541 -95 0
-541 110 0
541 94 95 -110 0
-542 94 0
-542 95 0
-542 110 0
542 -94 -95 -110 0
-543 -94 0
-543 95 0
-543 -110 0
543 94 -95 110 0
-545 -92 0
-545 -93 0
-545 -101 0
545 92 93 101 0
-546 92 0
-546 -93 0
-546 101 0
546 -92 93 -101 0
-547 -92 0
-547 93 0
-547 101 0
547 92 -93 -101 0
-548 92 0
-548 93 0
-548 -101 0
548 -92 -93 101 0
-550 -540 0
-550 -541 0
-550 -542 0
-550 -543 0
-550 -545 0
-550 -546 0
-550 -547 0
-550 -548 0
550 540 541 542 543 545 546 547 548 0
-551 -540 0
-551 -541 0
-551 -542 0
-551 -543 0
-551 -550 0
551 540 541 542 543 550 0
-552 -545 0
-552 -546 0
-552 -547 0
-552 -548 0
-552 -550 0
552 545 546 547 548 550 0
-1186 -537 0
-1186 -538 0
-1186 -551 0
-1186 -552 0
1186 537 538 551 552 0
