p cnf 1259 600
-216 93 0
-216 94 0
-216 -95 0
-216 -101 0
-216 -110 0
216 -93 -94 95 101 110 0
-219 93 0
-219 -94 0
-219 -95 0
-219 101 0
-219 110 0
-219 140 0
219 -93 94 95 -101 -110 -140 0
-221 -100 0
-221 122 0
-221 126 0
-221 -133 0
-221 -134 0
221 100 -122 -126 133 134 0
-223 100 0
-223 122 0
-223 -126 0
-223 -133 0
-223 -134 0
223 -100 -122 126 133 134 0
-227 16 0
-227 -17 0
-227 19 0
-227 39 0
-227 -116 0
227 -16 17 -19 -39 116 0
-231 16 0
-231 17 0
-231 19 0
-231 -39 0
-231 -116 0
231 -16 -17 -19 39 116 0
-234 16 0
-234 -17 0
-234 -19 0
-234 39 0
-234 -116 0
234 -16 17 19 -39 116 0
-236 16 0
-236 17 0
-236 -19 0
-236 39 0
-236 -116 0
236 -16 -17 19 -39 116 0
-237 -227 0
-237 -231 0
-237 -234 0
-237 -236 0
237 227 231 234 236 0
-262 -57 0
-262 -58 0
262 57 58 0
-268 54 0
-268 61 0
-268 -64 0
-268 -65 0
-268 -66 0
-268 164 0
268 -54 -61 64 65 66 -164 0
-1011 54 0
-1011 55 0
-1011 62 0
-1011 63 0
-1011 -64 0
-1011 -65 0
-1011 -66 0
-1011 164 0
-1011 -268 0
1011 -54 -55 -62 -63 64 65 66 -164 268 0
-1013 56 0
-1013 61 0
-1013 -62 0
-1013 63 0
-1013 64 0
-1013 -65 0
-1013 -66 0
-1013 164 0
-1013 -262 0
1013 -56 -61 62 -63 -64 65 66 -164 262 0
-1014 -1011 0
-1014 -1013 0
1014 1011 1013 0
-1015 82 0
-1015 -1014 0
1015 -82 1014 0
-1016 54 0
-1016 73 0
1016 -54 -73 0
-1017 56 0
-1017 82 0
1017 -56 -82 0
-1018 -1016 0
-1018 -1017 0
1018 1016 1017 0
-1019 54 0
-1019 74 0
1019 -54 -74 0
-1020 56 0
-1020 83 0
1020 -56 -83 0
-1021 -1019 0
-1021 -1020 0
1021 1019 1020 0
-1022 56 0
-1022 76 0
1022 -56 -76 0
-1023 54 0
-1023 67 0
1023 -54 -67 0
-1024 -1022 0
-1024 -1023 0
1024 1022 1023 0
-1025 56 0
-1025 79 0
1025 -56 -79 0
-1026 54 0
-1026 70 0
1026 -54 -70 0
-1027 -1025 0
-1027 -1026 0
1027 1025 1026 0
-1031 83 0
-1031 -1014 0
1031 -83 1014 0
-1032 84 0
-1032 -1014 0
1032 -84 1014 0
-1033 56 0
-1033 84 0
1033 -56 -84 0
-1034 54 0
-1034 75 0
1034 -54 -75 0
-1035 -1033 0
-1035 -1034 0
1035 1033 1034 0
-1039 79 0
-1039 -1014 0
1039 -79 1014 0
-1040 81 0
-1040 -1014 0
1040 -81 1014 0
-1041 78 0
-1041 -1014 0
1041 -78 1014 0
-1042 80 0
-1042 -1014 0
1042 -80 1014 0
-1043 76 0
-1043 -1014 0
1043 -76 1014 0
-1044 77 0
-1044 -1014 0
1044 -77 1014 0
-1048 56 0
-1048 78 0
1048 -56 -78 0
-1049 54 0
-1049 69 0
1049 -54 -69 0
-1050 -1048 0
-1050 -1049 0
1050 1048 1049 0
-1054 56 0
-1054 77 0
1054 -56 -77 0
-1055 54 0
-1055 68 0
1055 -54 -68 0
-1056 -1054 0
-1056 -1055 0
1056 1054 1055 0
-1057 56 0
-1057 80 0
1057 -56 -80 0
-1058 54 0
-1058 71 0
1058 -54 -71 0
-1059 -1057 0
-1059 -1058 0
1059 1057 1058 0
-1060 56 0
-1060 81 0
1060 -56 -81 0
-1061 54 0
-1061 72 0
1061 -54 -72 0
-1062 -1060 0
-1062 -1061 0
1062 1060 1061 0
-1151 76 0
-1151 77 0
-1151 78 0
-1151 79 0
-1151 80 0
-1151 81 0
-1151 82 0
-1151 83 0
-1151 84 0
-1151 -1014 0
-1151 -1018 0
-1151 -1021 0
-1151 -1024 0
-1151 -1027 0
-1151 -1035 0
-1151 -1050 0
-1151 -1056 0
-1151 -1059 0
-1151 -1062 0
1151 -76 -77 -78 -79 -80 -81 -82 -83 -84 1014 1018 1021 1024 1027 1035 1050 1056 1059 1062 0
-1153 93 0
-1153 94 0
-1153 -95 0
-1153 -101 0
-1153 -110 0
-1153 -140 0
1153 -93 -94 95 101 110 140 0
-1154 -219 0
-1154 -1153 0
1154 219 1153 0
-1156 -133 0
-1156 -221 0
-1156 -223 0
-1156 -237 0
-1156 -1154 0
1156 133 221 223 237 1154 0
-1158 140 0
-1158 -219 0
1158 -140 219 0
-1160 -133 0
-1160 -221 0
-1160 -223 0
-1160 -237 0
-1160 -1158 0
1160 133 221 223 237 1158 0
140 1153 -1162 0
-140 -1153 -1162 0
140 -1153 1162 0
-140 1153 1162 0
-1165 -133 0
-1165 -219 0
-1165 -221 0
-1165 -223 0
-1165 -237 0
-1165 -1015 0
-1165 -1162 0
1165 133 219 221 223 237 1015 1162 0
-1168 -133 0
-1168 -219 0
-1168 -221 0
-1168 -223 0
-1168 -237 0
-1168 -1031 0
-1168 -1162 0
1168 133 219 221 223 237 1031 1162 0
-1171 -133 0
-1171 -219 0
-1171 -221 0
-1171 -223 0
-1171 -237 0
-1171 -1032 0
-1171 -1162 0
1171 133 219 221 223 237 1032 1162 0
-1173 54 0
-1173 74 0
-1173 -1156 0
1173 -54 -74 1156 0
-1175 56 0
-1175 83 0
-1175 -1156 0
1175 -56 -83 1156 0
-1176 -1156 0
-1176 -1173 0
-1176 -1175 0
1176 1156 1173 1175 0
-1178 54 0
-1178 74 0
-1178 -1160 0
1178 -54 -74 1160 0
-1180 56 0
-1180 83 0
-1180 -1160 0
1180 -56 -83 1160 0
-1181 -1160 0
-1181 -1178 0
-1181 -1180 0
1181 1160 1178 1180 0
1176 1181 -1182 0
-1176 -1181 -1182 0
1176 -1181 1182 0
-1176 1181 1182 0
-1185 -133 0
-1185 -219 0
-1185 -221 0
-1185 -223 0
-1185 -237 0
-1185 -1039 0
-1185 -1162 0
1185 133 219 221 223 237 1039 1162 0
-1188 -133 0
-1188 -219 0
-1188 -221 0
-1188 -223 0
-1188 -237 0
-1188 -1040 0
-1188 -1162 0
1188 133 219 221 223 237 1040 1162 0
-1191 -133 0
-1191 -219 0
-1191 -221 0
-1191 -223 0
-1191 -237 0
-1191 -1041 0
-1191 -1162 0
1191 133 219 221 223 237 1041 1162 0
-1194 -133 0
-1194 -219 0
-1194 -221 0
-1194 -223 0
-1194 -237 0
-1194 -1042 0
-1194 -1162 0
1194 133 219 221 223 237 1042 1162 0
-1197 -133 0
-1197 -219 0
-1197 -221 0
-1197 -223 0
-1197 -237 0
-1197 -1043 0
-1197 -1162 0
1197 133 219 221 223 237 1043 1162 0
-1200 -133 0
-1200 -219 0
-1200 -221 0
-1200 -223 0
-1200 -237 0
-1200 -1044 0
-1200 -1162 0
1200 133 219 221 223 237 1044 1162 0
-1201 54 0
-1201 67 0
-1201 -1156 0
1201 -54 -67 1156 0
-1202 56 0
-1202 76 0
-1202 -1156 0
1202 -56 -76 1156 0
-1203 -1156 0
-1203 -1201 0
-1203 -1202 0
1203 1156 1201 1202 0
-1204 54 0
-1204 67 0
-1204 -1160 0
1204 -54 -67 1160 0
-1205 56 0
-1205 76 0
-1205 -1160 0
1205 -56 -76 1160 0
-1206 -1160 0
-1206 -1204 0
-1206 -1205 0
1206 1160 1204 1205 0
1203 1206 -1207 0
-1203 -1206 -1207 0
1203 -1206 1207 0
-1203 1206 1207 0
-1208 56 0
-1208 82 0
-1208 -1156 0
1208 -56 -82 1156 0
-1209 54 0
-1209 73 0
-1209 -1156 0
1209 -54 -73 1156 0
-1210 -1156 0
-1210 -1208 0
-1210 -1209 0
1210 1156 1208 1209 0
-1211 56 0
-1211 82 0
-1211 -1160 0
1211 -56 -82 1160 0
-1212 54 0
-1212 73 0
-1212 -1160 0
1212 -54 -73 1160 0
-1213 -1160 0
-1213 -1211 0
-1213 -1212 0
1213 1160 1211 1212 0
1210 1213 -1214 0
-1210 -1213 -1214 0
1210 -1213 1214 0
-1210 1213 1214 0
-1215 56 0
-1215 78 0
-1215 -1156 0
1215 -56 -78 1156 0
-1216 54 0
-1216 69 0
-1216 -1156 0
1216 -54 -69 1156 0
-1217 -1156 0
-1217 -1215 0
-1217 -1216 0
1217 1156 1215 1216 0
-1218 56 0
-1218 78 0
-1218 -1160 0
1218 -56 -78 1160 0
-1219 54 0
-1219 69 0
-1219 -1160 0
1219 -54 -69 1160 0
-1220 -1160 0
-1220 -1218 0
-1220 -1219 0
1220 1160 1218 1219 0
1217 1220 -1221 0
-1217 -1220 -1221 0
1217 -1220 1221 0
-1217 1220 1221 0
-1222 56 0
-1222 84 0
-1222 -1156 0
1222 -56 -84 1156 0
-1223 54 0
-1223 75 0
-1223 -1156 0
1223 -54 -75 1156 0
-1224 -1156 0
-1224 -1222 0
-1224 -1223 0
1224 1156 1222 1223 0
-1225 56 0
-1225 84 0
-1225 -1160 0
1225 -56 -84 1160 0
-1226 54 0
-1226 75 0
-1226 -1160 0
1226 -54 -75 1160 0
-1227 -1160 0
-1227 -1225 0
-1227 -1226 0
1227 1160 1225 1226 0
1224 1227 -1228 0
-1224 -1227 -1228 0
1224 -1227 1228 0
-1224 1227 1228 0
-1229 54 0
-1229 68 0
-1229 -1156 0
1229 -54 -68 1156 0
-1230 56 0
-1230 77 0
-1230 -1156 0
1230 -56 -77 1156 0
-1231 -1156 0
-1231 -1229 0
-1231 -1230 0
1231 1156 1229 1230 0
-1232 54 0
-1232 68 0
-1232 -1160 0
1232 -54 -68 1160 0
-1233 56 0
-1233 77 0
-1233 -1160 0
1233 -56 -77 1160 0
-1234 -1160 0
-1234 -1232 0
-1234 -1233 0
1234 1160 1232 1233 0
1231 1234 -1235 0
-1231 -1234 -1235 0
1231 -1234 1235 0
-1231 1234 1235 0
-1236 56 0
-1236 81 0
-1236 -1156 0
1236 -56 -81 1156 0
-1237 54 0
-1237 72 0
-1237 -1156 0
1237 -54 -72 1156 0
-1238 -1156 0
-1238 -1236 0
-1238 -1237 0
1238 1156 1236 1237 0
-1239 56 0
-1239 81 0
-1239 -1160 0
1239 -56 -81 1160 0
-1240 54 0
-1240 72 0
-1240 -1160 0
1240 -54 -72 1160 0
-1241 -1160 0
-1241 -1239 0
-1241 -1240 0
1241 1160 1239 1240 0
1238 1241 -1242 0
-1238 -1241 -1242 0
1238 -1241 1242 0
-1238 1241 1242 0
-1243 54 0
-1243 70 0
-1243 -1156 0
1243 -54 -70 1156 0
-1244 56 0
-1244 79 0
-1244 -1156 0
1244 -56 -79 1156 0
-1245 -1156 0
-1245 -1243 0
-1245 -1244 0
1245 1156 1243 1244 0
-1246 54 0
-1246 70 0
-1246 -1160 0
1246 -54 -70 1160 0
-1247 56 0
-1247 79 0
-1247 -1160 0
1247 -56 -79 1160 0
-1248 -1160 0
-1248 -1246 0
-1248 -1247 0
1248 1160 1246 1247 0
1245 1248 -1249 0
-1245 -1248 -1249 0
1245 -1248 1249 0
-1245 1248 1249 0
-1250 54 0
-1250 71 0
-1250 -1156 0
1250 -54 -71 1156 0
-1251 56 0
-1251 80 0
-1251 -1156 0
1251 -56 -80 1156 0
-1252 -1156 0
-1252 -1250 0
-1252 -1251 0
1252 1156 1250 1251 0
-1253 54 0
-1253 71 0
-1253 -1160 0
1253 -54 -71 1160 0
-1254 56 0
-1254 80 0
-1254 -1160 0
1254 -56 -80 1160 0
-1255 -1160 0
-1255 -1253 0
-1255 -1254 0
1255 1160 1253 1254 0
1252 1255 -1256 0
-1252 -1255 -1256 0
1252 -1255 1256 0
-1252 1255 1256 0
-1257 -1165 0
-1257 -1168 0
-1257 -1171 0
-1257 -1182 0
-1257 -1185 0
-1257 -1188 0
-1257 -1191 0
-1257 -1194 0
-1257 -1197 0
-1257 -1200 0
-1257 -1207 0
-1257 -1214 0
-1257 -1221 0
-1257 -1228 0
-1257 -1235 0
-1257 -1242 0
-1257 -1249 0
-1257 -1256 0
1257 1165 1168 1171 1182 1185 1188 1191 1194 1197 1200 1207 1214 1221 1228 1235 1242 1249 1256 0
-1258 -133 0
-1258 -140 0
-1258 -216 0
-1258 -219 0
-1258 -221 0
-1258 -223 0
-1258 -237 0
-1258 -1151 0
1258 133 140 216 219 221 223 237 1151 0
1257 1258 -1259 0
-1257 -1258 -1259 0
1257 -1258 1259 0
-1257 1258 1259 0
