p cnf 1212 277
-239 -16 0
-239 -17 0
-239 19 0
-239 39 0
-239 -116 0
239 16 17 -19 -39 116 0
-271 -16 0
-271 17 0
-271 19 0
-271 39 0
-271 -116 0
271 16 -17 -19 -39 116 0
-275 163 0
-275 166 0
-275 173 0
275 -163 -166 -173 0
-276 -18 0
-276 163 0
-276 166 0
-276 173 0
276 18 -163 -166 -173 0
-277 -179 0
-277 -275 0
277 179 275 0
-278 -276 0
-278 -277 0
278 276 277 0
-279 100 0
-279 -122 0
-279 126 0
-279 133 0
-279 -134 0
-279 -278 0
279 -100 122 -126 -133 134 278 0
-280 -9 0
-280 163 0
-280 166 0
-280 173 0
280 9 -163 -166 -173 0
-281 -86 0
-281 -275 0
281 86 275 0
-282 -280 0
-282 -281 0
282 280 281 0
-284 -100 0
-284 122 0
-284 -126 0
-284 133 0
-284 -134 0
-284 -282 0
284 100 -122 126 -133 134 282 0
-286 -29 0
-286 163 0
-286 166 0
-286 173 0
286 29 -163 -166 -173 0
-287 -87 0
-287 -275 0
287 87 275 0
-288 -286 0
-288 -287 0
288 286 287 0
-289 -100 0
-289 -122 0
-289 126 0
-289 133 0
-289 -134 0
-289 -288 0
289 100 122 -126 -133 134 288 0
-291 -10 0
-291 163 0
-291 166 0
-291 173 0
291 10 -163 -166 -173 0
-292 -85 0
-292 -275 0
292 85 275 0
-293 -291 0
-293 -292 0
293 291 292 0
-294 100 0
-294 122 0
-294 -126 0
-294 133 0
-294 -134 0
-294 -293 0
294 -100 -122 126 -133 134 293 0
-301 16 0
-301 17 0
-301 19 0
-301 -39 0
-301 -116 0
301 -16 -17 -19 39 116 0
-302 -239 0
-302 -271 0
-302 -301 0
302 239 271 301 0
-303 -100 0
-303 122 0
-303 126 0
-303 133 0
-303 134 0
-303 -302 0
303 100 -122 -126 -133 -134 302 0
-304 152 0
-304 -301 0
304 -152 301 0
-306 100 0
-306 122 0
-306 126 0
-306 133 0
-306 134 0
-306 -304 0
306 -100 -122 -126 -133 -134 304 0
-308 -14 0
-308 163 0
-308 166 0
-308 173 0
308 14 -163 -166 -173 0
-309 -1 0
-309 -275 0
309 1 275 0
-310 -308 0
-310 -309 0
310 308 309 0
-312 100 0
-312 -122 0
-312 126 0
-312 133 0
-312 134 0
-312 -310 0
312 -100 122 -126 -133 -134 310 0
-313 -211 0
-313 -275 0
313 211 275 0
-314 -22 0
-314 163 0
-314 166 0
-314 173 0
314 22 -163 -166 -173 0
-315 -313 0
-315 -314 0
315 313 314 0
-317 100 0
-317 122 0
-317 -126 0
-317 133 0
-317 134 0
-317 -315 0
317 -100 -122 126 -133 -134 315 0
-318 -5 0
-318 -275 0
318 5 275 0
-319 -30 0
-319 163 0
-319 166 0
-319 173 0
319 30 -163 -166 -173 0
-320 -318 0
-320 -319 0
320 318 319 0
-322 -100 0
-322 -122 0
-322 126 0
-322 133 0
-322 134 0
-322 -320 0
322 100 122 -126 -133 -134 320 0
-323 -31 0
-323 163 0
-323 166 0
-323 173 0
323 31 -163 -166 -173 0
-324 -6 0
-324 -275 0
324 6 275 0
-325 -323 0
-325 -324 0
325 323 324 0
-327 -100 0
-327 122 0
-327 -126 0
-327 133 0
-327 134 0
-327 -325 0
327 100 -122 126 -133 -134 325 0
-329 -4 0
-329 163 0
-329 166 0
-329 173 0
329 4 -163 -166 -173 0
-330 -200 0
-330 -275 0
330 200 275 0
-331 -329 0
-331 -330 0
331 329 330 0
-333 -100 0
-333 122 0
-333 126 0
-333 133 0
-333 -134 0
-333 -331 0
333 100 -122 -126 -133 134 331 0
-335 -201 0
-335 -275 0
335 201 275 0
-336 -12 0
-336 163 0
-336 166 0
-336 173 0
336 12 -163 -166 -173 0
-337 -335 0
-337 -336 0
337 335 336 0
-338 100 0
-338 122 0
-338 126 0
-338 133 0
-338 -134 0
-338 -337 0
338 -100 -122 -126 -133 134 337 0
-340 -209 0
-340 -275 0
340 209 275 0
-341 -21 0
-341 163 0
-341 166 0
-341 173 0
341 21 -163 -166 -173 0
-342 -340 0
-342 -341 0
342 340 341 0
-343 -100 0
-343 -122 0
-343 -126 0
-343 133 0
-343 134 0
-343 -342 0
343 100 122 126 -133 -134 342 0
-345 -206 0
-345 -275 0
345 206 275 0
-346 -20 0
-346 163 0
-346 166 0
-346 173 0
346 20 -163 -166 -173 0
-347 -345 0
-347 -346 0
347 345 346 0
-348 100 0
-348 -122 0
-348 -126 0
-348 133 0
-348 134 0
-348 -347 0
348 -100 122 126 -133 -134 347 0
-350 -279 0
-350 -284 0
-350 -289 0
-350 -294 0
-350 -303 0
-350 -306 0
-350 -312 0
-350 -317 0
-350 -322 0
-350 -327 0
-350 -333 0
-350 -338 0
-350 -343 0
-350 -348 0
350 279 284 289 294 303 306 312 317 322 327 333 338 343 348 0
-351 193 0
-351 -350 0
351 -193 350 0
